<?xml version="1.0"?>
<VTKFile type="UnstructuredGrid" version="0.1" byte_order="LittleEndian">
<UnstructuredGrid>
<Piece NumberOfPoints="31898" NumberOfCells="11152">
<Points>
<DataArray type="Float64" NumberOfComponents="3" format="ascii">
-0.5 -0.5 0 -0.47620991077874902 -0.44978878706170539 0 -0.49999999999999473 -0.42132396840504388 0 -0.5 -0.5 0 -0.47160970827802529 -0.4793630013852106 0 -0.47620991077874902 -0.44978878706170539 0 -0.5 -0.5 0 -0.47160970827802529 -0.4793630013852106 0 -0.44860394795025399 -0.5 0 -0.47160970827802529 -0.4793630013852106 0 -0.44860394795025399 -0.5 0 -0.4490820238307246 -0.45820516232899983 0 -0.44860394795025399 -0.5 0 -0.4490820238307246 -0.45820516232899983 0 -0.42881687682924802 -0.47781464288736519 0 -0.4490820238307246 -0.45820516232899983 0 -0.45555437223955858 -0.42914059360647611 0 -0.4490820238307246 -0.45820516232899983 0 -0.45555437223955858 -0.42914059360647611 0 -0.43867285131603428 -0.4271457417558665 0 -0.4490820238307246 -0.45820516232899983 0 -0.43867285131603428 -0.4271457417558665 0 -0.4263356171060747 -0.44269880333887462 0 -0.47160970827802529 -0.4793630013852106 0 -0.4490820238307246 -0.45820516232899983 0 -0.47620991077874902 -0.44978878706170539 0 -0.4490820238307246 -0.45820516232899983 0 -0.47620991077874902 -0.44978878706170539 0 -0.45555437223955858 -0.42914059360647611 0 -0.47620991077874902 -0.44978878706170539 0 -0.48101336032419229 -0.41069999664450008 0 -0.45555437223955858 -0.42914059360647611 0 -0.47620991077874902 -0.44978878706170539 0 -0.49999999999999473 -0.42132396840504388 0 -0.48101336032419229 -0.41069999664450008 0 -0.49999999999999473 -0.42132396840504388 0 -0.48101336032419229 -0.41069999664450008 0 -0.5 -0.393886241813306 0 -0.49999999999999473 -0.42132396840504388 0 -0.48101336032419229 -0.41069999664450008 0 -0.5 -0.393886241813306 0 -0.47854472220918332 -0.38978458738689759 0 -0.48422759779560409 -0.37130120630367158 0 -0.5 -0.393886241813306 0 -0.5 -0.36644851522156802 0 -0.48422759779560409 -0.37130120630367158 0 -0.48101336032419229 -0.41069999664450008 0 -0.5 -0.393886241813306 0 -0.47854472220918332 -0.38978458738689759 0 -0.48101336032419229 -0.41069999664450008 0 -0.47854472220918332 -0.38978458738689759 0 -0.46202672064839212 -0.40007602488395211 0 -0.48101336032419229 -0.41069999664450008 0 -0.46202672064839212 -0.40007602488395211 0 -0.47854472220918332 -0.38978458738689759 0 -0.46725442735267431 -0.37660061361585562 0 -0.46202672064839212 -0.40007602488395211 0 -0.47854472220918332 -0.38978458738689759 0 -0.46725442735267431 -0.37660061361585562 0 -0.48422759779560409 -0.37130120630367158 0 -0.46725442735267431 -0.37660061361585562 0 -0.46202672064839212 -0.40007602488395211 0 -0.46725442735267431 -0.37660061361585562 0 -0.45645674801697989 -0.38644133236760531 0 -0.46202672064839212 -0.40007602488395211 0 -0.46725442735267431 -0.37660061361585562 0 -0.45645674801697989 -0.38644133236760531 0 -0.4540003998136638 -0.37455519391687309 0 -0.45645674801697989 -0.38644133236760531 0 -0.46202672064839212 -0.40007602488395211 0 -0.44257020456291563 -0.38918913383950271 0 -0.46202672064839212 -0.40007602488395211 0 -0.44257020456291563 -0.38918913383950271 0 -0.44727608925983742 -0.41095911152778891 0 -0.46202672064839212 -0.40007602488395211 0 -0.44257020456291563 -0.38918913383950271 0 -0.44257020456291563 -0.38918913383950271 0 -0.44727608925983742 -0.41095911152778891 0 -0.43479358559901082 -0.4041454901736512 0 -0.44257020456291563 -0.38918913383950271 0 -0.4540003998136638 -0.37455519391687309 0 -0.44172858264042247 -0.37082207246888088 0 -0.45645674801697989 -0.38644133236760531 0 -0.44257020456291563 -0.38918913383950271 0 -0.4540003998136638 -0.37455519391687309 0 -0.46202672064839212 -0.40007602488395211 0 -0.45555437223955858 -0.42914059360647611 0 -0.44727608925983742 -0.41095911152778891 0 -0.46202672064839212 -0.40007602488395211 0 -0.45555437223955858 -0.42914059360647611 0 -0.48101336032419229 -0.41069999664450008 0 -0.46202672064839212 -0.40007602488395211 0 -0.45555437223955858 -0.42914059360647611 0 -0.44727608925983742 -0.41095911152778891 0 -0.43867285131603428 -0.4271457417558665 0 -0.43676601469929588 -0.41441201227470881 0 -0.44727608925983742 -0.41095911152778891 0 -0.43676601469929588 -0.41441201227470881 0 -0.43479358559901082 -0.4041454901736512 0 -0.45555437223955858 -0.42914059360647611 0 -0.44727608925983742 -0.41095911152778891 0 -0.43867285131603428 -0.4271457417558665 0 -0.43867285131603428 -0.4271457417558665 0 -0.42681803064840879 -0.42717069814352421 0 -0.4263356171060747 -0.44269880333887462 0 -0.42681803064840879 -0.42717069814352421 0 -0.41531815884496182 -0.42985383783075998 0 -0.4263356171060747 -0.44269880333887462 0 -0.42681803064840879 -0.42717069814352421 0 -0.42624289495594048 -0.42089725947505818 0 -0.42083332353326591 -0.42146747131641099 0 -0.42681803064840879 -0.42717069814352421 0 -0.43096994786351572 -0.41951492446283251 0 -0.42624289495594048 -0.42089725947505818 0 -0.43867285131603428 -0.4271457417558665 0 -0.42681803064840879 -0.42717069814352421 0 -0.43096994786351572 -0.41951492446283251 0 -0.43867285131603428 -0.4271457417558665 0 -0.43676601469929588 -0.41441201227470881 0 -0.43096994786351572 -0.41951492446283251 0 -0.43676601469929588 -0.41441201227470881 0 -0.43096994786351572 -0.41951492446283251 0 -0.42907264086257813 -0.41311715872526122 0 -0.43676601469929588 -0.41441201227470881 0 -0.42907264086257813 -0.41311715872526122 0 -0.43479358559901082 -0.4041454901736512 0 -0.42907264086257813 -0.41311715872526122 0 -0.43479358559901082 -0.4041454901736512 0 -0.42460885511582858 -0.40417321677700252 0 -0.42907264086257813 -0.41311715872526122 0 -0.41997834854398469 -0.41180534796019508 0 -0.42907264086257813 -0.41311715872526122 0 -0.42635027777857132 -0.41543594397746519 0 -0.41997834854398469 -0.41180534796019508 0 -0.42907264086257813 -0.41311715872526122 0 -0.41997834854398469 -0.41180534796019508 0 -0.42460885511582858 -0.40417321677700252 0 -0.42635027777857132 -0.41543594397746519 0 -0.41997834854398469 -0.41180534796019508 0 -0.42635027777857132 -0.41543594397746519 0 -0.42083332353326591 -0.42146747131641099 0 -0.41997834854398469 -0.41180534796019508 0 -0.43096994786351572 -0.41951492446283251 0 -0.42624289495594048 -0.42089725947505818 0 -0.42635027777857132 -0.41543594397746519 0 -0.43096994786351572 -0.41951492446283251 0 -0.42907264086257813 -0.41311715872526122 0 -0.42635027777857132 -0.41543594397746519 0 -0.42624289495594048 -0.42089725947505818 0 -0.42635027777857132 -0.41543594397746519 0 -0.42083332353326591 -0.42146747131641099 0 -0.42083332353326591 -0.42146747131641099 0 -0.41997834854398469 -0.41180534796019508 0 -0.40992282953163789 -0.42011435591993562 0 -0.41997834854398469 -0.41180534796019508 0 -0.39756877647335259 -0.40857286797681719 0 -0.41997834854398469 -0.41180534796019508 0 -0.40992282953163789 -0.42011435591993562 0 -0.39756877647335259 -0.40857286797681719 0 -0.40992282953163789 -0.42011435591993562 0 -0.41531815884496182 -0.42985383783075998 0 -0.39591554026262499 -0.42887225451549271 0 -0.41531815884496182 -0.42985383783075998 0 -0.39591554026262499 -0.42887225451549271 0 -0.41160927495564159 -0.44339431233754628 0 -0.42083332353326591 -0.42146747131641099 0 -0.40992282953163789 -0.42011435591993562 0 -0.41531815884496182 -0.42985383783075998 0 -0.42681803064840879 -0.42717069814352421 0 -0.42083332353326591 -0.42146747131641099 0 -0.41531815884496182 -0.42985383783075998 0 -0.44257020456291563 -0.38918913383950271 0 -0.42311368847744002 -0.37830224279505142 0 -0.42594061475171041 -0.39368797999533162 0 -0.44257020456291563 -0.38918913383950271 0 -0.42311368847744002 -0.37830224279505142 0 -0.44172858264042247 -0.37082207246888088 0 -0.44257020456291563 -0.38918913383950271 0 -0.42311368847744002 -0.37830224279505142 0 -0.42311368847744002 -0.37830224279505142 0 -0.42594061475171041 -0.39368797999533162 0 -0.416587075656149 -0.38785930376960043 0 -0.44257020456291563 -0.38918913383950271 0 -0.42594061475171041 -0.39368797999533162 0 -0.43479358559901082 -0.4041454901736512 0 -0.42594061475171041 -0.39368797999533162 0 -0.43479358559901082 -0.4041454901736512 0 -0.42460885511582858 -0.40417321677700252 0 -0.41997834854398469 -0.41180534796019508 0 -0.41325908582185972 -0.39811010703057192 0 -0.39770572831670092 -0.39911486077581648 0 -0.41997834854398469 -0.41180534796019508 0 -0.39770572831670092 -0.39911486077581648 0 -0.42594061475171041 -0.39368797999533162 0 -0.42460885511582858 -0.40417321677700252 0 -0.41325908582185972 -0.39811010703057192 0 -0.41997834854398469 -0.41180534796019508 0 -0.42460885511582858 -0.40417321677700252 0 -0.41325908582185972 -0.39811010703057192 0 -0.42594061475171041 -0.39368797999533162 0 -0.41325908582185972 -0.39811010703057192 0 -0.416587075656149 -0.38785930376960043 0 -0.41325908582185972 -0.39811010703057192 0 -0.416587075656149 -0.38785930376960043 0 -0.40403491357358612 -0.38133688525744702 0 -0.42311368847744002 -0.37830224279505142 0 -0.40403491357358612 -0.38133688525744702 0 -0.40365717239196519 -0.36741535175059892 0 -0.42311368847744002 -0.37830224279505142 0 -0.416587075656149 -0.38785930376960043 0 -0.40403491357358612 -0.38133688525744702 0 -0.40403491357358612 -0.38133688525744702 0 -0.39190790742475001 -0.38540387676521748 0 -0.39770572831670092 -0.39911486077581648 0 -0.40403491357358612 -0.38133688525744702 0 -0.39190790742475001 -0.38540387676521748 0 -0.3904578797192948 -0.37473938743617019 0 -0.41325908582185972 -0.39811010703057192 0 -0.40403491357358612 -0.38133688525744702 0 -0.39770572831670092 -0.39911486077581648 0 -0.39770572831670092 -0.39911486077581648 0 -0.37543310808941849 -0.38642437359143528 0 -0.39770572831670092 -0.39911486077581648 0 -0.37515920440272033 -0.40534038799344108 0 -0.37543310808941849 -0.38642437359143528 0 -0.39770572831670092 -0.39911486077581648 0 -0.37515920440272033 -0.40534038799344108 0 -0.39756877647335259 -0.40857286797681719 0 -0.37515920440272033 -0.40534038799344108 0 -0.37543310808941849 -0.38642437359143528 0 -0.37543310808941849 -0.38642437359143528 0 -0.3904578797192948 -0.37473938743617019 0 -0.37568304780698558 -0.36916333065311507 0 -0.39190790742475001 -0.38540387676521748 0 -0.37543310808941849 -0.38642437359143528 0 -0.3904578797192948 -0.37473938743617019 0 -0.37543310808941849 -0.38642437359143528 0 -0.37568304780698558 -0.36916333065311507 0 -0.39190790742475001 -0.38540387676521748 0 -0.39770572831670092 -0.39911486077581648 0 -0.37543310808941849 -0.38642437359143528 0 -0.41997834854398469 -0.41180534796019508 0 -0.39770572831670092 -0.39911486077581648 0 -0.39756877647335259 -0.40857286797681719 0 -0.40992282953163789 -0.42011435591993562 0 -0.39591554026262499 -0.42887225451549271 0 -0.39756877647335259 -0.40857286797681719 0 -0.37515920440272033 -0.40534038799344108 0 -0.39591554026262499 -0.42887225451549271 0 -0.39756877647335259 -0.40857286797681719 0 -0.37515920440272033 -0.40534038799344108 0 -0.39756877647335259 -0.40857286797681719 0 -0.37515920440272033 -0.40534038799344108 0 -0.39591554026262499 -0.42887225451549271 0 -0.37472313619600889 -0.43545561783144832 0 -0.39591554026262499 -0.42887225451549271 0 -0.39301703415267508 -0.44654444244683272 0 -0.37472313619600889 -0.43545561783144832 0 -0.39301703415267508 -0.44654444244683272 0 -0.37428706798929601 -0.46557084766945539 0 -0.37472313619600889 -0.43545561783144832 0 -0.39591554026262499 -0.42887225451549271 0 -0.39301703415267508 -0.44654444244683272 0 -0.41160927495564159 -0.44339431233754628 0 -0.39301703415267508 -0.44654444244683272 0 -0.40396056051613372 -0.45751466911048011 0 -0.41160927495564159 -0.44339431233754628 0 -0.40396056051613372 -0.45751466911048011 0 -0.39245383412573559 -0.47875733455523922 0 -0.41207507163844148 -0.46917161410542801 0 -0.40396056051613372 -0.45751466911048011 0 -0.38912381425271458 -0.46154275838996711 0 -0.39245383412573559 -0.47875733455523922 0 -0.40396056051613372 -0.45751466911048011 0 -0.39245383412573559 -0.47875733455523922 0 -0.40396056051613372 -0.45751466911048011 0 -0.40649676728151513 -0.45682610390212369 0 -0.40396056051613372 -0.45751466911048011 0 -0.38912381425271458 -0.46154275838996711 0 -0.39301703415267508 -0.44654444244683272 0 -0.40396056051613372 -0.45751466911048011 0 -0.38912381425271458 -0.46154275838996711 0 -0.39301703415267508 -0.44654444244683272 0 -0.38912381425271458 -0.46154275838996711 0 -0.37428706798929601 -0.46557084766945539 0 -0.38912381425271458 -0.46154275838996711 0 -0.37428706798929601 -0.46557084766945539 0 -0.38912381425271458 -0.46154275838996711 0 -0.38378714202547332 -0.47159002408209011 0 -0.37428706798929601 -0.46557084766945539 0 -0.38378714202547332 -0.47159002408209011 0 -0.39245383412573559 -0.47875733455523922 0 -0.37411677223754131 -0.47733161267270968 0 -0.39245383412573559 -0.47875733455523922 0 -0.37240076261097882 -0.48974555046165519 0 -0.37411677223754131 -0.47733161267270968 0 -0.38378714202547332 -0.47159002408209011 0 -0.37411677223754131 -0.47733161267270968 0 -0.37428706798929601 -0.46557084766945539 0 -0.38912381425271458 -0.46154275838996711 0 -0.38378714202547332 -0.47159002408209011 0 -0.39245383412573559 -0.47875733455523922 0 -0.38094710773533791 -0.49999999999999839 0 -0.39245383412573559 -0.47875733455523922 0 -0.38094710773533791 -0.49999999999999839 0 -0.39245383412573559 -0.47875733455523922 0 -0.37240076261097882 -0.48974555046165519 0 -0.38094710773533791 -0.49999999999999839 0 -0.39245383412573559 -0.47875733455523922 0 -0.40997732063196057 -0.5 0 -0.39245383412573559 -0.47875733455523922 0 -0.41207507163844148 -0.46917161410542801 0 -0.40997732063196057 -0.5 0 -0.41207507163844148 -0.46917161410542801 0 -0.40997732063196057 -0.5 0 -0.42881687682924802 -0.47781464288736519 0 -0.44860394795025399 -0.5 0 -0.40997732063196057 -0.5 0 -0.42881687682924802 -0.47781464288736519 0 -0.41207507163844148 -0.46917161410542801 0 -0.42881687682924802 -0.47781464288736519 0 -0.42627766738448791 -0.46032764904509182 0 -0.4490820238307246 -0.45820516232899983 0 -0.42881687682924802 -0.47781464288736519 0 -0.42627766738448791 -0.46032764904509182 0 -0.4490820238307246 -0.45820516232899983 0 -0.42627766738448791 -0.46032764904509182 0 -0.4263356171060747 -0.44269880333887462 0 -0.42627766738448791 -0.46032764904509182 0 -0.4263356171060747 -0.44269880333887462 0 -0.41655419253802572 -0.45404861160063659 0 -0.4263356171060747 -0.44269880333887462 0 -0.41160927495564159 -0.44339431233754628 0 -0.41655419253802572 -0.45404861160063659 0 -0.41531815884496182 -0.42985383783075998 0 -0.4263356171060747 -0.44269880333887462 0 -0.41160927495564159 -0.44339431233754628 0 -0.40396056051613372 -0.45751466911048011 0 -0.41160927495564159 -0.44339431233754628 0 -0.40649676728151513 -0.45682610390212369 0 -0.41160927495564159 -0.44339431233754628 0 -0.40649676728151513 -0.45682610390212369 0 -0.41655419253802572 -0.45404861160063659 0 -0.40396056051613372 -0.45751466911048011 0 -0.41160927495564159 -0.44339431233754628 0 -0.41207507163844148 -0.46917161410542801 0 -0.40649676728151513 -0.45682610390212369 0 -0.41655419253802572 -0.45404861160063659 0 -0.40396056051613372 -0.45751466911048011 0 -0.41207507163844148 -0.46917161410542801 0 -0.40649676728151513 -0.45682610390212369 0 -0.41207507163844148 -0.46917161410542801 0 -0.42627766738448791 -0.46032764904509182 0 -0.41655419253802572 -0.45404861160063659 0 -0.45662330498375908 -0.25656877445722759 0 -0.43445882011373449 -0.25478651907497341 0 -0.45662330498375908 -0.25656877445722759 0 -0.43445882011373449 -0.25478651907497341 0 -0.45034617445999431 -0.24335722649563979 0 -0.44999384684511368 -0.2755750489792308 0 -0.45662330498375908 -0.25656877445722759 0 -0.43445882011373449 -0.25478651907497341 0 -0.44999384684511368 -0.2755750489792308 0 -0.43077531442077321 -0.27459050524281542 0 -0.43445882011373449 -0.25478651907497341 0 -0.44999384684511368 -0.2755750489792308 0 -0.441361257405879 -0.29303276451920029 0 -0.43077531442077321 -0.27459050524281542 0 -0.44999384684511368 -0.2755750489792308 0 -0.4670541169931961 -0.26846056693166809 0 -0.46910519348062618 -0.28320526693770848 0 -0.44999384684511368 -0.2755750489792308 0 -0.4670541169931961 -0.26846056693166809 0 -0.45662330498375908 -0.25656877445722759 0 -0.45662330498375908 -0.25656877445722759 0 -0.47878778985378329 -0.25835102983948688 0 -0.4670541169931961 -0.26846056693166809 0 -0.45662330498375908 -0.25656877445722759 0 -0.47878778985378329 -0.25835102983948688 0 -0.45662330498375908 -0.25656877445722759 0 -0.47878778985378329 -0.25835102983948688 0 -0.47142395938804471 -0.23802335247430181 0 -0.47878778985378329 -0.25835102983948688 0 -0.5 -0.25669760885461612 0 -0.48361763707807442 -0.27426406281091331 0 -0.47878778985378329 -0.25835102983948688 0 -0.5 -0.25669760885461612 0 -0.4875835208682564 -0.24248539692068891 0 -0.5 -0.25669760885461612 0 -0.48361763707807442 -0.27426406281091331 0 -0.5 -0.28413533544635422 0 -0.4670541169931961 -0.26846056693166809 0 -0.47878778985378329 -0.25835102983948688 0 -0.48361763707807442 -0.27426406281091331 0 -0.4670541169931961 -0.26846056693166809 0 -0.48361763707807442 -0.27426406281091331 0 -0.46910519348062618 -0.28320526693770848 0 -0.46910519348062618 -0.28320526693770848 0 -0.48580896399913942 -0.29193665231809679 0 -0.47164434439118558 -0.29859902487093259 0 -0.48361763707807442 -0.27426406281091331 0 -0.46910519348062618 -0.28320526693770848 0 -0.48580896399913942 -0.29193665231809679 0 -0.5 -0.28413533544635422 0 -0.48580896399913942 -0.29193665231809679 0 -0.5 -0.3115730620380921 0 -0.48361763707807442 -0.27426406281091331 0 -0.5 -0.28413533544635422 0 -0.48580896399913942 -0.29193665231809679 0 -0.48580896399913942 -0.29193665231809679 0 -0.5 -0.3115730620380921 0 -0.48293754746551898 -0.30617437981156609 0 -0.48293754746551898 -0.30617437981156609 0 -0.47164434439118558 -0.29859902487093259 0 -0.47203566342767839 -0.31514771464943409 0 -0.48580896399913942 -0.29193665231809679 0 -0.48293754746551898 -0.30617437981156609 0 -0.47164434439118558 -0.29859902487093259 0 -0.47164434439118558 -0.29859902487093259 0 -0.46096111539772322 -0.3069557537098867 0 -0.47203566342767839 -0.31514771464943409 0 -0.46096111539772322 -0.3069557537098867 0 -0.44739706002137658 -0.30395698434733032 0 -0.45229582611609759 -0.31444164243390338 0 -0.46096111539772322 -0.3069557537098867 0 -0.45682111422556548 -0.29317658806621089 0 -0.44739706002137658 -0.30395698434733032 0 -0.47164434439118558 -0.29859902487093259 0 -0.46096111539772322 -0.3069557537098867 0 -0.45682111422556548 -0.29317658806621089 0 -0.44999384684511368 -0.2755750489792308 0 -0.46910519348062618 -0.28320526693770848 0 -0.45682111422556548 -0.29317658806621089 0 -0.46910519348062618 -0.28320526693770848 0 -0.47164434439118558 -0.29859902487093259 0 -0.45682111422556548 -0.29317658806621089 0 -0.44999384684511368 -0.2755750489792308 0 -0.45682111422556548 -0.29317658806621089 0 -0.441361257405879 -0.29303276451920029 0 -0.45682111422556548 -0.29317658806621089 0 -0.441361257405879 -0.29303276451920029 0 -0.44739706002137658 -0.30395698434733032 0 -0.441361257405879 -0.29303276451920029 0 -0.44739706002137658 -0.30395698434733032 0 -0.43527018611072049 -0.30465000121327751 0 -0.44739706002137658 -0.30395698434733032 0 -0.44024276041750632 -0.31887045497680111 0 -0.43527018611072049 -0.30465000121327751 0 -0.44739706002137658 -0.30395698434733032 0 -0.45229582611609759 -0.31444164243390338 0 -0.44024276041750632 -0.31887045497680111 0 -0.44024276041750632 -0.31887045497680111 0 -0.45653421084860168 -0.32646185290925811 0 -0.44024276041750632 -0.31887045497680111 0 -0.43930980958642257 -0.33554338078202212 0 -0.45653421084860168 -0.32646185290925811 0 -0.45229582611609759 -0.31444164243390338 0 -0.44024276041750632 -0.31887045497680111 0 -0.45653421084860168 -0.32646185290925811 0 -0.43930980958642257 -0.33554338078202212 0 -0.44966367396753332 -0.33841986907325933 0 -0.46855294336124231 -0.32873531729210143 0 -0.43930980958642257 -0.33554338078202212 0 -0.4507851133594416 -0.34910720111649318 0 -0.43930980958642257 -0.33554338078202212 0 -0.44966367396753332 -0.33841986907325933 0 -0.4507851133594416 -0.34910720111649318 0 -0.44966367396753332 -0.33841986907325933 0 -0.46855294336124231 -0.32873531729210143 0 -0.46386644800117471 -0.33586508895417932 0 -0.43930980958642257 -0.33554338078202212 0 -0.46855294336124231 -0.32873531729210143 0 -0.43930980958642257 -0.33554338078202212 0 -0.46855294336124231 -0.32873531729210143 0 -0.45653421084860168 -0.32646185290925811 0 -0.44966367396753332 -0.33841986907325933 0 -0.4586808436472537 -0.3401528003513713 0 -0.45711636988675219 -0.34547487934353349 0 -0.44966367396753332 -0.33841986907325933 0 -0.4586808436472537 -0.3401528003513713 0 -0.46386644800117471 -0.33586508895417932 0 -0.4586808436472537 -0.3401528003513713 0 -0.46472493826860672 -0.34236766697450172 0 -0.45711636988675219 -0.34547487934353349 0 -0.4586808436472537 -0.3401528003513713 0 -0.46472493826860672 -0.34236766697450172 0 -0.46386644800117471 -0.33586508895417932 0 -0.46855294336124231 -0.32873531729210143 0 -0.46207595183026873 -0.31834845619891672 0 -0.47203566342767839 -0.31514771464943409 0 -0.46855294336124231 -0.32873531729210143 0 -0.45653421084860168 -0.32646185290925811 0 -0.46207595183026873 -0.31834845619891672 0 -0.46096111539772322 -0.3069557537098867 0 -0.45229582611609759 -0.31444164243390338 0 -0.46207595183026873 -0.31834845619891672 0 -0.45229582611609759 -0.31444164243390338 0 -0.45653421084860168 -0.32646185290925811 0 -0.46207595183026873 -0.31834845619891672 0 -0.46096111539772322 -0.3069557537098867 0 -0.46207595183026873 -0.31834845619891672 0 -0.47203566342767839 -0.31514771464943409 0 -0.48293754746551898 -0.30617437981156609 0 -0.47203566342767839 -0.31514771464943409 0 -0.47770984076123751 -0.32964979107966252 0 -0.48293754746551898 -0.30617437981156609 0 -0.47770984076123751 -0.32964979107966252 0 -0.48293754746551898 -0.30617437981156609 0 -0.48763303240419292 -0.31981883507337211 0 -0.47770984076123751 -0.32964979107966252 0 -0.46855294336124231 -0.32873531729210143 0 -0.47203566342767839 -0.31514771464943409 0 -0.47770984076123751 -0.32964979107966252 0 -0.5 -0.3115730620380921 0 -0.5 -0.33901078862982997 0 -0.49048543526404831 -0.32960291085151988 0 -0.5 -0.3115730620380921 0 -0.48763303240419292 -0.31981883507337211 0 -0.49048543526404831 -0.32960291085151988 0 -0.5 -0.3115730620380921 0 -0.48293754746551898 -0.30617437981156609 0 -0.48763303240419292 -0.31981883507337211 0 -0.48763303240419292 -0.31981883507337211 0 -0.49048543526404831 -0.32960291085151988 0 -0.47770984076123751 -0.32964979107966252 0 -0.49048543526404831 -0.32960291085151988 0 -0.47770984076123751 -0.32964979107966252 0 -0.48708430315481122 -0.3479620774366432 0 -0.5 -0.33901078862982997 0 -0.49048543526404831 -0.32960291085151988 0 -0.48708430315481122 -0.3479620774366432 0 -0.47770984076123751 -0.32964979107966252 0 -0.47248213405695583 -0.35312520234775913 0 -0.47770984076123751 -0.32964979107966252 0 -0.47248213405695583 -0.35312520234775913 0 -0.48708430315481122 -0.3479620774366432 0 -0.46472493826860672 -0.34236766697450172 0 -0.47770984076123751 -0.32964979107966252 0 -0.47248213405695583 -0.35312520234775913 0 -0.46855294336124231 -0.32873531729210143 0 -0.46386644800117471 -0.33586508895417932 0 -0.47770984076123751 -0.32964979107966252 0 -0.46472493826860672 -0.34236766697450172 0 -0.46386644800117471 -0.33586508895417932 0 -0.47770984076123751 -0.32964979107966252 0 -0.47248213405695583 -0.35312520234775913 0 -0.48708430315481122 -0.3479620774366432 0 -0.48422759779560409 -0.37130120630367158 0 -0.5 -0.33901078862982997 0 -0.48708430315481122 -0.3479620774366432 0 -0.5 -0.36644851522156802 0 -0.48708430315481122 -0.3479620774366432 0 -0.5 -0.36644851522156802 0 -0.48422759779560409 -0.37130120630367158 0 -0.46725442735267431 -0.37660061361585562 0 -0.47248213405695583 -0.35312520234775913 0 -0.48422759779560409 -0.37130120630367158 0 -0.46725442735267431 -0.37660061361585562 0 -0.47248213405695583 -0.35312520234775913 0 -0.46725442735267431 -0.37660061361585562 0 -0.4540003998136638 -0.37455519391687309 0 -0.46226041713245919 -0.36267102145096558 0 -0.46725442735267431 -0.37660061361585562 0 -0.47248213405695583 -0.35312520234775913 0 -0.46226041713245919 -0.36267102145096558 0 -0.4540003998136638 -0.37455519391687309 0 -0.46226041713245919 -0.36267102145096558 0 -0.45167034254705118 -0.36337553476545958 0 -0.47248213405695583 -0.35312520234775913 0 -0.46226041713245919 -0.36267102145096558 0 -0.46130034509645268 -0.35111989715704561 0 -0.46472493826860672 -0.34236766697450172 0 -0.47248213405695583 -0.35312520234775913 0 -0.46130034509645268 -0.35111989715704561 0 -0.46472493826860672 -0.34236766697450172 0 -0.46130034509645268 -0.35111989715704561 0 -0.45711636988675219 -0.34547487934353349 0 -0.46130034509645268 -0.35111989715704561 0 -0.45711636988675219 -0.34547487934353349 0 -0.4507851133594416 -0.34910720111649318 0 -0.46226041713245919 -0.36267102145096558 0 -0.4507851133594416 -0.34910720111649318 0 -0.45167034254705118 -0.36337553476545958 0 -0.46226041713245919 -0.36267102145096558 0 -0.46130034509645268 -0.35111989715704561 0 -0.4507851133594416 -0.34910720111649318 0 -0.46226041713245919 -0.36267102145096558 0 -0.4507851133594416 -0.34910720111649318 0 -0.4507851133594416 -0.34910720111649318 0 -0.44504098357239391 -0.35771747353496869 0 -0.45167034254705118 -0.36337553476545958 0 -0.44966367396753332 -0.33841986907325933 0 -0.45711636988675219 -0.34547487934353349 0 -0.4507851133594416 -0.34910720111649318 0 -0.4507851133594416 -0.34910720111649318 0 -0.44408457896710762 -0.34741130507322732 0 -0.44504098357239391 -0.35771747353496869 0 -0.43930980958642257 -0.33554338078202212 0 -0.4507851133594416 -0.34910720111649318 0 -0.44408457896710762 -0.34741130507322732 0 -0.44408457896710762 -0.34741130507322732 0 -0.43834809566141358 -0.35386966642967582 0 -0.4310745521241639 -0.35060051531725012 0 -0.44408457896710762 -0.34741130507322732 0 -0.43834809566141358 -0.35386966642967582 0 -0.44504098357239391 -0.35771747353496869 0 -0.43834809566141358 -0.35386966642967582 0 -0.44504098357239391 -0.35771747353496869 0 -0.43256408976529492 -0.36260533289695268 0 -0.44504098357239391 -0.35771747353496869 0 -0.44172858264042247 -0.37082207246888088 0 -0.43256408976529492 -0.36260533289695268 0 -0.4540003998136638 -0.37455519391687309 0 -0.44172858264042247 -0.37082207246888088 0 -0.45167034254705118 -0.36337553476545958 0 -0.44504098357239391 -0.35771747353496869 0 -0.44172858264042247 -0.37082207246888088 0 -0.45167034254705118 -0.36337553476545958 0 -0.42311368847744002 -0.37830224279505142 0 -0.44172858264042247 -0.37082207246888088 0 -0.43256408976529492 -0.36260533289695268 0 -0.42311368847744002 -0.37830224279505142 0 -0.43256408976529492 -0.36260533289695268 0 -0.41867380740831611 -0.36398836527224071 0 -0.43256408976529492 -0.36260533289695268 0 -0.42210656065146929 -0.35476551363046099 0 -0.41867380740831611 -0.36398836527224071 0 -0.44408457896710762 -0.34741130507322732 0 -0.4310745521241639 -0.35060051531725012 0 -0.42443636388738298 -0.3390060521705498 0 -0.43834809566141358 -0.35386966642967582 0 -0.43256408976529492 -0.36260533289695268 0 -0.4310745521241639 -0.35060051531725012 0 -0.4310745521241639 -0.35060051531725012 0 -0.42266042161335821 -0.34652378860874011 0 -0.42210656065146929 -0.35476551363046099 0 -0.4310745521241639 -0.35060051531725012 0 -0.42266042161335821 -0.34652378860874011 0 -0.42443636388738298 -0.3390060521705498 0 -0.43256408976529492 -0.36260533289695268 0 -0.4310745521241639 -0.35060051531725012 0 -0.42210656065146929 -0.35476551363046099 0 -0.42210656065146929 -0.35476551363046099 0 -0.41243440171204931 -0.35621682403100541 0 -0.41867380740831611 -0.36398836527224071 0 -0.41243440171204931 -0.35621682403100541 0 -0.40365717239196519 -0.36741535175059892 0 -0.40302160193259851 -0.3439916005776541 0 -0.42210656065146929 -0.35476551363046099 0 -0.41714587076776338 -0.34786779488983011 0 -0.41243440171204931 -0.35621682403100541 0 -0.42266042161335821 -0.34652378860874011 0 -0.42210656065146929 -0.35476551363046099 0 -0.41714587076776338 -0.34786779488983011 0 -0.42266042161335821 -0.34652378860874011 0 -0.41714587076776338 -0.34786779488983011 0 -0.41853876063601031 -0.34037906703560689 0 -0.41714587076776338 -0.34786779488983011 0 -0.41853876063601031 -0.34037906703560689 0 -0.41714587076776338 -0.34786779488983011 0 -0.41243440171204931 -0.35621682403100541 0 -0.40302160193259851 -0.3439916005776541 0 -0.41714587076776338 -0.34786779488983011 0 -0.40302160193259851 -0.3439916005776541 0 -0.41853876063601031 -0.34037906703560689 0 -0.42311368847744002 -0.37830224279505142 0 -0.41867380740831611 -0.36398836527224071 0 -0.40365717239196519 -0.36741535175059892 0 -0.42311368847744002 -0.37830224279505142 0 -0.40365717239196519 -0.36741535175059892 0 -0.41243440171204931 -0.35621682403100541 0 -0.41867380740831611 -0.36398836527224071 0 -0.40365717239196519 -0.36741535175059892 0 -0.40403491357358612 -0.38133688525744702 0 -0.40365717239196519 -0.36741535175059892 0 -0.40403491357358612 -0.38133688525744702 0 -0.40365717239196519 -0.36741535175059892 0 -0.3904578797192948 -0.37473938743617019 0 -0.40365717239196519 -0.36741535175059892 0 -0.38979507995825918 -0.35965881973269581 0 -0.40365717239196519 -0.36741535175059892 0 -0.3904578797192948 -0.37473938743617019 0 -0.38979507995825918 -0.35965881973269581 0 -0.3904578797192948 -0.37473938743617019 0 -0.38979507995825918 -0.35965881973269581 0 -0.37568304780698558 -0.36916333065311507 0 -0.37568304780698558 -0.36916333065311507 0 -0.37593298752455201 -0.35190228771479481 0 -0.38979507995825918 -0.35965881973269581 0 -0.37568304780698558 -0.36916333065311507 0 -0.37593298752455201 -0.35190228771479481 0 -0.38979507995825918 -0.35965881973269581 0 -0.37595629511297179 -0.35029264644438168 0 -0.40302160193259851 -0.3439916005776541 0 -0.37595629511297179 -0.35029264644438168 0 -0.40302160193259851 -0.3439916005776541 0 -0.38842354837557669 -0.33756560667471242 0 -0.37595629511297179 -0.35029264644438168 0 -0.40302160193259851 -0.3439916005776541 0 -0.37595629511297179 -0.35029264644438168 0 -0.37607676276689278 -0.3419730509543204 0 -0.37390838074359528 -0.35076941925389299 0 -0.37595629511297179 -0.35029264644438168 0 -0.37607676276689278 -0.3419730509543204 0 -0.37595629511297179 -0.35029264644438168 0 -0.37593298752455201 -0.35190228771479481 0 -0.37390838074359528 -0.35076941925389299 0 -0.37595629511297179 -0.35029264644438168 0 -0.37593298752455201 -0.35190228771479481 0 -0.38979507995825918 -0.35965881973269581 0 -0.37595629511297179 -0.35029264644438168 0 -0.37593298752455201 -0.35190228771479481 0 -0.38979507995825918 -0.35965881973269581 0 -0.37593298752455201 -0.35190228771479481 0 -0.40365717239196519 -0.36741535175059892 0 -0.40302160193259851 -0.3439916005776541 0 -0.40365717239196519 -0.36741535175059892 0 -0.38979507995825918 -0.35965881973269581 0 -0.40302160193259851 -0.3439916005776541 0 -0.40302160193259851 -0.3439916005776541 0 -0.40263324863316441 -0.32967896077653092 0 -0.40263324863316441 -0.32967896077653092 0 -0.38842354837557669 -0.33756560667471242 0 -0.38442983343225828 -0.32189177462067481 0 -0.40302160193259851 -0.3439916005776541 0 -0.40263324863316441 -0.32967896077653092 0 -0.38842354837557669 -0.33756560667471242 0 -0.37607676276689278 -0.3419730509543204 0 -0.37641717267996733 -0.3184640617331177 0 -0.38842354837557669 -0.33756560667471242 0 -0.37607676276689278 -0.3419730509543204 0 -0.38442983343225828 -0.32189177462067481 0 -0.37607676276689278 -0.3419730509543204 0 -0.38442983343225828 -0.32189177462067481 0 -0.37595629511297179 -0.35029264644438168 0 -0.38842354837557669 -0.33756560667471242 0 -0.37607676276689278 -0.3419730509543204 0 -0.37607676276689278 -0.3419730509543204 0 -0.37641717267996733 -0.3184640617331177 0 -0.38442983343225828 -0.32189177462067481 0 -0.37641717267996733 -0.3184640617331177 0 -0.38442983343225828 -0.32189177462067481 0 -0.3841914044669909 -0.30132118344037401 0 -0.37641717267996733 -0.3184640617331177 0 -0.38442983343225828 -0.32189177462067481 0 -0.40263324863316441 -0.32967896077653092 0 -0.38442983343225828 -0.32189177462067481 0 -0.40185461233875269 -0.30098256284660307 0 -0.40263324863316441 -0.32967896077653092 0 -0.38442983343225828 -0.32189177462067481 0 -0.40263324863316441 -0.32967896077653092 0 -0.40185461233875269 -0.30098256284660307 0 -0.40263324863316441 -0.32967896077653092 0 -0.41242695344044827 -0.31820451366256841 0 -0.40185461233875269 -0.30098256284660307 0 -0.41242695344044827 -0.31820451366256841 0 -0.41920998916455232 -0.33677027649670849 0 -0.42301959421646518 -0.31628833020920039 0 -0.41920998916455232 -0.33677027649670849 0 -0.42301959421646518 -0.31628833020920039 0 -0.41242695344044827 -0.31820451366256841 0 -0.42301959421646518 -0.31628833020920039 0 -0.41541732284930832 -0.30730243798379953 0 -0.40302160193259851 -0.3439916005776541 0 -0.41920998916455232 -0.33677027649670849 0 -0.41853876063601031 -0.34037906703560689 0 -0.40302160193259851 -0.3439916005776541 0 -0.40263324863316441 -0.32967896077653092 0 -0.41920998916455232 -0.33677027649670849 0 -0.40263324863316441 -0.32967896077653092 0 -0.41920998916455232 -0.33677027649670849 0 -0.40263324863316441 -0.32967896077653092 0 -0.41242695344044827 -0.31820451366256841 0 -0.41920998916455232 -0.33677027649670849 0 -0.40302160193259851 -0.3439916005776541 0 -0.41853876063601031 -0.34037906703560689 0 -0.41853876063601031 -0.34037906703560689 0 -0.42443636388738298 -0.3390060521705498 0 -0.41920998916455232 -0.33677027649670849 0 -0.42443636388738298 -0.3390060521705498 0 -0.41920998916455232 -0.33677027649670849 0 -0.41853876063601031 -0.34037906703560689 0 -0.42443636388738298 -0.3390060521705498 0 -0.41920998916455232 -0.33677027649670849 0 -0.41853876063601031 -0.34037906703560689 0 -0.43930980958642257 -0.33554338078202212 0 -0.44408457896710762 -0.34741130507322732 0 -0.42443636388738298 -0.3390060521705498 0 -0.43930980958642257 -0.33554338078202212 0 -0.42443636388738298 -0.3390060521705498 0 -0.42301959421646518 -0.31628833020920039 0 -0.41920998916455232 -0.33677027649670849 0 -0.42443636388738298 -0.3390060521705498 0 -0.42301959421646518 -0.31628833020920039 0 -0.44408457896710762 -0.34741130507322732 0 -0.42443636388738298 -0.3390060521705498 0 -0.42266042161335821 -0.34652378860874011 0 -0.41853876063601031 -0.34037906703560689 0 -0.42443636388738298 -0.3390060521705498 0 -0.43930980958642257 -0.33554338078202212 0 -0.42443636388738298 -0.3390060521705498 0 -0.43930980958642257 -0.33554338078202212 0 -0.42301959421646518 -0.31628833020920039 0 -0.44024276041750632 -0.31887045497680111 0 -0.42395130998641067 -0.31127905704434472 0 -0.44024276041750632 -0.31887045497680111 0 -0.43930980958642257 -0.33554338078202212 0 -0.42301959421646518 -0.31628833020920039 0 -0.44024276041750632 -0.31887045497680111 0 -0.42301959421646518 -0.31628833020920039 0 -0.42395130998641067 -0.31127905704434472 0 -0.42301959421646518 -0.31628833020920039 0 -0.42395130998641067 -0.31127905704434472 0 -0.42395130998641067 -0.31127905704434472 0 -0.42709180872781188 -0.29439449141065738 0 -0.44024276041750632 -0.31887045497680111 0 -0.42395130998641067 -0.31127905704434472 0 -0.43527018611072049 -0.30465000121327751 0 -0.42395130998641067 -0.31127905704434472 0 -0.42709180872781188 -0.29439449141065738 0 -0.41541732284930832 -0.30730243798379953 0 -0.42395130998641067 -0.31127905704434472 0 -0.43527018611072049 -0.30465000121327751 0 -0.42709180872781188 -0.29439449141065738 0 -0.441361257405879 -0.29303276451920029 0 -0.43527018611072049 -0.30465000121327751 0 -0.42709180872781188 -0.29439449141065738 0 -0.42709180872781188 -0.29439449141065738 0 -0.43077531442077321 -0.27459050524281542 0 -0.42709180872781188 -0.29439449141065738 0 -0.41684225135067149 -0.28376244362903152 0 -0.43077531442077321 -0.27459050524281542 0 -0.441361257405879 -0.29303276451920029 0 -0.42709180872781188 -0.29439449141065738 0 -0.441361257405879 -0.29303276451920029 0 -0.42709180872781188 -0.29439449141065738 0 -0.43077531442077321 -0.27459050524281542 0 -0.42709180872781188 -0.29439449141065738 0 -0.41684225135067149 -0.28376244362903152 0 -0.40618483967714292 -0.29638963380315841 0 -0.42709180872781188 -0.29439449141065738 0 -0.40618483967714292 -0.29638963380315841 0 -0.41684225135067149 -0.28376244362903152 0 -0.40690107601488551 -0.28490397733270861 0 -0.40618483967714292 -0.29638963380315841 0 -0.41541732284930832 -0.30730243798379953 0 -0.40185461233875269 -0.30098256284660307 0 -0.40618483967714292 -0.29638963380315841 0 -0.42709180872781188 -0.29439449141065738 0 -0.41541732284930832 -0.30730243798379953 0 -0.40618483967714292 -0.29638963380315841 0 -0.41541732284930832 -0.30730243798379953 0 -0.40618483967714292 -0.29638963380315841 0 -0.41242695344044827 -0.31820451366256841 0 -0.41541732284930832 -0.30730243798379953 0 -0.40185461233875269 -0.30098256284660307 0 -0.41541732284930832 -0.30730243798379953 0 -0.40185461233875269 -0.30098256284660307 0 -0.42301959421646518 -0.31628833020920039 0 -0.41541732284930832 -0.30730243798379953 0 -0.42395130998641067 -0.31127905704434472 0 -0.41541732284930832 -0.30730243798379953 0 -0.42301959421646518 -0.31628833020920039 0 -0.42395130998641067 -0.31127905704434472 0 -0.41541732284930832 -0.30730243798379953 0 -0.38442983343225828 -0.32189177462067481 0 -0.40185461233875269 -0.30098256284660307 0 -0.39448508010510541 -0.297525044214214 0 -0.40185461233875269 -0.30098256284660307 0 -0.40174149504185092 -0.29681366012781812 0 -0.40618483967714292 -0.29638963380315841 0 -0.40185461233875269 -0.30098256284660307 0 -0.40174149504185092 -0.29681366012781812 0 -0.40185461233875269 -0.30098256284660307 0 -0.39448508010510541 -0.297525044214214 0 -0.40174149504185092 -0.29681366012781812 0 -0.40185461233875269 -0.30098256284660307 0 -0.39448508010510541 -0.297525044214214 0 -0.39448508010510541 -0.297525044214214 0 -0.40174149504185092 -0.29681366012781812 0 -0.37641717267996733 -0.3184640617331177 0 -0.37669606201677502 -0.29920373422444158 0 -0.38442983343225828 -0.32189177462067481 0 -0.39448508010510541 -0.297525044214214 0 -0.38442983343225828 -0.32189177462067481 0 -0.39448508010510541 -0.297525044214214 0 -0.3841914044669909 -0.30132118344037401 0 -0.37641717267996733 -0.3184640617331177 0 -0.3841914044669909 -0.30132118344037401 0 -0.37669606201677502 -0.29920373422444158 0 -0.39448508010510541 -0.297525044214214 0 -0.3841914044669909 -0.30132118344037401 0 -0.37928718982873688 -0.29895646409505849 0 -0.39448508010510541 -0.297525044214214 0 -0.37928718982873688 -0.29895646409505849 0 -0.3841914044669909 -0.30132118344037401 0 -0.37928718982873688 -0.29895646409505849 0 -0.3841914044669909 -0.30132118344037401 0 -0.37928718982873688 -0.29895646409505849 0 -0.37669606201677502 -0.29920373422444158 0 -0.37928718982873688 -0.29895646409505849 0 -0.37669606201677502 -0.29920373422444158 0 -0.37671758341694961 -0.29771744858697219 0 -0.37928718982873688 -0.29895646409505849 0 -0.37671758341694961 -0.29771744858697219 0 -0.37928718982873688 -0.29895646409505849 0 -0.37669606201677502 -0.29920373422444158 0 -0.37669606201677502 -0.29920373422444158 0 -0.37671758341694961 -0.29771744858697219 0 -0.37671758341694961 -0.29771744858697219 0 -0.38607699004493318 -0.28757386461908069 0 -0.38483052758877101 -0.28123782127595193 0 -0.37671758341694961 -0.29771744858697219 0 -0.3770412393053626 -0.27536550612006683 0 -0.37671758341694961 -0.29771744858697219 0 -0.38483052758877101 -0.28123782127595193 0 -0.3770412393053626 -0.27536550612006683 0 -0.37928718982873688 -0.29895646409505849 0 -0.37671758341694961 -0.29771744858697219 0 -0.38467000758835601 -0.29297497791584359 0 -0.37671758341694961 -0.29771744858697219 0 -0.38467000758835601 -0.29297497791584359 0 -0.38607699004493318 -0.28757386461908069 0 -0.39448508010510541 -0.297525044214214 0 -0.37928718982873688 -0.29895646409505849 0 -0.38467000758835601 -0.29297497791584359 0 -0.39448508010510541 -0.297525044214214 0 -0.38467000758835601 -0.29297497791584359 0 -0.39448508010510541 -0.297525044214214 0 -0.38467000758835601 -0.29297497791584359 0 -0.39217701296355612 -0.28987936211692023 0 -0.38467000758835601 -0.29297497791584359 0 -0.38607699004493318 -0.28757386461908069 0 -0.39217701296355612 -0.28987936211692023 0 -0.38607699004493318 -0.28757386461908069 0 -0.39049541959166939 -0.28414526237041138 0 -0.39217701296355612 -0.28987936211692023 0 -0.39049541959166939 -0.28414526237041138 0 -0.39420405367365152 -0.27853706101481662 0 -0.38483052758877101 -0.28123782127595193 0 -0.38607699004493318 -0.28757386461908069 0 -0.39049541959166939 -0.28414526237041138 0 -0.38483052758877101 -0.28123782127595193 0 -0.39597078832761667 -0.28551153658085893 0 -0.40174149504185092 -0.29681366012781812 0 -0.40123596036735593 -0.27818233727432817 0 -0.39049541959166939 -0.28414526237041138 0 -0.39597078832761667 -0.28551153658085893 0 -0.39420405367365152 -0.27853706101481662 0 -0.40174149504185092 -0.29681366012781812 0 -0.40123596036735593 -0.27818233727432817 0 -0.40174149504185092 -0.29681366012781812 0 -0.40322207619149192 -0.29288764445213411 0 -0.40123596036735593 -0.27818233727432817 0 -0.39049541959166939 -0.28414526237041138 0 -0.39597078832761667 -0.28551153658085893 0 -0.39217701296355612 -0.28987936211692023 0 -0.39597078832761667 -0.28551153658085893 0 -0.39217701296355612 -0.28987936211692023 0 -0.40174149504185092 -0.29681366012781812 0 -0.39448508010510541 -0.297525044214214 0 -0.39217701296355612 -0.28987936211692023 0 -0.40174149504185092 -0.29681366012781812 0 -0.40690107601488551 -0.28490397733270861 0 -0.40322207619149192 -0.29288764445213411 0 -0.40618483967714292 -0.29638963380315841 0 -0.40174149504185092 -0.29681366012781812 0 -0.40322207619149192 -0.29288764445213411 0 -0.40618483967714292 -0.29638963380315841 0 -0.40174149504185092 -0.29681366012781812 0 -0.40618483967714292 -0.29638963380315841 0 -0.40322207619149192 -0.29288764445213411 0 -0.40618483967714292 -0.29638963380315841 0 -0.40690107601488551 -0.28490397733270861 0 -0.40322207619149192 -0.29288764445213411 0 -0.40123596036735593 -0.27818233727432817 0 -0.39420405367365152 -0.27853706101481662 0 -0.37710287173325818 -0.2711091198417086 0 -0.40073042569286338 -0.25955101442083811 0 -0.40123596036735593 -0.27818233727432817 0 -0.39420405367365152 -0.27853706101481662 0 -0.40073042569286338 -0.25955101442083811 0 -0.40123596036735593 -0.27818233727432817 0 -0.40073042569286338 -0.25955101442083811 0 -0.40123596036735593 -0.27818233727432817 0 -0.40073042569286338 -0.25955101442083811 0 -0.41341650638623911 -0.27076301679274262 0 -0.39597078832761667 -0.28551153658085893 0 -0.40123596036735593 -0.27818233727432817 0 -0.39420405367365152 -0.27853706101481662 0 -0.39420405367365152 -0.27853706101481662 0 -0.37710287173325818 -0.2711091198417086 0 -0.3770412393053626 -0.27536550612006683 0 -0.39420405367365152 -0.27853706101481662 0 -0.3770412393053626 -0.27536550612006683 0 -0.39420405367365152 -0.27853706101481662 0 -0.38483052758877101 -0.28123782127595193 0 -0.3770412393053626 -0.27536550612006683 0 -0.37710287173325818 -0.2711091198417086 0 -0.3770412393053626 -0.27536550612006683 0 -0.37710287173325818 -0.2711091198417086 0 -0.38543722149146659 -0.25821727905458303 0 -0.40073042569286338 -0.25955101442083811 0 -0.37710287173325818 -0.2711091198417086 0 -0.37747963509906429 -0.24508953120583671 0 -0.37710287173325818 -0.2711091198417086 0 -0.40073042569286338 -0.25955101442083811 0 -0.37710287173325818 -0.2711091198417086 0 -0.38543722149146659 -0.25821727905458303 0 -0.37747963509906429 -0.24508953120583671 0 -0.38543722149146659 -0.25821727905458303 0 -0.3938256931015453 -0.25037754026629511 0 -0.37747963509906429 -0.24508953120583671 0 -0.38543722149146659 -0.25821727905458303 0 -0.3938256931015453 -0.25037754026629511 0 -0.40073042569286338 -0.25955101442083811 0 -0.40073042569286338 -0.25955101442083811 0 -0.40282532782868952 -0.25224285689579767 0 -0.40022281387448849 -0.24084313907701979 0 -0.40073042569286338 -0.25955101442083811 0 -0.40022281387448849 -0.24084313907701979 0 -0.3938256931015453 -0.25037754026629511 0 -0.40073042569286338 -0.25955101442083811 0 -0.40022281387448849 -0.24084313907701979 0 -0.40073042569286338 -0.25955101442083811 0 -0.40282532782868952 -0.25224285689579767 0 -0.41385673751816382 -0.25312989710486528 0 -0.40073042569286338 -0.25955101442083811 0 -0.41385673751816382 -0.25312989710486528 0 -0.40073042569286338 -0.25955101442083811 0 -0.41385673751816382 -0.25312989710486528 0 -0.41341650638623911 -0.27076301679274262 0 -0.41385673751816382 -0.25312989710486528 0 -0.41341650638623911 -0.27076301679274262 0 -0.42312684460972783 -0.26331748455384929 0 -0.41385673751816382 -0.25312989710486528 0 -0.41679144862722167 -0.25169429778568547 0 -0.43445882011373449 -0.25478651907497341 0 -0.40282532782868952 -0.25224285689579767 0 -0.41385673751816382 -0.25312989710486528 0 -0.4086566941719203 -0.24778871483445111 0 -0.40282532782868952 -0.25224285689579767 0 -0.41385673751816382 -0.25312989710486528 0 -0.41385673751816382 -0.25312989710486528 0 -0.41679144862722167 -0.25169429778568547 0 -0.41627810448972868 -0.24641300060905449 0 -0.41385673751816382 -0.25312989710486528 0 -0.41679144862722167 -0.25169429778568547 0 -0.41684225135067149 -0.28376244362903152 0 -0.41341650638623911 -0.27076301679274262 0 -0.43077531442077321 -0.27459050524281542 0 -0.40690107601488551 -0.28490397733270861 0 -0.40123596036735593 -0.27818233727432817 0 -0.41341650638623911 -0.27076301679274262 0 -0.41684225135067149 -0.28376244362903152 0 -0.40690107601488551 -0.28490397733270861 0 -0.41341650638623911 -0.27076301679274262 0 -0.41341650638623911 -0.27076301679274262 0 -0.43077531442077321 -0.27459050524281542 0 -0.42312684460972783 -0.26331748455384929 0 -0.43077531442077321 -0.27459050524281542 0 -0.42312684460972783 -0.26331748455384929 0 -0.43445882011373449 -0.25478651907497341 0 -0.41385673751816382 -0.25312989710486528 0 -0.43445882011373449 -0.25478651907497341 0 -0.43077531442077321 -0.27459050524281542 0 -0.43445882011373449 -0.25478651907497341 0 -0.41385673751816382 -0.25312989710486528 0 -0.42312684460972783 -0.26331748455384929 0 -0.43445882011373449 -0.25478651907497341 0 -0.41679144862722167 -0.25169429778568547 0 -0.43445882011373449 -0.25478651907497341 0 -0.42335340856967768 -0.24893549408922019 0 -0.32580796388430833 -0.26195871891040218 0 -0.34139866608006603 -0.2687790352098644 0 -0.31202674084989918 -0.26335133138269068 0 -0.32580796388430833 -0.26195871891040218 0 -0.33345250408021371 -0.25331871279766999 0 -0.32023222063025569 -0.2489608815952247 0 -0.32580796388430833 -0.26195871891040218 0 -0.31664960680882542 -0.25714232151458272 0 -0.32023222063025569 -0.2489608815952247 0 -0.31664960680882542 -0.25714232151458272 0 -0.30853150187083839 -0.25429835417001312 0 -0.32023222063025569 -0.2489608815952247 0 -0.32580796388430833 -0.26195871891040218 0 -0.31664960680882542 -0.25714232151458272 0 -0.31202674084989918 -0.26335133138269068 0 -0.33223611708196649 -0.27626932861073827 0 -0.31972670239926188 -0.28454160199560091 0 -0.31187737399160442 -0.27618124236115132 0 -0.34139866608006603 -0.2687790352098644 0 -0.31202674084989918 -0.26335133138269068 0 -0.33223611708196649 -0.27626932861073827 0 -0.31202674084989918 -0.26335133138269068 0 -0.3062135479255173 -0.26372173898871692 0 -0.33223611708196649 -0.27626932861073827 0 -0.31187737399160442 -0.27618124236115132 0 -0.3062135479255173 -0.26372173898871692 0 -0.33260241140844943 -0.2743168067351805 0 -0.33223611708196649 -0.27626932861073827 0 -0.31202674084989918 -0.26335133138269068 0 -0.33223611708196649 -0.27626932861073827 0 -0.3062135479255173 -0.26372173898871692 0 -0.33260241140844943 -0.2743168067351805 0 -0.34139866608006603 -0.2687790352098644 0 -0.31202674084989918 -0.26335133138269068 0 -0.33223611708196649 -0.27626932861073827 0 -0.34139866608006603 -0.2687790352098644 0 -0.34951875912658742 -0.28460269103381453 0 -0.33223611708196649 -0.27626932861073827 0 -0.34951875912658742 -0.28460269103381453 0 -0.33260241140844943 -0.2743168067351805 0 -0.33223611708196649 -0.27626932861073827 0 -0.34139866608006603 -0.2687790352098644 0 -0.33260241140844943 -0.2743168067351805 0 -0.33223611708196649 -0.27626932861073827 0 -0.34139866608006603 -0.2687790352098644 0 -0.3363084638556994 -0.26041051377605268 0 -0.34457472137820933 -0.25758558818627408 0 -0.32580796388430833 -0.26195871891040218 0 -0.34139866608006603 -0.2687790352098644 0 -0.3363084638556994 -0.26041051377605268 0 -0.32580796388430833 -0.26195871891040218 0 -0.3363084638556994 -0.26041051377605268 0 -0.33345250408021371 -0.25331871279766999 0 -0.3363084638556994 -0.26041051377605268 0 -0.33345250408021371 -0.25331871279766999 0 -0.34457472137820933 -0.25758558818627408 0 -0.33345250408021371 -0.25331871279766999 0 -0.34457472137820933 -0.25758558818627408 0 -0.34395992200845399 -0.24382677409400949 0 -0.34139866608006603 -0.2687790352098644 0 -0.34457472137820933 -0.25758558818627408 0 -0.35733732661955131 -0.26288598862094092 0 -0.34457472137820933 -0.25758558818627408 0 -0.35872453044413888 -0.25078889886649508 0 -0.34395992200845399 -0.24382677409400949 0 -0.34457472137820933 -0.25758558818627408 0 -0.35733732661955131 -0.26288598862094092 0 -0.35872453044413888 -0.25078889886649508 0 -0.37710287173325818 -0.2711091198417086 0 -0.36828299104124951 -0.26081605551440462 0 -0.37747963509906429 -0.24508953120583671 0 -0.35872453044413888 -0.25078889886649508 0 -0.36828299104124951 -0.26081605551440462 0 -0.37747963509906429 -0.24508953120583671 0 -0.35733732661955131 -0.26288598862094092 0 -0.35872453044413888 -0.25078889886649508 0 -0.36828299104124951 -0.26081605551440462 0 -0.37077059131023282 -0.27420673903703829 0 -0.34951875912658742 -0.28460269103381453 0 -0.37710287173325818 -0.2711091198417086 0 -0.3770412393053626 -0.27536550612006683 0 -0.37077059131023282 -0.27420673903703829 0 -0.3770412393053626 -0.27536550612006683 0 -0.37077059131023282 -0.27420673903703829 0 -0.37710287173325818 -0.2711091198417086 0 -0.36828299104124951 -0.26081605551440462 0 -0.37077059131023282 -0.27420673903703829 0 -0.37710287173325818 -0.2711091198417086 0 -0.37077059131023282 -0.27420673903703829 0 -0.35733732661955131 -0.26288598862094092 0 -0.36828299104124951 -0.26081605551440462 0 -0.37077059131023282 -0.27420673903703829 0 -0.34139866608006603 -0.2687790352098644 0 -0.35733732661955131 -0.26288598862094092 0 -0.37077059131023282 -0.27420673903703829 0 -0.34139866608006603 -0.2687790352098644 0 -0.37077059131023282 -0.27420673903703829 0 -0.34951875912658742 -0.28460269103381453 0 -0.34139866608006603 -0.2687790352098644 0 -0.37077059131023282 -0.27420673903703829 0 -0.34951875912658742 -0.28460269103381453 0 -0.3581763596052473 -0.30097106086504849 0 -0.34010739644885768 -0.2892065328944351 0 -0.34951875912658742 -0.28460269103381453 0 -0.34010739644885768 -0.2892065328944351 0 -0.37671758341694961 -0.29771744858697219 0 -0.37077059131023282 -0.27420673903703829 0 -0.34951875912658742 -0.28460269103381453 0 -0.37671758341694961 -0.29771744858697219 0 -0.34951875912658742 -0.28460269103381453 0 -0.37671758341694961 -0.29771744858697219 0 -0.3770412393053626 -0.27536550612006683 0 -0.37077059131023282 -0.27420673903703829 0 -0.37671758341694961 -0.29771744858697219 0 -0.34951875912658742 -0.28460269103381453 0 -0.3581763596052473 -0.30097106086504849 0 -0.37669606201677502 -0.29920373422444158 0 -0.37671758341694961 -0.29771744858697219 0 -0.3581763596052473 -0.30097106086504849 0 -0.37641717267996733 -0.3184640617331177 0 -0.37669606201677502 -0.29920373422444158 0 -0.36799370156123501 -0.30592930732763762 0 -0.37641717267996733 -0.3184640617331177 0 -0.36799370156123501 -0.30592930732763762 0 -0.35803691493684492 -0.31060122461938489 0 -0.37669606201677502 -0.29920373422444158 0 -0.36799370156123501 -0.30592930732763762 0 -0.3581763596052473 -0.30097106086504849 0 -0.37669606201677502 -0.29920373422444158 0 -0.3581763596052473 -0.30097106086504849 0 -0.36799370156123501 -0.30592930732763762 0 -0.35803691493684492 -0.31060122461938489 0 -0.3581763596052473 -0.30097106086504849 0 -0.35803691493684492 -0.31060122461938489 0 -0.33965665719371979 -0.30273838750565862 0 -0.35803691493684492 -0.31060122461938489 0 -0.33965665719371979 -0.30273838750565862 0 -0.34514704515453298 -0.31300544250539297 0 -0.3581763596052473 -0.30097106086504849 0 -0.33965665719371979 -0.30273838750565862 0 -0.34010739644885768 -0.2892065328944351 0 -0.35803691493684492 -0.31060122461938489 0 -0.3581763596052473 -0.30097106086504849 0 -0.33965665719371979 -0.30273838750565862 0 -0.3581763596052473 -0.30097106086504849 0 -0.33965665719371979 -0.30273838750565862 0 -0.33676996251121621 -0.31158184422573892 0 -0.33965665719371979 -0.30273838750565862 0 -0.34514704515453298 -0.31300544250539297 0 -0.33676996251121621 -0.31158184422573892 0 -0.33965665719371979 -0.30273838750565862 0 -0.32704471803945162 -0.30394193902942662 0 -0.33676996251121621 -0.31158184422573892 0 -0.32594772137393307 -0.30978944971135602 0 -0.32704471803945162 -0.30394193902942662 0 -0.33965665719371979 -0.30273838750565862 0 -0.32704471803945162 -0.30394193902942662 0 -0.32819068517220462 -0.29783339261299951 0 -0.33965665719371979 -0.30273838750565862 0 -0.32704471803945162 -0.30394193902942662 0 -0.32819068517220462 -0.29783339261299951 0 -0.33965665719371979 -0.30273838750565862 0 -0.33223611708196649 -0.27626932861073827 0 -0.32819068517220462 -0.29783339261299951 0 -0.33223611708196649 -0.27626932861073827 0 -0.32819068517220462 -0.29783339261299951 0 -0.34010739644885768 -0.2892065328944351 0 -0.33223611708196649 -0.27626932861073827 0 -0.34951875912658742 -0.28460269103381453 0 -0.34010739644885768 -0.2892065328944351 0 -0.32819068517220462 -0.29783339261299951 0 -0.33965665719371979 -0.30273838750565862 0 -0.34010739644885768 -0.2892065328944351 0 -0.32819068517220462 -0.29783339261299951 0 -0.31972670239926188 -0.28454160199560091 0 -0.31332574866090718 -0.291474364566292 0 -0.32819068517220462 -0.29783339261299951 0 -0.31332574866090718 -0.291474364566292 0 -0.33223611708196649 -0.27626932861073827 0 -0.32819068517220462 -0.29783339261299951 0 -0.31972670239926188 -0.28454160199560091 0 -0.31972670239926188 -0.28454160199560091 0 -0.31332574866090718 -0.291474364566292 0 -0.30937392239009109 -0.28339120160471948 0 -0.31972670239926188 -0.28454160199560091 0 -0.30937392239009109 -0.28339120160471948 0 -0.31187737399160442 -0.27618124236115132 0 -0.31992409361072222 -0.30462145692723192 0 -0.32594772137393307 -0.30978944971135602 0 -0.31307430431717392 -0.31869978567557272 0 -0.31992409361072222 -0.30462145692723192 0 -0.32594772137393307 -0.30978944971135602 0 -0.32594772137393307 -0.30978944971135602 0 -0.32704471803945162 -0.30394193902942662 0 -0.31992409361072222 -0.30462145692723192 0 -0.32594772137393307 -0.30978944971135602 0 -0.32704471803945162 -0.30394193902942662 0 -0.32819068517220462 -0.29783339261299951 0 -0.31332574866090718 -0.291474364566292 0 -0.31992409361072222 -0.30462145692723192 0 -0.32819068517220462 -0.29783339261299951 0 -0.32704471803945162 -0.30394193902942662 0 -0.32819068517220462 -0.29783339261299951 0 -0.31992409361072222 -0.30462145692723192 0 -0.32704471803945162 -0.30394193902942662 0 -0.31992409361072222 -0.30462145692723192 0 -0.32704471803945162 -0.30394193902942662 0 -0.32594772137393307 -0.30978944971135602 0 -0.31307430431717392 -0.31869978567557272 0 -0.32184288384298337 -0.33167017375041419 0 -0.32594772137393307 -0.30978944971135602 0 -0.32184288384298337 -0.33167017375041419 0 -0.32184288384298337 -0.33167017375041419 0 -0.31773804631203251 -0.35355089778947202 0 -0.32184288384298337 -0.33167017375041419 0 -0.34475024534571441 -0.34586667392980902 0 -0.31773804631203251 -0.35355089778947202 0 -0.32184288384298337 -0.33167017375041419 0 -0.34612464597635118 -0.32710031367078812 0 -0.34475024534571441 -0.34586667392980902 0 -0.33676996251121621 -0.31158184422573892 0 -0.32594772137393307 -0.30978944971135602 0 -0.34612464597635118 -0.32710031367078812 0 -0.32594772137393307 -0.30978944971135602 0 -0.34612464597635118 -0.32710031367078812 0 -0.32594772137393307 -0.30978944971135602 0 -0.32184288384298337 -0.33167017375041419 0 -0.34612464597635118 -0.32710031367078812 0 -0.33676996251121621 -0.31158184422573892 0 -0.34514704515453298 -0.31300544250539297 0 -0.34612464597635118 -0.32710031367078812 0 -0.35803691493684492 -0.31060122461938489 0 -0.34514704515453298 -0.31300544250539297 0 -0.34612464597635118 -0.32710031367078812 0 -0.35803691493684492 -0.31060122461938489 0 -0.34612464597635118 -0.32710031367078812 0 -0.35600230731325749 -0.33324145173106873 0 -0.37641717267996733 -0.3184640617331177 0 -0.35803691493684492 -0.31060122461938489 0 -0.37641717267996733 -0.3184640617331177 0 -0.35803691493684492 -0.31060122461938489 0 -0.36719759625642318 -0.33008752154143739 0 -0.35803691493684492 -0.31060122461938489 0 -0.36719759625642318 -0.33008752154143739 0 -0.35600230731325749 -0.33324145173106873 0 -0.37607676276689278 -0.3419730509543204 0 -0.37641717267996733 -0.3184640617331177 0 -0.36719759625642318 -0.33008752154143739 0 -0.37607676276689278 -0.3419730509543204 0 -0.3688763256213185 -0.34309961767568647 0 -0.36719759625642318 -0.33008752154143739 0 -0.36719759625642318 -0.33008752154143739 0 -0.36118874601324108 -0.3436521492952741 0 -0.35600230731325749 -0.33324145173106873 0 -0.3688763256213185 -0.34309961767568647 0 -0.36719759625642318 -0.33008752154143739 0 -0.36118874601324108 -0.3436521492952741 0 -0.34612464597635118 -0.32710031367078812 0 -0.35600230731325749 -0.33324145173106873 0 -0.34475024534571441 -0.34586667392980902 0 -0.36118874601324108 -0.3436521492952741 0 -0.35600230731325749 -0.33324145173106873 0 -0.34475024534571441 -0.34586667392980902 0 -0.36118874601324108 -0.3436521492952741 0 -0.34475024534571441 -0.34586667392980902 0 -0.35925477447714671 -0.35134479444962452 0 -0.34475024534571441 -0.34586667392980902 0 -0.35480891830463612 -0.3592101017575729 0 -0.33937201587241012 -0.36587749477948078 0 -0.34475024534571441 -0.34586667392980902 0 -0.35480891830463612 -0.3592101017575729 0 -0.35925477447714671 -0.35134479444962452 0 -0.36118874601324108 -0.3436521492952741 0 -0.37225797237559449 -0.35115364910559932 0 -0.36118874601324108 -0.3436521492952741 0 -0.35925477447714671 -0.35134479444962452 0 -0.36985982957495511 -0.35171195823109852 0 -0.37568304780698558 -0.36916333065311507 0 -0.37593298752455201 -0.35190228771479481 0 -0.37225797237559449 -0.35115364910559932 0 -0.35480891830463612 -0.3592101017575729 0 -0.35925477447714671 -0.35134479444962452 0 -0.36985982957495511 -0.35171195823109852 0 -0.37607676276689278 -0.3419730509543204 0 -0.3688763256213185 -0.34309961767568647 0 -0.37225797237559449 -0.35115364910559932 0 -0.37607676276689278 -0.3419730509543204 0 -0.37225797237559449 -0.35115364910559932 0 -0.37607676276689278 -0.3419730509543204 0 -0.37390838074359528 -0.35076941925389299 0 -0.37225797237559449 -0.35115364910559932 0 -0.37593298752455201 -0.35190228771479481 0 -0.37390838074359528 -0.35076941925389299 0 -0.37225797237559449 -0.35115364910559932 0 -0.3688763256213185 -0.34309961767568647 0 -0.36118874601324108 -0.3436521492952741 0 -0.37225797237559449 -0.35115364910559932 0 -0.37593298752455201 -0.35190228771479481 0 -0.37390838074359528 -0.35076941925389299 0 -0.36118874601324108 -0.3436521492952741 0 -0.36985982957495511 -0.35171195823109852 0 -0.37225797237559449 -0.35115364910559932 0 -0.37595629511297179 -0.35029264644438168 0 -0.37390838074359528 -0.35076941925389299 0 -0.37390838074359528 -0.35076941925389299 0 -0.37225797237559449 -0.35115364910559932 0 -0.36985982957495511 -0.35171195823109852 0 -0.37225797237559449 -0.35115364910559932 0 -0.37568304780698558 -0.36916333065311507 0 -0.37225797237559449 -0.35115364910559932 0 -0.36100598543278789 -0.37820409176948921 0 -0.35480891830463612 -0.3592101017575729 0 -0.36985982957495511 -0.35171195823109852 0 -0.36100598543278789 -0.37820409176948921 0 -0.36985982957495511 -0.35171195823109852 0 -0.37225797237559449 -0.35115364910559932 0 -0.36100598543278789 -0.37820409176948921 0 -0.37225797237559449 -0.35115364910559932 0 -0.36100598543278789 -0.37820409176948921 0 -0.33937201587241012 -0.36587749477948078 0 -0.36100598543278789 -0.37820409176948921 0 -0.35480891830463612 -0.3592101017575729 0 -0.33937201587241012 -0.36587749477948078 0 -0.36100598543278789 -0.37820409176948921 0 -0.33937201587241012 -0.36587749477948078 0 -0.31773804631203251 -0.35355089778947202 0 -0.33937201587241012 -0.36587749477948078 0 -0.31773804631203251 -0.35355089778947202 0 -0.32803705280137402 -0.37447550275240871 0 -0.34475024534571441 -0.34586667392980902 0 -0.33937201587241012 -0.36587749477948078 0 -0.31773804631203251 -0.35355089778947202 0 -0.31773804631203251 -0.35355089778947202 0 -0.31381007312398762 -0.37448885129246268 0 -0.31773804631203251 -0.35355089778947202 0 -0.31381007312398762 -0.37448885129246268 0 -0.32803705280137402 -0.37447550275240871 0 -0.31381007312398762 -0.37448885129246268 0 -0.29871455833571747 -0.36148408621311728 0 -0.29196992941862432 -0.3825632544476108 0 -0.31773804631203251 -0.35355089778947202 0 -0.31381007312398762 -0.37448885129246268 0 -0.29871455833571747 -0.36148408621311728 0 -0.31773804631203251 -0.35355089778947202 0 -0.29871455833571747 -0.36148408621311728 0 -0.29282778547957722 -0.33935753649529382 0 -0.31773804631203251 -0.35355089778947202 0 -0.29282778547957722 -0.33935753649529382 0 -0.29871455833571747 -0.36148408621311728 0 -0.27675503022224163 -0.36681377825091099 0 -0.29282778547957722 -0.33935753649529382 0 -0.29871455833571747 -0.36148408621311728 0 -0.27675503022224163 -0.36681377825091099 0 -0.29196992941862432 -0.3825632544476108 0 -0.27675503022224163 -0.36681377825091099 0 -0.25757508569408222 -0.36424633604315798 0 -0.26546808025963542 -0.34847395767735678 0 -0.27675503022224163 -0.36681377825091099 0 -0.25757508569408222 -0.36424633604315798 0 -0.25812358553267323 -0.37605355791306738 0 -0.25757508569408222 -0.36424633604315798 0 -0.24839247009954951 -0.37292447016044328 0 -0.24532753696728959 -0.36501789644951049 0 -0.25757508569408222 -0.36424633604315798 0 -0.25812358553267323 -0.37605355791306738 0 -0.24839247009954951 -0.37292447016044328 0 -0.25757508569408222 -0.36424633604315798 0 -0.26546808025963542 -0.34847395767735678 0 -0.24650166737573331 -0.3569693529562265 0 -0.26546808025963542 -0.34847395767735678 0 -0.24650166737573331 -0.3569693529562265 0 -0.24881121389389799 -0.33838995723746451 0 -0.27675503022224163 -0.36681377825091099 0 -0.26546808025963542 -0.34847395767735678 0 -0.29282778547957722 -0.33935753649529382 0 -0.26791752464712137 -0.32516417520111718 0 -0.27544300416693679 -0.31995488319631832 0 -0.29282778547957722 -0.33935753649529382 0 -0.26546808025963542 -0.34847395767735678 0 -0.26791752464712137 -0.32516417520111718 0 -0.29282778547957722 -0.33935753649529382 0 -0.26791752464712137 -0.32516417520111718 0 -0.29282778547957722 -0.33935753649529382 0 -0.26791752464712137 -0.32516417520111718 0 -0.24881121389389799 -0.33838995723746451 0 -0.26546808025963542 -0.34847395767735678 0 -0.26791752464712137 -0.32516417520111718 0 -0.24881121389389799 -0.33838995723746451 0 -0.26791752464712137 -0.32516417520111718 0 -0.24881121389389799 -0.33838995723746451 0 -0.2441082332202735 -0.32380704628422963 0 -0.26791752464712137 -0.32516417520111718 0 -0.2444966906846206 -0.31181945912301329 0 -0.26791752464712137 -0.32516417520111718 0 -0.26963915832665503 -0.30942012505775762 0 -0.2444966906846206 -0.31181945912301329 0 -0.26791752464712137 -0.32516417520111718 0 -0.2441082332202735 -0.32380704628422963 0 -0.2444966906846206 -0.31181945912301329 0 -0.26791752464712137 -0.32516417520111718 0 -0.27544300416693679 -0.31995488319631832 0 -0.26963915832665503 -0.30942012505775762 0 -0.26791752464712137 -0.32516417520111718 0 -0.27544300416693679 -0.31995488319631832 0 -0.27544300416693679 -0.31995488319631832 0 -0.29403167998309421 -0.32125824908992018 0 -0.29478162596868879 -0.30702079099249591 0 -0.27544300416693679 -0.31995488319631832 0 -0.29403167998309421 -0.32125824908992018 0 -0.29282778547957722 -0.33935753649529382 0 -0.31307430431717392 -0.31869978567557272 0 -0.32184288384298337 -0.33167017375041419 0 -0.29282778547957722 -0.33935753649529382 0 -0.32184288384298337 -0.33167017375041419 0 -0.31773804631203251 -0.35355089778947202 0 -0.29282778547957722 -0.33935753649529382 0 -0.31307430431717392 -0.31869978567557272 0 -0.29403167998309421 -0.32125824908992018 0 -0.29282778547957722 -0.33935753649529382 0 -0.31307430431717392 -0.31869978567557272 0 -0.29403167998309421 -0.32125824908992018 0 -0.29478162596868879 -0.30702079099249591 0 -0.31992409361072222 -0.30462145692723192 0 -0.29478162596868879 -0.30702079099249591 0 -0.31992409361072222 -0.30462145692723192 0 -0.31307430431717392 -0.31869978567557272 0 -0.29478162596868879 -0.30702079099249591 0 -0.31992409361072222 -0.30462145692723192 0 -0.30687808727867438 -0.29770175581860719 0 -0.29478162596868879 -0.30702079099249591 0 -0.30687808727867438 -0.29770175581860719 0 -0.29813438661480679 -0.29530641477552327 0 -0.29478162596868879 -0.30702079099249591 0 -0.31992409361072222 -0.30462145692723192 0 -0.2984608121496099 -0.28511533651958437 0 -0.31992409361072222 -0.30462145692723192 0 -0.30687808727867438 -0.29770175581860719 0 -0.2984608121496099 -0.28511533651958437 0 -0.31332574866090718 -0.291474364566292 0 -0.31992409361072222 -0.30462145692723192 0 -0.2984608121496099 -0.28511533651958437 0 -0.31332574866090718 -0.291474364566292 0 -0.30937392239009109 -0.28339120160471948 0 -0.2984608121496099 -0.28511533651958437 0 -0.31332574866090718 -0.291474364566292 0 -0.2984608121496099 -0.28511533651958437 0 -0.30937392239009109 -0.28339120160471948 0 -0.2984608121496099 -0.28511533651958437 0 -0.30347897474907187 -0.279643462580969 0 -0.30687808727867438 -0.29770175581860719 0 -0.29951482580247829 -0.29240083595456018 0 -0.29813438661480679 -0.29530641477552327 0 -0.30687808727867438 -0.29770175581860719 0 -0.2984608121496099 -0.28511533651958437 0 -0.29951482580247829 -0.29240083595456018 0 -0.29951482580247829 -0.29240083595456018 0 -0.29813438661480679 -0.29530641477552327 0 -0.29499124589990039 -0.29073588210889412 0 -0.2984608121496099 -0.28511533651958437 0 -0.29951482580247829 -0.29240083595456018 0 -0.29499124589990039 -0.29073588210889412 0 -0.29499124589990039 -0.29073588210889412 0 -0.29148170063899659 -0.29460773718781319 0 -0.28586576089235322 -0.28577101837165192 0 -0.29813438661480679 -0.29530641477552327 0 -0.29499124589990039 -0.29073588210889412 0 -0.29148170063899659 -0.29460773718781319 0 -0.2984608121496099 -0.28511533651958437 0 -0.29499124589990039 -0.29073588210889412 0 -0.28586576089235322 -0.28577101837165192 0 -0.29148170063899659 -0.29460773718781319 0 -0.28586576089235322 -0.28577101837165192 0 -0.2798353156189245 -0.29508903771003908 0 -0.29148170063899659 -0.29460773718781319 0 -0.29478162596868879 -0.30702079099249591 0 -0.2798353156189245 -0.29508903771003908 0 -0.29478162596868879 -0.30702079099249591 0 -0.26963915832665503 -0.30942012505775762 0 -0.2798353156189245 -0.29508903771003908 0 -0.29478162596868879 -0.30702079099249591 0 -0.26963915832665503 -0.30942012505775762 0 -0.29813438661480679 -0.29530641477552327 0 -0.29148170063899659 -0.29460773718781319 0 -0.29478162596868879 -0.30702079099249591 0 -0.27544300416693679 -0.31995488319631832 0 -0.29478162596868879 -0.30702079099249591 0 -0.26963915832665503 -0.30942012505775762 0 -0.26963915832665503 -0.30942012505775762 0 -0.26057201890547982 -0.29344093798311832 0 -0.2798353156189245 -0.29508903771003908 0 -0.26963915832665503 -0.30942012505775762 0 -0.2444966906846206 -0.31181945912301329 0 -0.26963915832665503 -0.30942012505775762 0 -0.26057201890547982 -0.29344093798311832 0 -0.2444966906846206 -0.31181945912301329 0 -0.26057201890547982 -0.29344093798311832 0 -0.27108878797196961 -0.28331686931735522 0 -0.25298377122075039 -0.27518622721876451 0 -0.26057201890547982 -0.29344093798311832 0 -0.25298377122075039 -0.27518622721876451 0 -0.2435111179254994 -0.29490773243705071 0 -0.26057201890547982 -0.29344093798311832 0 -0.27108878797196961 -0.28331686931735522 0 -0.2798353156189245 -0.29508903771003908 0 -0.28586576089235322 -0.28577101837165192 0 -0.27108878797196961 -0.28331686931735522 0 -0.2798353156189245 -0.29508903771003908 0 -0.27108878797196961 -0.28331686931735522 0 -0.27618707322233982 -0.26709712530320262 0 -0.25298377122075039 -0.27518622721876451 0 -0.28586576089235322 -0.28577101837165192 0 -0.27108878797196961 -0.28331686931735522 0 -0.27618707322233982 -0.26709712530320262 0 -0.27618707322233982 -0.26709712530320262 0 -0.25431856302814809 -0.24833495949118861 0 -0.27618707322233982 -0.26709712530320262 0 -0.25298377122075039 -0.27518622721876451 0 -0.25431856302814809 -0.24833495949118861 0 -0.27618707322233982 -0.26709712530320262 0 -0.27309361240676189 -0.24179026653703889 0 -0.25431856302814809 -0.24833495949118861 0 -0.27618707322233982 -0.26709712530320262 0 -0.2907170577323625 -0.25177677077710309 0 -0.27309361240676189 -0.24179026653703889 0 -0.27618707322233982 -0.26709712530320262 0 -0.2907170577323625 -0.25177677077710309 0 -0.29477899871119112 -0.26293378760569941 0 -0.2984608121496099 -0.28511533651958437 0 -0.28586576089235322 -0.28577101837165192 0 -0.27618707322233982 -0.26709712530320262 0 -0.2984608121496099 -0.28511533651958437 0 -0.27618707322233982 -0.26709712530320262 0 -0.27618707322233982 -0.26709712530320262 0 -0.29477899871119112 -0.26293378760569941 0 -0.29948479845841441 -0.27338487519771032 0 -0.2984608121496099 -0.28511533651958437 0 -0.27618707322233982 -0.26709712530320262 0 -0.29948479845841441 -0.27338487519771032 0 -0.29477899871119112 -0.26293378760569941 0 -0.29948479845841441 -0.27338487519771032 0 -0.30156079933714469 -0.26765617134954151 0 -0.30156079933714469 -0.26765617134954151 0 -0.30403476516136241 -0.27459464834518948 0 -0.30588444940973558 -0.27063474712059482 0 -0.29948479845841441 -0.27338487519771032 0 -0.30156079933714469 -0.26765617134954151 0 -0.30403476516136241 -0.27459464834518948 0 -0.30156079933714469 -0.26765617134954151 0 -0.30588444940973558 -0.27063474712059482 0 -0.3062135479255173 -0.26372173898871692 0 -0.2984608121496099 -0.28511533651958437 0 -0.29948479845841441 -0.27338487519771032 0 -0.30347897474907187 -0.279643462580969 0 -0.29948479845841441 -0.27338487519771032 0 -0.30403476516136241 -0.27459464834518948 0 -0.30347897474907187 -0.279643462580969 0 -0.30937392239009109 -0.28339120160471948 0 -0.30347897474907187 -0.279643462580969 0 -0.31187737399160442 -0.27618124236115132 0 -0.30403476516136241 -0.27459464834518948 0 -0.30347897474907187 -0.279643462580969 0 -0.31187737399160442 -0.27618124236115132 0 -0.30403476516136241 -0.27459464834518948 0 -0.31187737399160442 -0.27618124236115132 0 -0.30588444940973558 -0.27063474712059482 0 -0.31187737399160442 -0.27618124236115132 0 -0.30588444940973558 -0.27063474712059482 0 -0.3062135479255173 -0.26372173898871692 0 -0.31664960680882542 -0.25714232151458272 0 -0.31202674084989918 -0.26335133138269068 0 -0.30853150187083839 -0.25429835417001312 0 -0.2907170577323625 -0.25177677077710309 0 -0.29477899871119112 -0.26293378760569941 0 -0.30853150187083839 -0.25429835417001312 0 -0.31202674084989918 -0.26335133138269068 0 -0.3062135479255173 -0.26372173898871692 0 -0.30853150187083839 -0.25429835417001312 0 -0.29477899871119112 -0.26293378760569941 0 -0.30156079933714469 -0.26765617134954151 0 -0.3062135479255173 -0.26372173898871692 0 -0.29477899871119112 -0.26293378760569941 0 -0.3062135479255173 -0.26372173898871692 0 -0.30853150187083839 -0.25429835417001312 0 -0.33709504481289931 -0.46474263175187808 0 -0.33075086723682939 -0.45093918684289991 0 -0.35302422329502631 -0.44785824460859458 0 -0.33709504481289931 -0.46474263175187808 0 -0.33075086723682939 -0.45093918684289991 0 -0.32054712240525829 -0.47546959342145068 0 -0.33075086723682939 -0.45093918684289991 0 -0.34095461206840061 -0.42640878026434909 0 -0.33075086723682939 -0.45093918684289991 0 -0.35302422329502631 -0.44785824460859458 0 -0.34095461206840061 -0.42640878026434909 0 -0.33075086723682939 -0.45093918684289991 0 -0.32054706720266329 -0.44859283512714471 0 -0.3206124180200437 -0.43193612962395289 0 -0.33075086723682939 -0.45093918684289991 0 -0.32054706720266329 -0.44859283512714471 0 -0.31571728338184601 -0.45752087103574601 0 -0.32054706720266329 -0.44859283512714471 0 -0.31571728338184601 -0.45752087103574601 0 -0.30706080135445341 -0.45057148265483188 0 -0.33075086723682939 -0.45093918684289991 0 -0.32054712240525829 -0.47546959342145068 0 -0.33075086723682939 -0.45093918684289991 0 -0.31571728338184601 -0.45752087103574601 0 -0.32054712240525829 -0.47546959342145068 0 -0.32054712240525829 -0.47546959342145068 0 -0.32750579650535672 -0.48798687004089669 0 -0.32933965142182292 -0.47777380670114528 0 -0.32054712240525829 -0.47546959342145068 0 -0.31034337757368669 -0.50000000000000133 0 -0.32750579650535672 -0.48798687004089669 0 -0.33387795429423722 -0.5 0 -0.31034337757368669 -0.50000000000000133 0 -0.32054712240525829 -0.47546959342145068 0 -0.32750579650535672 -0.48798687004089669 0 -0.31034337757368669 -0.50000000000000133 0 -0.32750579650535672 -0.48798687004089669 0 -0.34342087683177741 -0.48669095008188618 0 -0.33387795429423722 -0.5 0 -0.33709504481289931 -0.46474263175187808 0 -0.32933965142182292 -0.47777380670114528 0 -0.35181335970555933 -0.47167232718529989 0 -0.34342087683177741 -0.48669095008188618 0 -0.32933965142182292 -0.47777380670114528 0 -0.35181335970555933 -0.47167232718529989 0 -0.32750579650535672 -0.48798687004089669 0 -0.34342087683177741 -0.48669095008188618 0 -0.32933965142182292 -0.47777380670114528 0 -0.33709504481289931 -0.46474263175187808 0 -0.32054712240525829 -0.47546959342145068 0 -0.32933965142182292 -0.47777380670114528 0 -0.32933965142182292 -0.47777380670114528 0 -0.35181335970555933 -0.47167232718529989 0 -0.34342087683177741 -0.48669095008188618 0 -0.35181335970555933 -0.47167232718529989 0 -0.35979455825166368 -0.48519290092039941 0 -0.34342087683177741 -0.48669095008188618 0 -0.35741253101478748 -0.5 0 -0.35979455825166368 -0.48519290092039941 0 -0.34342087683177741 -0.48669095008188618 0 -0.33387795429423722 -0.5 0 -0.35741253101478748 -0.5 0 -0.38094710773533791 -0.49999999999999839 0 -0.35741253101478748 -0.5 0 -0.37240076261097882 -0.48974555046165519 0 -0.35741253101478748 -0.5 0 -0.35979455825166368 -0.48519290092039941 0 -0.37240076261097882 -0.48974555046165519 0 -0.35181335970555933 -0.47167232718529989 0 -0.35979455825166368 -0.48519290092039941 0 -0.37411677223754131 -0.47733161267270968 0 -0.35181335970555933 -0.47167232718529989 0 -0.37411677223754131 -0.47733161267270968 0 -0.37428706798929601 -0.46557084766945539 0 -0.35979455825166368 -0.48519290092039941 0 -0.37240076261097882 -0.48974555046165519 0 -0.37411677223754131 -0.47733161267270968 0 -0.37411677223754131 -0.47733161267270968 0 -0.37428706798929601 -0.46557084766945539 0 -0.35181335970555933 -0.47167232718529989 0 -0.37428706798929601 -0.46557084766945539 0 -0.35302422329502631 -0.44785824460859458 0 -0.35181335970555933 -0.47167232718529989 0 -0.37428706798929601 -0.46557084766945539 0 -0.33709504481289931 -0.46474263175187808 0 -0.35181335970555933 -0.47167232718529989 0 -0.35302422329502631 -0.44785824460859458 0 -0.37428706798929601 -0.46557084766945539 0 -0.35302422329502631 -0.44785824460859458 0 -0.37472313619600889 -0.43545561783144832 0 -0.37428706798929601 -0.46557084766945539 0 -0.37472313619600889 -0.43545561783144832 0 -0.35302422329502631 -0.44785824460859458 0 -0.37472313619600889 -0.43545561783144832 0 -0.36076670325611282 -0.42019275678090617 0 -0.37515920440272033 -0.40534038799344108 0 -0.37472313619600889 -0.43545561783144832 0 -0.36076670325611282 -0.42019275678090617 0 -0.37515920440272033 -0.40534038799344108 0 -0.36076670325611282 -0.42019275678090617 0 -0.35115835689997099 -0.40187837368579798 0 -0.37515920440272033 -0.40534038799344108 0 -0.37472313619600889 -0.43545561783144832 0 -0.36076670325611282 -0.42019275678090617 0 -0.35115835689997099 -0.40187837368579798 0 -0.34095461206840061 -0.42640878026434909 0 -0.34815033243380111 -0.40144447968524521 0 -0.35115835689997099 -0.40187837368579798 0 -0.34095461206840061 -0.42640878026434909 0 -0.35115835689997099 -0.40187837368579798 0 -0.34095461206840061 -0.42640878026434909 0 -0.35302422329502631 -0.44785824460859458 0 -0.36076670325611282 -0.42019275678090617 0 -0.34095461206840061 -0.42640878026434909 0 -0.37543310808941849 -0.38642437359143528 0 -0.36100598543278789 -0.37820409176948921 0 -0.35115835689997099 -0.40187837368579798 0 -0.37543310808941849 -0.38642437359143528 0 -0.37568304780698558 -0.36916333065311507 0 -0.36100598543278789 -0.37820409176948921 0 -0.37543310808941849 -0.38642437359143528 0 -0.36100598543278789 -0.37820409176948921 0 -0.37515920440272033 -0.40534038799344108 0 -0.37543310808941849 -0.38642437359143528 0 -0.35115835689997099 -0.40187837368579798 0 -0.37515920440272033 -0.40534038799344108 0 -0.35115835689997099 -0.40187837368579798 0 -0.35115835689997099 -0.40187837368579798 0 -0.34646966066369161 -0.38533898881774881 0 -0.34316085436749 -0.39382471367395527 0 -0.34815033243380111 -0.40144447968524521 0 -0.35115835689997099 -0.40187837368579798 0 -0.34316085436749 -0.39382471367395527 0 -0.34815033243380111 -0.40144447968524521 0 -0.35115835689997099 -0.40187837368579798 0 -0.33937201587241012 -0.36587749477948078 0 -0.36100598543278789 -0.37820409176948921 0 -0.34646966066369161 -0.38533898881774881 0 -0.36100598543278789 -0.37820409176948921 0 -0.35115835689997099 -0.40187837368579798 0 -0.36100598543278789 -0.37820409176948921 0 -0.35115835689997099 -0.40187837368579798 0 -0.34646966066369161 -0.38533898881774881 0 -0.33937201587241012 -0.36587749477948078 0 -0.32803705280137402 -0.37447550275240871 0 -0.34646966066369161 -0.38533898881774881 0 -0.32803705280137402 -0.37447550275240871 0 -0.34646966066369161 -0.38533898881774881 0 -0.32931529664348408 -0.38869437358142001 0 -0.34646966066369161 -0.38533898881774881 0 -0.32931529664348408 -0.38869437358142001 0 -0.34316085436749 -0.39382471367395527 0 -0.34815033243380111 -0.40144447968524521 0 -0.33486919938690762 -0.39884665705885908 0 -0.32944617452305069 -0.41182817437998842 0 -0.32931529664348408 -0.38869437358142001 0 -0.34316085436749 -0.39382471367395527 0 -0.33486919938690762 -0.39884665705885908 0 -0.32931529664348408 -0.38869437358142001 0 -0.33486919938690762 -0.39884665705885908 0 -0.32365381597648563 -0.39942827076698811 0 -0.34815033243380111 -0.40144447968524521 0 -0.34316085436749 -0.39382471367395527 0 -0.33486919938690762 -0.39884665705885908 0 -0.33486919938690762 -0.39884665705885908 0 -0.32365381597648563 -0.39942827076698811 0 -0.32944617452305069 -0.41182817437998842 0 -0.32931529664348408 -0.38869437358142001 0 -0.32365381597648563 -0.39942827076698811 0 -0.30988209993594379 -0.39542680479545339 0 -0.32365381597648563 -0.39942827076698811 0 -0.30595412674790001 -0.41636475829844438 0 -0.30988209993594379 -0.39542680479545339 0 -0.31381007312398762 -0.37448885129246268 0 -0.32931529664348408 -0.38869437358142001 0 -0.30988209993594379 -0.39542680479545339 0 -0.31381007312398762 -0.37448885129246268 0 -0.32803705280137402 -0.37447550275240871 0 -0.32931529664348408 -0.38869437358142001 0 -0.34095461206840061 -0.42640878026434909 0 -0.32944617452305069 -0.41182817437998842 0 -0.3206124180200437 -0.43193612962395289 0 -0.33075086723682939 -0.45093918684289991 0 -0.34095461206840061 -0.42640878026434909 0 -0.3206124180200437 -0.43193612962395289 0 -0.34815033243380111 -0.40144447968524521 0 -0.34095461206840061 -0.42640878026434909 0 -0.32944617452305069 -0.41182817437998842 0 -0.32944617452305069 -0.41182817437998842 0 -0.3206124180200437 -0.43193612962395289 0 -0.30595412674790001 -0.41636475829844438 0 -0.32365381597648563 -0.39942827076698811 0 -0.32944617452305069 -0.41182817437998842 0 -0.30595412674790001 -0.41636475829844438 0 -0.3206124180200437 -0.43193612962395289 0 -0.30595412674790001 -0.41636475829844438 0 -0.29602166034141808 -0.43748304283089118 0 -0.30595412674790001 -0.41636475829844438 0 -0.28680587137917263 -0.41476105187328532 0 -0.29502227998321778 -0.40112933436643161 0 -0.30595412674790001 -0.41636475829844438 0 -0.28680587137917263 -0.41476105187328532 0 -0.29602166034141808 -0.43748304283089118 0 -0.28680587137917263 -0.41476105187328532 0 -0.29602166034141808 -0.43748304283089118 0 -0.27149625348017281 -0.42637325053463759 0 -0.29602166034141808 -0.43748304283089118 0 -0.27149625348017281 -0.42637325053463759 0 -0.29602166034141808 -0.43748304283089118 0 -0.27149625348017281 -0.42637325053463759 0 -0.27906578537949278 -0.44687665772048962 0 -0.31381007312398762 -0.37448885129246268 0 -0.30988209993594379 -0.39542680479545339 0 -0.31381007312398762 -0.37448885129246268 0 -0.30988209993594379 -0.39542680479545339 0 -0.29196992941862432 -0.3825632544476108 0 -0.30595412674790001 -0.41636475829844438 0 -0.30988209993594379 -0.39542680479545339 0 -0.30595412674790001 -0.41636475829844438 0 -0.30988209993594379 -0.39542680479545339 0 -0.29502227998321778 -0.40112933436643161 0 -0.30988209993594379 -0.39542680479545339 0 -0.29502227998321778 -0.40112933436643161 0 -0.29196992941862432 -0.3825632544476108 0 -0.28680587137917263 -0.41476105187328532 0 -0.29502227998321778 -0.40112933436643161 0 -0.2806661672136338 -0.39648987600255969 0 -0.29502227998321778 -0.40112933436643161 0 -0.29196992941862432 -0.3825632544476108 0 -0.2806661672136338 -0.39648987600255969 0 -0.27675503022224163 -0.36681377825091099 0 -0.29196992941862432 -0.3825632544476108 0 -0.26924588117792803 -0.38334910629271668 0 -0.29196992941862432 -0.3825632544476108 0 -0.26924588117792803 -0.38334910629271668 0 -0.2806661672136338 -0.39648987600255969 0 -0.27675503022224163 -0.36681377825091099 0 -0.26924588117792803 -0.38334910629271668 0 -0.25812358553267323 -0.37605355791306738 0 -0.28680587137917263 -0.41476105187328532 0 -0.2806661672136338 -0.39648987600255969 0 -0.26326431180229581 -0.40282557300305732 0 -0.26924588117792803 -0.38334910629271668 0 -0.2806661672136338 -0.39648987600255969 0 -0.26326431180229581 -0.40282557300305732 0 -0.26326431180229581 -0.40282557300305732 0 -0.2504897110532438 -0.38524934403489181 0 -0.24394706363899241 -0.39877073912243299 0 -0.26326431180229581 -0.40282557300305732 0 -0.24697084661892749 -0.41526345823838401 0 -0.24394706363899241 -0.39877073912243299 0 -0.26924588117792803 -0.38334910629271668 0 -0.26326431180229581 -0.40282557300305732 0 -0.2504897110532438 -0.38524934403489181 0 -0.26924588117792803 -0.38334910629271668 0 -0.2504897110532438 -0.38524934403489181 0 -0.25812358553267323 -0.37605355791306738 0 -0.2504897110532438 -0.38524934403489181 0 -0.25812358553267323 -0.37605355791306738 0 -0.24839247009954951 -0.37292447016044328 0 -0.28680587137917263 -0.41476105187328532 0 -0.26326431180229581 -0.40282557300305732 0 -0.27149625348017281 -0.42637325053463759 0 -0.27149625348017281 -0.42637325053463759 0 -0.24697084661892749 -0.41526345823838401 0 -0.26326431180229581 -0.40282557300305732 0 -0.27149625348017281 -0.42637325053463759 0 -0.24697084661892749 -0.41526345823838401 0 -0.27149625348017281 -0.42637325053463759 0 -0.25687425522332558 -0.44642006451091643 0 -0.24697084661892749 -0.41526345823838401 0 -0.25687425522332558 -0.44642006451091643 0 -0.27607931301277078 -0.46657199895299017 0 -0.25409384940020791 -0.47271975939701871 0 -0.25687425522332558 -0.44642006451091643 0 -0.27607931301277078 -0.46657199895299017 0 -0.27906578537949278 -0.44687665772048962 0 -0.27149625348017281 -0.42637325053463759 0 -0.25687425522332558 -0.44642006451091643 0 -0.27906578537949278 -0.44687665772048962 0 -0.29602166034141808 -0.43748304283089118 0 -0.27906578537949278 -0.44687665772048962 0 -0.29968055871002541 -0.46203125713240301 0 -0.27607931301277078 -0.46657199895299017 0 -0.27906578537949278 -0.44687665772048962 0 -0.29968055871002541 -0.46203125713240301 0 -0.31571728338184601 -0.45752087103574601 0 -0.29968055871002541 -0.46203125713240301 0 -0.30706080135445341 -0.45057148265483188 0 -0.31571728338184601 -0.45752087103574601 0 -0.32054712240525829 -0.47546959342145068 0 -0.29968055871002541 -0.46203125713240301 0 -0.32054706720266329 -0.44859283512714471 0 -0.29602166034141808 -0.43748304283089118 0 -0.32054706720266329 -0.44859283512714471 0 -0.3206124180200437 -0.43193612962395289 0 -0.29602166034141808 -0.43748304283089118 0 -0.32054706720266329 -0.44859283512714471 0 -0.29602166034141808 -0.43748304283089118 0 -0.30706080135445341 -0.45057148265483188 0 -0.29602166034141808 -0.43748304283089118 0 -0.29968055871002541 -0.46203125713240301 0 -0.30706080135445341 -0.45057148265483188 0 -0.32054712240525829 -0.47546959342145068 0 -0.31034337757368669 -0.50000000000000133 0 -0.2941570887960146 -0.48201569375099518 0 -0.32054712240525829 -0.47546959342145068 0 -0.29968055871002541 -0.46203125713240301 0 -0.2941570887960146 -0.48201569375099518 0 -0.27607931301277078 -0.46657199895299017 0 -0.29968055871002541 -0.46203125713240301 0 -0.2941570887960146 -0.48201569375099518 0 -0.2941570887960146 -0.48201569375099518 0 -0.28248249767631262 -0.5 0 -0.27039562620846602 -0.48462576079096858 0 -0.31034337757368669 -0.50000000000000133 0 -0.2941570887960146 -0.48201569375099518 0 -0.28248249767631262 -0.5 0 -0.28248249767631262 -0.5 0 -0.27039562620846602 -0.48462576079096858 0 -0.25462161777893849 -0.5 0 -0.27607931301277078 -0.46657199895299017 0 -0.2941570887960146 -0.48201569375099518 0 -0.27039562620846602 -0.48462576079096858 0 -0.27607931301277078 -0.46657199895299017 0 -0.27039562620846602 -0.48462576079096858 0 -0.25409384940020791 -0.47271975939701871 0 -0.27039562620846602 -0.48462576079096858 0 -0.25409384940020791 -0.47271975939701871 0 -0.25462161777893849 -0.5 0 -0.25462161777893849 -0.5 0 -0.23155232774708009 -0.47932355884050398 0 -0.22676073788156451 -0.5 0 -0.25409384940020791 -0.47271975939701871 0 -0.25462161777893849 -0.5 0 -0.23155232774708009 -0.47932355884050398 0 -0.25409384940020791 -0.47271975939701871 0 -0.23155232774708009 -0.47932355884050398 0 -0.2350399564306665 -0.45937717328673289 0 -0.23155232774708009 -0.47932355884050398 0 -0.2350399564306665 -0.45937717328673289 0 -0.2080224731694312 -0.47403962225972662 0 -0.23155232774708009 -0.47932355884050398 0 -0.22676073788156451 -0.5 0 -0.2080224731694312 -0.47403962225972662 0 -0.25687425522332558 -0.44642006451091643 0 -0.2350399564306665 -0.45937717328673289 0 -0.23180750449586429 -0.4343742486430574 0 -0.25687425522332558 -0.44642006451091643 0 -0.25409384940020791 -0.47271975939701871 0 -0.2350399564306665 -0.45937717328673289 0 -0.2350399564306665 -0.45937717328673289 0 -0.21590660946663959 -0.44883644739355771 0 -0.2080224731694312 -0.47403962225972662 0 -0.2350399564306665 -0.45937717328673289 0 -0.21590660946663959 -0.44883644739355771 0 -0.23180750449586429 -0.4343742486430574 0 -0.21590660946663959 -0.44883644739355771 0 -0.1943898331460783 -0.4473597119794826 0 -0.20910912931781811 -0.42543372189632289 0 -0.21590660946663959 -0.44883644739355771 0 -0.1943898331460783 -0.4473597119794826 0 -0.2080224731694312 -0.47403962225972662 0 -0.1943898331460783 -0.4473597119794826 0 -0.2080224731694312 -0.47403962225972662 0 -0.17967053697433849 -0.46928570206264231 0 -0.22676073788156451 -0.5 0 -0.2080224731694312 -0.47403962225972662 0 -0.19889985798419041 -0.5 0 -0.2080224731694312 -0.47403962225972662 0 -0.1821948971586228 -0.48648437486529872 0 -0.17967053697433849 -0.46928570206264231 0 -0.2080224731694312 -0.47403962225972662 0 -0.19889985798419041 -0.5 0 -0.1821948971586228 -0.48648437486529872 0 -0.19889985798419041 -0.5 0 -0.1821948971586228 -0.48648437486529872 0 -0.17103897808681609 -0.49999999999999778 0 -0.1821948971586228 -0.48648437486529872 0 -0.17103897808681609 -0.49999999999999778 0 -0.16495124080259491 -0.49121169214579941 0 -0.17103897808681609 -0.49999999999999778 0 -0.16495124080259491 -0.49121169214579941 0 -0.17103897808681609 -0.49999999999999778 0 -0.16495124080259491 -0.49121169214579941 0 -0.15905149781887321 -0.49999999999999961 0 -0.16495124080259491 -0.49121169214579941 0 -0.15905149781887321 -0.49999999999999961 0 -0.1545750311736096 -0.49062041690426861 0 -0.16495124080259491 -0.49121169214579941 0 -0.15905149781887321 -0.49999999999999961 0 -0.16495124080259491 -0.49121169214579941 0 -0.16530166315622061 -0.47155300009798301 0 -0.17967053697433849 -0.46928570206264231 0 -0.16495124080259491 -0.49121169214579941 0 -0.16530166315622061 -0.47155300009798301 0 -0.15083103946930049 -0.47082765280793248 0 -0.16495124080259491 -0.49121169214579941 0 -0.1545750311736096 -0.49062041690426861 0 -0.15083103946930049 -0.47082765280793248 0 -0.16495124080259491 -0.49121169214579941 0 -0.15083103946930049 -0.47082765280793248 0 -0.16495124080259491 -0.49121169214579941 0 -0.17967053697433849 -0.46928570206264231 0 -0.1821948971586228 -0.48648437486529872 0 -0.16495124080259491 -0.49121169214579941 0 -0.17967053697433849 -0.46928570206264231 0 -0.1943898331460783 -0.4473597119794826 0 -0.17967053697433849 -0.46928570206264231 0 -0.1943898331460783 -0.4473597119794826 0 -0.17967053697433849 -0.46928570206264231 0 -0.1657538353786501 -0.45488695337555668 0 -0.1943898331460783 -0.4473597119794826 0 -0.1657538353786501 -0.45488695337555668 0 -0.1755027511393909 -0.43471579892562301 0 -0.1657538353786501 -0.45488695337555668 0 -0.15761868306950341 -0.43586407366366631 0 -0.1755027511393909 -0.43471579892562301 0 -0.16530166315622061 -0.47155300009798301 0 -0.1657538353786501 -0.45488695337555668 0 -0.15083103946930049 -0.47082765280793248 0 -0.16530166315622061 -0.47155300009798301 0 -0.17967053697433849 -0.46928570206264231 0 -0.1657538353786501 -0.45488695337555668 0 -0.13671083813600751 -0.45044361347006462 0 -0.15083103946930049 -0.47082765280793248 0 -0.13671083813600751 -0.45044361347006462 0 -0.13441782301728619 -0.47175980973682791 0 -0.15083103946930049 -0.47082765280793248 0 -0.1657538353786501 -0.45488695337555668 0 -0.13671083813600751 -0.45044361347006462 0 -0.15083103946930049 -0.47082765280793248 0 -0.13671083813600751 -0.45044361347006462 0 -0.13816776916695811 -0.432543871779144 0 -0.15761868306950341 -0.43586407366366631 0 -0.1657538353786501 -0.45488695337555668 0 -0.13671083813600751 -0.45044361347006462 0 -0.15761868306950341 -0.43586407366366631 0 -0.13671083813600751 -0.45044361347006462 0 -0.13816776916695811 -0.432543871779144 0 -0.1225906368027144 -0.43005957413219659 0 -0.13671083813600751 -0.45044361347006462 0 -0.1225906368027144 -0.43005957413219659 0 -0.13671083813600751 -0.45044361347006462 0 -0.13441782301728619 -0.47175980973682791 0 -0.1201929706126502 -0.46127799294672761 0 -0.13441782301728619 -0.47175980973682791 0 -0.12605423818426559 -0.48707922202292669 0 -0.14429533434837091 -0.48908967660720287 0 -0.13441782301728619 -0.47175980973682791 0 -0.12605423818426559 -0.48707922202292669 0 -0.1201929706126502 -0.46127799294672761 0 -0.1295391708778694 -0.5 0 -0.12605423818426559 -0.48707922202292669 0 -0.14429533434837091 -0.48908967660720287 0 -0.15905149781887321 -0.49999999999999961 0 -0.1295391708778694 -0.5 0 -0.14429533434837091 -0.48908967660720287 0 -0.15905149781887321 -0.49999999999999961 0 -0.14429533434837091 -0.48908967660720287 0 -0.1545750311736096 -0.49062041690426861 0 -0.14429533434837091 -0.48908967660720287 0 -0.1545750311736096 -0.49062041690426861 0 -0.15083103946930049 -0.47082765280793248 0 -0.13441782301728619 -0.47175980973682791 0 -0.14429533434837091 -0.48908967660720287 0 -0.15083103946930049 -0.47082765280793248 0 -0.15345949684661231 -0.4053237642064671 0 -0.15136585988972451 -0.39002590355483568 0 -0.13982663417143551 -0.39933000433158738 0 -0.15136585988972451 -0.39002590355483568 0 -0.1368738238800834 -0.3880397179408614 0 -0.13982663417143551 -0.39933000433158738 0 -0.15345949684661231 -0.4053237642064671 0 -0.13982663417143551 -0.39933000433158738 0 -0.1398029654186671 -0.41064466143528439 0 -0.15136585988972451 -0.39002590355483568 0 -0.1368738238800834 -0.3880397179408614 0 -0.13959568407155781 -0.37291875636350952 0 -0.15136585988972451 -0.39002590355483568 0 -0.15951650330528561 -0.37856285477961621 0 -0.13959568407155781 -0.37291875636350952 0 -0.1368738238800834 -0.3880397179408614 0 -0.12625141541498519 -0.38197991289387551 0 -0.13959568407155781 -0.37291875636350952 0 -0.1368738238800834 -0.3880397179408614 0 -0.12625141541498519 -0.38197991289387551 0 -0.1273295258527142 -0.39594401256049883 0 -0.1368738238800834 -0.3880397179408614 0 -0.1273295258527142 -0.39594401256049883 0 -0.13982663417143551 -0.39933000433158738 0 -0.13982663417143551 -0.39933000433158738 0 -0.1295768038857959 -0.40463739140698729 0 -0.1398029654186671 -0.41064466143528439 0 -0.1273295258527142 -0.39594401256049883 0 -0.13982663417143551 -0.39933000433158738 0 -0.1295768038857959 -0.40463739140698729 0 -0.1273295258527142 -0.39594401256049883 0 -0.1295768038857959 -0.40463739140698729 0 -0.1219584454402414 -0.40406961642135292 0 -0.1295768038857959 -0.40463739140698729 0 -0.1296119374269841 -0.41417592727859581 0 -0.1225700411049412 -0.40994677461386392 0 -0.1296119374269841 -0.41417592727859581 0 -0.12315425937001 -0.41747458531602638 0 -0.1225700411049412 -0.40994677461386392 0 -0.1296119374269841 -0.41417592727859581 0 -0.13713184062407599 -0.42036644340313623 0 -0.12908399078123631 -0.42243277819987513 0 -0.1296119374269841 -0.41417592727859581 0 -0.12908399078123631 -0.42243277819987513 0 -0.12315425937001 -0.41747458531602638 0 -0.1296119374269841 -0.41417592727859581 0 -0.13713184062407599 -0.42036644340313623 0 -0.1398029654186671 -0.41064466143528439 0 -0.1295768038857959 -0.40463739140698729 0 -0.1296119374269841 -0.41417592727859581 0 -0.1398029654186671 -0.41064466143528439 0 -0.12908399078123631 -0.42243277819987513 0 -0.13816776916695811 -0.432543871779144 0 -0.1225906368027144 -0.43005957413219659 0 -0.13713184062407599 -0.42036644340313623 0 -0.12908399078123631 -0.42243277819987513 0 -0.13816776916695811 -0.432543871779144 0 -0.13816776916695811 -0.432543871779144 0 -0.14921107955709881 -0.42003443798493328 0 -0.15761868306950341 -0.43586407366366631 0 -0.13713184062407599 -0.42036644340313623 0 -0.13816776916695811 -0.432543871779144 0 -0.14921107955709881 -0.42003443798493328 0 -0.15345949684661231 -0.4053237642064671 0 -0.1398029654186671 -0.41064466143528439 0 -0.14921107955709881 -0.42003443798493328 0 -0.13713184062407599 -0.42036644340313623 0 -0.1398029654186671 -0.41064466143528439 0 -0.14921107955709881 -0.42003443798493328 0 -0.15345949684661231 -0.4053237642064671 0 -0.14921107955709881 -0.42003443798493328 0 -0.17009787391258249 -0.41611158199907422 0 -0.14921107955709881 -0.42003443798493328 0 -0.17009787391258249 -0.41611158199907422 0 -0.15761868306950341 -0.43586407366366631 0 -0.17009787391258249 -0.41611158199907422 0 -0.15761868306950341 -0.43586407366366631 0 -0.1755027511393909 -0.43471579892562301 0 -0.1943898331460783 -0.4473597119794826 0 -0.1755027511393909 -0.43471579892562301 0 -0.18951413900105801 -0.42212105940109063 0 -0.17009787391258249 -0.41611158199907422 0 -0.1755027511393909 -0.43471579892562301 0 -0.18951413900105801 -0.42212105940109063 0 -0.17009787391258249 -0.41611158199907422 0 -0.18562609472684241 -0.40161550393767448 0 -0.18951413900105801 -0.42212105940109063 0 -0.18562609472684241 -0.40161550393767448 0 -0.16863204450281991 -0.39380366607865908 0 -0.18254917963999329 -0.38971973427100182 0 -0.17009787391258249 -0.41611158199907422 0 -0.18562609472684241 -0.40161550393767448 0 -0.16863204450281991 -0.39380366607865908 0 -0.18562609472684241 -0.40161550393767448 0 -0.18254917963999329 -0.38971973427100182 0 -0.19364364155811911 -0.391297223908462 0 -0.15345949684661231 -0.4053237642064671 0 -0.17009787391258249 -0.41611158199907422 0 -0.16863204450281991 -0.39380366607865908 0 -0.15345949684661231 -0.4053237642064671 0 -0.15136585988972451 -0.39002590355483568 0 -0.16863204450281991 -0.39380366607865908 0 -0.15951650330528561 -0.37856285477961621 0 -0.17625218554490921 -0.38180729220612769 0 -0.1663610822414904 -0.3702523776444529 0 -0.16863204450281991 -0.39380366607865908 0 -0.15951650330528561 -0.37856285477961621 0 -0.17625218554490921 -0.38180729220612769 0 -0.15136585988972451 -0.39002590355483568 0 -0.16863204450281991 -0.39380366607865908 0 -0.15951650330528561 -0.37856285477961621 0 -0.17625218554490921 -0.38180729220612769 0 -0.1663610822414904 -0.3702523776444529 0 -0.18579747934449059 -0.37379744869579251 0 -0.16863204450281991 -0.39380366607865908 0 -0.17625218554490921 -0.38180729220612769 0 -0.18254917963999329 -0.38971973427100182 0 -0.17625218554490921 -0.38180729220612769 0 -0.18254917963999329 -0.38971973427100182 0 -0.18859193186727599 -0.38007498522408562 0 -0.17625218554490921 -0.38180729220612769 0 -0.18859193186727599 -0.38007498522408562 0 -0.18579747934449059 -0.37379744869579251 0 -0.18859193186727599 -0.38007498522408562 0 -0.2014200033848125 -0.37119512976538899 0 -0.18859193186727599 -0.38007498522408562 0 -0.2014200033848125 -0.37119512976538899 0 -0.18579747934449059 -0.37379744869579251 0 -0.18859193186727599 -0.38007498522408562 0 -0.1989719328316337 -0.38216032023399737 0 -0.2014200033848125 -0.37119512976538899 0 -0.1989719328316337 -0.38216032023399737 0 -0.20694960464083431 -0.38128159833907621 0 -0.2014200033848125 -0.37119512976538899 0 -0.1989719328316337 -0.38216032023399737 0 -0.19364364155811911 -0.391297223908462 0 -0.20620014074293039 -0.39180645285032889 0 -0.18859193186727599 -0.38007498522408562 0 -0.1989719328316337 -0.38216032023399737 0 -0.19364364155811911 -0.391297223908462 0 -0.18254917963999329 -0.38971973427100182 0 -0.18859193186727599 -0.38007498522408562 0 -0.19364364155811911 -0.391297223908462 0 -0.18562609472684241 -0.40161550393767448 0 -0.19364364155811911 -0.391297223908462 0 -0.20208872018367391 -0.4070926974887904 0 -0.19364364155811911 -0.391297223908462 0 -0.20620014074293039 -0.39180645285032889 0 -0.20208872018367391 -0.4070926974887904 0 -0.20620014074293039 -0.39180645285032889 0 -0.21479853281951461 -0.38638530273916921 0 -0.22382842548955789 -0.4035077318131633 0 -0.20620014074293039 -0.39180645285032889 0 -0.20208872018367391 -0.4070926974887904 0 -0.22382842548955789 -0.4035077318131633 0 -0.21479853281951461 -0.38638530273916921 0 -0.20694960464083431 -0.38128159833907621 0 -0.21335741342528061 -0.3748607861064962 0 -0.21479853281951461 -0.38638530273916921 0 -0.22412886374227589 -0.38235217247817599 0 -0.21335741342528061 -0.3748607861064962 0 -0.20694960464083431 -0.38128159833907621 0 -0.2014200033848125 -0.37119512976538899 0 -0.21335741342528061 -0.3748607861064962 0 -0.20620014074293039 -0.39180645285032889 0 -0.21479853281951461 -0.38638530273916921 0 -0.20694960464083431 -0.38128159833907621 0 -0.1989719328316337 -0.38216032023399737 0 -0.20620014074293039 -0.39180645285032889 0 -0.20694960464083431 -0.38128159833907621 0 -0.1943898331460783 -0.4473597119794826 0 -0.20910912931781811 -0.42543372189632289 0 -0.1943898331460783 -0.4473597119794826 0 -0.18951413900105801 -0.42212105940109063 0 -0.20910912931781811 -0.42543372189632289 0 -0.18951413900105801 -0.42212105940109063 0 -0.20208872018367391 -0.4070926974887904 0 -0.20910912931781811 -0.42543372189632289 0 -0.18562609472684241 -0.40161550393767448 0 -0.18951413900105801 -0.42212105940109063 0 -0.20208872018367391 -0.4070926974887904 0 -0.20208872018367391 -0.4070926974887904 0 -0.20910912931781811 -0.42543372189632289 0 -0.22382842548955789 -0.4035077318131633 0 -0.20910912931781811 -0.42543372189632289 0 -0.22382842548955789 -0.4035077318131633 0 -0.21590660946663959 -0.44883644739355771 0 -0.20910912931781811 -0.42543372189632289 0 -0.23180750449586429 -0.4343742486430574 0 -0.20910912931781811 -0.42543372189632289 0 -0.23180750449586429 -0.4343742486430574 0 -0.22382842548955789 -0.4035077318131633 0 -0.23180750449586429 -0.4343742486430574 0 -0.24697084661892749 -0.41526345823838401 0 -0.22382842548955789 -0.4035077318131633 0 -0.25687425522332558 -0.44642006451091643 0 -0.23180750449586429 -0.4343742486430574 0 -0.24697084661892749 -0.41526345823838401 0 -0.22412886374227589 -0.38235217247817599 0 -0.2351820232309369 -0.38700758852266848 0 -0.22952037500089251 -0.37311519752493849 0 -0.22412886374227589 -0.38235217247817599 0 -0.22186900287429051 -0.37074082218821958 0 -0.21335741342528061 -0.3748607861064962 0 -0.22412886374227589 -0.38235217247817599 0 -0.22952037500089251 -0.37311519752493849 0 -0.22186900287429051 -0.37074082218821958 0 -0.22382842548955789 -0.4035077318131633 0 -0.24394706363899241 -0.39877073912243299 0 -0.2351820232309369 -0.38700758852266848 0 -0.21479853281951461 -0.38638530273916921 0 -0.22412886374227589 -0.38235217247817599 0 -0.22382842548955789 -0.4035077318131633 0 -0.22412886374227589 -0.38235217247817599 0 -0.22382842548955789 -0.4035077318131633 0 -0.2351820232309369 -0.38700758852266848 0 -0.24697084661892749 -0.41526345823838401 0 -0.22382842548955789 -0.4035077318131633 0 -0.24394706363899241 -0.39877073912243299 0 -0.2504897110532438 -0.38524934403489181 0 -0.24394706363899241 -0.39877073912243299 0 -0.2351820232309369 -0.38700758852266848 0 -0.2504897110532438 -0.38524934403489181 0 -0.2351820232309369 -0.38700758852266848 0 -0.24036284435674521 -0.37772398595485779 0 -0.2351820232309369 -0.38700758852266848 0 -0.24036284435674521 -0.37772398595485779 0 -0.22952037500089251 -0.37311519752493849 0 -0.2504897110532438 -0.38524934403489181 0 -0.24036284435674521 -0.37772398595485779 0 -0.24839247009954951 -0.37292447016044328 0 -0.24839247009954951 -0.37292447016044328 0 -0.24532753696728959 -0.36501789644951049 0 -0.23861636880082099 -0.36955921174380651 0 -0.24036284435674521 -0.37772398595485779 0 -0.24839247009954951 -0.37292447016044328 0 -0.23861636880082099 -0.36955921174380651 0 -0.25757508569408222 -0.36424633604315798 0 -0.24532753696728959 -0.36501789644951049 0 -0.24650166737573331 -0.3569693529562265 0 -0.24532753696728959 -0.36501789644951049 0 -0.24234943749700691 -0.36154613291017651 0 -0.24650166737573331 -0.3569693529562265 0 -0.24532753696728959 -0.36501789644951049 0 -0.24234943749700691 -0.36154613291017651 0 -0.23928568589256061 -0.36455139619594779 0 -0.24234943749700691 -0.36154613291017651 0 -0.23928568589256061 -0.36455139619594779 0 -0.23696933381926599 -0.3585493042599866 0 -0.24532753696728959 -0.36501789644951049 0 -0.23928568589256061 -0.36455139619594779 0 -0.23861636880082099 -0.36955921174380651 0 -0.23928568589256061 -0.36455139619594779 0 -0.23861636880082099 -0.36955921174380651 0 -0.23345080570298909 -0.36409891217005902 0 -0.23928568589256061 -0.36455139619594779 0 -0.23345080570298909 -0.36409891217005902 0 -0.23696933381926599 -0.3585493042599866 0 -0.24036284435674521 -0.37772398595485779 0 -0.23861636880082099 -0.36955921174380651 0 -0.22952037500089251 -0.37311519752493849 0 -0.23345080570298909 -0.36409891217005902 0 -0.22186900287429051 -0.37074082218821958 0 -0.21424807490234879 -0.36231527430669241 0 -0.22952037500089251 -0.37311519752493849 0 -0.23345080570298909 -0.36409891217005902 0 -0.22186900287429051 -0.37074082218821958 0 -0.23696933381926599 -0.3585493042599866 0 -0.21424807490234879 -0.36231527430669241 0 -0.23861636880082099 -0.36955921174380651 0 -0.22952037500089251 -0.37311519752493849 0 -0.23345080570298909 -0.36409891217005902 0 -0.23345080570298909 -0.36409891217005902 0 -0.23696933381926599 -0.3585493042599866 0 -0.21424807490234879 -0.36231527430669241 0 -0.22913587473404851 -0.35200963246311751 0 -0.2097464541822805 -0.33582260124732738 0 -0.22913587473404851 -0.35200963246311751 0 -0.23696933381926599 -0.3585493042599866 0 -0.21424807490234879 -0.36231527430669241 0 -0.22913587473404851 -0.35200963246311751 0 -0.21998707993494029 -0.33959044394559312 0 -0.22913587473404851 -0.35200963246311751 0 -0.21424807490234879 -0.36231527430669241 0 -0.22913587473404851 -0.35200963246311751 0 -0.23696933381926599 -0.3585493042599866 0 -0.22913587473404851 -0.35200963246311751 0 -0.24881121389389799 -0.33838995723746451 0 -0.22913587473404851 -0.35200963246311751 0 -0.23696933381926599 -0.3585493042599866 0 -0.24650166737573331 -0.3569693529562265 0 -0.22913587473404851 -0.35200963246311751 0 -0.24650166737573331 -0.3569693529562265 0 -0.24881121389389799 -0.33838995723746451 0 -0.23696933381926599 -0.3585493042599866 0 -0.24650166737573331 -0.3569693529562265 0 -0.24234943749700691 -0.36154613291017651 0 -0.23696933381926599 -0.3585493042599866 0 -0.24650166737573331 -0.3569693529562265 0 -0.22913587473404851 -0.35200963246311751 0 -0.24881121389389799 -0.33838995723746451 0 -0.2325545649384867 -0.33453283978227571 0 -0.24881121389389799 -0.33838995723746451 0 -0.2441082332202735 -0.32380704628422963 0 -0.2325545649384867 -0.33453283978227571 0 -0.23613058105125781 -0.31890710479075163 0 -0.2279063026952847 -0.3135077128279592 0 -0.2444966906846206 -0.31181945912301329 0 -0.2441082332202735 -0.32380704628422963 0 -0.23498207165859719 -0.32537142019391418 0 -0.23613058105125781 -0.31890710479075163 0 -0.2441082332202735 -0.32380704628422963 0 -0.23498207165859719 -0.32537142019391418 0 -0.2325545649384867 -0.33453283978227571 0 -0.2441082332202735 -0.32380704628422963 0 -0.23613058105125781 -0.31890710479075163 0 -0.2444966906846206 -0.31181945912301329 0 -0.2279063026952847 -0.3135077128279592 0 -0.2193464910840433 -0.31976030368968739 0 -0.21134622408423179 -0.310554889255794 0 -0.23613058105125781 -0.31890710479075163 0 -0.2279063026952847 -0.3135077128279592 0 -0.22829430606921119 -0.32293804105388452 0 -0.23498207165859719 -0.32537142019391418 0 -0.22829430606921119 -0.32293804105388452 0 -0.2325545649384867 -0.33453283978227571 0 -0.23498207165859719 -0.32537142019391418 0 -0.23613058105125781 -0.31890710479075163 0 -0.22829430606921119 -0.32293804105388452 0 -0.22829430606921119 -0.32293804105388452 0 -0.2193464910840433 -0.31976030368968739 0 -0.22209033975117781 -0.32887735541776358 0 -0.2279063026952847 -0.3135077128279592 0 -0.22829430606921119 -0.32293804105388452 0 -0.2193464910840433 -0.31976030368968739 0 -0.22913587473404851 -0.35200963246311751 0 -0.2325545649384867 -0.33453283978227571 0 -0.21998707993494029 -0.33959044394559312 0 -0.22913587473404851 -0.35200963246311751 0 -0.21998707993494029 -0.33959044394559312 0 -0.2097464541822805 -0.33582260124732738 0 -0.22829430606921119 -0.32293804105388452 0 -0.2325545649384867 -0.33453283978227571 0 -0.22209033975117781 -0.32887735541776358 0 -0.2325545649384867 -0.33453283978227571 0 -0.22209033975117781 -0.32887735541776358 0 -0.21998707993494029 -0.33959044394559312 0 -0.21998707993494029 -0.33959044394559312 0 -0.21026925672920721 -0.32756514861737779 0 -0.22209033975117781 -0.32887735541776358 0 -0.21998707993494029 -0.33959044394559312 0 -0.21026925672920721 -0.32756514861737779 0 -0.21998707993494029 -0.33959044394559312 0 -0.2097464541822805 -0.33582260124732738 0 -0.21026925672920721 -0.32756514861737779 0 -0.2097464541822805 -0.33582260124732738 0 -0.21026925672920721 -0.32756514861737779 0 -0.21026925672920721 -0.32756514861737779 0 -0.21134622408423179 -0.310554889255794 0 -0.19267178705524021 -0.30578920503631912 0 -0.21026925672920721 -0.32756514861737779 0 -0.21134622408423179 -0.310554889255794 0 -0.2097464541822805 -0.33582260124732738 0 -0.21026925672920721 -0.32756514861737779 0 -0.19254159852174429 -0.31996122112867409 0 -0.2193464910840433 -0.31976030368968739 0 -0.21026925672920721 -0.32756514861737779 0 -0.21134622408423179 -0.310554889255794 0 -0.2193464910840433 -0.31976030368968739 0 -0.22209033975117781 -0.32887735541776358 0 -0.21026925672920721 -0.32756514861737779 0 -0.2097464541822805 -0.33582260124732738 0 -0.1943588054861482 -0.32297640251143073 0 -0.19254159852174429 -0.31996122112867409 0 -0.21026925672920721 -0.32756514861737779 0 -0.19267178705524021 -0.30578920503631912 0 -0.21026925672920721 -0.32756514861737779 0 -0.19254159852174429 -0.31996122112867409 0 -0.19267178705524021 -0.30578920503631912 0 -0.2097464541822805 -0.33582260124732738 0 -0.19254159852174429 -0.31996122112867409 0 -0.1943588054861482 -0.32297640251143073 0 -0.18737083868624629 -0.33075534874643497 0 -0.18479650728396149 -0.32227615663527998 0 -0.1943588054861482 -0.32297640251143073 0 -0.19254159852174429 -0.31996122112867409 0 -0.1789711567900161 -0.3101302037755338 0 -0.2097464541822805 -0.33582260124732738 0 -0.19466829689393059 -0.33824472710720138 0 -0.19565175395430129 -0.3512554891803924 0 -0.2097464541822805 -0.33582260124732738 0 -0.1943588054861482 -0.32297640251143073 0 -0.19466829689393059 -0.33824472710720138 0 -0.2097464541822805 -0.33582260124732738 0 -0.1943588054861482 -0.32297640251143073 0 -0.1943588054861482 -0.32297640251143073 0 -0.19466829689393059 -0.33824472710720138 0 -0.18737083868624629 -0.33075534874643497 0 -0.19466829689393059 -0.33824472710720138 0 -0.18164424501215659 -0.34621916084723381 0 -0.18737083868624629 -0.33075534874643497 0 -0.19466829689393059 -0.33824472710720138 0 -0.19565175395430129 -0.3512554891803924 0 -0.18164424501215659 -0.34621916084723381 0 -0.20800359978069241 -0.36335027445133922 0 -0.18480326185087809 -0.36719565018674682 0 -0.19565175395430129 -0.3512554891803924 0 -0.20800359978069241 -0.36335027445133922 0 -0.18480326185087809 -0.36719565018674682 0 -0.2014200033848125 -0.37119512976538899 0 -0.18480326185087809 -0.36719565018674682 0 -0.18579747934449059 -0.37379744869579251 0 -0.2014200033848125 -0.37119512976538899 0 -0.20800359978069241 -0.36335027445133922 0 -0.18480326185087809 -0.36719565018674682 0 -0.2014200033848125 -0.37119512976538899 0 -0.20800359978069241 -0.36335027445133922 0 -0.20803809997708481 -0.36661394692190907 0 -0.20800359978069241 -0.36335027445133922 0 -0.20803809997708481 -0.36661394692190907 0 -0.21424807490234879 -0.36231527430669241 0 -0.20800359978069241 -0.36335027445133922 0 -0.20803809997708481 -0.36661394692190907 0 -0.2014200033848125 -0.37119512976538899 0 -0.20803809997708481 -0.36661394692190907 0 -0.21335741342528061 -0.3748607861064962 0 -0.2014200033848125 -0.37119512976538899 0 -0.20803809997708481 -0.36661394692190907 0 -0.20803809997708481 -0.36661394692190907 0 -0.21335741342528061 -0.3748607861064962 0 -0.21424807490234879 -0.36231527430669241 0 -0.22186900287429051 -0.37074082218821958 0 -0.21335741342528061 -0.3748607861064962 0 -0.21424807490234879 -0.36231527430669241 0 -0.20800359978069241 -0.36335027445133922 0 -0.21424807490234879 -0.36231527430669241 0 -0.20803809997708481 -0.36661394692190907 0 -0.21424807490234879 -0.36231527430669241 0 -0.2097464541822805 -0.33582260124732738 0 -0.19565175395430129 -0.3512554891803924 0 -0.20800359978069241 -0.36335027445133922 0 -0.2097464541822805 -0.33582260124732738 0 -0.20800359978069241 -0.36335027445133922 0 -0.2097464541822805 -0.33582260124732738 0 -0.20800359978069241 -0.36335027445133922 0 -0.21424807490234879 -0.36231527430669241 0 -0.22913587473404851 -0.35200963246311751 0 -0.2097464541822805 -0.33582260124732738 0 -0.21424807490234879 -0.36231527430669241 0 -0.2335542019388327 -0.26090262277066528 0 -0.21472073189145299 -0.25725591714607071 0 -0.22837296648480071 -0.23789375384220129 0 -0.2335542019388327 -0.26090262277066528 0 -0.21357196166535461 -0.27540027352014051 0 -0.21472073189145299 -0.25725591714607071 0 -0.25298377122075039 -0.27518622721876451 0 -0.2335542019388327 -0.26090262277066528 0 -0.25431856302814809 -0.24833495949118861 0 -0.25298377122075039 -0.27518622721876451 0 -0.2335542019388327 -0.26090262277066528 0 -0.23093648268818689 -0.28342115129973 0 -0.2335542019388327 -0.26090262277066528 0 -0.23093648268818689 -0.28342115129973 0 -0.21357196166535461 -0.27540027352014051 0 -0.23093648268818689 -0.28342115129973 0 -0.21242319143925911 -0.29354462989421048 0 -0.21357196166535461 -0.27540027352014051 0 -0.23093648268818689 -0.28342115129973 0 -0.2435111179254994 -0.29490773243705071 0 -0.2284599410619414 -0.30268204450860919 0 -0.23093648268818689 -0.28342115129973 0 -0.2284599410619414 -0.30268204450860919 0 -0.21242319143925911 -0.29354462989421048 0 -0.25298377122075039 -0.27518622721876451 0 -0.23093648268818689 -0.28342115129973 0 -0.2435111179254994 -0.29490773243705071 0 -0.2444966906846206 -0.31181945912301329 0 -0.2284599410619414 -0.30268204450860919 0 -0.2435111179254994 -0.29490773243705071 0 -0.2444966906846206 -0.31181945912301329 0 -0.2284599410619414 -0.30268204450860919 0 -0.26057201890547982 -0.29344093798311832 0 -0.2435111179254994 -0.29490773243705071 0 -0.2444966906846206 -0.31181945912301329 0 -0.2279063026952847 -0.3135077128279592 0 -0.2444966906846206 -0.31181945912301329 0 -0.2284599410619414 -0.30268204450860919 0 -0.2284599410619414 -0.30268204450860919 0 -0.21242319143925911 -0.29354462989421048 0 -0.2279063026952847 -0.3135077128279592 0 -0.2284599410619414 -0.30268204450860919 0 -0.21134622408423179 -0.310554889255794 0 -0.2284599410619414 -0.30268204450860919 0 -0.21134622408423179 -0.310554889255794 0 -0.21242319143925911 -0.29354462989421048 0 -0.21134622408423179 -0.310554889255794 0 -0.19267178705524021 -0.30578920503631912 0 -0.21242319143925911 -0.29354462989421048 0 -0.21134622408423179 -0.310554889255794 0 -0.21242319143925911 -0.29354462989421048 0 -0.19267178705524021 -0.30578920503631912 0 -0.19410774352861071 -0.2831088592208712 0 -0.21242319143925911 -0.29354462989421048 0 -0.19410774352861071 -0.2831088592208712 0 -0.21242319143925911 -0.29354462989421048 0 -0.21357196166535461 -0.27540027352014051 0 -0.19410774352861071 -0.2831088592208712 0 -0.21242319143925911 -0.29354462989421048 0 -0.21242319143925911 -0.29354462989421048 0 -0.21357196166535461 -0.27540027352014051 0 -0.21357196166535461 -0.27540027352014051 0 -0.21472073189145299 -0.25725591714607071 0 -0.19410774352861071 -0.2831088592208712 0 -0.21357196166535461 -0.27540027352014051 0 -0.1965391795889786 -0.26204425282134669 0 -0.19410774352861071 -0.2831088592208712 0 -0.1965391795889786 -0.26204425282134669 0 -0.17579229561796161 -0.27267308854753308 0 -0.1965391795889786 -0.26204425282134669 0 -0.20565562739327201 -0.24334207984173631 0 -0.18863044441395099 -0.24733650333174401 0 -0.1965391795889786 -0.26204425282134669 0 -0.18340152769721799 -0.25642831405215172 0 -0.18863044441395099 -0.24733650333174401 0 -0.1965391795889786 -0.26204425282134669 0 -0.21472073189145299 -0.25725591714607071 0 -0.20565562739327201 -0.24334207984173631 0 -0.21357196166535461 -0.27540027352014051 0 -0.1965391795889786 -0.26204425282134669 0 -0.21472073189145299 -0.25725591714607071 0 -0.15747684770731041 -0.26223731787419863 0 -0.16344648285301799 -0.25937253054906129 0 -0.17579229561796161 -0.27267308854753308 0 -0.1593809120407062 -0.25278805690175971 0 -0.16344648285301799 -0.25937253054906129 0 -0.1534429259631987 -0.25724555178864622 0 -0.1593809120407062 -0.25278805690175971 0 -0.16344648285301799 -0.25937253054906129 0 -0.16709258238786229 -0.25188408856254202 0 -0.1593809120407062 -0.25278805690175971 0 -0.16709258238786229 -0.25188408856254202 0 -0.1601832428566283 -0.24550858739866141 0 -0.15747684770731041 -0.26223731787419863 0 -0.16344648285301799 -0.25937253054906129 0 -0.1534429259631987 -0.25724555178864622 0 -0.16344648285301799 -0.25937253054906129 0 -0.1534429259631987 -0.25724555178864622 0 -0.16344648285301799 -0.25937253054906129 0 -0.17379217291466831 -0.25992581321180469 0 -0.17579229561796161 -0.27267308854753308 0 -0.16344648285301799 -0.25937253054906129 0 -0.16709258238786229 -0.25188408856254202 0 -0.17379217291466831 -0.25992581321180469 0 -0.16709258238786229 -0.25188408856254202 0 -0.17679077873490559 -0.25046109420941731 0 -0.17379217291466831 -0.25992581321180469 0 -0.1965391795889786 -0.26204425282134669 0 -0.18340152769721799 -0.25642831405215172 0 -0.17579229561796161 -0.27267308854753308 0 -0.17679077873490559 -0.25046109420941731 0 -0.18340152769721799 -0.25642831405215172 0 -0.17379217291466831 -0.25992581321180469 0 -0.18340152769721799 -0.25642831405215172 0 -0.17379217291466831 -0.25992581321180469 0 -0.17579229561796161 -0.27267308854753308 0 -0.17679077873490559 -0.25046109420941731 0 -0.18340152769721799 -0.25642831405215172 0 -0.18863044441395099 -0.24733650333174401 0 -0.19410774352861071 -0.2831088592208712 0 -0.17579229561796161 -0.27267308854753308 0 -0.17507431738127369 -0.28401326145526029 0 -0.19410774352861071 -0.2831088592208712 0 -0.17579229561796161 -0.27267308854753308 0 -0.15747684770731041 -0.26223731787419863 0 -0.17507431738127369 -0.28401326145526029 0 -0.15747684770731041 -0.26223731787419863 0 -0.17579229561796161 -0.27267308854753308 0 -0.15747684770731041 -0.26223731787419863 0 -0.17579229561796161 -0.27267308854753308 0 -0.17507431738127369 -0.28401326145526029 0 -0.15747684770731041 -0.26223731787419863 0 -0.1596399504195592 -0.27820623095404468 0 -0.17507431738127369 -0.28401326145526029 0 -0.1596399504195592 -0.27820623095404468 0 -0.1624028041075358 -0.29248408411088062 0 -0.1494793968803598 -0.28070198605355251 0 -0.1624028041075358 -0.29248408411088062 0 -0.15973767967650701 -0.30493196891575292 0 -0.15108397830665751 -0.29236825921418419 0 -0.1624028041075358 -0.29248408411088062 0 -0.17507431738127369 -0.28401326145526029 0 -0.17391538329452061 -0.29489800819007239 0 -0.1596399504195592 -0.27820623095404468 0 -0.1624028041075358 -0.29248408411088062 0 -0.17507431738127369 -0.28401326145526029 0 -0.19267178705524021 -0.30578920503631912 0 -0.19410774352861071 -0.2831088592208712 0 -0.17507431738127369 -0.28401326145526029 0 -0.19267178705524021 -0.30578920503631912 0 -0.17507431738127369 -0.28401326145526029 0 -0.17391538329452061 -0.29489800819007239 0 -0.19267178705524021 -0.30578920503631912 0 -0.17507431738127369 -0.28401326145526029 0 -0.17391538329452061 -0.29489800819007239 0 -0.17532621133471249 -0.30426618216820789 0 -0.19254159852174429 -0.31996122112867409 0 -0.19267178705524021 -0.30578920503631912 0 -0.17532621133471249 -0.30426618216820789 0 -0.19267178705524021 -0.30578920503631912 0 -0.17391538329452061 -0.29489800819007239 0 -0.17532621133471249 -0.30426618216820789 0 -0.19254159852174429 -0.31996122112867409 0 -0.17532621133471249 -0.30426618216820789 0 -0.1789711567900161 -0.3101302037755338 0 -0.19254159852174429 -0.31996122112867409 0 -0.17532621133471249 -0.30426618216820789 0 -0.17532621133471249 -0.30426618216820789 0 -0.15973767967650701 -0.30493196891575292 0 -0.16582550601247259 -0.31644195918285489 0 -0.1624028041075358 -0.29248408411088062 0 -0.17532621133471249 -0.30426618216820789 0 -0.15973767967650701 -0.30493196891575292 0 -0.1624028041075358 -0.29248408411088062 0 -0.17532621133471249 -0.30426618216820789 0 -0.1624028041075358 -0.29248408411088062 0 -0.17391538329452061 -0.29489800819007239 0 -0.17532621133471249 -0.30426618216820789 0 -0.144593184228827 -0.30237793828586917 0 -0.15261731536399281 -0.31699983390472031 0 -0.1327552185807534 -0.31482398186879779 0 -0.15973767967650701 -0.30493196891575292 0 -0.144593184228827 -0.30237793828586917 0 -0.15261731536399281 -0.31699983390472031 0 -0.15973767967650701 -0.30493196891575292 0 -0.144593184228827 -0.30237793828586917 0 -0.15108397830665751 -0.29236825921418419 0 -0.144593184228827 -0.30237793828586917 0 -0.1304175251842298 -0.30012492429455973 0 -0.1327552185807534 -0.31482398186879779 0 -0.1304175251842298 -0.30012492429455973 0 -0.1327552185807534 -0.31482398186879779 0 -0.11567190875339491 -0.3081878681979589 0 -0.1304175251842298 -0.30012492429455973 0 -0.13697378053928061 -0.28594316463020741 0 -0.11725087491461519 -0.29108504565108578 0 -0.144593184228827 -0.30237793828586917 0 -0.1304175251842298 -0.30012492429455973 0 -0.13697378053928061 -0.28594316463020741 0 -0.13697378053928061 -0.28594316463020741 0 -0.15108397830665751 -0.29236825921418419 0 -0.1494793968803598 -0.28070198605355251 0 -0.144593184228827 -0.30237793828586917 0 -0.13697378053928061 -0.28594316463020741 0 -0.15108397830665751 -0.29236825921418419 0 -0.1624028041075358 -0.29248408411088062 0 -0.15108397830665751 -0.29236825921418419 0 -0.1494793968803598 -0.28070198605355251 0 -0.1624028041075358 -0.29248408411088062 0 -0.1494793968803598 -0.28070198605355251 0 -0.15747684770731041 -0.26223731787419863 0 -0.1596399504195592 -0.27820623095404468 0 -0.1503927610565664 -0.27179087804580171 0 -0.1596399504195592 -0.27820623095404468 0 -0.1494793968803598 -0.28070198605355251 0 -0.1503927610565664 -0.27179087804580171 0 -0.15747684770731041 -0.26223731787419863 0 -0.1503927610565664 -0.27179087804580171 0 -0.1469785187108 -0.2635474229235048 0 -0.1503927610565664 -0.27179087804580171 0 -0.13966748117377659 -0.26847157538705668 0 -0.1469785187108 -0.2635474229235048 0 -0.1503927610565664 -0.27179087804580171 0 -0.14153524490660671 -0.2763029116229278 0 -0.13966748117377659 -0.26847157538705668 0 -0.1494793968803598 -0.28070198605355251 0 -0.1503927610565664 -0.27179087804580171 0 -0.14153524490660671 -0.2763029116229278 0 -0.13697378053928061 -0.28594316463020741 0 -0.1494793968803598 -0.28070198605355251 0 -0.14153524490660671 -0.2763029116229278 0 -0.13697378053928061 -0.28594316463020741 0 -0.14153524490660671 -0.2763029116229278 0 -0.13219795163187159 -0.27110871778552531 0 -0.13697378053928061 -0.28594316463020741 0 -0.1173011125765811 -0.2721428964285707 0 -0.13697378053928061 -0.28594316463020741 0 -0.13219795163187159 -0.27110871778552531 0 -0.1173011125765811 -0.2721428964285707 0 -0.13219795163187159 -0.27110871778552531 0 -0.1333337708168415 -0.26377523499205202 0 -0.12600056203783161 -0.26301541000095829 0 -0.13219795163187159 -0.27110871778552531 0 -0.12600056203783161 -0.26301541000095829 0 -0.1173011125765811 -0.2721428964285707 0 -0.13219795163187159 -0.27110871778552531 0 -0.13966748117377659 -0.26847157538705668 0 -0.1333337708168415 -0.26377523499205202 0 -0.14153524490660671 -0.2763029116229278 0 -0.13219795163187159 -0.27110871778552531 0 -0.13966748117377659 -0.26847157538705668 0 -0.13966748117377659 -0.26847157538705668 0 -0.13807993829988649 -0.25979154560904222 0 -0.1333337708168415 -0.26377523499205202 0 -0.13807993829988649 -0.25979154560904222 0 -0.1333337708168415 -0.26377523499205202 0 -0.13072292094084129 -0.25648892617767749 0 -0.12600056203783161 -0.26301541000095829 0 -0.13072292094084129 -0.25648892617767749 0 -0.1187556211832122 -0.25814451816493872 0 -0.1333337708168415 -0.26377523499205202 0 -0.12600056203783161 -0.26301541000095829 0 -0.13072292094084129 -0.25648892617767749 0 -0.13072292094084129 -0.25648892617767749 0 -0.13218950310710981 -0.25272660122947088 0 -0.1187556211832122 -0.25814451816493872 0 -0.13072292094084129 -0.25648892617767749 0 -0.13218950310710981 -0.25272660122947088 0 -0.13218950310710981 -0.25272660122947088 0 -0.1459019403517107 -0.25564217047089421 0 -0.13375162957080131 -0.24871916986845621 0 -0.13218950310710981 -0.25272660122947088 0 -0.1459019403517107 -0.25564217047089421 0 -0.13218950310710981 -0.25272660122947088 0 -0.13375162957080131 -0.24871916986845621 0 -0.1459019403517107 -0.25564217047089421 0 -0.13375162957080131 -0.24871916986845621 0 -0.13807993829988649 -0.25979154560904222 0 -0.13218950310710981 -0.25272660122947088 0 -0.1459019403517107 -0.25564217047089421 0 -0.13807993829988649 -0.25979154560904222 0 -0.13072292094084129 -0.25648892617767749 0 -0.13218950310710981 -0.25272660122947088 0 -0.1459019403517107 -0.25564217047089421 0 -0.1534429259631987 -0.25724555178864622 0 -0.1378886282313006 -0.2381062402767252 0 -0.13966748117377659 -0.26847157538705668 0 -0.13807993829988649 -0.25979154560904222 0 -0.1469785187108 -0.2635474229235048 0 -0.13807993829988649 -0.25979154560904222 0 -0.1459019403517107 -0.25564217047089421 0 -0.1469785187108 -0.2635474229235048 0 -0.15747684770731041 -0.26223731787419863 0 -0.1459019403517107 -0.25564217047089421 0 -0.1534429259631987 -0.25724555178864622 0 -0.15747684770731041 -0.26223731787419863 0 -0.1459019403517107 -0.25564217047089421 0 -0.1469785187108 -0.2635474229235048 0 -0.15747684770731041 -0.26223731787419863 0 -0.1459019403517107 -0.25564217047089421 0 -0.15747684770731041 -0.26223731787419863 0 -0.1534429259631987 -0.25724555178864622 0 -0.1593809120407062 -0.25278805690175971 0 -0.1534429259631987 -0.25724555178864622 0 -0.15289321433053751 -0.246830478479277 0 -0.1459019403517107 -0.25564217047089421 0 -0.1534429259631987 -0.25724555178864622 0 -0.17143624801538501 -0.35840063883308271 0 -0.1580141783998408 -0.34710035810185619 0 -0.15489216358121211 -0.36256913283011211 0 -0.17143624801538501 -0.35840063883308271 0 -0.1580141783998408 -0.34710035810185619 0 -0.18164424501215659 -0.34621916084723381 0 -0.17143624801538501 -0.35840063883308271 0 -0.1663610822414904 -0.3702523776444529 0 -0.15489216358121211 -0.36256913283011211 0 -0.15951650330528561 -0.37856285477961621 0 -0.1663610822414904 -0.3702523776444529 0 -0.15489216358121211 -0.36256913283011211 0 -0.17143624801538501 -0.35840063883308271 0 -0.1663610822414904 -0.3702523776444529 0 -0.18480326185087809 -0.36719565018674682 0 -0.1663610822414904 -0.3702523776444529 0 -0.18480326185087809 -0.36719565018674682 0 -0.1663610822414904 -0.3702523776444529 0 -0.18480326185087809 -0.36719565018674682 0 -0.18579747934449059 -0.37379744869579251 0 -0.18480326185087809 -0.36719565018674682 0 -0.18579747934449059 -0.37379744869579251 0 -0.18480326185087809 -0.36719565018674682 0 -0.18164424501215659 -0.34621916084723381 0 -0.19565175395430129 -0.3512554891803924 0 -0.18480326185087809 -0.36719565018674682 0 -0.18164424501215659 -0.34621916084723381 0 -0.17143624801538501 -0.35840063883308271 0 -0.18480326185087809 -0.36719565018674682 0 -0.18164424501215659 -0.34621916084723381 0 -0.18164424501215659 -0.34621916084723381 0 -0.17848522817343529 -0.32524267150772068 0 -0.1629610955137164 -0.33076913941787212 0 -0.18164424501215659 -0.34621916084723381 0 -0.17848522817343529 -0.32524267150772068 0 -0.18164424501215659 -0.34621916084723381 0 -0.18737083868624629 -0.33075534874643497 0 -0.17848522817343529 -0.32524267150772068 0 -0.17532621133471249 -0.30426618216820789 0 -0.17848522817343529 -0.32524267150772068 0 -0.17532621133471249 -0.30426618216820789 0 -0.1789711567900161 -0.3101302037755338 0 -0.17848522817343529 -0.32524267150772068 0 -0.17532621133471249 -0.30426618216820789 0 -0.17848522817343529 -0.32524267150772068 0 -0.16582550601247259 -0.31644195918285489 0 -0.1943588054861482 -0.32297640251143073 0 -0.1789711567900161 -0.3101302037755338 0 -0.18479650728396149 -0.32227615663527998 0 -0.1789711567900161 -0.3101302037755338 0 -0.18479650728396149 -0.32227615663527998 0 -0.17848522817343529 -0.32524267150772068 0 -0.1943588054861482 -0.32297640251143073 0 -0.1789711567900161 -0.3101302037755338 0 -0.18737083868624629 -0.33075534874643497 0 -0.18479650728396149 -0.32227615663527998 0 -0.17848522817343529 -0.32524267150772068 0 -0.17848522817343529 -0.32524267150772068 0 -0.16582550601247259 -0.31644195918285489 0 -0.1629610955137164 -0.33076913941787212 0 -0.16582550601247259 -0.31644195918285489 0 -0.1629610955137164 -0.33076913941787212 0 -0.15261731536399281 -0.31699983390472031 0 -0.15973767967650701 -0.30493196891575292 0 -0.16582550601247259 -0.31644195918285489 0 -0.15261731536399281 -0.31699983390472031 0 -0.1580141783998408 -0.34710035810185619 0 -0.18164424501215659 -0.34621916084723381 0 -0.1629610955137164 -0.33076913941787212 0 -0.1580141783998408 -0.34710035810185619 0 -0.1629610955137164 -0.33076913941787212 0 -0.14559484309128301 -0.3331209990743299 0 -0.14559484309128301 -0.3331209990743299 0 -0.15261731536399281 -0.31699983390472031 0 -0.1327552185807534 -0.31482398186879779 0 -0.1629610955137164 -0.33076913941787212 0 -0.14559484309128301 -0.3331209990743299 0 -0.15261731536399281 -0.31699983390472031 0 -0.14559484309128301 -0.3331209990743299 0 -0.1327552185807534 -0.31482398186879779 0 -0.12678352480283511 -0.3369129194106073 0 -0.14559484309128301 -0.3331209990743299 0 -0.12678352480283511 -0.3369129194106073 0 -0.14043772588655989 -0.35211976174212622 0 -0.12678352480283511 -0.3369129194106073 0 -0.14043772588655989 -0.35211976174212622 0 -0.1203130985899742 -0.35955571918490481 0 -0.1580141783998408 -0.34710035810185619 0 -0.14043772588655989 -0.35211976174212622 0 -0.15489216358121211 -0.36256913283011211 0 -0.1580141783998408 -0.34710035810185619 0 -0.14559484309128301 -0.3331209990743299 0 -0.14043772588655989 -0.35211976174212622 0 -0.14043772588655989 -0.35211976174212622 0 -0.15489216358121211 -0.36256913283011211 0 -0.13959568407155781 -0.37291875636350952 0 -0.15951650330528561 -0.37856285477961621 0 -0.15489216358121211 -0.36256913283011211 0 -0.13959568407155781 -0.37291875636350952 0 -0.12625141541498519 -0.38197991289387551 0 -0.13959568407155781 -0.37291875636350952 0 -0.1203130985899742 -0.35955571918490481 0 -0.14043772588655989 -0.35211976174212622 0 -0.13959568407155781 -0.37291875636350952 0 -0.1203130985899742 -0.35955571918490481 0 -0.1203130985899742 -0.35955571918490481 0 -0.11384267237711319 -0.38219851895920232 0 -0.1203130985899742 -0.35955571918490481 0 -0.10849363524981311 -0.36442991456039969 0 -0.11384267237711319 -0.38219851895920232 0 -0.12625141541498519 -0.38197991289387551 0 -0.1203130985899742 -0.35955571918490481 0 -0.11384267237711319 -0.38219851895920232 0 -0.10849363524981311 -0.36442991456039969 0 -0.096157591159299352 -0.35547454281719221 0 -0.10176491866177829 -0.38015793077534599 0 -0.096157591159299352 -0.35547454281719221 0 -0.10176491866177829 -0.38015793077534599 0 -0.096157591159299352 -0.35547454281719221 0 -0.10176491866177829 -0.38015793077534599 0 -0.085276019388031976 -0.37619188405436782 0 -0.096157591159299352 -0.35547454281719221 0 -0.10964553082547281 -0.34513317088572909 0 -0.090550263656820479 -0.33079115485903843 0 -0.10849363524981311 -0.36442991456039969 0 -0.096157591159299352 -0.35547454281719221 0 -0.10964553082547281 -0.34513317088572909 0 -0.1203130985899742 -0.35955571918490481 0 -0.10849363524981311 -0.36442991456039969 0 -0.10964553082547281 -0.34513317088572909 0 -0.12678352480283511 -0.3369129194106073 0 -0.1203130985899742 -0.35955571918490481 0 -0.10964553082547281 -0.34513317088572909 0 -0.12678352480283511 -0.3369129194106073 0 -0.1203130985899742 -0.35955571918490481 0 -0.12678352480283511 -0.3369129194106073 0 -0.10964553082547281 -0.34513317088572909 0 -0.1112875311940303 -0.32576775904759792 0 -0.1327552185807534 -0.31482398186879779 0 -0.12678352480283511 -0.3369129194106073 0 -0.1112875311940303 -0.32576775904759792 0 -0.1327552185807534 -0.31482398186879779 0 -0.1112875311940303 -0.32576775904759792 0 -0.11567190875339491 -0.3081878681979589 0 -0.1112875311940303 -0.32576775904759792 0 -0.1011365257202933 -0.31403431577096802 0 -0.11567190875339491 -0.3081878681979589 0 -0.1112875311940303 -0.32576775904759792 0 -0.1011365257202933 -0.31403431577096802 0 -0.090550263656820479 -0.33079115485903843 0 -0.10964553082547281 -0.34513317088572909 0 -0.1112875311940303 -0.32576775904759792 0 -0.090550263656820479 -0.33079115485903843 0 -0.096157591159299352 -0.35547454281719221 0 -0.090550263656820479 -0.33079115485903843 0 -0.096157591159299352 -0.35547454281719221 0 -0.090550263656820479 -0.33079115485903843 0 -0.073144777225565616 -0.33606175945158517 0 -0.090550263656820479 -0.33079115485903843 0 -0.084942936154341619 -0.30610776690088481 0 -0.090550263656820479 -0.33079115485903843 0 -0.073144777225565616 -0.33606175945158517 0 -0.084942936154341619 -0.30610776690088481 0 -0.1011365257202933 -0.31403431577096802 0 -0.090550263656820479 -0.33079115485903843 0 -0.084942936154341619 -0.30610776690088481 0 -0.073144777225565616 -0.33606175945158517 0 -0.084942936154341619 -0.30610776690088481 0 -0.060613113796085999 -0.32288269869712272 0 -0.073144777225565616 -0.33606175945158517 0 -0.076755031766953086 -0.35884624094615858 0 -0.063306301319701316 -0.35299520754669739 0 -0.076755031766953086 -0.35884624094615858 0 -0.063306301319701316 -0.35299520754669739 0 -0.065890469742167113 -0.37350781086095058 0 -0.076755031766953086 -0.35884624094615858 0 -0.065890469742167113 -0.37350781086095058 0 -0.085276019388031976 -0.37619188405436782 0 -0.096157591159299352 -0.35547454281719221 0 -0.076755031766953086 -0.35884624094615858 0 -0.085276019388031976 -0.37619188405436782 0 -0.096157591159299352 -0.35547454281719221 0 -0.073144777225565616 -0.33606175945158517 0 -0.076755031766953086 -0.35884624094615858 0 -0.097628444613881649 -0.25834262822693399 0 -0.1173011125765811 -0.2721428964285707 0 -0.097628444613881649 -0.25834262822693399 0 -0.1187556211832122 -0.25814451816493872 0 -0.1098930818979398 -0.24798588601512411 0 -0.13218950310710981 -0.25272660122947088 0 -0.1187556211832122 -0.25814451816493872 0 -0.1098930818979398 -0.24798588601512411 0 -0.097628444613881649 -0.25834262822693399 0 -0.1187556211832122 -0.25814451816493872 0 -0.1173011125765811 -0.2721428964285707 0 -0.13218950310710981 -0.25272660122947088 0 -0.1098930818979398 -0.24798588601512411 0 -0.12600056203783161 -0.26301541000095829 0 -0.1187556211832122 -0.25814451816493872 0 -0.1173011125765811 -0.2721428964285707 0 -0.097628444613881649 -0.25834262822693399 0 -0.1173011125765811 -0.2721428964285707 0 -0.090762408808148426 -0.27102181932101072 0 -0.1173011125765811 -0.2721428964285707 0 -0.096655829275762523 -0.28444542957314378 0 -0.090762408808148426 -0.27102181932101072 0 -0.096655829275762523 -0.28444542957314378 0 -0.10322998884287909 -0.29931702984935987 0 -0.084942936154341619 -0.30610776690088481 0 -0.096655829275762523 -0.28444542957314378 0 -0.11725087491461519 -0.29108504565108578 0 -0.10322998884287909 -0.29931702984935987 0 -0.13697378053928061 -0.28594316463020741 0 -0.1173011125765811 -0.2721428964285707 0 -0.11725087491461519 -0.29108504565108578 0 -0.1173011125765811 -0.2721428964285707 0 -0.096655829275762523 -0.28444542957314378 0 -0.11725087491461519 -0.29108504565108578 0 -0.11725087491461519 -0.29108504565108578 0 -0.11567190875339491 -0.3081878681979589 0 -0.10322998884287909 -0.29931702984935987 0 -0.1304175251842298 -0.30012492429455973 0 -0.11725087491461519 -0.29108504565108578 0 -0.11567190875339491 -0.3081878681979589 0 -0.1011365257202933 -0.31403431577096802 0 -0.10322998884287909 -0.29931702984935987 0 -0.084942936154341619 -0.30610776690088481 0 -0.1011365257202933 -0.31403431577096802 0 -0.11567190875339491 -0.3081878681979589 0 -0.10322998884287909 -0.29931702984935987 0 -0.084942936154341619 -0.30610776690088481 0 -0.066237696895848033 -0.30175990202967712 0 -0.078368201618682937 -0.28822753231137022 0 -0.084942936154341619 -0.30610776690088481 0 -0.066237696895848033 -0.30175990202967712 0 -0.060613113796085999 -0.32288269869712272 0 -0.066237696895848033 -0.30175990202967712 0 -0.078368201618682937 -0.28822753231137022 0 -0.057136779716869042 -0.28712205926022771 0 -0.078368201618682937 -0.28822753231137022 0 -0.072744725061100565 -0.27289296274949931 0 -0.057136779716869042 -0.28712205926022771 0 -0.096655829275762523 -0.28444542957314378 0 -0.084942936154341619 -0.30610776690088481 0 -0.078368201618682937 -0.28822753231137022 0 -0.096655829275762523 -0.28444542957314378 0 -0.078368201618682937 -0.28822753231137022 0 -0.090762408808148426 -0.27102181932101072 0 -0.078368201618682937 -0.28822753231137022 0 -0.090762408808148426 -0.27102181932101072 0 -0.072744725061100565 -0.27289296274949931 0 -0.090762408808148426 -0.27102181932101072 0 -0.072744725061100565 -0.27289296274949931 0 -0.081281336266817772 -0.26097832242812891 0 -0.072744725061100565 -0.27289296274949931 0 -0.067161912638977472 -0.25903173736147111 0 -0.055745381016590281 -0.2682223094504298 0 -0.072744725061100565 -0.27289296274949931 0 -0.067161912638977472 -0.25903173736147111 0 -0.081281336266817772 -0.26097832242812891 0 -0.067161912638977472 -0.25903173736147111 0 -0.081281336266817772 -0.26097832242812891 0 -0.077955776651182085 -0.24454236002529731 0 -0.067161912638977472 -0.25903173736147111 0 -0.056939497423126581 -0.24878681181634871 0 -0.077955776651182085 -0.24454236002529731 0 -0.097628444613881649 -0.25834262822693399 0 -0.081281336266817772 -0.26097832242812891 0 -0.077955776651182085 -0.24454236002529731 0 -0.097628444613881649 -0.25834262822693399 0 -0.090762408808148426 -0.27102181932101072 0 -0.081281336266817772 -0.26097832242812891 0 -0.097628444613881649 -0.25834262822693399 0 -0.077955776651182085 -0.24454236002529731 0 -0.025857267464119819 -0.25506418495113531 0 -0.050191684441297867 -0.2485850187836515 0 -0.034199021844566052 -0.25740496373097072 0 -0.056939497423126581 -0.24878681181634871 0 -0.034199021844566052 -0.25740496373097072 0 -0.041398382443623198 -0.25192549838374201 0 -0.056939497423126581 -0.24878681181634871 0 -0.041398382443623198 -0.25192549838374201 0 -0.025857267464119819 -0.25506418495113531 0 -0.050191684441297867 -0.2485850187836515 0 -0.034199021844566052 -0.25740496373097072 0 -0.048255079716108998 -0.25800015923011232 0 -0.056939497423126581 -0.24878681181634871 0 -0.034199021844566052 -0.25740496373097072 0 -0.041398382443623198 -0.25192549838374201 0 -0.025857267464119819 -0.25506418495113531 0 -0.041398382443623198 -0.25192549838374201 0 -0.025857267464119819 -0.25506418495113531 0 -0.034199021844566052 -0.25740496373097072 0 -0.037307574571523318 -0.26201401924185519 0 -0.024854767991187229 -0.26705994663832661 0 -0.037307574571523318 -0.26201401924185519 0 -0.048255079716108998 -0.25800015923011232 0 -0.046606779304586107 -0.26584835010199509 0 -0.034199021844566052 -0.25740496373097072 0 -0.037307574571523318 -0.26201401924185519 0 -0.048255079716108998 -0.25800015923011232 0 -0.05702546769870083 -0.25851025446459042 0 -0.048255079716108998 -0.25800015923011232 0 -0.056939497423126581 -0.24878681181634871 0 -0.041398382443623198 -0.25192549838374201 0 -0.056939497423126581 -0.24878681181634871 0 -0.067161912638977472 -0.25903173736147111 0 -0.05702546769870083 -0.25851025446459042 0 -0.056939497423126581 -0.24878681181634871 0 -0.067161912638977472 -0.25903173736147111 0 -0.05702546769870083 -0.25851025446459042 0 -0.055745381016590281 -0.2682223094504298 0 -0.05702546769870083 -0.25851025446459042 0 -0.048255079716108998 -0.25800015923011232 0 -0.055745381016590281 -0.2682223094504298 0 -0.048255079716108998 -0.25800015923011232 0 -0.055745381016590281 -0.2682223094504298 0 -0.046606779304586107 -0.26584835010199509 0 -0.055745381016590281 -0.2682223094504298 0 -0.045119081914121867 -0.27515691248558288 0 -0.046606779304586107 -0.26584835010199509 0 -0.055745381016590281 -0.2682223094504298 0 -0.045119081914121867 -0.27515691248558288 0 -0.057136779716869042 -0.28712205926022771 0 -0.072744725061100565 -0.27289296274949931 0 -0.055745381016590281 -0.2682223094504298 0 -0.057136779716869042 -0.28712205926022771 0 -0.037307574571523318 -0.26201401924185519 0 -0.034478529498429812 -0.28951379058442123 0 -0.037307574571523318 -0.26201401924185519 0 -0.034478529498429812 -0.28951379058442123 0 -0.024854767991187229 -0.26705994663832661 0 -0.037307574571523318 -0.26201401924185519 0 -0.045119081914121867 -0.27515691248558288 0 -0.034478529498429812 -0.28951379058442123 0 -0.037307574571523318 -0.26201401924185519 0 -0.045119081914121867 -0.27515691248558288 0 -0.046606779304586107 -0.26584835010199509 0 -0.045119081914121867 -0.27515691248558288 0 -0.034478529498429812 -0.28951379058442123 0 -0.057136779716869042 -0.28712205926022771 0 -0.034478529498429812 -0.28951379058442123 0 -0.057136779716869042 -0.28712205926022771 0 -0.05012745319326059 -0.30445945297878008 0 -0.066237696895848033 -0.30175990202967712 0 -0.05012745319326059 -0.30445945297878008 0 -0.060613113796085999 -0.32288269869712272 0 -0.066237696895848033 -0.30175990202967712 0 -0.057136779716869042 -0.28712205926022771 0 -0.05012745319326059 -0.30445945297878008 0 -0.034478529498429812 -0.28951379058442123 0 -0.05012745319326059 -0.30445945297878008 0 -0.031649484425336299 -0.31701356192698721 0 -0.034478529498429812 -0.28951379058442123 0 -0.031649484425336299 -0.31701356192698721 0 -0.034478529498429812 -0.28951379058442123 0 -0.020284114256294641 -0.29759304008048471 0 -0.031649484425336299 -0.31701356192698721 0 -0.020284114256294641 -0.29759304008048471 0 -0.01007927323019326 -0.3103345258507364 0 -0.031649484425336299 -0.31701356192698721 0 -0.020284114256294641 -0.29759304008048471 0 -0.01007927323019326 -0.3103345258507364 0 -0.0080748459131490501 -0.2914060437848453 0 -0.01007927323019326 -0.3103345258507364 0 -0.0080748459131490501 -0.2914060437848453 0 0.0017563221397047381 -0.2997067901486577 0 -0.020284114256294641 -0.29759304008048471 0 -0.0080748459131490501 -0.2914060437848453 0 -0.017138438214364771 -0.27969727825543328 0 -0.0080748459131490501 -0.2914060437848453 0 -0.002848760243290064 -0.27761611820401882 0 0.0066437179820165657 -0.2861171845936395 0 -0.0080748459131490501 -0.2914060437848453 0 -0.017138438214364771 -0.27969727825543328 0 -0.002848760243290064 -0.27761611820401882 0 -0.034478529498429812 -0.28951379058442123 0 -0.020284114256294641 -0.29759304008048471 0 -0.017138438214364771 -0.27969727825543328 0 -0.034478529498429812 -0.28951379058442123 0 -0.024854767991187229 -0.26705994663832661 0 -0.017138438214364771 -0.27969727825543328 0 -0.024854767991187229 -0.26705994663832661 0 -0.01588915841142927 -0.27169793716392882 0 -0.01145854626600548 -0.26602311564559261 0 -0.024854767991187229 -0.26705994663832661 0 -0.01588915841142927 -0.27169793716392882 0 -0.017138438214364771 -0.27969727825543328 0 -0.017138438214364771 -0.27969727825543328 0 -0.011833725783772399 -0.27375861231724341 0 -0.002848760243290064 -0.27761611820401882 0 -0.01145854626600548 -0.26602311564559261 0 0.01128192931255503 -0.27464126756021451 0 -0.002848760243290064 -0.27761611820401882 0 -0.01145854626600548 -0.26602311564559261 0 0.01128192931255503 -0.27464126756021451 0 -0.01588915841142927 -0.27169793716392882 0 -0.017138438214364771 -0.27969727825543328 0 -0.011833725783772399 -0.27375861231724341 0 -0.011833725783772399 -0.27375861231724341 0 -0.002848760243290064 -0.27761611820401882 0 -0.01145854626600548 -0.26602311564559261 0 -0.01588915841142927 -0.27169793716392882 0 -0.011833725783772399 -0.27375861231724341 0 -0.01145854626600548 -0.26602311564559261 0 -0.01269776775011346 -0.25850600500130039 0 -0.0051360078472848583 -0.25701396995817721 0 0.0057158633005241696 -0.26337829885565528 0 -0.01145854626600548 -0.26602311564559261 0 -0.01269776775011346 -0.25850600500130039 0 0.0057158633005241696 -0.26337829885565528 0 -0.01269776775011346 -0.25850600500130039 0 0.0057158633005241696 -0.26337829885565528 0 -0.0009620894167222515 -0.25496392916579452 0 -0.0051360078472848583 -0.25701396995817721 0 0.0057158633005241696 -0.26337829885565528 0 -0.0071971320314794382 -0.2528457057960789 0 -0.01082738352359053 -0.24876902592697839 0 -0.0029313858115674811 -0.24854412401401971 0 -0.0009620894167222515 -0.25496392916579452 0 -0.0071971320314794382 -0.2528457057960789 0 -0.0029313858115674811 -0.24854412401401971 0 -0.0009620894167222515 -0.25496392916579452 0 -0.0051360078472848583 -0.25701396995817721 0 -0.0071971320314794382 -0.2528457057960789 0 -0.0051360078472848583 -0.25701396995817721 0 -0.0071971320314794382 -0.2528457057960789 0 -0.0094143843739788544 -0.25459574361389747 0 -0.0071971320314794382 -0.2528457057960789 0 -0.0094143843739788544 -0.25459574361389747 0 -0.01082738352359053 -0.24876902592697839 0 -0.01269776775011346 -0.25850600500130039 0 -0.0094143843739788544 -0.25459574361389747 0 -0.01082738352359053 -0.24876902592697839 0 -0.01269776775011346 -0.25850600500130039 0 -0.0051360078472848583 -0.25701396995817721 0 -0.0094143843739788544 -0.25459574361389747 0 -0.01269776775011346 -0.25850600500130039 0 -0.025857267464119819 -0.25506418495113531 0 -0.034199021844566052 -0.25740496373097072 0 -0.01145854626600548 -0.26602311564559261 0 -0.025857267464119819 -0.25506418495113531 0 -0.01269776775011346 -0.25850600500130039 0 -0.025857267464119819 -0.25506418495113531 0 -0.02368513365757598 -0.23851275990414511 0 -0.034199021844566052 -0.25740496373097072 0 -0.024854767991187229 -0.26705994663832661 0 -0.01145854626600548 -0.26602311564559261 0 -0.034199021844566052 -0.25740496373097072 0 -0.01145854626600548 -0.26602311564559261 0 -0.01145854626600548 -0.26602311564559261 0 -0.01269776775011346 -0.25850600500130039 0 -0.025857267464119819 -0.25506418495113531 0 -0.046940286889098168 -0.35955036210978841 0 -0.050269733973634309 -0.3392354021108881 0 -0.02882043935224279 -0.34451333326955308 0 -0.046940286889098168 -0.35955036210978841 0 -0.02882043935224279 -0.34451333326955308 0 -0.026419717968229769 -0.36867473508972981 0 -0.046940286889098168 -0.35955036210978841 0 -0.026419717968229769 -0.36867473508972981 0 -0.046935058978613817 -0.3783756837809118 0 -0.065890469742167113 -0.37350781086095058 0 -0.046940286889098168 -0.35955036210978841 0 -0.046935058978613817 -0.3783756837809118 0 -0.063306301319701316 -0.35299520754669739 0 -0.065890469742167113 -0.37350781086095058 0 -0.046940286889098168 -0.35955036210978841 0 -0.063306301319701316 -0.35299520754669739 0 -0.046940286889098168 -0.35955036210978841 0 -0.050269733973634309 -0.3392354021108881 0 -0.073144777225565616 -0.33606175945158517 0 -0.063306301319701316 -0.35299520754669739 0 -0.050269733973634309 -0.3392354021108881 0 -0.073144777225565616 -0.33606175945158517 0 -0.050269733973634309 -0.3392354021108881 0 -0.060613113796085999 -0.32288269869712272 0 -0.050269733973634309 -0.3392354021108881 0 -0.060613113796085999 -0.32288269869712272 0 -0.031649484425336299 -0.31701356192698721 0 -0.05012745319326059 -0.30445945297878008 0 -0.060613113796085999 -0.32288269869712272 0 -0.031649484425336299 -0.31701356192698721 0 -0.050269733973634309 -0.3392354021108881 0 -0.031649484425336299 -0.31701356192698721 0 -0.02882043935224279 -0.34451333326955308 0 -0.031649484425336299 -0.31701356192698721 0 -0.02882043935224279 -0.34451333326955308 0 -0.031649484425336299 -0.31701356192698721 0 -0.0038616663111063101 -0.33241552487502413 0 -0.02882043935224279 -0.34451333326955308 0 -0.01007927323019326 -0.3103345258507364 0 -0.031649484425336299 -0.31701356192698721 0 -0.0038616663111063101 -0.33241552487502413 0 -0.01007927323019326 -0.3103345258507364 0 -0.0038616663111063101 -0.33241552487502413 0 0.0094652366165251054 -0.31053241408104548 0 -0.0038616663111063101 -0.33241552487502413 0 -0.0043130761299947744 -0.35643483176966217 0 -0.02882043935224279 -0.34451333326955308 0 -0.0043130761299947744 -0.35643483176966217 0 -0.02882043935224279 -0.34451333326955308 0 -0.026419717968229769 -0.36867473508972981 0 -0.0043130761299947744 -0.35643483176966217 0 -0.026419717968229769 -0.36867473508972981 0 -0.0064694903547723136 -0.38059021958606692 0 -0.0064694903547723136 -0.38059021958606692 0 -0.0080625817845775948 -0.40608726553411861 0 -0.026496984295852101 -0.39226102623928111 0 -0.0064694903547723136 -0.38059021958606692 0 -0.0080625817845775948 -0.40608726553411861 0 0.009690974369139977 -0.39295199195252922 0 -0.0080625817845775948 -0.40608726553411861 0 -0.026496984295852101 -0.39226102623928111 0 -0.029852467816379728 -0.41236872525256307 0 -0.026419717968229769 -0.36867473508972981 0 -0.0064694903547723136 -0.38059021958606692 0 -0.026496984295852101 -0.39226102623928111 0 -0.026496984295852101 -0.39226102623928111 0 -0.048213792324517578 -0.39768762776665978 0 -0.046935058978613817 -0.3783756837809118 0 -0.026419717968229769 -0.36867473508972981 0 -0.026496984295852101 -0.39226102623928111 0 -0.046935058978613817 -0.3783756837809118 0 -0.026496984295852101 -0.39226102623928111 0 -0.048213792324517578 -0.39768762776665978 0 -0.029852467816379728 -0.41236872525256307 0 -0.048213792324517578 -0.39768762776665978 0 -0.065379196062645584 -0.39052657147488062 0 -0.06528413140028641 -0.40548789039177052 0 -0.048213792324517578 -0.39768762776665978 0 -0.046935058978613817 -0.3783756837809118 0 -0.065379196062645584 -0.39052657147488062 0 -0.065890469742167113 -0.37350781086095058 0 -0.046935058978613817 -0.3783756837809118 0 -0.065379196062645584 -0.39052657147488062 0 -0.052630130657334448 -0.42871109396582502 0 -0.036803499053157718 -0.43392585985635063 0 -0.055908543568221357 -0.44353945242809251 0 -0.052630130657334448 -0.42871109396582502 0 -0.048282499091199083 -0.41684649723306111 0 -0.065713266975248902 -0.42040157794015642 0 -0.052630130657334448 -0.42871109396582502 0 -0.055908543568221357 -0.44353945242809251 0 -0.077753046024815156 -0.43509142098737241 0 -0.048282499091199083 -0.41684649723306111 0 -0.06528413140028641 -0.40548789039177052 0 -0.065713266975248902 -0.42040157794015642 0 -0.048213792324517578 -0.39768762776665978 0 -0.048282499091199083 -0.41684649723306111 0 -0.06528413140028641 -0.40548789039177052 0 -0.048213792324517578 -0.39768762776665978 0 -0.048282499091199083 -0.41684649723306111 0 -0.029852467816379728 -0.41236872525256307 0 -0.048282499091199083 -0.41684649723306111 0 -0.036803499053157718 -0.43392585985635063 0 -0.029852467816379728 -0.41236872525256307 0 -0.052630130657334448 -0.42871109396582502 0 -0.048282499091199083 -0.41684649723306111 0 -0.036803499053157718 -0.43392585985635063 0 -0.036803499053157718 -0.43392585985635063 0 -0.01686747062211669 -0.42668809062348251 0 -0.022482277956740859 -0.44034230556013138 0 -0.036803499053157718 -0.43392585985635063 0 -0.01686747062211669 -0.42668809062348251 0 -0.029852467816379728 -0.41236872525256307 0 -0.0080625817845775948 -0.40608726553411861 0 -0.01686747062211669 -0.42668809062348251 0 -0.029852467816379728 -0.41236872525256307 0 -0.0080625817845775948 -0.40608726553411861 0 -0.01686747062211669 -0.42668809062348251 0 0.01224976062295041 -0.42183763890738629 0 -0.01686747062211669 -0.42668809062348251 0 -0.008216644178786571 -0.4466179140804285 0 0.01224976062295041 -0.42183763890738629 0 -0.008216644178786571 -0.4466179140804285 0 -0.0021957942935651631 -0.46571035637089769 0 -0.016151777162071251 -0.46269316979172348 0 -0.0021957942935651631 -0.46571035637089769 0 -0.016151777162071251 -0.46269316979172348 0 -0.01292321871024151 -0.47600360382280887 0 -0.008216644178786571 -0.4466179140804285 0 -0.016151777162071251 -0.46269316979172348 0 -0.028753682251359231 -0.45370767630375852 0 -0.016151777162071251 -0.46269316979172348 0 -0.030722049445265721 -0.46513815794063051 0 -0.025757536927686689 -0.47561542944709773 0 -0.016151777162071251 -0.46269316979172348 0 -0.030722049445265721 -0.46513815794063051 0 -0.028753682251359231 -0.45370767630375852 0 -0.036803499053157718 -0.43392585985635063 0 -0.028753682251359231 -0.45370767630375852 0 -0.022482277956740859 -0.44034230556013138 0 -0.01686747062211669 -0.42668809062348251 0 -0.008216644178786571 -0.4466179140804285 0 -0.022482277956740859 -0.44034230556013138 0 -0.008216644178786571 -0.4466179140804285 0 -0.028753682251359231 -0.45370767630375852 0 -0.022482277956740859 -0.44034230556013138 0 -0.011489863113854141 -0.5 0 -0.010144146689038991 -0.48941639725935437 0 0.012735562036971701 -0.48508522326900949 0 -0.010144146689038991 -0.48941639725935437 0 -0.00065605929082254884 -0.47874224407546379 0 -0.01292321871024151 -0.47600360382280887 0 -0.010144146689038991 -0.48941639725935437 0 -0.01292321871024151 -0.47600360382280887 0 -0.022633997898264431 -0.48384402599231691 0 -0.0021957942935651631 -0.46571035637089769 0 -0.00065605929082254884 -0.47874224407546379 0 -0.01292321871024151 -0.47600360382280887 0 -0.016151777162071251 -0.46269316979172348 0 -0.01292321871024151 -0.47600360382280887 0 -0.025757536927686689 -0.47561542944709773 0 -0.025757536927686689 -0.47561542944709773 0 -0.022633997898264431 -0.48384402599231691 0 -0.032724513000240443 -0.48384135401243772 0 -0.01292321871024151 -0.47600360382280887 0 -0.025757536927686689 -0.47561542944709773 0 -0.022633997898264431 -0.48384402599231691 0 -0.011489863113854141 -0.5 0 -0.010144146689038991 -0.48941639725935437 0 -0.033023855415049652 -0.49374757124969931 0 -0.010144146689038991 -0.48941639725935437 0 -0.022633997898264431 -0.48384402599231691 0 -0.033023855415049652 -0.49374757124969931 0 -0.011489863113854141 -0.5 0 -0.041002190054857779 -0.5 0 -0.033023855415049652 -0.49374757124969931 0 -0.010144146689038991 -0.48941639725935437 0 -0.033023855415049652 -0.49374757124969931 0 -0.022633997898264431 -0.48384402599231691 0 -0.033023855415049652 -0.49374757124969931 0 -0.032724513000240443 -0.48384135401243772 0 -0.041002190054857779 -0.5 0 -0.040644419244316249 -0.48874723383863622 0 -0.055758353525359711 -0.48944453406372251 0 -0.041002190054857779 -0.5 0 -0.033023855415049652 -0.49374757124969931 0 -0.040644419244316249 -0.48874723383863622 0 -0.033023855415049652 -0.49374757124969931 0 -0.040644419244316249 -0.48874723383863622 0 -0.032724513000240443 -0.48384135401243772 0 -0.040644419244316249 -0.48874723383863622 0 -0.040713184226073652 -0.47670270986732172 0 -0.055758353525359711 -0.48944453406372251 0 -0.040644419244316249 -0.48874723383863622 0 -0.040713184226073652 -0.47670270986732172 0 -0.032724513000240443 -0.48384135401243772 0 -0.025757536927686689 -0.47561542944709773 0 -0.040713184226073652 -0.47670270986732172 0 -0.032724513000240443 -0.48384135401243772 0 -0.030722049445265721 -0.46513815794063051 0 -0.025757536927686689 -0.47561542944709773 0 -0.040713184226073652 -0.47670270986732172 0 -0.040713184226073652 -0.47670270986732172 0 -0.05604151524233808 -0.47085547185542692 0 -0.042137987481662489 -0.46199998676314519 0 -0.040713184226073652 -0.47670270986732172 0 -0.05604151524233808 -0.47085547185542692 0 -0.055758353525359711 -0.48944453406372251 0 -0.05604151524233808 -0.47085547185542692 0 -0.055758353525359711 -0.48944453406372251 0 -0.068357021366280857 -0.47830767763467641 0 -0.041002190054857779 -0.5 0 -0.055758353525359711 -0.48944453406372251 0 -0.070514516995861642 -0.5 0 -0.036803499053157718 -0.43392585985635063 0 -0.028753682251359231 -0.45370767630375852 0 -0.042591220718736618 -0.44931976272637059 0 -0.036803499053157718 -0.43392585985635063 0 -0.042591220718736618 -0.44931976272637059 0 -0.055908543568221357 -0.44353945242809251 0 -0.028753682251359231 -0.45370767630375852 0 -0.042591220718736618 -0.44931976272637059 0 -0.042137987481662489 -0.46199998676314519 0 -0.030722049445265721 -0.46513815794063051 0 -0.028753682251359231 -0.45370767630375852 0 -0.042137987481662489 -0.46199998676314519 0 -0.030722049445265721 -0.46513815794063051 0 -0.040713184226073652 -0.47670270986732172 0 -0.042137987481662489 -0.46199998676314519 0 -0.042591220718736618 -0.44931976272637059 0 -0.042137987481662489 -0.46199998676314519 0 -0.054601469153056192 -0.45704509188174619 0 -0.05604151524233808 -0.47085547185542692 0 -0.054601469153056192 -0.45704509188174619 0 -0.071896784036839162 -0.45711427830285839 0 -0.05604151524233808 -0.47085547185542692 0 -0.042137987481662489 -0.46199998676314519 0 -0.054601469153056192 -0.45704509188174619 0 -0.054601469153056192 -0.45704509188174619 0 -0.055908543568221357 -0.44353945242809251 0 -0.071896784036839162 -0.45711427830285839 0 -0.042591220718736618 -0.44931976272637059 0 -0.054601469153056192 -0.45704509188174619 0 -0.055908543568221357 -0.44353945242809251 0 -0.055908543568221357 -0.44353945242809251 0 -0.071896784036839162 -0.45711427830285839 0 -0.077753046024815156 -0.43509142098737241 0 -0.071896784036839162 -0.45711427830285839 0 -0.087573937031005744 -0.47412410395137422 0 -0.093954286744555499 -0.45179652052777369 0 -0.087573937031005744 -0.47412410395137422 0 -0.093954286744555499 -0.45179652052777369 0 -0.071896784036839162 -0.45711427830285839 0 -0.093954286744555499 -0.45179652052777369 0 -0.077753046024815156 -0.43509142098737241 0 -0.093954286744555499 -0.45179652052777369 0 -0.10033463645810529 -0.42946893710417328 0 -0.077753046024815156 -0.43509142098737241 0 -0.055758353525359711 -0.48944453406372251 0 -0.070514516995861642 -0.5 0 -0.068357021366280857 -0.47830767763467641 0 -0.05604151524233808 -0.47085547185542692 0 -0.071896784036839162 -0.45711427830285839 0 -0.068357021366280857 -0.47830767763467641 0 -0.071896784036839162 -0.45711427830285839 0 -0.068357021366280857 -0.47830767763467641 0 -0.087573937031005744 -0.47412410395137422 0 -0.070514516995861642 -0.5 0 -0.068357021366280857 -0.47830767763467641 0 -0.087573937031005744 -0.47412410395137422 0 -0.070514516995861642 -0.5 0 -0.087573937031005744 -0.47412410395137422 0 -0.10002684393686551 -0.5 0 -0.087573937031005744 -0.47412410395137422 0 -0.10002684393686551 -0.5 0 -0.10780494223314389 -0.47765854937150709 0 -0.087573937031005744 -0.47412410395137422 0 -0.10780494223314389 -0.47765854937150709 0 -0.1029954147344513 -0.46359439800738522 0 -0.12605423818426559 -0.48707922202292669 0 -0.10780494223314389 -0.47765854937150709 0 -0.1201929706126502 -0.46127799294672761 0 -0.12605423818426559 -0.48707922202292669 0 -0.1201929706126502 -0.46127799294672761 0 -0.12605423818426559 -0.48707922202292669 0 -0.10002684393686551 -0.5 0 -0.10780494223314389 -0.47765854937150709 0 -0.1295391708778694 -0.5 0 -0.12605423818426559 -0.48707922202292669 0 -0.10002684393686551 -0.5 0 -0.093954286744555499 -0.45179652052777369 0 -0.10033463645810529 -0.42946893710417328 0 -0.10636180231815941 -0.44832292249131772 0 -0.11433170304103479 -0.43547676387052858 0 -0.10033463645810529 -0.42946893710417328 0 -0.10636180231815941 -0.44832292249131772 0 -0.093954286744555499 -0.45179652052777369 0 -0.10033463645810529 -0.42946893710417328 0 -0.087573937031005744 -0.47412410395137422 0 -0.093954286744555499 -0.45179652052777369 0 -0.1029954147344513 -0.46359439800738522 0 -0.10636180231815941 -0.44832292249131772 0 -0.093954286744555499 -0.45179652052777369 0 -0.1029954147344513 -0.46359439800738522 0 -0.10780494223314389 -0.47765854937150709 0 -0.1029954147344513 -0.46359439800738522 0 -0.1201929706126502 -0.46127799294672761 0 -0.10636180231815941 -0.44832292249131772 0 -0.1029954147344513 -0.46359439800738522 0 -0.1201929706126502 -0.46127799294672761 0 -0.13671083813600751 -0.45044361347006462 0 -0.1201929706126502 -0.46127799294672761 0 -0.11433170304103479 -0.43547676387052858 0 -0.10636180231815941 -0.44832292249131772 0 -0.1201929706126502 -0.46127799294672761 0 -0.11433170304103479 -0.43547676387052858 0 -0.13671083813600751 -0.45044361347006462 0 -0.1225906368027144 -0.43005957413219659 0 -0.11433170304103479 -0.43547676387052858 0 -0.1201929706126502 -0.46127799294672761 0 -0.11433170304103479 -0.43547676387052858 0 -0.1225906368027144 -0.43005957413219659 0 -0.11433170304103479 -0.43547676387052858 0 -0.10847043546942051 -0.40967553479432928 0 -0.11433170304103479 -0.43547676387052858 0 -0.10847043546942051 -0.40967553479432928 0 -0.12908399078123631 -0.42243277819987513 0 -0.1225906368027144 -0.43005957413219659 0 -0.12315425937001 -0.41747458531602638 0 -0.11433170304103479 -0.43547676387052858 0 -0.10033463645810529 -0.42946893710417328 0 -0.10847043546942051 -0.40967553479432928 0 -0.10033463645810529 -0.42946893710417328 0 -0.094107383989168333 -0.41562629379671062 0 -0.1067149861716557 -0.40714135368057303 0 -0.10033463645810529 -0.42946893710417328 0 -0.1067149861716557 -0.40714135368057303 0 -0.10847043546942051 -0.40967553479432928 0 -0.10033463645810529 -0.42946893710417328 0 -0.1067149861716557 -0.40714135368057303 0 -0.094107383989168333 -0.41562629379671062 0 -0.1067149861716557 -0.40714135368057303 0 -0.093615658715422545 -0.40476526464288082 0 -0.10847043546942051 -0.40967553479432928 0 -0.1105756132387118 -0.40676785322215941 0 -0.1073722461642546 -0.40484131873350049 0 -0.10847043546942051 -0.40967553479432928 0 -0.1073722461642546 -0.40484131873350049 0 -0.1067149861716557 -0.40714135368057303 0 -0.10847043546942051 -0.40967553479432928 0 -0.1073722461642546 -0.40484131873350049 0 -0.1067149861716557 -0.40714135368057303 0 -0.10847043546942051 -0.40967553479432928 0 -0.1225906368027144 -0.43005957413219659 0 -0.1163272184937543 -0.41351727508190028 0 -0.12315425937001 -0.41747458531602638 0 -0.10847043546942051 -0.40967553479432928 0 -0.1125412123036873 -0.40894162881917728 0 -0.1163272184937543 -0.41351727508190028 0 -0.1125412123036873 -0.40894162881917728 0 -0.1105756132387118 -0.40676785322215941 0 -0.1147915820128618 -0.40580585217832088 0 -0.1225906368027144 -0.43005957413219659 0 -0.10847043546942051 -0.40967553479432928 0 -0.1163272184937543 -0.41351727508190028 0 -0.10847043546942051 -0.40967553479432928 0 -0.1125412123036873 -0.40894162881917728 0 -0.1105756132387118 -0.40676785322215941 0 -0.1225906368027144 -0.43005957413219659 0 -0.10847043546942051 -0.40967553479432928 0 -0.1125412123036873 -0.40894162881917728 0 -0.1163272184937543 -0.41351727508190028 0 -0.1147915820128618 -0.40580585217832088 0 -0.1225700411049412 -0.40994677461386392 0 -0.1219584454402414 -0.40406961642135292 0 -0.1147915820128618 -0.40580585217832088 0 -0.1163272184937543 -0.41351727508190028 0 -0.1225700411049412 -0.40994677461386392 0 -0.1147915820128618 -0.40580585217832088 0 -0.1163272184937543 -0.41351727508190028 0 -0.12315425937001 -0.41747458531602638 0 -0.1225700411049412 -0.40994677461386392 0 -0.1273295258527142 -0.39594401256049883 0 -0.1219584454402414 -0.40406961642135292 0 -0.1190781430676657 -0.39944145851713192 0 -0.11305295545189779 -0.39895005080087959 0 -0.11384267237711319 -0.38219851895920232 0 -0.1073722461642546 -0.40484131873350049 0 -0.1295768038857959 -0.40463739140698729 0 -0.1225700411049412 -0.40994677461386392 0 -0.1219584454402414 -0.40406961642135292 0 -0.1182582065806136 -0.392437760624607 0 -0.11305295545189779 -0.39895005080087959 0 -0.11384267237711319 -0.38219851895920232 0 -0.11384267237711319 -0.38219851895920232 0 -0.1073722461642546 -0.40484131873350049 0 -0.1219584454402414 -0.40406961642135292 0 -0.1190781430676657 -0.39944145851713192 0 -0.1147915820128618 -0.40580585217832088 0 -0.1273295258527142 -0.39594401256049883 0 -0.1190781430676657 -0.39944145851713192 0 -0.1182582065806136 -0.392437760624607 0 -0.1190781430676657 -0.39944145851713192 0 -0.1182582065806136 -0.392437760624607 0 -0.11305295545189779 -0.39895005080087959 0 -0.1105756132387118 -0.40676785322215941 0 -0.1114480992169309 -0.40409126873371493 0 -0.1073722461642546 -0.40484131873350049 0 -0.1105756132387118 -0.40676785322215941 0 -0.1114480992169309 -0.40409126873371493 0 -0.1147915820128618 -0.40580585217832088 0 -0.11305295545189779 -0.39895005080087959 0 -0.1114480992169309 -0.40409126873371493 0 -0.1147915820128618 -0.40580585217832088 0 -0.11305295545189779 -0.39895005080087959 0 -0.1114480992169309 -0.40409126873371493 0 -0.1073722461642546 -0.40484131873350049 0 -0.1190781430676657 -0.39944145851713192 0 -0.11305295545189779 -0.39895005080087959 0 -0.1147915820128618 -0.40580585217832088 0 -0.12625141541498519 -0.38197991289387551 0 -0.1182582065806136 -0.392437760624607 0 -0.11384267237711319 -0.38219851895920232 0 -0.12625141541498519 -0.38197991289387551 0 -0.1273295258527142 -0.39594401256049883 0 -0.1182582065806136 -0.392437760624607 0 -0.11384267237711319 -0.38219851895920232 0 -0.10176491866177829 -0.38015793077534599 0 -0.1073722461642546 -0.40484131873350049 0 -0.10176491866177829 -0.38015793077534599 0 -0.095995502779844255 -0.39166661886747001 0 -0.085276019388031976 -0.37619188405436782 0 -0.10849363524981311 -0.36442991456039969 0 -0.11384267237711319 -0.38219851895920232 0 -0.10176491866177829 -0.38015793077534599 0 -0.10176491866177829 -0.38015793077534599 0 -0.1073722461642546 -0.40484131873350049 0 -0.095995502779844255 -0.39166661886747001 0 -0.10176491866177829 -0.38015793077534599 0 -0.1073722461642546 -0.40484131873350049 0 -0.1067149861716557 -0.40714135368057303 0 -0.1073722461642546 -0.40484131873350049 0 -0.095995502779844255 -0.39166661886747001 0 -0.1067149861716557 -0.40714135368057303 0 -0.1073722461642546 -0.40484131873350049 0 -0.1067149861716557 -0.40714135368057303 0 -0.095995502779844255 -0.39166661886747001 0 -0.1067149861716557 -0.40714135368057303 0 -0.095995502779844255 -0.39166661886747001 0 -0.093615658715422545 -0.40476526464288082 0 -0.093615658715422545 -0.40476526464288082 0 -0.081664681120336771 -0.39582842074610342 0 -0.082451352827770552 -0.41163664718976212 0 -0.095995502779844255 -0.39166661886747001 0 -0.093615658715422545 -0.40476526464288082 0 -0.081664681120336771 -0.39582842074610342 0 -0.095995502779844255 -0.39166661886747001 0 -0.081664681120336771 -0.39582842074610342 0 -0.085276019388031976 -0.37619188405436782 0 -0.081664681120336771 -0.39582842074610342 0 -0.085276019388031976 -0.37619188405436782 0 -0.074552591578295357 -0.38401367178407558 0 -0.095995502779844255 -0.39166661886747001 0 -0.085276019388031976 -0.37619188405436782 0 -0.081664681120336771 -0.39582842074610342 0 -0.065379196062645584 -0.39052657147488062 0 -0.074552591578295357 -0.38401367178407558 0 -0.065890469742167113 -0.37350781086095058 0 -0.085276019388031976 -0.37619188405436782 0 -0.074552591578295357 -0.38401367178407558 0 -0.065890469742167113 -0.37350781086095058 0 -0.065379196062645584 -0.39052657147488062 0 -0.074552591578295357 -0.38401367178407558 0 -0.081664681120336771 -0.39582842074610342 0 -0.06528413140028641 -0.40548789039177052 0 -0.082451352827770552 -0.41163664718976212 0 -0.081664681120336771 -0.39582842074610342 0 -0.065379196062645584 -0.39052657147488062 0 -0.06528413140028641 -0.40548789039177052 0 -0.065713266975248902 -0.42040157794015642 0 -0.085028608260126398 -0.42320905853578622 0 -0.082451352827770552 -0.41163664718976212 0 -0.06528413140028641 -0.40548789039177052 0 -0.065713266975248902 -0.42040157794015642 0 -0.082451352827770552 -0.41163664718976212 0 -0.065713266975248902 -0.42040157794015642 0 -0.077753046024815156 -0.43509142098737241 0 -0.085028608260126398 -0.42320905853578622 0 -0.052630130657334448 -0.42871109396582502 0 -0.065713266975248902 -0.42040157794015642 0 -0.077753046024815156 -0.43509142098737241 0 -0.10033463645810529 -0.42946893710417328 0 -0.077753046024815156 -0.43509142098737241 0 -0.085028608260126398 -0.42320905853578622 0 -0.10033463645810529 -0.42946893710417328 0 -0.094107383989168333 -0.41562629379671062 0 -0.085028608260126398 -0.42320905853578622 0 -0.094107383989168333 -0.41562629379671062 0 -0.085028608260126398 -0.42320905853578622 0 -0.082451352827770552 -0.41163664718976212 0 -0.094107383989168333 -0.41562629379671062 0 -0.093615658715422545 -0.40476526464288082 0 -0.082451352827770552 -0.41163664718976212 0 -0.080832567710134945 -0.085265223789800185 0 -0.09573268077664969 -0.090624673380050064 0 -0.094924188455715333 -0.074372309221374736 0 -0.080832567710134945 -0.085265223789800185 0 -0.0944050220014645 -0.1050702242089397 0 -0.09573268077664969 -0.090624673380050064 0 -0.094924188455715333 -0.074372309221374736 0 -0.077079431972146645 -0.050953682142663811 0 -0.080832567710134945 -0.085265223789800185 0 -0.077460787511610923 -0.070469280456870842 0 -0.094924188455715333 -0.074372309221374736 0 -0.077460787511610923 -0.070469280456870842 0 -0.094924188455715333 -0.074372309221374736 0 -0.078535685693175539 -0.061573663464548622 0 -0.080832567710134945 -0.085265223789800185 0 -0.072736864716213656 -0.076885636419884412 0 -0.077460787511610923 -0.070469280456870842 0 -0.072736864716213656 -0.076885636419884412 0 -0.077460787511610923 -0.070469280456870842 0 -0.067174029152377468 -0.071022972744677337 0 -0.077460787511610923 -0.070469280456870842 0 -0.067174029152377468 -0.071022972744677337 0 -0.070308423821052124 -0.061023041189074957 0 -0.077460787511610923 -0.070469280456870842 0 -0.078535685693175539 -0.061573663464548622 0 -0.070308423821052124 -0.061023041189074957 0 -0.067174029152377468 -0.071022972744677337 0 -0.070308423821052124 -0.061023041189074957 0 -0.060830035872249492 -0.064558057335980773 0 -0.072736864716213656 -0.076885636419884412 0 -0.067174029152377468 -0.071022972744677337 0 -0.063732237529271596 -0.080733089011810297 0 -0.067174029152377468 -0.071022972744677337 0 -0.063732237529271596 -0.080733089011810297 0 -0.058000192015007383 -0.073011667883306972 0 -0.080832567710134945 -0.085265223789800185 0 -0.063732237529271596 -0.080733089011810297 0 -0.066023591375222151 -0.09957098179305135 0 -0.080832567710134945 -0.085265223789800185 0 -0.072736864716213656 -0.076885636419884412 0 -0.063732237529271596 -0.080733089011810297 0 -0.066023591375222151 -0.09957098179305135 0 -0.069466171350113709 -0.1135628440840601 0 -0.0944050220014645 -0.1050702242089397 0 -0.066023591375222151 -0.09957098179305135 0 -0.069466171350113709 -0.1135628440840601 0 -0.054384952187449757 -0.110609208962567 0 -0.077516787342341589 -0.1242022911324857 0 -0.069466171350113709 -0.1135628440840601 0 -0.059238207921678762 -0.13024384051707169 0 -0.077516787342341589 -0.1242022911324857 0 -0.093262550211769629 -0.1231040070079162 0 -0.0944050220014645 -0.1050702242089397 0 -0.077516787342341589 -0.1242022911324857 0 -0.069466171350113709 -0.1135628440840601 0 -0.0944050220014645 -0.1050702242089397 0 -0.066023591375222151 -0.09957098179305135 0 -0.0944050220014645 -0.1050702242089397 0 -0.080832567710134945 -0.085265223789800185 0 -0.066023591375222151 -0.09957098179305135 0 -0.0944050220014645 -0.1050702242089397 0 -0.0944050220014645 -0.1050702242089397 0 -0.1071147179002416 -0.1244919901550422 0 -0.11276894493928399 -0.097790936300085646 0 -0.0944050220014645 -0.1050702242089397 0 -0.11276894493928399 -0.097790936300085646 0 -0.09573268077664969 -0.090624673380050064 0 -0.093262550211769629 -0.1231040070079162 0 -0.0944050220014645 -0.1050702242089397 0 -0.1071147179002416 -0.1244919901550422 0 -0.1071147179002416 -0.1244919901550422 0 -0.11276894493928399 -0.097790936300085646 0 -0.1306137014228527 -0.1212095633787966 0 -0.11276894493928399 -0.097790936300085646 0 -0.1306137014228527 -0.1212095633787966 0 -0.112702195828283 -0.076339248342475546 0 -0.13438499311011279 -0.096174695905308166 0 -0.11276894493928399 -0.097790936300085646 0 -0.112702195828283 -0.076339248342475546 0 -0.13438499311011279 -0.096174695905308166 0 -0.11276894493928399 -0.097790936300085646 0 -0.094924188455715333 -0.074372309221374736 0 -0.112702195828283 -0.076339248342475546 0 -0.11276894493928399 -0.097790936300085646 0 -0.094924188455715333 -0.074372309221374736 0 -0.11276894493928399 -0.097790936300085646 0 -0.09573268077664969 -0.090624673380050064 0 -0.094924188455715333 -0.074372309221374736 0 -0.094924188455715333 -0.074372309221374736 0 -0.1026030192468113 -0.064894788769428779 0 -0.112702195828283 -0.076339248342475546 0 -0.094924188455715333 -0.074372309221374736 0 -0.1026030192468113 -0.064894788769428779 0 -0.090333769324138391 -0.059362086744932152 0 -0.1026030192468113 -0.064894788769428779 0 -0.112702195828283 -0.076339248342475546 0 -0.1158705629695205 -0.060236298698018297 0 -0.112702195828283 -0.076339248342475546 0 -0.1158705629695205 -0.060236298698018297 0 -0.13497135686491851 -0.078315161523928284 0 -0.1158705629695205 -0.060236298698018297 0 -0.1150956899200111 -0.045830426672337207 0 -0.1070798181065768 -0.041876824406217303 0 -0.1158705629695205 -0.060236298698018297 0 -0.1150956899200111 -0.045830426672337207 0 -0.12809376798702951 -0.047905065599393698 0 -0.1163329610324388 -0.034474533447810513 0 -0.12530131535501859 -0.034952786400489197 0 -0.12809376798702951 -0.047905065599393698 0 -0.11023593420079281 -0.033339602888773932 0 -0.1150956899200111 -0.045830426672337207 0 -0.12809376798702951 -0.047905065599393698 0 -0.11023593420079281 -0.033339602888773932 0 -0.1163329610324388 -0.034474533447810513 0 -0.12809376798702951 -0.047905065599393698 0 -0.11023593420079281 -0.033339602888773932 0 -0.12809376798702951 -0.047905065599393698 0 -0.1163329610324388 -0.034474533447810513 0 -0.1221370268088495 -0.025998648103035 0 -0.12530131535501859 -0.034952786400489197 0 -0.11023593420079281 -0.033339602888773932 0 -0.1150956899200111 -0.045830426672337207 0 -0.1070798181065768 -0.041876824406217303 0 -0.11023593420079281 -0.033339602888773932 0 -0.1163329610324388 -0.034474533447810513 0 -0.097427134368436918 -0.027820357899848831 0 -0.11023593420079281 -0.033339602888773932 0 -0.1070798181065768 -0.041876824406217303 0 -0.097427134368436918 -0.027820357899848831 0 -0.1070798181065768 -0.041876824406217303 0 -0.096769769074122519 -0.04215743587210824 0 -0.097427134368436918 -0.027820357899848831 0 -0.1158705629695205 -0.060236298698018297 0 -0.1070798181065768 -0.041876824406217303 0 -0.096769769074122519 -0.04215743587210824 0 -0.1026030192468113 -0.064894788769428779 0 -0.1158705629695205 -0.060236298698018297 0 -0.099264754381345577 -0.055060356505970513 0 -0.1158705629695205 -0.060236298698018297 0 -0.096769769074122519 -0.04215743587210824 0 -0.099264754381345577 -0.055060356505970513 0 -0.096769769074122519 -0.04215743587210824 0 -0.099264754381345577 -0.055060356505970513 0 -0.090746651292135133 -0.048651172445365112 0 -0.1158705629695205 -0.060236298698018297 0 -0.096769769074122519 -0.04215743587210824 0 -0.1026030192468113 -0.064894788769428779 0 -0.099264754381345577 -0.055060356505970513 0 -0.090333769324138391 -0.059362086744932152 0 -0.1029392013539359 -0.0085751277431150782 0 -0.12735709500343681 0.004015926865657337 0 -0.1236693299605585 -0.0137973575501921 0 -0.1110604598185659 -0.0207882196779367 0 -0.1029392013539359 -0.0085751277431150782 0 -0.1236693299605585 -0.0137973575501921 0 -0.1029392013539359 -0.0085751277431150782 0 -0.12735709500343681 0.004015926865657337 0 -0.1236693299605585 -0.0137973575501921 0 -0.1110604598185659 -0.0207882196779367 0 -0.1221370268088495 -0.025998648103035 0 -0.1163329610324388 -0.034474533447810513 0 -0.1221370268088495 -0.025998648103035 0 -0.11173939550707281 -0.027270439782157759 0 -0.1110604598185659 -0.0207882196779367 0 -0.1221370268088495 -0.025998648103035 0 -0.11173939550707281 -0.027270439782157759 0 -0.1163329610324388 -0.034474533447810513 0 -0.097427134368436918 -0.027820357899848831 0 -0.1110604598185659 -0.0207882196779367 0 -0.097427134368436918 -0.027820357899848831 0 -0.1029392013539359 -0.0085751277431150782 0 -0.1163329610324388 -0.034474533447810513 0 -0.11173939550707281 -0.027270439782157759 0 -0.097427134368436918 -0.027820357899848831 0 -0.1110604598185659 -0.0207882196779367 0 -0.11173939550707281 -0.027270439782157759 0 -0.097427134368436918 -0.027820357899848831 0 -0.1029392013539359 -0.0085751277431150782 0 -0.086097875964997059 -0.0058870606910941042 0 -0.078521307704434995 -0.021166182351887271 0 -0.1029392013539359 -0.0085751277431150782 0 -0.078521307704434995 -0.021166182351887271 0 -0.1029392013539359 -0.0085751277431150782 0 -0.086097875964997059 -0.0058870606910941042 0 -0.091682611010439896 0.0063963380850077774 0 -0.086097875964997059 -0.0058870606910941042 0 -0.073830544796709738 -0.0078542708917730738 0 -0.078933949510919491 0.00072378658541613432 0 -0.086097875964997059 -0.0058870606910941042 0 -0.078521307704434995 -0.021166182351887271 0 -0.073830544796709738 -0.0078542708917730738 0 -0.097427134368436918 -0.027820357899848831 0 -0.078521307704434995 -0.021166182351887271 0 -0.097427134368436918 -0.027820357899848831 0 -0.078521307704434995 -0.021166182351887271 0 -0.077668975178724509 -0.024078573046198169 0 -0.097427134368436918 -0.027820357899848831 0 -0.1029392013539359 -0.0085751277431150782 0 -0.078521307704434995 -0.021166182351887271 0 -0.078521307704434995 -0.021166182351887271 0 -0.055132092173872667 -0.033226800447327051 0 -0.05822397002114936 -0.01402224463886402 0 -0.078521307704434995 -0.021166182351887271 0 -0.055132092173872667 -0.033226800447327051 0 -0.077668975178724509 -0.024078573046198169 0 -0.075465350998538308 -0.032772608828030472 0 -0.055132092173872667 -0.033226800447327051 0 -0.078521307704434995 -0.021166182351887271 0 -0.077668975178724509 -0.024078573046198169 0 -0.055132092173872667 -0.033226800447327051 0 -0.078521307704434995 -0.021166182351887271 0 -0.05822397002114936 -0.01402224463886402 0 -0.078521307704434995 -0.021166182351887271 0 -0.073830544796709738 -0.0078542708917730738 0 -0.05822397002114936 -0.01402224463886402 0 -0.073830544796709738 -0.0078542708917730738 0 -0.05822397002114936 -0.01402224463886402 0 -0.068462160169621672 0.0025537029525893409 0 -0.073830544796709738 -0.0078542708917730738 0 -0.078933949510919491 0.00072378658541613432 0 -0.068462160169621672 0.0025537029525893409 0 -0.094924188455715333 -0.074372309221374736 0 -0.090333769324138391 -0.059362086744932152 0 -0.077079431972146645 -0.050953682142663811 0 -0.094924188455715333 -0.074372309221374736 0 -0.078535685693175539 -0.061573663464548622 0 -0.077079431972146645 -0.050953682142663811 0 -0.084868245962835154 -0.053326759561897898 0 -0.090333769324138391 -0.059362086744932152 0 -0.077079431972146645 -0.050953682142663811 0 -0.084868245962835154 -0.053326759561897898 0 -0.080876314157704687 -0.04955372347343575 0 -0.082849096915408454 -0.045583035938281863 0 -0.080876314157704687 -0.04955372347343575 0 -0.078708481780428496 -0.048351416250899462 0 -0.082849096915408454 -0.045583035938281863 0 -0.080876314157704687 -0.04955372347343575 0 -0.078708481780428496 -0.048351416250899462 0 -0.077079431972146645 -0.050953682142663811 0 -0.084868245962835154 -0.053326759561897898 0 -0.080876314157704687 -0.04955372347343575 0 -0.077079431972146645 -0.050953682142663811 0 -0.084868245962835154 -0.053326759561897898 0 -0.090746651292135133 -0.048651172445365112 0 -0.082849096915408454 -0.045583035938281863 0 -0.084868245962835154 -0.053326759561897898 0 -0.090333769324138391 -0.059362086744932152 0 -0.090746651292135133 -0.048651172445365112 0 -0.099264754381345577 -0.055060356505970513 0 -0.090333769324138391 -0.059362086744932152 0 -0.090746651292135133 -0.048651172445365112 0 -0.096769769074122519 -0.04215743587210824 0 -0.088481073739883592 -0.043344290748051233 0 -0.083558777677868248 -0.036985518736449702 0 -0.096769769074122519 -0.04215743587210824 0 -0.097427134368436918 -0.027820357899848831 0 -0.077668975178724509 -0.024078573046198169 0 -0.096769769074122519 -0.04215743587210824 0 -0.077668975178724509 -0.024078573046198169 0 -0.083558777677868248 -0.036985518736449702 0 -0.096769769074122519 -0.04215743587210824 0 -0.077668975178724509 -0.024078573046198169 0 -0.090746651292135133 -0.048651172445365112 0 -0.088481073739883592 -0.043344290748051233 0 -0.082849096915408454 -0.045583035938281863 0 -0.096769769074122519 -0.04215743587210824 0 -0.090746651292135133 -0.048651172445365112 0 -0.088481073739883592 -0.043344290748051233 0 -0.077668975178724509 -0.024078573046198169 0 -0.083558777677868248 -0.036985518736449702 0 -0.075465350998538308 -0.032772608828030472 0 -0.083558777677868248 -0.036985518736449702 0 -0.082849096915408454 -0.045583035938281863 0 -0.075062618692292638 -0.040325846155841297 0 -0.088481073739883592 -0.043344290748051233 0 -0.083558777677868248 -0.036985518736449702 0 -0.082849096915408454 -0.045583035938281863 0 -0.082849096915408454 -0.045583035938281863 0 -0.078067002861142085 -0.04575568247049161 0 -0.075062618692292638 -0.040325846155841297 0 -0.078708481780428496 -0.048351416250899462 0 -0.082849096915408454 -0.045583035938281863 0 -0.078067002861142085 -0.04575568247049161 0 -0.075647814056438792 -0.048762431536943832 0 -0.055132092173872667 -0.033226800447327051 0 -0.078067002861142085 -0.04575568247049161 0 -0.075062618692292638 -0.040325846155841297 0 -0.075647814056438792 -0.048762431536943832 0 -0.075062618692292638 -0.040325846155841297 0 -0.075465350998538308 -0.032772608828030472 0 -0.055132092173872667 -0.033226800447327051 0 -0.075647814056438792 -0.048762431536943832 0 -0.061428605263776047 -0.046553119166432878 0 -0.055132092173872667 -0.033226800447327051 0 -0.075062618692292638 -0.040325846155841297 0 -0.075647814056438792 -0.048762431536943832 0 -0.055132092173872667 -0.033226800447327051 0 -0.083558777677868248 -0.036985518736449702 0 -0.075062618692292638 -0.040325846155841297 0 -0.075465350998538308 -0.032772608828030472 0 -0.065722760200719738 -0.052253177456942877 0 -0.075647814056438792 -0.048762431536943832 0 -0.061428605263776047 -0.046553119166432878 0 -0.065722760200719738 -0.052253177456942877 0 -0.07269306068786438 -0.052406879740114577 0 -0.069833853901725543 -0.055329661047837618 0 -0.065722760200719738 -0.052253177456942877 0 -0.07269306068786438 -0.052406879740114577 0 -0.075647814056438792 -0.048762431536943832 0 -0.07269306068786438 -0.052406879740114577 0 -0.073703714626092445 -0.056102563442451223 0 -0.069833853901725543 -0.055329661047837618 0 -0.07269306068786438 -0.052406879740114577 0 -0.077079431972146645 -0.050953682142663811 0 -0.073703714626092445 -0.056102563442451223 0 -0.078708481780428496 -0.048351416250899462 0 -0.077079431972146645 -0.050953682142663811 0 -0.075647814056438792 -0.048762431536943832 0 -0.07269306068786438 -0.052406879740114577 0 -0.077079431972146645 -0.050953682142663811 0 -0.075647814056438792 -0.048762431536943832 0 -0.078708481780428496 -0.048351416250899462 0 -0.078067002861142085 -0.04575568247049161 0 -0.075647814056438792 -0.048762431536943832 0 -0.078535685693175539 -0.061573663464548622 0 -0.073703714626092445 -0.056102563442451223 0 -0.070308423821052124 -0.061023041189074957 0 -0.078535685693175539 -0.061573663464548622 0 -0.077079431972146645 -0.050953682142663811 0 -0.073703714626092445 -0.056102563442451223 0 -0.073703714626092445 -0.056102563442451223 0 -0.070308423821052124 -0.061023041189074957 0 -0.069833853901725543 -0.055329661047837618 0 -0.070308423821052124 -0.061023041189074957 0 -0.064391701294429504 -0.057679717025484439 0 -0.060830035872249492 -0.064558057335980773 0 -0.070308423821052124 -0.061023041189074957 0 -0.069833853901725543 -0.055329661047837618 0 -0.064391701294429504 -0.057679717025484439 0 -0.065722760200719738 -0.052253177456942877 0 -0.069833853901725543 -0.055329661047837618 0 -0.064391701294429504 -0.057679717025484439 0 -0.064391701294429504 -0.057679717025484439 0 -0.055978059279945473 -0.056388284161067823 0 -0.060830035872249492 -0.064558057335980773 0 -0.065722760200719738 -0.052253177456942877 0 -0.064391701294429504 -0.057679717025484439 0 -0.055978059279945473 -0.056388284161067823 0 -0.055978059279945473 -0.056388284161067823 0 -0.041230103293456458 -0.058058117591144771 0 -0.049479852383656611 -0.067543566470139038 0 -0.055978059279945473 -0.056388284161067823 0 -0.049741921456861897 -0.048697412542500033 0 -0.041230103293456458 -0.058058117591144771 0 -0.055978059279945473 -0.056388284161067823 0 -0.049741921456861897 -0.048697412542500033 0 -0.061428605263776047 -0.046553119166432878 0 -0.065722760200719738 -0.052253177456942877 0 -0.055978059279945473 -0.056388284161067823 0 -0.061428605263776047 -0.046553119166432878 0 -0.049741921456861897 -0.048697412542500033 0 -0.061428605263776047 -0.046553119166432878 0 -0.055132092173872667 -0.033226800447327051 0 -0.049741921456861897 -0.048697412542500033 0 -0.055132092173872667 -0.033226800447327051 0 -0.032367863380537598 -0.044965144957206583 0 -0.055132092173872667 -0.033226800447327051 0 -0.032367863380537598 -0.044965144957206583 0 -0.055132092173872667 -0.033226800447327051 0 -0.032367863380537598 -0.044965144957206583 0 -0.031233838643279398 -0.031193199633022049 0 -0.049741921456861897 -0.048697412542500033 0 -0.032367863380537598 -0.044965144957206583 0 -0.041230103293456458 -0.058058117591144771 0 -0.032367863380537598 -0.044965144957206583 0 -0.041230103293456458 -0.058058117591144771 0 -0.026902341230915561 -0.060374551747501753 0 -0.05822397002114936 -0.01402224463886402 0 -0.057836245250817257 0.0062936453779614283 0 -0.044352522143416888 0.0050416822031405977 0 -0.05822397002114936 -0.01402224463886402 0 -0.037926632337863607 -0.0068783069258408786 0 -0.05822397002114936 -0.01402224463886402 0 -0.068462160169621672 0.0025537029525893409 0 -0.057836245250817257 0.0062936453779614283 0 -0.055132092173872667 -0.033226800447327051 0 -0.05822397002114936 -0.01402224463886402 0 -0.036243114184870161 -0.018923029155399909 0 -0.055132092173872667 -0.033226800447327051 0 -0.036243114184870161 -0.018923029155399909 0 -0.031233838643279398 -0.031193199633022049 0 -0.055132092173872667 -0.033226800447327051 0 -0.036243114184870161 -0.018923029155399909 0 -0.05822397002114936 -0.01402224463886402 0 -0.036243114184870161 -0.018923029155399909 0 -0.037926632337863607 -0.0068783069258408786 0 -0.05822397002114936 -0.01402224463886402 0 -0.037926632337863607 -0.0068783069258408786 0 -0.044352522143416888 0.0050416822031405977 0 -0.036243114184870161 -0.018923029155399909 0 -0.037926632337863607 -0.0068783069258408786 0 -0.029121832422534862 -0.0067169982391169078 0 -0.037926632337863607 -0.0068783069258408786 0 -0.029539197120254941 -0.00051038393964639519 0 -0.029121832422534862 -0.0067169982391169078 0 -0.037926632337863607 -0.0068783069258408786 0 -0.029539197120254941 -0.00051038393964639519 0 -0.03614709390981162 0.0015378833132510439 0 -0.037926632337863607 -0.0068783069258408786 0 -0.03614709390981162 0.0015378833132510439 0 -0.044352522143416888 0.0050416822031405977 0 -0.036243114184870161 -0.018923029155399909 0 -0.017354136195868258 -0.0046192578634720229 0 -0.01819617019275287 -0.0061732580868559192 0 -0.036243114184870161 -0.018923029155399909 0 -0.017354136195868258 -0.0046192578634720229 0 -0.029121832422534862 -0.0067169982391169078 0 -0.036243114184870161 -0.018923029155399909 0 -0.01819617019275287 -0.0061732580868559192 0 -0.019637671972121611 -0.02148729346067638 0 -0.036243114184870161 -0.018923029155399909 0 -0.017354136195868258 -0.0046192578634720229 0 -0.017354136195868258 -0.0046192578634720229 0 -0.01819617019275287 -0.0061732580868559192 0 -0.013500839782477779 -0.0058155532537883976 0 -0.017354136195868258 -0.0046192578634720229 0 -0.01819617019275287 -0.0061732580868559192 0 -0.017354136195868258 -0.0046192578634720229 0 -0.024546082273817361 -0.00265401331122534 0 -0.02112675760807068 0.0030512678310729521 0 -0.024546082273817361 -0.00265401331122534 0 -0.029539197120254941 -0.00051038393964639519 0 -0.02112675760807068 0.0030512678310729521 0 -0.017354136195868258 -0.0046192578634720229 0 -0.024546082273817361 -0.00265401331122534 0 -0.029121832422534862 -0.0067169982391169078 0 -0.024546082273817361 -0.00265401331122534 0 -0.029539197120254941 -0.00051038393964639519 0 -0.029121832422534862 -0.0067169982391169078 0 -0.01819617019275287 -0.0061732580868559192 0 -0.019637671972121611 -0.02148729346067638 0 -0.011008321991883009 -0.01057962122923565 0 -0.036243114184870161 -0.018923029155399909 0 -0.019637671972121611 -0.02148729346067638 0 -0.031233838643279398 -0.031193199633022049 0 -0.019637671972121611 -0.02148729346067638 0 -0.031233838643279398 -0.031193199633022049 0 -0.016064986363794779 -0.036441041599790329 0 -0.0077215053668332834 -0.022860670268973711 0 -0.00118246574067416 -0.01324232368796026 0 0.0015263381015913891 -0.033415212413580753 0 -0.0077215053668332834 -0.022860670268973711 0 -0.016064986363794779 -0.036441041599790329 0 0.0015263381015913891 -0.033415212413580753 0 -0.019637671972121611 -0.02148729346067638 0 -0.0077215053668332834 -0.022860670268973711 0 -0.016064986363794779 -0.036441041599790329 0 -0.019637671972121611 -0.02148729346067638 0 -0.0077215053668332834 -0.022860670268973711 0 -0.011008321991883009 -0.01057962122923565 0 -0.011008321991883009 -0.01057962122923565 0 -0.00118246574067416 -0.01324232368796026 0 -0.0072764121498596901 -0.0036325873431357339 0 -0.0077215053668332834 -0.022860670268973711 0 -0.011008321991883009 -0.01057962122923565 0 -0.00118246574067416 -0.01324232368796026 0 -0.00118246574067416 -0.01324232368796026 0 -0.0072764121498596901 -0.0036325873431357339 0 0.0012074066645448821 -0.00065723147797176382 0 -0.0072764121498596901 -0.0036325873431357339 0 -0.013500839782477779 -0.0058155532537883976 0 -0.013607688627124061 -0.00178224205395049 0 -0.011008321991883009 -0.01057962122923565 0 -0.0072764121498596901 -0.0036325873431357339 0 -0.013500839782477779 -0.0058155532537883976 0 -0.01819617019275287 -0.0061732580868559192 0 -0.011008321991883009 -0.01057962122923565 0 -0.013500839782477779 -0.0058155532537883976 0 -0.017354136195868258 -0.0046192578634720229 0 -0.013500839782477779 -0.0058155532537883976 0 -0.013607688627124061 -0.00178224205395049 0 -0.017354136195868258 -0.0046192578634720229 0 -0.013607688627124061 -0.00178224205395049 0 -0.032367863380537598 -0.044965144957206583 0 -0.0096036345872028556 -0.056703489467087059 0 -0.032367863380537598 -0.044965144957206583 0 -0.026902341230915561 -0.060374551747501753 0 -0.0096036345872028556 -0.056703489467087059 0 -0.032367863380537598 -0.044965144957206583 0 -0.031233838643279398 -0.031193199633022049 0 -0.016064986363794779 -0.036441041599790329 0 -0.032367863380537598 -0.044965144957206583 0 -0.016064986363794779 -0.036441041599790329 0 -0.0096036345872028556 -0.056703489467087059 0 -0.0096036345872028556 -0.056703489467087059 0 0.0015263381015913891 -0.033415212413580753 0 -0.016064986363794779 -0.036441041599790329 0 -0.0096036345872028556 -0.056703489467087059 0 0.0015263381015913891 -0.033415212413580753 0 -0.0096036345872028556 -0.056703489467087059 0 0.0015263381015913891 -0.033415212413580753 0 0.007298405735321048 -0.051477207310420908 0 -0.0096036345872028556 -0.056703489467087059 0 0.0052181775422467033 -0.064346337314722044 0 -0.0096036345872028556 -0.056703489467087059 0 -0.0043762627118289626 -0.071729097412358583 0 0.0052181775422467033 -0.064346337314722044 0 -0.0043762627118289626 -0.071729097412358583 0 -0.0092607301227374331 -0.088572496961274561 0 -0.01646375475339092 -0.071057556949349329 0 -0.0096036345872028556 -0.056703489467087059 0 -0.01646375475339092 -0.071057556949349329 0 -0.0096036345872028556 -0.056703489467087059 0 -0.0043762627118289626 -0.071729097412358583 0 -0.01646375475339092 -0.071057556949349329 0 -0.0092607301227374331 -0.088572496961274561 0 -0.00044729776891663488 -0.1011528385718463 0 0.0042106568376920582 -0.081118225430045127 0 -0.0043762627118289626 -0.071729097412358583 0 -0.0092607301227374331 -0.088572496961274561 0 0.0042106568376920582 -0.081118225430045127 0 -0.0092607301227374331 -0.088572496961274561 0 -0.037642160748979789 -0.094071739377162955 0 -0.0092607301227374331 -0.088572496961274561 0 -0.023323874919582349 -0.085411624431610003 0 -0.01646375475339092 -0.071057556949349329 0 -0.0092607301227374331 -0.088572496961274561 0 -0.023323874919582349 -0.085411624431610003 0 -0.037642160748979789 -0.094071739377162955 0 -0.023323874919582349 -0.085411624431610003 0 -0.01646375475339092 -0.071057556949349329 0 -0.023323874919582349 -0.085411624431610003 0 -0.01646375475339092 -0.071057556949349329 0 -0.034846350139989962 -0.07108844977272101 0 -0.026902341230915561 -0.060374551747501753 0 -0.01646375475339092 -0.071057556949349329 0 -0.034846350139989962 -0.07108844977272101 0 -0.026902341230915561 -0.060374551747501753 0 -0.0096036345872028556 -0.056703489467087059 0 -0.01646375475339092 -0.071057556949349329 0 -0.041230103293456458 -0.058058117591144771 0 -0.026902341230915561 -0.060374551747501753 0 -0.034846350139989962 -0.07108844977272101 0 -0.041230103293456458 -0.058058117591144771 0 -0.034846350139989962 -0.07108844977272101 0 -0.049479852383656611 -0.067543566470139038 0 -0.034846350139989962 -0.07108844977272101 0 -0.048784805137481749 -0.081200653853927454 0 -0.049479852383656611 -0.067543566470139038 0 -0.023323874919582349 -0.085411624431610003 0 -0.034846350139989962 -0.07108844977272101 0 -0.036149297736508462 -0.082943116858855345 0 -0.023323874919582349 -0.085411624431610003 0 -0.036149297736508462 -0.082943116858855345 0 -0.037642160748979789 -0.094071739377162955 0 -0.036149297736508462 -0.082943116858855345 0 -0.048784805137481749 -0.081200653853927454 0 -0.037642160748979789 -0.094071739377162955 0 -0.034846350139989962 -0.07108844977272101 0 -0.036149297736508462 -0.082943116858855345 0 -0.048784805137481749 -0.081200653853927454 0 -0.063732237529271596 -0.080733089011810297 0 -0.066023591375222151 -0.09957098179305135 0 -0.048784805137481749 -0.081200653853927454 0 -0.066023591375222151 -0.09957098179305135 0 -0.048784805137481749 -0.081200653853927454 0 -0.037642160748979789 -0.094071739377162955 0 -0.063732237529271596 -0.080733089011810297 0 -0.048784805137481749 -0.081200653853927454 0 -0.058000192015007383 -0.073011667883306972 0 -0.055978059279945473 -0.056388284161067823 0 -0.060830035872249492 -0.064558057335980773 0 -0.049479852383656611 -0.067543566470139038 0 -0.058000192015007383 -0.073011667883306972 0 -0.060830035872249492 -0.064558057335980773 0 -0.049479852383656611 -0.067543566470139038 0 -0.067174029152377468 -0.071022972744677337 0 -0.058000192015007383 -0.073011667883306972 0 -0.060830035872249492 -0.064558057335980773 0 -0.048784805137481749 -0.081200653853927454 0 -0.058000192015007383 -0.073011667883306972 0 -0.049479852383656611 -0.067543566470139038 0 -0.069466171350113709 -0.1135628440840601 0 -0.054384952187449757 -0.110609208962567 0 -0.059238207921678762 -0.13024384051707169 0 -0.054384952187449757 -0.110609208962567 0 -0.059238207921678762 -0.13024384051707169 0 -0.032945469352336033 -0.1293562392835419 0 -0.066023591375222151 -0.09957098179305135 0 -0.054384952187449757 -0.110609208962567 0 -0.037642160748979789 -0.094071739377162955 0 -0.066023591375222151 -0.09957098179305135 0 -0.037642160748979789 -0.094071739377162955 0 -0.054384952187449757 -0.110609208962567 0 -0.037642160748979789 -0.094071739377162955 0 -0.035661083064217503 -0.11124856921529409 0 -0.054384952187449757 -0.110609208962567 0 -0.032945469352336033 -0.1293562392835419 0 -0.054384952187449757 -0.110609208962567 0 -0.035661083064217503 -0.11124856921529409 0 -0.032945469352336033 -0.1293562392835419 0 -0.01767174996810443 -0.1109570892379047 0 -0.012892303975098539 -0.12786221844410239 0 -0.032945469352336033 -0.1293562392835419 0 -0.035661083064217503 -0.11124856921529409 0 -0.01767174996810443 -0.1109570892379047 0 -0.032945469352336033 -0.1293562392835419 0 -0.0092607301227374331 -0.088572496961274561 0 -0.037642160748979789 -0.094071739377162955 0 -0.01767174996810443 -0.1109570892379047 0 -0.037642160748979789 -0.094071739377162955 0 -0.035661083064217503 -0.11124856921529409 0 -0.01767174996810443 -0.1109570892379047 0 -0.01767174996810443 -0.1109570892379047 0 -0.00044729776891663488 -0.1011528385718463 0 0.005085065621477718 -0.1151057880332567 0 -0.0092607301227374331 -0.088572496961274561 0 -0.01767174996810443 -0.1109570892379047 0 -0.00044729776891663488 -0.1011528385718463 0 -0.01767174996810443 -0.1109570892379047 0 -0.012892303975098539 -0.12786221844410239 0 0.005085065621477718 -0.1151057880332567 0 -0.012892303975098539 -0.12786221844410239 0 0.0027021066240326768 -0.1317064378292063 0 0.005085065621477718 -0.1151057880332567 0 -0.011505986517222349 -0.14810326960451681 0 -0.033736789854580403 -0.16402697950055581 0 -0.032945469352336033 -0.1293562392835419 0 -0.012892303975098539 -0.12786221844410239 0 -0.011505986517222349 -0.14810326960451681 0 0.0027021066240326768 -0.1317064378292063 0 -0.011505986517222349 -0.14810326960451681 0 -0.032945469352336033 -0.1293562392835419 0 -0.012892303975098539 -0.12786221844410239 0 -0.011505986517222349 -0.14810326960451681 0 -0.032945469352336033 -0.1293562392835419 0 -0.011505986517222349 -0.14810326960451681 0 0.009933496317892726 -0.16685029992549011 0 -0.011505986517222349 -0.14810326960451681 0 -0.0085976242789068957 -0.177408956520272 0 0.009933496317892726 -0.16685029992549011 0 -0.0085976242789068957 -0.177408956520272 0 -0.003739977245034012 -0.19168309442994089 0 -0.02712874487570623 -0.18796761311505439 0 -0.0085976242789068957 -0.177408956520272 0 -0.003739977245034012 -0.19168309442994089 0 0.0034571977838801569 -0.17702496179755631 0 -0.0085976242789068957 -0.177408956520272 0 -0.02712874487570623 -0.18796761311505439 0 -0.0085976242789068957 -0.177408956520272 0 -0.033736789854580403 -0.16402697950055581 0 -0.02712874487570623 -0.18796761311505439 0 -0.011505986517222349 -0.14810326960451681 0 -0.0085976242789068957 -0.177408956520272 0 -0.033736789854580403 -0.16402697950055581 0 -0.033736789854580403 -0.16402697950055581 0 -0.041678182321736049 -0.18065303021324261 0 -0.02712874487570623 -0.18796761311505439 0 -0.033736789854580403 -0.16402697950055581 0 -0.041678182321736049 -0.18065303021324261 0 -0.060187329084152079 -0.17209125852752319 0 -0.041678182321736049 -0.18065303021324261 0 -0.060187329084152079 -0.17209125852752319 0 -0.045659865472505487 -0.198526269709837 0 -0.060187329084152079 -0.17209125852752319 0 -0.045659865472505487 -0.198526269709837 0 -0.033736789854580403 -0.16402697950055581 0 -0.060187329084152079 -0.17209125852752319 0 -0.051699405537506939 -0.14899167338562519 0 -0.060187329084152079 -0.17209125852752319 0 -0.051699405537506939 -0.14899167338562519 0 -0.072389231474787458 -0.1492400490994332 0 -0.051699405537506939 -0.14899167338562519 0 -0.059238207921678762 -0.13024384051707169 0 -0.072389231474787458 -0.1492400490994332 0 -0.033736789854580403 -0.16402697950055581 0 -0.051699405537506939 -0.14899167338562519 0 -0.032945469352336033 -0.1293562392835419 0 -0.051699405537506939 -0.14899167338562519 0 -0.059238207921678762 -0.13024384051707169 0 -0.032945469352336033 -0.1293562392835419 0 -0.025857267464119819 -0.25506418495113531 0 -0.02368513365757598 -0.23851275990414511 0 -0.036167443228362108 -0.24337299090061551 0 -0.01269776775011346 -0.25850600500130039 0 -0.02368513365757598 -0.23851275990414511 0 -0.01269776775011346 -0.25850600500130039 0 -0.02368513365757598 -0.23851275990414511 0 -0.01082738352359053 -0.24876902592697839 0 -0.02368513365757598 -0.23851275990414511 0 -0.0067432183097289999 -0.239968376336817 0 -0.0090267388034834407 -0.23007068799598671 0 -0.02368513365757598 -0.23851275990414511 0 -0.01082738352359053 -0.24876902592697839 0 -0.0067432183097289999 -0.239968376336817 0 -0.01082738352359053 -0.24876902592697839 0 -0.0029313858115674811 -0.24854412401401971 0 -0.0067432183097289999 -0.239968376336817 0 -0.0029313858115674811 -0.24854412401401971 0 -0.0067432183097289999 -0.239968376336817 0 0.0026199421412959989 -0.2430643023623929 0 -0.0067432183097289999 -0.239968376336817 0 0.0026199421412959989 -0.2430643023623929 0 0.0017465435191736189 -0.23378549097037141 0 -0.0067432183097289999 -0.239968376336817 0 -0.0090267388034834407 -0.23007068799598671 0 0.0017465435191736189 -0.23378549097037141 0 -0.0090267388034834407 -0.23007068799598671 0 -0.00080535468136348092 -0.21995366459000901 0 -0.01839049427805331 -0.2195873775130934 0 -0.0090267388034834407 -0.23007068799598671 0 -0.00080535468136348092 -0.21995366459000901 0 0.0017465435191736189 -0.23378549097037141 0 -0.02368513365757598 -0.23851275990414511 0 -0.0090267388034834407 -0.23007068799598671 0 -0.01839049427805331 -0.2195873775130934 0 -0.02368513365757598 -0.23851275990414511 0 -0.01839049427805331 -0.2195873775130934 0 -0.034672499565036527 -0.2185195148069887 0 -0.02368513365757598 -0.23851275990414511 0 -0.034672499565036527 -0.2185195148069887 0 -0.01839049427805331 -0.2195873775130934 0 -0.027127261386640289 -0.20489204062456881 0 -0.034672499565036527 -0.2185195148069887 0 -0.01839049427805331 -0.2195873775130934 0 -0.027127261386640289 -0.20489204062456881 0 -0.01084996336714465 -0.20584666152463099 0 -0.00080535468136348092 -0.21995366459000901 0 -0.01839049427805331 -0.2195873775130934 0 -0.01084996336714465 -0.20584666152463099 0 -0.00080535468136348092 -0.21995366459000901 0 -0.01084996336714465 -0.20584666152463099 0 0.01016515501406726 -0.20926501301563591 0 -0.01084996336714465 -0.20584666152463099 0 -0.003739977245034012 -0.19168309442994089 0 0.01016515501406726 -0.20926501301563591 0 -0.01084996336714465 -0.20584666152463099 0 -0.003739977245034012 -0.19168309442994089 0 -0.02712874487570623 -0.18796761311505439 0 -0.027127261386640289 -0.20489204062456881 0 -0.01084996336714465 -0.20584666152463099 0 -0.02712874487570623 -0.18796761311505439 0 -0.041678182321736049 -0.18065303021324261 0 -0.02712874487570623 -0.18796761311505439 0 -0.045659865472505487 -0.198526269709837 0 -0.02712874487570623 -0.18796761311505439 0 -0.045659865472505487 -0.198526269709837 0 -0.027127261386640289 -0.20489204062456881 0 -0.02712874487570623 -0.18796761311505439 0 -0.045659865472505487 -0.198526269709837 0 -0.045659865472505487 -0.198526269709837 0 -0.067682806497079445 -0.21107449474949169 0 -0.062708331551170268 -0.19442045911658551 0 -0.060187329084152079 -0.17209125852752319 0 -0.045659865472505487 -0.198526269709837 0 -0.062708331551170268 -0.19442045911658551 0 -0.045659865472505487 -0.198526269709837 0 -0.067682806497079445 -0.21107449474949169 0 -0.045659865472505487 -0.198526269709837 0 -0.054546183461555722 -0.22015285450131489 0 -0.067682806497079445 -0.21107449474949169 0 -0.045659865472505487 -0.198526269709837 0 -0.034672499565036527 -0.2185195148069887 0 -0.054546183461555722 -0.22015285450131489 0 -0.045659865472505487 -0.198526269709837 0 -0.034672499565036527 -0.2185195148069887 0 -0.027127261386640289 -0.20489204062456881 0 -0.045659865472505487 -0.198526269709837 0 -0.034672499565036527 -0.2185195148069887 0 -0.034672499565036527 -0.2185195148069887 0 -0.044145410485190079 -0.23242073182379891 0 -0.054546183461555722 -0.22015285450131489 0 -0.02368513365757598 -0.23851275990414511 0 -0.034672499565036527 -0.2185195148069887 0 -0.044145410485190079 -0.23242073182379891 0 -0.044145410485190079 -0.23242073182379891 0 -0.054546183461555722 -0.22015285450131489 0 -0.061280333386656921 -0.23284462843810469 0 -0.061280333386656921 -0.23284462843810469 0 -0.050191684441297867 -0.2485850187836515 0 -0.071591358857016049 -0.2429226102204386 0 -0.050191684441297867 -0.2485850187836515 0 -0.071591358857016049 -0.2429226102204386 0 -0.056939497423126581 -0.24878681181634871 0 -0.050191684441297867 -0.2485850187836515 0 -0.071591358857016049 -0.2429226102204386 0 -0.044145410485190079 -0.23242073182379891 0 -0.061280333386656921 -0.23284462843810469 0 -0.050191684441297867 -0.2485850187836515 0 -0.041398382443623198 -0.25192549838374201 0 -0.056939497423126581 -0.24878681181634871 0 -0.050191684441297867 -0.2485850187836515 0 -0.044145410485190079 -0.23242073182379891 0 -0.050191684441297867 -0.2485850187836515 0 -0.036167443228362108 -0.24337299090061551 0 -0.02368513365757598 -0.23851275990414511 0 -0.044145410485190079 -0.23242073182379891 0 -0.036167443228362108 -0.24337299090061551 0 -0.025857267464119819 -0.25506418495113531 0 -0.050191684441297867 -0.2485850187836515 0 -0.036167443228362108 -0.24337299090061551 0 -0.097628444613881649 -0.25834262822693399 0 -0.087470553331264578 -0.24262075389877999 0 -0.077955776651182085 -0.24454236002529731 0 -0.087470553331264578 -0.24262075389877999 0 -0.087928467376508473 -0.23859976953689591 0 -0.1005617376665941 -0.23997685579502359 0 -0.087928467376508473 -0.23859976953689591 0 -0.07453604668454375 -0.2421434382925548 0 -0.07383618536286593 -0.22753148747966839 0 -0.087928467376508473 -0.23859976953689591 0 -0.07453604668454375 -0.2421434382925548 0 -0.087928467376508473 -0.23859976953689591 0 -0.077955776651182085 -0.24454236002529731 0 -0.07453604668454375 -0.2421434382925548 0 -0.087470553331264578 -0.24262075389877999 0 -0.087928467376508473 -0.23859976953689591 0 -0.077955776651182085 -0.24454236002529731 0 -0.087470553331264578 -0.24262075389877999 0 -0.077955776651182085 -0.24454236002529731 0 -0.056939497423126581 -0.24878681181634871 0 -0.077955776651182085 -0.24454236002529731 0 -0.071591358857016049 -0.2429226102204386 0 -0.056939497423126581 -0.24878681181634871 0 -0.077955776651182085 -0.24454236002529731 0 -0.077955776651182085 -0.24454236002529731 0 -0.071591358857016049 -0.2429226102204386 0 -0.07453604668454375 -0.2421434382925548 0 -0.077955776651182085 -0.24454236002529731 0 -0.07453604668454375 -0.2421434382925548 0 -0.071591358857016049 -0.2429226102204386 0 -0.07453604668454375 -0.2421434382925548 0 -0.056939497423126581 -0.24878681181634871 0 -0.071591358857016049 -0.2429226102204386 0 -0.061280333386656921 -0.23284462843810469 0 -0.071591358857016049 -0.2429226102204386 0 -0.07453604668454375 -0.2421434382925548 0 -0.061280333386656921 -0.23284462843810469 0 -0.07453604668454375 -0.2421434382925548 0 -0.07383618536286593 -0.22753148747966839 0 -0.089705747521653334 -0.22362271978914661 0 -0.067682806497079445 -0.21107449474949169 0 -0.054546183461555722 -0.22015285450131489 0 -0.061280333386656921 -0.23284462843810469 0 -0.07383618536286593 -0.22753148747966839 0 -0.054546183461555722 -0.22015285450131489 0 -0.07383618536286593 -0.22753148747966839 0 -0.067682806497079445 -0.21107449474949169 0 -0.061280333386656921 -0.23284462843810469 0 -0.07453604668454375 -0.2421434382925548 0 -0.07383618536286593 -0.22753148747966839 0 -0.087928467376508473 -0.23859976953689591 0 -0.07383618536286593 -0.22753148747966839 0 -0.089705747521653334 -0.22362271978914661 0 -0.087928467376508473 -0.23859976953689591 0 -0.089705747521653334 -0.22362271978914661 0 -0.1005617376665941 -0.23997685579502359 0 -0.089705747521653334 -0.22362271978914661 0 -0.067682806497079445 -0.21107449474949169 0 -0.089705747521653334 -0.22362271978914661 0 -0.084027466008495671 -0.20735524824550181 0 -0.09921486728828334 -0.20109800384388701 0 -0.089705747521653334 -0.22362271978914661 0 -0.084027466008495671 -0.20735524824550181 0 -0.067682806497079445 -0.21107449474949169 0 -0.084027466008495671 -0.20735524824550181 0 -0.067682806497079445 -0.21107449474949169 0 -0.079506442726966622 -0.19362577459948219 0 -0.067682806497079445 -0.21107449474949169 0 -0.062708331551170268 -0.19442045911658551 0 -0.079506442726966622 -0.19362577459948219 0 -0.079506442726966622 -0.19362577459948219 0 -0.09921486728828334 -0.20109800384388701 0 -0.089369030920126963 -0.1732707743578942 0 -0.084027466008495671 -0.20735524824550181 0 -0.079506442726966622 -0.19362577459948219 0 -0.09921486728828334 -0.20109800384388701 0 -0.09921486728828334 -0.20109800384388701 0 -0.1156293974943295 -0.1822747327150937 0 -0.1210853022939376 -0.205467400633562 0 -0.1156293974943295 -0.1822747327150937 0 -0.13505851963374399 -0.18906788910329131 0 -0.09921486728828334 -0.20109800384388701 0 -0.1210853022939376 -0.205467400633562 0 -0.1156293974943295 -0.1822747327150937 0 -0.1210853022939376 -0.205467400633562 0 -0.10755849924533691 -0.2178899443088799 0 -0.11989889803527461 -0.22145143588075511 0 -0.1210853022939376 -0.205467400633562 0 -0.11989889803527461 -0.22145143588075511 0 -0.13086176299679239 -0.21746526838305219 0 -0.089705747521653334 -0.22362271978914661 0 -0.09921486728828334 -0.20109800384388701 0 -0.10755849924533691 -0.2178899443088799 0 -0.09921486728828334 -0.20109800384388701 0 -0.1210853022939376 -0.205467400633562 0 -0.10755849924533691 -0.2178899443088799 0 -0.089705747521653334 -0.22362271978914661 0 -0.11172868854622731 -0.23617094482880149 0 -0.1005617376665941 -0.23997685579502359 0 -0.089705747521653334 -0.22362271978914661 0 -0.11172868854622731 -0.23617094482880149 0 -0.089705747521653334 -0.22362271978914661 0 -0.10755849924533691 -0.2178899443088799 0 -0.11172868854622731 -0.23617094482880149 0 -0.11989889803527461 -0.22145143588075511 0 -0.11172868854622731 -0.23617094482880149 0 -0.127825895831608 -0.22987551408160201 0 -0.10755849924533691 -0.2178899443088799 0 -0.11989889803527461 -0.22145143588075511 0 -0.11172868854622731 -0.23617094482880149 0 -0.13218950310710981 -0.25272660122947088 0 -0.1218823470606431 -0.24640061544388489 0 -0.1098930818979398 -0.24798588601512411 0 -0.11172868854622731 -0.23617094482880149 0 -0.13375162957080131 -0.24871916986845621 0 -0.11172868854622731 -0.23617094482880149 0 -0.1218823470606431 -0.24640061544388489 0 -0.13375162957080131 -0.24871916986845621 0 -0.11172868854622731 -0.23617094482880149 0 -0.13375162957080131 -0.24871916986845621 0 -0.127825895831608 -0.22987551408160201 0 -0.11172868854622731 -0.23617094482880149 0 -0.1218823470606431 -0.24640061544388489 0 -0.1098930818979398 -0.24798588601512411 0 -0.097628444613881649 -0.25834262822693399 0 -0.087470553331264578 -0.24262075389877999 0 -0.1098930818979398 -0.24798588601512411 0 -0.087470553331264578 -0.24262075389877999 0 -0.1098930818979398 -0.24798588601512411 0 -0.1005617376665941 -0.23997685579502359 0 -0.087470553331264578 -0.24262075389877999 0 -0.1098930818979398 -0.24798588601512411 0 -0.11172868854622731 -0.23617094482880149 0 -0.1098930818979398 -0.24798588601512411 0 -0.1005617376665941 -0.23997685579502359 0 -0.087470553331264578 -0.24262075389877999 0 -0.1005617376665941 -0.23997685579502359 0 -0.072389231474787458 -0.1492400490994332 0 -0.089369030920126963 -0.1732707743578942 0 -0.096011965921864201 -0.14265464397282879 0 -0.077516787342341589 -0.1242022911324857 0 -0.093262550211769629 -0.1231040070079162 0 -0.096011965921864201 -0.14265464397282879 0 -0.077516787342341589 -0.1242022911324857 0 -0.072389231474787458 -0.1492400490994332 0 -0.096011965921864201 -0.14265464397282879 0 -0.077516787342341589 -0.1242022911324857 0 -0.059238207921678762 -0.13024384051707169 0 -0.072389231474787458 -0.1492400490994332 0 -0.060187329084152079 -0.17209125852752319 0 -0.072389231474787458 -0.1492400490994332 0 -0.089369030920126963 -0.1732707743578942 0 -0.060187329084152079 -0.17209125852752319 0 -0.079506442726966622 -0.19362577459948219 0 -0.089369030920126963 -0.1732707743578942 0 -0.060187329084152079 -0.17209125852752319 0 -0.062708331551170268 -0.19442045911658551 0 -0.079506442726966622 -0.19362577459948219 0 -0.089369030920126963 -0.1732707743578942 0 -0.1107512355661594 -0.16096683979900789 0 -0.096011965921864201 -0.14265464397282879 0 -0.09921486728828334 -0.20109800384388701 0 -0.089369030920126963 -0.1732707743578942 0 -0.1156293974943295 -0.1822747327150937 0 -0.089369030920126963 -0.1732707743578942 0 -0.1156293974943295 -0.1822747327150937 0 -0.1107512355661594 -0.16096683979900789 0 -0.1156293974943295 -0.1822747327150937 0 -0.13204392770037571 -0.1634514615863005 0 -0.1156293974943295 -0.1822747327150937 0 -0.1107512355661594 -0.16096683979900789 0 -0.13204392770037571 -0.1634514615863005 0 -0.1107512355661594 -0.16096683979900789 0 -0.12070185579410091 -0.1431825863629223 0 -0.13204392770037571 -0.1634514615863005 0 -0.1107512355661594 -0.16096683979900789 0 -0.12070185579410091 -0.1431825863629223 0 -0.096011965921864201 -0.14265464397282879 0 -0.1071147179002416 -0.1244919901550422 0 -0.12070185579410091 -0.1431825863629223 0 -0.096011965921864201 -0.14265464397282879 0 -0.093262550211769629 -0.1231040070079162 0 -0.1071147179002416 -0.1244919901550422 0 -0.096011965921864201 -0.14265464397282879 0 -0.1071147179002416 -0.1244919901550422 0 -0.12070185579410091 -0.1431825863629223 0 -0.1306137014228527 -0.1212095633787966 0 -0.12070185579410091 -0.1431825863629223 0 -0.14845845790642179 -0.14462819045750719 0 -0.1306137014228527 -0.1212095633787966 0 -0.14845845790642179 -0.14462819045750719 0 -0.1306137014228527 -0.1212095633787966 0 -0.15036797716661271 -0.14243845987679379 0 -0.14845845790642179 -0.14462819045750719 0 -0.1306137014228527 -0.1212095633787966 0 -0.15406265534163929 -0.1294064941378926 0 -0.15036797716661271 -0.14243845987679379 0 -0.1306137014228527 -0.1212095633787966 0 -0.15406265534163929 -0.1294064941378926 0 -0.15036797716661271 -0.14243845987679379 0 -0.1564494690737798 -0.13971242061594299 0 -0.1543278084257422 -0.1453912472931165 0 -0.14845845790642179 -0.14462819045750719 0 -0.15894149653025619 -0.15184230729274609 0 -0.15519343748037609 -0.14309809199123349 0 -0.15036797716661271 -0.14243845987679379 0 -0.1564494690737798 -0.13971242061594299 0 -0.1543278084257422 -0.1453912472931165 0 -0.15519343748037609 -0.14309809199123349 0 -0.15036797716661271 -0.14243845987679379 0 -0.1543278084257422 -0.1453912472931165 0 -0.15036797716661271 -0.14243845987679379 0 -0.14845845790642179 -0.14462819045750719 0 -0.15036797716661271 -0.14243845987679379 0 -0.14845845790642179 -0.14462819045750719 0 -0.12070185579410091 -0.1431825863629223 0 -0.14845845790642179 -0.14462819045750719 0 -0.13204392770037571 -0.1634514615863005 0 -0.14845845790642179 -0.14462819045750719 0 -0.13204392770037571 -0.1634514615863005 0 -0.13204392770037571 -0.1634514615863005 0 -0.1475860696211248 -0.17640031700015249 0 -0.13505851963374399 -0.18906788910329131 0 -0.1156293974943295 -0.1822747327150937 0 -0.13204392770037571 -0.1634514615863005 0 -0.13505851963374399 -0.18906788910329131 0 -0.1475860696211248 -0.17640031700015249 0 -0.1655722477793394 -0.1670875310098065 0 -0.15496537504316019 -0.19429807729602311 0 -0.1475860696211248 -0.17640031700015249 0 -0.13505851963374399 -0.18906788910329131 0 -0.15496537504316019 -0.19429807729602311 0 -0.1475860696211248 -0.17640031700015249 0 -0.14862352044039201 -0.16347018067920821 0 -0.1655722477793394 -0.1670875310098065 0 -0.14845845790642179 -0.14462819045750719 0 -0.13204392770037571 -0.1634514615863005 0 -0.14862352044039201 -0.16347018067920821 0 -0.14845845790642179 -0.14462819045750719 0 -0.14862352044039201 -0.16347018067920821 0 -0.1655722477793394 -0.1670875310098065 0 -0.13204392770037571 -0.1634514615863005 0 -0.1475860696211248 -0.17640031700015249 0 -0.14862352044039201 -0.16347018067920821 0 -0.1655722477793394 -0.1670875310098065 0 -0.1716614177265566 -0.15146656102038991 0 -0.1655722477793394 -0.1670875310098065 0 -0.15894149653025619 -0.15184230729274609 0 -0.1716614177265566 -0.15146656102038991 0 -0.1655722477793394 -0.1670875310098065 0 -0.17557921295501691 -0.18022020591375351 0 -0.1689483943248192 -0.19264195369377959 0 -0.1655722477793394 -0.1670875310098065 0 -0.15496537504316019 -0.19429807729602311 0 -0.1689483943248192 -0.19264195369377959 0 -0.1655722477793394 -0.1670875310098065 0 -0.15496537504316019 -0.19429807729602311 0 -0.1655722477793394 -0.1670875310098065 0 -0.17557921295501691 -0.18022020591375351 0 -0.17557921295501691 -0.18022020591375351 0 -0.18239484980351819 -0.16464781923938721 0 -0.1907059301477185 -0.18468107337543721 0 -0.1655722477793394 -0.1670875310098065 0 -0.17557921295501691 -0.18022020591375351 0 -0.18239484980351819 -0.16464781923938721 0 -0.1655722477793394 -0.1670875310098065 0 -0.18239484980351819 -0.16464781923938721 0 -0.1716614177265566 -0.15146656102038991 0 -0.18239484980351819 -0.16464781923938721 0 -0.1716614177265566 -0.15146656102038991 0 -0.1894311146879058 -0.1465309504005988 0 -0.17775058767377289 -0.13584559103097291 0 -0.1716614177265566 -0.15146656102038991 0 -0.1894311146879058 -0.1465309504005988 0 -0.17775058767377289 -0.13584559103097291 0 -0.1716614177265566 -0.15146656102038991 0 -0.17775058767377289 -0.13584559103097291 0 -0.1894311146879058 -0.1465309504005988 0 -0.17775058767377289 -0.13584559103097291 0 -0.19823449762692411 -0.13229999761030051 0 -0.18534812722118199 -0.1163550958908785 0 -0.17775058767377289 -0.13584559103097291 0 -0.18534812722118199 -0.1163550958908785 0 -0.15406265534163929 -0.1294064941378926 0 -0.16394560233522651 -0.1386698702264933 0 -0.15606779039194271 -0.1160101434681408 0 -0.17775058767377289 -0.13584559103097291 0 -0.16394560233522651 -0.1386698702264933 0 -0.15606779039194271 -0.1160101434681408 0 -0.17775058767377289 -0.13584559103097291 0 -0.15606779039194271 -0.1160101434681408 0 -0.15406265534163929 -0.1294064941378926 0 -0.16394560233522651 -0.1386698702264933 0 -0.1564494690737798 -0.13971242061594299 0 -0.16394560233522651 -0.1386698702264933 0 -0.1564494690737798 -0.13971242061594299 0 -0.15962849525536979 -0.1448502401790808 0 -0.14845845790642179 -0.14462819045750719 0 -0.1655722477793394 -0.1670875310098065 0 -0.14845845790642179 -0.14462819045750719 0 -0.1655722477793394 -0.1670875310098065 0 -0.15894149653025619 -0.15184230729274609 0 -0.15519343748037609 -0.14309809199123349 0 -0.1564494690737798 -0.13971242061594299 0 -0.15962849525536979 -0.1448502401790808 0 -0.1543278084257422 -0.1453912472931165 0 -0.15519343748037609 -0.14309809199123349 0 -0.15962849525536979 -0.1448502401790808 0 -0.1543278084257422 -0.1453912472931165 0 -0.15962849525536979 -0.1448502401790808 0 -0.15894149653025619 -0.15184230729274609 0 -0.15962849525536979 -0.1448502401790808 0 -0.15894149653025619 -0.15184230729274609 0 -0.1716614177265566 -0.15146656102038991 0 -0.17775058767377289 -0.13584559103097291 0 -0.16394560233522651 -0.1386698702264933 0 -0.1716614177265566 -0.15146656102038991 0 -0.16394560233522651 -0.1386698702264933 0 -0.15962849525536979 -0.1448502401790808 0 -0.1716614177265566 -0.15146656102038991 0 -0.1534429259631987 -0.25724555178864622 0 -0.15289321433053751 -0.246830478479277 0 -0.1378886282313006 -0.2381062402767252 0 -0.1534429259631987 -0.25724555178864622 0 -0.1378886282313006 -0.2381062402767252 0 -0.15348527020851541 -0.23913552791147211 0 -0.1378886282313006 -0.2381062402767252 0 -0.15430752157141919 -0.22794821467022949 0 -0.15289321433053751 -0.246830478479277 0 -0.15348527020851541 -0.23913552791147211 0 -0.1601832428566283 -0.24550858739866141 0 -0.15289321433053751 -0.246830478479277 0 -0.15348527020851541 -0.23913552791147211 0 -0.1378886282313006 -0.2381062402767252 0 -0.1459019403517107 -0.25564217047089421 0 -0.13375162957080131 -0.24871916986845621 0 -0.1378886282313006 -0.2381062402767252 0 -0.13375162957080131 -0.24871916986845621 0 -0.1378886282313006 -0.2381062402767252 0 -0.127825895831608 -0.22987551408160201 0 -0.13375162957080131 -0.24871916986845621 0 -0.1378886282313006 -0.2381062402767252 0 -0.13218950310710981 -0.25272660122947088 0 -0.1218823470606431 -0.24640061544388489 0 -0.13375162957080131 -0.24871916986845621 0 -0.127825895831608 -0.22987551408160201 0 -0.14435850230698141 -0.22150862358223991 0 -0.13086176299679239 -0.21746526838305219 0 -0.1378886282313006 -0.2381062402767252 0 -0.127825895831608 -0.22987551408160201 0 -0.14435850230698141 -0.22150862358223991 0 -0.11989889803527461 -0.22145143588075511 0 -0.127825895831608 -0.22987551408160201 0 -0.13086176299679239 -0.21746526838305219 0 -0.1378886282313006 -0.2381062402767252 0 -0.14435850230698141 -0.22150862358223991 0 -0.14435850230698141 -0.22150862358223991 0 -0.15430752157141919 -0.22794821467022949 0 -0.16410544360365359 -0.21493654602220469 0 -0.1378886282313006 -0.2381062402767252 0 -0.14435850230698141 -0.22150862358223991 0 -0.15430752157141919 -0.22794821467022949 0 -0.14435850230698141 -0.22150862358223991 0 -0.15496537504316019 -0.19429807729602311 0 -0.14435850230698141 -0.22150862358223991 0 -0.1373527607074172 -0.20563907323320921 0 -0.15496537504316019 -0.19429807729602311 0 -0.14435850230698141 -0.22150862358223991 0 -0.15496537504316019 -0.19429807729602311 0 -0.16410544360365359 -0.21493654602220469 0 -0.14435850230698141 -0.22150862358223991 0 -0.1373527607074172 -0.20563907323320921 0 -0.13086176299679239 -0.21746526838305219 0 -0.1210853022939376 -0.205467400633562 0 -0.1373527607074172 -0.20563907323320921 0 -0.13086176299679239 -0.21746526838305219 0 -0.1210853022939376 -0.205467400633562 0 -0.1373527607074172 -0.20563907323320921 0 -0.13505851963374399 -0.18906788910329131 0 -0.1373527607074172 -0.20563907323320921 0 -0.13505851963374399 -0.18906788910329131 0 -0.15496537504316019 -0.19429807729602311 0 -0.1689483943248192 -0.19264195369377959 0 -0.17994482166635981 -0.2014366202218163 0 -0.16410544360365359 -0.21493654602220469 0 -0.15496537504316019 -0.19429807729602311 0 -0.1689483943248192 -0.19264195369377959 0 -0.16410544360365359 -0.21493654602220469 0 -0.17557921295501691 -0.18022020591375351 0 -0.1689483943248192 -0.19264195369377959 0 -0.17994482166635981 -0.2014366202218163 0 -0.17557921295501691 -0.18022020591375351 0 -0.17994482166635981 -0.2014366202218163 0 -0.1907059301477185 -0.18468107337543721 0 -0.17994482166635981 -0.2014366202218163 0 -0.1784102433228649 -0.21681777692650089 0 -0.16410544360365359 -0.21493654602220469 0 -0.17994482166635981 -0.2014366202218163 0 -0.18904495760185211 -0.20873870471059999 0 -0.19252771524915421 -0.19930647688205899 0 -0.17994482166635981 -0.2014366202218163 0 -0.1784102433228649 -0.21681777692650089 0 -0.18904495760185211 -0.20873870471059999 0 -0.1784102433228649 -0.21681777692650089 0 -0.19175951728552271 -0.21959172261586679 0 -0.18904495760185211 -0.20873870471059999 0 -0.15430752157141919 -0.22794821467022949 0 -0.16410544360365359 -0.21493654602220469 0 -0.16877954452522659 -0.2255120540677526 0 -0.15430752157141919 -0.22794821467022949 0 -0.16877954452522659 -0.2255120540677526 0 -0.16324537569009509 -0.2357306359809743 0 -0.15348527020851541 -0.23913552791147211 0 -0.15430752157141919 -0.22794821467022949 0 -0.16324537569009509 -0.2357306359809743 0 -0.16877954452522659 -0.2255120540677526 0 -0.17781387366555559 -0.23090770197000129 0 -0.16324537569009509 -0.2357306359809743 0 -0.1784102433228649 -0.21681777692650089 0 -0.16410544360365359 -0.21493654602220469 0 -0.16877954452522659 -0.2255120540677526 0 -0.1784102433228649 -0.21681777692650089 0 -0.16877954452522659 -0.2255120540677526 0 -0.17781387366555559 -0.23090770197000129 0 -0.1784102433228649 -0.21681777692650089 0 -0.17781387366555559 -0.23090770197000129 0 -0.19175951728552271 -0.21959172261586679 0 -0.17781387366555559 -0.23090770197000129 0 -0.1805311654956796 -0.2411950136452527 0 -0.19410287643929239 -0.23312434657521411 0 -0.17781387366555559 -0.23090770197000129 0 -0.1805311654956796 -0.2411950136452527 0 -0.16955513552828311 -0.24305067226283769 0 -0.17679077873490559 -0.25046109420941731 0 -0.1805311654956796 -0.2411950136452527 0 -0.18863044441395099 -0.24733650333174401 0 -0.17679077873490559 -0.25046109420941731 0 -0.1805311654956796 -0.2411950136452527 0 -0.16955513552828311 -0.24305067226283769 0 -0.16709258238786229 -0.25188408856254202 0 -0.17679077873490559 -0.25046109420941731 0 -0.16955513552828311 -0.24305067226283769 0 -0.16709258238786229 -0.25188408856254202 0 -0.16955513552828311 -0.24305067226283769 0 -0.1601832428566283 -0.24550858739866141 0 -0.17781387366555559 -0.23090770197000129 0 -0.16955513552828311 -0.24305067226283769 0 -0.16324537569009509 -0.2357306359809743 0 -0.16955513552828311 -0.24305067226283769 0 -0.16324537569009509 -0.2357306359809743 0 -0.1601832428566283 -0.24550858739866141 0 -0.15348527020851541 -0.23913552791147211 0 -0.16324537569009509 -0.2357306359809743 0 -0.1601832428566283 -0.24550858739866141 0 -0.1593809120407062 -0.25278805690175971 0 -0.15289321433053751 -0.246830478479277 0 -0.1601832428566283 -0.24550858739866141 0 -0.20565562739327201 -0.24334207984173631 0 -0.19410287643929239 -0.23312434657521411 0 -0.21201774175915139 -0.2290986139018284 0 -0.21472073189145299 -0.25725591714607071 0 -0.20565562739327201 -0.24334207984173631 0 -0.22837296648480071 -0.23789375384220129 0 -0.20565562739327201 -0.24334207984173631 0 -0.21201774175915139 -0.2290986139018284 0 -0.22837296648480071 -0.23789375384220129 0 -0.20565562739327201 -0.24334207984173631 0 -0.18863044441395099 -0.24733650333174401 0 -0.19410287643929239 -0.23312434657521411 0 -0.1805311654956796 -0.2411950136452527 0 -0.18863044441395099 -0.24733650333174401 0 -0.19410287643929239 -0.23312434657521411 0 -0.17781387366555559 -0.23090770197000129 0 -0.19410287643929239 -0.23312434657521411 0 -0.19175951728552271 -0.21959172261586679 0 -0.19410287643929239 -0.23312434657521411 0 -0.19175951728552271 -0.21959172261586679 0 -0.20443040571370949 -0.21985141578154491 0 -0.21201774175915139 -0.2290986139018284 0 -0.20443040571370949 -0.21985141578154491 0 -0.22630383013383959 -0.21240708539258099 0 -0.19410287643929239 -0.23312434657521411 0 -0.21201774175915139 -0.2290986139018284 0 -0.20443040571370949 -0.21985141578154491 0 -0.20157622681128409 -0.2075672839719423 0 -0.21557055542943429 -0.1904257004922347 0 -0.22630383013383959 -0.21240708539258099 0 -0.20157622681128409 -0.2075672839719423 0 -0.22630383013383959 -0.21240708539258099 0 -0.20443040571370949 -0.21985141578154491 0 -0.20157622681128409 -0.2075672839719423 0 -0.22630383013383959 -0.21240708539258099 0 -0.19175951728552271 -0.21959172261586679 0 -0.20443040571370949 -0.21985141578154491 0 -0.20157622681128409 -0.2075672839719423 0 -0.19175951728552271 -0.21959172261586679 0 -0.20157622681128409 -0.2075672839719423 0 -0.19175951728552271 -0.21959172261586679 0 -0.18904495760185211 -0.20873870471059999 0 -0.20157622681128409 -0.2075672839719423 0 -0.18904495760185211 -0.20873870471059999 0 -0.20157622681128409 -0.2075672839719423 0 -0.19252771524915421 -0.19930647688205899 0 -0.17994482166635981 -0.2014366202218163 0 -0.19252771524915421 -0.19930647688205899 0 -0.1907059301477185 -0.18468107337543721 0 -0.20157622681128409 -0.2075672839719423 0 -0.19252771524915421 -0.19930647688205899 0 -0.20187756758401409 -0.19506767240709361 0 -0.19252771524915421 -0.19930647688205899 0 -0.20187756758401409 -0.19506767240709361 0 -0.1907059301477185 -0.18468107337543721 0 -0.20157622681128409 -0.2075672839719423 0 -0.21557055542943429 -0.1904257004922347 0 -0.20187756758401409 -0.19506767240709361 0 -0.21557055542943429 -0.1904257004922347 0 -0.2038146335316797 -0.1820121315948606 0 -0.20157622681128409 -0.2075672839719423 0 -0.20187756758401409 -0.19506767240709361 0 -0.21557055542943429 -0.1904257004922347 0 -0.21557055542943429 -0.1904257004922347 0 -0.23533053747689989 -0.1962925907305976 0 -0.22630383013383959 -0.21240708539258099 0 -0.23533053747689989 -0.1962925907305976 0 -0.25103143345639523 -0.21724688681321891 0 -0.25418198431724581 -0.18809916394242601 0 -0.22630383013383959 -0.21240708539258099 0 -0.25103143345639523 -0.21724688681321891 0 -0.23533053747689989 -0.1962925907305976 0 -0.22630383013383959 -0.21240708539258099 0 -0.25103143345639523 -0.21724688681321891 0 -0.21201774175915139 -0.2290986139018284 0 -0.22630383013383959 -0.21240708539258099 0 -0.22837296648480071 -0.23789375384220129 0 -0.22630383013383959 -0.21240708539258099 0 -0.22837296648480071 -0.23789375384220129 0 -0.25103143345639523 -0.21724688681321891 0 -0.22837296648480071 -0.23789375384220129 0 -0.25431856302814809 -0.24833495949118861 0 -0.25103143345639523 -0.21724688681321891 0 -0.2335542019388327 -0.26090262277066528 0 -0.22837296648480071 -0.23789375384220129 0 -0.25431856302814809 -0.24833495949118861 0 -0.20708483324238849 -0.15128624944667929 0 -0.22647357207813959 -0.15205360930679629 0 -0.2195633859389316 -0.1340578990397249 0 -0.20708483324238849 -0.15128624944667929 0 -0.19823449762692411 -0.13229999761030051 0 -0.2195633859389316 -0.1340578990397249 0 -0.19823449762692411 -0.13229999761030051 0 -0.2195633859389316 -0.1340578990397249 0 -0.21022893699736381 -0.1097241998529486 0 -0.17775058767377289 -0.13584559103097291 0 -0.19823449762692411 -0.13229999761030051 0 -0.1894311146879058 -0.1465309504005988 0 -0.20708483324238849 -0.15128624944667929 0 -0.1894311146879058 -0.1465309504005988 0 -0.19351686899232889 -0.15854259719770419 0 -0.20708483324238849 -0.15128624944667929 0 -0.19823449762692411 -0.13229999761030051 0 -0.1894311146879058 -0.1465309504005988 0 -0.20708483324238849 -0.15128624944667929 0 -0.19351686899232889 -0.15854259719770419 0 -0.19880271024428661 -0.17007658736909009 0 -0.18239484980351819 -0.16464781923938721 0 -0.1894311146879058 -0.1465309504005988 0 -0.19351686899232889 -0.15854259719770419 0 -0.18239484980351819 -0.16464781923938721 0 -0.19351686899232889 -0.15854259719770419 0 -0.19880271024428661 -0.17007658736909009 0 -0.18239484980351819 -0.16464781923938721 0 -0.19880271024428661 -0.17007658736909009 0 -0.1907059301477185 -0.18468107337543721 0 -0.19880271024428661 -0.17007658736909009 0 -0.1907059301477185 -0.18468107337543721 0 -0.2038146335316797 -0.1820121315948606 0 -0.20187756758401409 -0.19506767240709361 0 -0.1907059301477185 -0.18468107337543721 0 -0.2038146335316797 -0.1820121315948606 0 -0.21557055542943429 -0.1904257004922347 0 -0.2038146335316797 -0.1820121315948606 0 -0.21355186476225221 -0.16985639920369799 0 -0.19880271024428661 -0.17007658736909009 0 -0.2038146335316797 -0.1820121315948606 0 -0.21355186476225221 -0.16985639920369799 0 -0.20708483324238849 -0.15128624944667929 0 -0.21355186476225221 -0.16985639920369799 0 -0.22647357207813959 -0.15205360930679629 0 -0.20708483324238849 -0.15128624944667929 0 -0.19880271024428661 -0.17007658736909009 0 -0.21355186476225221 -0.16985639920369799 0 -0.22956488404758479 -0.1732841170125273 0 -0.2435592126657353 -0.1561425335328199 0 -0.22647357207813959 -0.15205360930679629 0 -0.21355186476225221 -0.16985639920369799 0 -0.22956488404758479 -0.1732841170125273 0 -0.22647357207813959 -0.15205360930679629 0 -0.21557055542943429 -0.1904257004922347 0 -0.21355186476225221 -0.16985639920369799 0 -0.22956488404758479 -0.1732841170125273 0 -0.21557055542943429 -0.1904257004922347 0 -0.22956488404758479 -0.1732841170125273 0 -0.21557055542943429 -0.1904257004922347 0 -0.23533053747689989 -0.1962925907305976 0 -0.22956488404758479 -0.1732841170125273 0 -0.23533053747689989 -0.1962925907305976 0 -0.22956488404758479 -0.1732841170125273 0 -0.25418198431724581 -0.18809916394242601 0 -0.22956488404758479 -0.1732841170125273 0 -0.25418198431724581 -0.18809916394242601 0 -0.2565438833259911 -0.1687602707777138 0 -0.22956488404758479 -0.1732841170125273 0 -0.2435592126657353 -0.1561425335328199 0 -0.22956488404758479 -0.1732841170125273 0 -0.2435592126657353 -0.1561425335328199 0 -0.2565438833259911 -0.1687602707777138 0 -0.2435592126657353 -0.1561425335328199 0 -0.22647357207813959 -0.15205360930679629 0 -0.2432602079730701 -0.13485583854350039 0 -0.22647357207813959 -0.15205360930679629 0 -0.2195633859389316 -0.1340578990397249 0 -0.2432602079730701 -0.13485583854350039 0 -0.2195633859389316 -0.1340578990397249 0 -0.2432602079730701 -0.13485583854350039 0 -0.23065476516460279 -0.11957242830579699 0 -0.2432602079730701 -0.13485583854350039 0 -0.2499653418643101 -0.1102460646797562 0 -0.23065476516460279 -0.11957242830579699 0 -0.2499653418643101 -0.1102460646797562 0 -0.2308399038819596 -0.1034577205422559 0 -0.23065476516460279 -0.11957242830579699 0 -0.2308399038819596 -0.1034577205422559 0 -0.25308440776240432 -0.086371671251396109 0 -0.2499653418643101 -0.1102460646797562 0 -0.2308399038819596 -0.1034577205422559 0 -0.25308440776240432 -0.086371671251396109 0 -0.2308399038819596 -0.1034577205422559 0 -0.21022893699736381 -0.1097241998529486 0 -0.21520721362926831 -0.098298511723915558 0 -0.2308399038819596 -0.1034577205422559 0 -0.22013457808717909 -0.089221868029860679 0 -0.21520721362926831 -0.098298511723915558 0 -0.2308399038819596 -0.1034577205422559 0 -0.23065476516460279 -0.11957242830579699 0 -0.21022893699736381 -0.1097241998529486 0 -0.2195633859389316 -0.1340578990397249 0 -0.23065476516460279 -0.11957242830579699 0 -0.21022893699736381 -0.1097241998529486 0 -0.2335598957907816 -0.079883889973887123 0 -0.24475965461883589 -0.059498385283178377 0 -0.2582325144520296 -0.070050845257802419 0 -0.2335598957907816 -0.079883889973887123 0 -0.2582325144520296 -0.070050845257802419 0 -0.25308440776240432 -0.086371671251396109 0 -0.2308399038819596 -0.1034577205422559 0 -0.2335598957907816 -0.079883889973887123 0 -0.25308440776240432 -0.086371671251396109 0 -0.2308399038819596 -0.1034577205422559 0 -0.22013457808717909 -0.089221868029860679 0 -0.2335598957907816 -0.079883889973887123 0 -0.22013457808717909 -0.089221868029860679 0 -0.2335598957907816 -0.079883889973887123 0 -0.21963876375789801 -0.077814354495200549 0 -0.2335598957907816 -0.079883889973887123 0 -0.21595644614104051 -0.065738508165203102 0 -0.24475965461883589 -0.059498385283178377 0 -0.21595644614104051 -0.065738508165203102 0 -0.24475965461883589 -0.059498385283178377 0 -0.2335598957907816 -0.079883889973887123 0 -0.21963876375789801 -0.077814354495200549 0 -0.21595644614104051 -0.065738508165203102 0 -0.20438945881064449 -0.068244458930106389 0 -0.21100771399754009 -0.086966924160961745 0 -0.21595644614104051 -0.065738508165203102 0 -0.21100771399754009 -0.086966924160961745 0 -0.20438945881064449 -0.068244458930106389 0 -0.21595644614104051 -0.065738508165203102 0 -0.21100771399754009 -0.086966924160961745 0 -0.21963876375789801 -0.077814354495200549 0 -0.21595644614104051 -0.065738508165203102 0 -0.21100771399754009 -0.086966924160961745 0 -0.20438945881064449 -0.068244458930106389 0 -0.21595644614104051 -0.065738508165203102 0 -0.20438945881064449 -0.068244458930106389 0 -0.21595644614104051 -0.065738508165203102 0 -0.20711132549122371 -0.057203435059411119 0 -0.20438945881064449 -0.068244458930106389 0 -0.21100771399754009 -0.086966924160961745 0 -0.19851231957361129 -0.085310821531315487 0 -0.22013457808717909 -0.089221868029860679 0 -0.21963876375789801 -0.077814354495200549 0 -0.21100771399754009 -0.086966924160961745 0 -0.22013457808717909 -0.089221868029860679 0 -0.21100771399754009 -0.086966924160961745 0 -0.21520721362926831 -0.098298511723915558 0 -0.21100771399754009 -0.086966924160961745 0 -0.19851231957361129 -0.085310821531315487 0 -0.20550431009004061 -0.095676697317907802 0 -0.21100771399754009 -0.086966924160961745 0 -0.21520721362926831 -0.098298511723915558 0 -0.20550431009004061 -0.095676697317907802 0 -0.19851231957361129 -0.085310821531315487 0 -0.18118326058104209 -0.08825419183970401 0 -0.18409944718507371 -0.07264022497537044 0 -0.19851231957361129 -0.085310821531315487 0 -0.19294566676858971 -0.096864600750783431 0 -0.18118326058104209 -0.08825419183970401 0 -0.19851231957361129 -0.085310821531315487 0 -0.20550431009004061 -0.095676697317907802 0 -0.19294566676858971 -0.096864600750783431 0 -0.20438945881064449 -0.068244458930106389 0 -0.19851231957361129 -0.085310821531315487 0 -0.18409944718507371 -0.07264022497537044 0 -0.20438945881064449 -0.068244458930106389 0 -0.18409944718507371 -0.07264022497537044 0 -0.18769526278089041 -0.057829612445021099 0 -0.20438945881064449 -0.068244458930106389 0 -0.18409944718507371 -0.07264022497537044 0 -0.21022893699736381 -0.1097241998529486 0 -0.21520721362926831 -0.098298511723915558 0 -0.20550431009004061 -0.095676697317907802 0 -0.21022893699736381 -0.1097241998529486 0 -0.20550431009004061 -0.095676697317907802 0 -0.19294566676858971 -0.096864600750783431 0 -0.19294566676858971 -0.096864600750783431 0 -0.18534812722118199 -0.1163550958908785 0 -0.21022893699736381 -0.1097241998529486 0 -0.19294566676858971 -0.096864600750783431 0 -0.18534812722118199 -0.1163550958908785 0 -0.19823449762692411 -0.13229999761030051 0 -0.21022893699736381 -0.1097241998529486 0 -0.18534812722118199 -0.1163550958908785 0 -0.18534812722118199 -0.1163550958908785 0 -0.17423934197139679 -0.1017815859784342 0 -0.15606779039194271 -0.1160101434681408 0 -0.17775058767377289 -0.13584559103097291 0 -0.18534812722118199 -0.1163550958908785 0 -0.15606779039194271 -0.1160101434681408 0 -0.16057304666404501 -0.10079887419961479 0 -0.17423934197139679 -0.1017815859784342 0 -0.15606779039194271 -0.1160101434681408 0 -0.16057304666404501 -0.10079887419961479 0 -0.16746185343044401 -0.091445336260546128 0 -0.1570966781871318 -0.090327755750333361 0 -0.16057304666404501 -0.10079887419961479 0 -0.17423934197139679 -0.1017815859784342 0 -0.16746185343044401 -0.091445336260546128 0 -0.17423934197139679 -0.1017815859784342 0 -0.18118326058104209 -0.08825419183970401 0 -0.16746185343044401 -0.091445336260546128 0 -0.19294566676858971 -0.096864600750783431 0 -0.18534812722118199 -0.1163550958908785 0 -0.17423934197139679 -0.1017815859784342 0 -0.19294566676858971 -0.096864600750783431 0 -0.17423934197139679 -0.1017815859784342 0 -0.18118326058104209 -0.08825419183970401 0 -0.18118326058104209 -0.08825419183970401 0 -0.18409944718507371 -0.07264022497537044 0 -0.16915717098214109 -0.081397787743409861 0 -0.18118326058104209 -0.08825419183970401 0 -0.16746185343044401 -0.091445336260546128 0 -0.16915717098214109 -0.081397787743409861 0 -0.18409944718507371 -0.07264022497537044 0 -0.1702117591297739 -0.06777753321031553 0 -0.16380943555950259 -0.077035991020633382 0 -0.18409944718507371 -0.07264022497537044 0 -0.16380943555950259 -0.077035991020633382 0 -0.16915717098214109 -0.081397787743409861 0 -0.18409944718507371 -0.07264022497537044 0 -0.17187825396406881 -0.057945450019426657 0 -0.18769526278089041 -0.057829612445021099 0 -0.18409944718507371 -0.07264022497537044 0 -0.16380943555950259 -0.077035991020633382 0 -0.18409944718507371 -0.07264022497537044 0 -0.1702117591297739 -0.06777753321031553 0 -0.17187825396406881 -0.057945450019426657 0 -0.16380943555950259 -0.077035991020633382 0 -0.16105989981045041 -0.063488466825831633 0 -0.14595160177326619 -0.062470528310013429 0 -0.1702117591297739 -0.06777753321031553 0 -0.16105989981045041 -0.063488466825831633 0 -0.17187825396406881 -0.057945450019426657 0 -0.1702117591297739 -0.06777753321031553 0 -0.16380943555950259 -0.077035991020633382 0 -0.16105989981045041 -0.063488466825831633 0 -0.16380943555950259 -0.077035991020633382 0 -0.16109871639751261 -0.084134952385501949 0 -0.14796844382834351 -0.080467891152587012 0 -0.16746185343044401 -0.091445336260546128 0 -0.16915717098214109 -0.081397787743409861 0 -0.16109871639751261 -0.084134952385501949 0 -0.16380943555950259 -0.077035991020633382 0 -0.16915717098214109 -0.081397787743409861 0 -0.16109871639751261 -0.084134952385501949 0 -0.16380943555950259 -0.077035991020633382 0 -0.16915717098214109 -0.081397787743409861 0 -0.16746185343044401 -0.091445336260546128 0 -0.16109871639751261 -0.084134952385501949 0 -0.1570966781871318 -0.090327755750333361 0 -0.16380943555950259 -0.077035991020633382 0 -0.14796844382834351 -0.080467891152587012 0 -0.14796844382834351 -0.080467891152587012 0 -0.13497135686491851 -0.078315161523928284 0 -0.1484932433812913 -0.094043062253026791 0 -0.1570966781871318 -0.090327755750333361 0 -0.14796844382834351 -0.080467891152587012 0 -0.1484932433812913 -0.094043062253026791 0 -0.16109871639751261 -0.084134952385501949 0 -0.1570966781871318 -0.090327755750333361 0 -0.14796844382834351 -0.080467891152587012 0 -0.16380943555950259 -0.077035991020633382 0 -0.14796844382834351 -0.080467891152587012 0 -0.14595160177326619 -0.062470528310013429 0 -0.16380943555950259 -0.077035991020633382 0 -0.14595160177326619 -0.062470528310013429 0 -0.14796844382834351 -0.080467891152587012 0 -0.13497135686491851 -0.078315161523928284 0 -0.14595160177326619 -0.062470528310013429 0 -0.1158705629695205 -0.060236298698018297 0 -0.13497135686491851 -0.078315161523928284 0 -0.1158705629695205 -0.060236298698018297 0 -0.13497135686491851 -0.078315161523928284 0 -0.13122182239868371 -0.062231763532838429 0 -0.13497135686491851 -0.078315161523928284 0 -0.13122182239868371 -0.062231763532838429 0 -0.14595160177326619 -0.062470528310013429 0 -0.112702195828283 -0.076339248342475546 0 -0.13497135686491851 -0.078315161523928284 0 -0.13438499311011279 -0.096174695905308166 0 -0.13497135686491851 -0.078315161523928284 0 -0.13438499311011279 -0.096174695905308166 0 -0.1484932433812913 -0.094043062253026791 0 -0.11276894493928399 -0.097790936300085646 0 -0.13438499311011279 -0.096174695905308166 0 -0.1306137014228527 -0.1212095633787966 0 -0.13438499311011279 -0.096174695905308166 0 -0.1306137014228527 -0.1212095633787966 0 -0.15606779039194271 -0.1160101434681408 0 -0.15406265534163929 -0.1294064941378926 0 -0.1306137014228527 -0.1212095633787966 0 -0.15606779039194271 -0.1160101434681408 0 -0.13438499311011279 -0.096174695905308166 0 -0.15606779039194271 -0.1160101434681408 0 -0.1484932433812913 -0.094043062253026791 0 -0.16057304666404501 -0.10079887419961479 0 -0.15606779039194271 -0.1160101434681408 0 -0.1484932433812913 -0.094043062253026791 0 -0.13438499311011279 -0.096174695905308166 0 -0.15606779039194271 -0.1160101434681408 0 -0.16057304666404501 -0.10079887419961479 0 -0.1570966781871318 -0.090327755750333361 0 -0.1484932433812913 -0.094043062253026791 0 -0.14513665439653431 -0.02122229521611602 0 -0.15148395360685291 -0.031475856168514699 0 -0.16129500549156001 -0.024264335985147129 0 -0.14513665439653431 -0.02122229521611602 0 -0.1346415055917565 -0.031432898451717602 0 -0.15148395360685291 -0.031475856168514699 0 -0.14513665439653431 -0.02122229521611602 0 -0.15327979458335059 -0.01391829646419882 0 -0.16129500549156001 -0.024264335985147129 0 -0.1412848112475209 -0.008091449167619497 0 -0.15773416148281841 -0.0035868741371463562 0 -0.14801408494475049 0.0031182785745780331 0 -0.15327979458335059 -0.01391829646419882 0 -0.1412848112475209 -0.008091449167619497 0 -0.15773416148281841 -0.0035868741371463562 0 -0.14513665439653431 -0.02122229521611602 0 -0.15327979458335059 -0.01391829646419882 0 -0.1412848112475209 -0.008091449167619497 0 -0.1236693299605585 -0.0137973575501921 0 -0.1412848112475209 -0.008091449167619497 0 -0.12735709500343681 0.004015926865657337 0 -0.1412848112475209 -0.008091449167619497 0 -0.12735709500343681 0.004015926865657337 0 -0.14801408494475049 0.0031182785745780331 0 -0.1236693299605585 -0.0137973575501921 0 -0.1412848112475209 -0.008091449167619497 0 -0.13426109495296229 -0.02049569832685658 0 -0.1236693299605585 -0.0137973575501921 0 -0.1221370268088495 -0.025998648103035 0 -0.13426109495296229 -0.02049569832685658 0 -0.14513665439653431 -0.02122229521611602 0 -0.1412848112475209 -0.008091449167619497 0 -0.13426109495296229 -0.02049569832685658 0 -0.14513665439653431 -0.02122229521611602 0 -0.13426109495296229 -0.02049569832685658 0 -0.1346415055917565 -0.031432898451717602 0 -0.1221370268088495 -0.025998648103035 0 -0.12530131535501859 -0.034952786400489197 0 -0.1346415055917565 -0.031432898451717602 0 -0.1221370268088495 -0.025998648103035 0 -0.13426109495296229 -0.02049569832685658 0 -0.1346415055917565 -0.031432898451717602 0 -0.12530131535501859 -0.034952786400489197 0 -0.1346415055917565 -0.031432898451717602 0 -0.12809376798702951 -0.047905065599393698 0 -0.1346415055917565 -0.031432898451717602 0 -0.12809376798702951 -0.047905065599393698 0 -0.14629371500633531 -0.042796653234188263 0 -0.12809376798702951 -0.047905065599393698 0 -0.14595160177326619 -0.062470528310013429 0 -0.12809376798702951 -0.047905065599393698 0 -0.14595160177326619 -0.062470528310013429 0 -0.14629371500633531 -0.042796653234188263 0 -0.13122182239868371 -0.062231763532838429 0 -0.12809376798702951 -0.047905065599393698 0 -0.14595160177326619 -0.062470528310013429 0 -0.1158705629695205 -0.060236298698018297 0 -0.13122182239868371 -0.062231763532838429 0 -0.12809376798702951 -0.047905065599393698 0 -0.14595160177326619 -0.062470528310013429 0 -0.14629371500633531 -0.042796653234188263 0 -0.15696853651444401 -0.052603520026387289 0 -0.16105989981045041 -0.063488466825831633 0 -0.14595160177326619 -0.062470528310013429 0 -0.15696853651444401 -0.052603520026387289 0 -0.15148395360685291 -0.031475856168514699 0 -0.14629371500633531 -0.042796653234188263 0 -0.16402488563849801 -0.041062174760887443 0 -0.1346415055917565 -0.031432898451717602 0 -0.15148395360685291 -0.031475856168514699 0 -0.14629371500633531 -0.042796653234188263 0 -0.14629371500633531 -0.042796653234188263 0 -0.16402488563849801 -0.041062174760887443 0 -0.15696853651444401 -0.052603520026387289 0 -0.15148395360685291 -0.031475856168514699 0 -0.16402488563849801 -0.041062174760887443 0 -0.16129500549156001 -0.024264335985147129 0 -0.16402488563849801 -0.041062174760887443 0 -0.17409393016306191 -0.030370879776367592 0 -0.16129500549156001 -0.024264335985147129 0 -0.16402488563849801 -0.041062174760887443 0 -0.15696853651444401 -0.052603520026387289 0 -0.17187825396406881 -0.057945450019426657 0 -0.16105989981045041 -0.063488466825831633 0 -0.15696853651444401 -0.052603520026387289 0 -0.17187825396406881 -0.057945450019426657 0 -0.16402488563849801 -0.041062174760887443 0 -0.17187825396406881 -0.057945450019426657 0 -0.18133558272394029 -0.043618149437272283 0 -0.17187825396406881 -0.057945450019426657 0 -0.18133558272394029 -0.043618149437272283 0 -0.18769526278089041 -0.057829612445021099 0 -0.18133558272394029 -0.043618149437272283 0 -0.17409393016306191 -0.030370879776367592 0 -0.18915768363079971 -0.025155098795753519 0 -0.16402488563849801 -0.041062174760887443 0 -0.18133558272394029 -0.043618149437272283 0 -0.17409393016306191 -0.030370879776367592 0 -0.17409393016306191 -0.030370879776367592 0 -0.17549551533112251 -0.014893414490097231 0 -0.18915768363079971 -0.025155098795753519 0 -0.16129500549156001 -0.024264335985147129 0 -0.16350931143073591 -0.01273440345064396 0 -0.17549551533112251 -0.014893414490097231 0 -0.17409393016306191 -0.030370879776367592 0 -0.16129500549156001 -0.024264335985147129 0 -0.17549551533112251 -0.014893414490097231 0 -0.15327979458335059 -0.01391829646419882 0 -0.16129500549156001 -0.024264335985147129 0 -0.16350931143073591 -0.01273440345064396 0 -0.15773416148281841 -0.0035868741371463562 0 -0.16716832075785379 -0.0032078365625175 0 -0.1619193683370386 0.0066468078375689294 0 -0.15773416148281841 -0.0035868741371463562 0 -0.16350931143073591 -0.01273440345064396 0 -0.16716832075785379 -0.0032078365625175 0 -0.15327979458335059 -0.01391829646419882 0 -0.15773416148281841 -0.0035868741371463562 0 -0.16350931143073591 -0.01273440345064396 0 -0.16350931143073591 -0.01273440345064396 0 -0.16716832075785379 -0.0032078365625175 0 -0.17549551533112251 -0.014893414490097231 0 -0.17549551533112251 -0.014893414490097231 0 -0.18154179604087481 -0.0036104187285780349 0 -0.18915768363079971 -0.025155098795753519 0 -0.18154179604087481 -0.0036104187285780349 0 -0.18915768363079971 -0.025155098795753519 0 -0.17549551533112251 -0.014893414490097231 0 -0.17584419881677341 0.0071523107965592754 0 -0.17549551533112251 -0.014893414490097231 0 -0.18154179604087481 -0.0036104187285780349 0 -0.17584419881677341 0.0071523107965592754 0 -0.16716832075785379 -0.0032078365625175 0 -0.17549551533112251 -0.014893414490097231 0 -0.17584419881677341 0.0071523107965592754 0 -0.18154179604087481 -0.0036104187285780349 0 -0.19066530249761049 -0.0041303576494283751 0 -0.18915768363079971 -0.025155098795753519 0 -0.18154179604087481 -0.0036104187285780349 0 -0.19066530249761049 -0.0041303576494283751 0 -0.18717715497560061 0.0062623078557712403 0 -0.19066530249761049 -0.0041303576494283751 0 -0.1989264366345522 -0.0080023544535597537 0 -0.18915768363079971 -0.025155098795753519 0 -0.19066530249761049 -0.0041303576494283751 0 -0.1989264366345522 -0.0080023544535597537 0 -0.1965234412062255 0.0098537758749781944 0 -0.1989264366345522 -0.0080023544535597537 0 -0.2007918169376324 -0.0191738513677071 0 -0.20680177871376751 -0.0119671669755851 0 -0.18915768363079971 -0.025155098795753519 0 -0.2007918169376324 -0.0191738513677071 0 -0.21013076049929519 -0.028334228638799381 0 -0.1989264366345522 -0.0080023544535597537 0 -0.18915768363079971 -0.025155098795753519 0 -0.2007918169376324 -0.0191738513677071 0 -0.2007918169376324 -0.0191738513677071 0 -0.21013076049929519 -0.028334228638799381 0 -0.20680177871376751 -0.0119671669755851 0 -0.21013076049929519 -0.028334228638799381 0 -0.21702438745170211 -0.0043907958627755336 0 -0.21921501925093501 -0.017985606360015789 0 -0.21013076049929519 -0.028334228638799381 0 -0.21702438745170211 -0.0043907958627755336 0 -0.21013076049929519 -0.028334228638799381 0 -0.22271521407306469 -0.037269361340154371 0 -0.21921501925093501 -0.017985606360015789 0 -0.21013076049929519 -0.028334228638799381 0 -0.21702438745170211 -0.0043907958627755336 0 -0.20680177871376751 -0.0119671669755851 0 -0.1989264366345522 -0.0080023544535597537 0 -0.20680177871376751 -0.0119671669755851 0 -0.20713549204565579 6.5395444916274768e-05 0 -0.21702438745170211 -0.0043907958627755336 0 -0.20680177871376751 -0.0119671669755851 0 -0.20713549204565579 6.5395444916274768e-05 0 -0.20438945881064449 -0.068244458930106389 0 -0.1967735712207245 -0.046699778862929052 0 -0.20438945881064449 -0.068244458930106389 0 -0.18769526278089041 -0.057829612445021099 0 -0.1967735712207245 -0.046699778862929052 0 -0.20438945881064449 -0.068244458930106389 0 -0.1967735712207245 -0.046699778862929052 0 -0.20711132549122371 -0.057203435059411119 0 -0.18133558272394029 -0.043618149437272283 0 -0.18769526278089041 -0.057829612445021099 0 -0.1967735712207245 -0.046699778862929052 0 -0.18133558272394029 -0.043618149437272283 0 -0.18915768363079971 -0.025155098795753519 0 -0.1967735712207245 -0.046699778862929052 0 -0.18915768363079971 -0.025155098795753519 0 -0.1967735712207245 -0.046699778862929052 0 -0.18915768363079971 -0.025155098795753519 0 -0.21013076049929519 -0.028334228638799381 0 -0.1967735712207245 -0.046699778862929052 0 -0.21013076049929519 -0.028334228638799381 0 -0.21132582579248671 -0.048130994279405613 0 -0.22271521407306469 -0.037269361340154371 0 -0.21013076049929519 -0.028334228638799381 0 -0.1967735712207245 -0.046699778862929052 0 -0.21132582579248671 -0.048130994279405613 0 -0.21595644614104051 -0.065738508165203102 0 -0.21132582579248671 -0.048130994279405613 0 -0.22271521407306469 -0.037269361340154371 0 -0.21595644614104051 -0.065738508165203102 0 -0.21132582579248671 -0.048130994279405613 0 -0.20711132549122371 -0.057203435059411119 0 -0.1967735712207245 -0.046699778862929052 0 -0.21132582579248671 -0.048130994279405613 0 -0.20711132549122371 -0.057203435059411119 0 -0.21595644614104051 -0.065738508165203102 0 -0.2284172135094342 -0.053659916570315727 0 -0.24475965461883589 -0.059498385283178377 0 -0.21595644614104051 -0.065738508165203102 0 -0.2284172135094342 -0.053659916570315727 0 -0.22271521407306469 -0.037269361340154371 0 -0.21595644614104051 -0.065738508165203102 0 -0.22271521407306469 -0.037269361340154371 0 -0.2284172135094342 -0.053659916570315727 0 -0.22271521407306469 -0.037269361340154371 0 -0.23903543051913109 -0.043198085603962481 0 -0.22271521407306469 -0.037269361340154371 0 -0.23903543051913109 -0.043198085603962481 0 -0.24161885061771041 -0.026720350447010301 0 -0.23903543051913109 -0.043198085603962481 0 -0.24161885061771041 -0.026720350447010301 0 -0.25766621977661042 -0.038842414379153638 0 -0.23903543051913109 -0.043198085603962481 0 -0.24475965461883589 -0.059498385283178377 0 -0.25766621977661042 -0.038842414379153638 0 -0.2284172135094342 -0.053659916570315727 0 -0.23903543051913109 -0.043198085603962481 0 -0.24475965461883589 -0.059498385283178377 0 -0.22947398200509031 -0.0088002145151058891 0 -0.22867745033346079 0.0038692188645070222 0 -0.2401015516947359 0.00075261550232862703 0 -0.21702438745170211 -0.0043907958627755336 0 -0.22947398200509031 -0.0088002145151058891 0 -0.22867745033346079 0.0038692188645070222 0 -0.21702438745170211 -0.0043907958627755336 0 -0.22947398200509031 -0.0088002145151058891 0 -0.21921501925093501 -0.017985606360015789 0 -0.22271521407306469 -0.037269361340154371 0 -0.22947398200509031 -0.0088002145151058891 0 -0.21921501925093501 -0.017985606360015789 0 -0.22271521407306469 -0.037269361340154371 0 -0.22947398200509031 -0.0088002145151058891 0 -0.22271521407306469 -0.037269361340154371 0 -0.22947398200509031 -0.0088002145151058891 0 -0.24161885061771041 -0.026720350447010301 0 -0.22947398200509031 -0.0088002145151058891 0 -0.24161885061771041 -0.026720350447010301 0 -0.2437457614006571 -0.011962382738850049 0 -0.24161885061771041 -0.026720350447010301 0 -0.2437457614006571 -0.011962382738850049 0 -0.2598032925822476 -0.0188915667982569 0 -0.22947398200509031 -0.0088002145151058891 0 -0.2437457614006571 -0.011962382738850049 0 -0.2401015516947359 0.00075261550232862703 0 -0.2437457614006571 -0.011962382738850049 0 -0.25267499080189931 -0.0034516002120552492 0 -0.2401015516947359 0.00075261550232862703 0 -0.25267499080189931 -0.0034516002120552492 0 -0.2598032925822476 -0.0188915667982569 0 -0.26909988492935111 -0.0018655285383734981 0 -0.2437457614006571 -0.011962382738850049 0 -0.25267499080189931 -0.0034516002120552492 0 -0.2598032925822476 -0.0188915667982569 0 -0.2598032925822476 -0.0188915667982569 0 -0.27267419604841259 -0.026924212746328481 0 -0.25766621977661042 -0.038842414379153638 0 -0.24161885061771041 -0.026720350447010301 0 -0.2598032925822476 -0.0188915667982569 0 -0.25766621977661042 -0.038842414379153638 0 -0.2598032925822476 -0.0188915667982569 0 -0.27267419604841259 -0.026924212746328481 0 -0.27804425228895369 -0.016131696666228459 0 -0.27267419604841259 -0.026924212746328481 0 -0.27804425228895369 -0.016131696666228459 0 -0.28378415359151371 -0.031280105512012511 0 -0.27804425228895369 -0.016131696666228459 0 -0.26909988492935111 -0.0018655285383734981 0 -0.2917254884257266 -0.0017566381736345419 0 -0.2598032925822476 -0.0188915667982569 0 -0.27804425228895369 -0.016131696666228459 0 -0.26909988492935111 -0.0018655285383734981 0 -0.27804425228895369 -0.016131696666228459 0 -0.2917254884257266 -0.0017566381736345419 0 -0.2928870998243559 -0.020527937726781 0 -0.27804425228895369 -0.016131696666228459 0 -0.2928870998243559 -0.020527937726781 0 -0.28378415359151371 -0.031280105512012511 0 -0.2928870998243559 -0.020527937726781 0 -0.29943422057661201 -0.032203920876667472 0 -0.28378415359151371 -0.031280105512012511 0 -0.2928870998243559 -0.020527937726781 0 -0.31144738423897378 -0.02126732740536201 0 -0.29943422057661201 -0.032203920876667472 0 -0.31144738423897378 -0.02126732740536201 0 -0.31110423911055801 -0.035316851109560482 0 -0.29943422057661201 -0.032203920876667472 0 -0.2917254884257266 -0.0017566381736345419 0 -0.31144738423897378 -0.02126732740536201 0 -0.31177688145040278 0.0050359958776742568 0 -0.2917254884257266 -0.0017566381736345419 0 -0.2928870998243559 -0.020527937726781 0 -0.31144738423897378 -0.02126732740536201 0 -0.2917254884257266 -0.0017566381736345419 0 -0.31144738423897378 -0.02126732740536201 0 -0.30323190850646392 -0.052883144282766713 0 -0.3023660715744253 -0.047018139519123002 0 -0.29757341552329353 -0.05219957266967655 0 -0.29931176789370939 -0.061629941742321552 0 -0.30659897303184058 -0.057135789817405573 0 -0.30728911182784302 -0.064893595009923935 0 -0.30323190850646392 -0.052883144282766713 0 -0.29931176789370939 -0.061629941742321552 0 -0.30659897303184058 -0.057135789817405573 0 -0.30323190850646392 -0.052883144282766713 0 -0.29757341552329353 -0.05219957266967655 0 -0.29931176789370939 -0.061629941742321552 0 -0.30659897303184058 -0.057135789817405573 0 -0.30728911182784302 -0.064893595009923935 0 -0.31405483352543062 -0.056831087900065053 0 -0.30323190850646392 -0.052883144282766713 0 -0.3023660715744253 -0.047018139519123002 0 -0.31025625293594222 -0.050033124508212908 0 -0.30659897303184058 -0.057135789817405573 0 -0.31025625293594222 -0.050033124508212908 0 -0.31405483352543062 -0.056831087900065053 0 -0.30323190850646392 -0.052883144282766713 0 -0.30659897303184058 -0.057135789817405573 0 -0.31025625293594222 -0.050033124508212908 0 -0.3023660715744253 -0.047018139519123002 0 -0.31110423911055801 -0.035316851109560482 0 -0.29943422057661201 -0.032203920876667472 0 -0.3023660715744253 -0.047018139519123002 0 -0.29943422057661201 -0.032203920876667472 0 -0.29166722635019171 -0.038853801873014321 0 -0.29943422057661201 -0.032203920876667472 0 -0.29166722635019171 -0.038853801873014321 0 -0.28378415359151371 -0.031280105512012511 0 -0.3023660715744253 -0.047018139519123002 0 -0.29166722635019171 -0.038853801873014321 0 -0.28390051605192418 -0.042754285685484159 0 -0.29166722635019171 -0.038853801873014321 0 -0.28378415359151371 -0.031280105512012511 0 -0.28390051605192418 -0.042754285685484159 0 -0.3023660715744253 -0.047018139519123002 0 -0.28390051605192418 -0.042754285685484159 0 -0.27356286309663053 -0.053258262401150697 0 -0.3023660715744253 -0.047018139519123002 0 -0.27356286309663053 -0.053258262401150697 0 -0.29757341552329353 -0.05219957266967655 0 -0.27356286309663053 -0.053258262401150697 0 -0.27532891164284878 -0.069285621960536392 0 -0.29757341552329353 -0.05219957266967655 0 -0.27532891164284878 -0.069285621960536392 0 -0.3023660715744253 -0.047018139519123002 0 -0.29757341552329353 -0.05219957266967655 0 -0.27356286309663053 -0.053258262401150697 0 -0.29757341552329353 -0.05219957266967655 0 -0.29931176789370939 -0.061629941742321552 0 -0.27532891164284878 -0.069285621960536392 0 -0.27267419604841259 -0.026924212746328481 0 -0.27375437843427658 -0.039043607324579933 0 -0.25766621977661042 -0.038842414379153638 0 -0.27356286309663053 -0.053258262401150697 0 -0.27375437843427658 -0.039043607324579933 0 -0.25766621977661042 -0.038842414379153638 0 -0.28378415359151371 -0.031280105512012511 0 -0.28390051605192418 -0.042754285685484159 0 -0.27375437843427658 -0.039043607324579933 0 -0.27267419604841259 -0.026924212746328481 0 -0.28378415359151371 -0.031280105512012511 0 -0.27375437843427658 -0.039043607324579933 0 -0.28390051605192418 -0.042754285685484159 0 -0.27356286309663053 -0.053258262401150697 0 -0.27375437843427658 -0.039043607324579933 0 -0.24475965461883589 -0.059498385283178377 0 -0.27356286309663053 -0.053258262401150697 0 -0.2582325144520296 -0.070050845257802419 0 -0.24475965461883589 -0.059498385283178377 0 -0.27356286309663053 -0.053258262401150697 0 -0.24475965461883589 -0.059498385283178377 0 -0.27356286309663053 -0.053258262401150697 0 -0.25766621977661042 -0.038842414379153638 0 -0.2582325144520296 -0.070050845257802419 0 -0.25308440776240432 -0.086371671251396109 0 -0.27532891164284878 -0.069285621960536392 0 -0.25308440776240432 -0.086371671251396109 0 -0.27532891164284878 -0.069285621960536392 0 -0.25308440776240432 -0.086371671251396109 0 -0.27361062541114611 -0.085405998149086934 0 -0.26907394573302829 -0.10103393024372311 0 -0.27361062541114611 -0.085405998149086934 0 -0.26907394573302829 -0.10103393024372311 0 -0.28494676303449051 -0.09097811142482605 0 -0.25308440776240432 -0.086371671251396109 0 -0.27361062541114611 -0.085405998149086934 0 -0.27532891164284878 -0.069285621960536392 0 -0.27356286309663053 -0.053258262401150697 0 -0.2582325144520296 -0.070050845257802419 0 -0.27532891164284878 -0.069285621960536392 0 -0.27361062541114611 -0.085405998149086934 0 -0.27532891164284878 -0.069285621960536392 0 -0.28561909888295839 -0.079360655864953042 0 -0.2432602079730701 -0.13485583854350039 0 -0.2499653418643101 -0.1102460646797562 0 -0.26490928006600228 -0.12397715003998409 0 -0.2499653418643101 -0.1102460646797562 0 -0.26490928006600228 -0.12397715003998409 0 -0.26907394573302829 -0.10103393024372311 0 -0.2499653418643101 -0.1102460646797562 0 -0.25308440776240432 -0.086371671251396109 0 -0.26907394573302829 -0.10103393024372311 0 -0.26907394573302829 -0.10103393024372311 0 -0.28789548083438649 -0.11161882002010511 0 -0.28494676303449051 -0.09097811142482605 0 -0.26490928006600228 -0.12397715003998409 0 -0.28789548083438649 -0.11161882002010511 0 -0.28428672055728371 -0.13281235115180859 0 -0.26490928006600228 -0.12397715003998409 0 -0.26907394573302829 -0.10103393024372311 0 -0.28789548083438649 -0.11161882002010511 0 -0.28789548083438649 -0.11161882002010511 0 -0.28428672055728371 -0.13281235115180859 0 -0.30877835781368662 -0.12931532841693749 0 -0.28789548083438649 -0.11161882002010511 0 -0.29765529442092259 -0.094840601490837839 0 -0.28494676303449051 -0.09097811142482605 0 -0.30761934067920371 -0.1042503242997595 0 -0.29765529442092259 -0.094840601490837839 0 -0.30832877355579341 -0.086934752854072747 0 -0.30761934067920371 -0.1042503242997595 0 -0.30832877355579341 -0.086934752854072747 0 -0.31968159473222052 -0.091584555267719248 0 -0.28789548083438649 -0.11161882002010511 0 -0.30761934067920371 -0.1042503242997595 0 -0.29765529442092259 -0.094840601490837839 0 -0.28789548083438649 -0.11161882002010511 0 -0.30761934067920371 -0.1042503242997595 0 -0.30877835781368662 -0.12931532841693749 0 -0.29931176789370939 -0.061629941742321552 0 -0.27532891164284878 -0.069285621960536392 0 -0.29568251685582603 -0.071589435967753134 0 -0.27532891164284878 -0.069285621960536392 0 -0.29568251685582603 -0.071589435967753134 0 -0.28561909888295839 -0.079360655864953042 0 -0.29568251685582603 -0.071589435967753134 0 -0.28561909888295839 -0.079360655864953042 0 -0.29849490204505058 -0.081938345925378783 0 -0.27361062541114611 -0.085405998149086934 0 -0.28561909888295839 -0.079360655864953042 0 -0.28494676303449051 -0.09097811142482605 0 -0.29765529442092259 -0.094840601490837839 0 -0.28494676303449051 -0.09097811142482605 0 -0.29849490204505058 -0.081938345925378783 0 -0.28561909888295839 -0.079360655864953042 0 -0.28494676303449051 -0.09097811142482605 0 -0.29849490204505058 -0.081938345925378783 0 -0.29849490204505058 -0.081938345925378783 0 -0.30832877355579341 -0.086934752854072747 0 -0.3066986514807607 -0.074546990101646726 0 -0.29765529442092259 -0.094840601490837839 0 -0.29849490204505058 -0.081938345925378783 0 -0.30832877355579341 -0.086934752854072747 0 -0.30832877355579341 -0.086934752854072747 0 -0.3066986514807607 -0.074546990101646726 0 -0.31636087034116728 -0.076704125898778439 0 -0.3066986514807607 -0.074546990101646726 0 -0.31411021802290889 -0.069356746280106005 0 -0.31636087034116728 -0.076704125898778439 0 -0.29568251685582603 -0.071589435967753134 0 -0.29849490204505058 -0.081938345925378783 0 -0.3066986514807607 -0.074546990101646726 0 -0.29568251685582603 -0.071589435967753134 0 -0.3066986514807607 -0.074546990101646726 0 -0.30728911182784302 -0.064893595009923935 0 -0.29931176789370939 -0.061629941742321552 0 -0.29568251685582603 -0.071589435967753134 0 -0.30728911182784302 -0.064893595009923935 0 -0.3066986514807607 -0.074546990101646726 0 -0.30728911182784302 -0.064893595009923935 0 -0.31411021802290889 -0.069356746280106005 0 -0.30728911182784302 -0.064893595009923935 0 -0.31630436981946819 -0.062936971351065629 0 -0.31411021802290889 -0.069356746280106005 0 -0.31630436981946819 -0.062936971351065629 0 -0.31411021802290889 -0.069356746280106005 0 -0.32389808664530562 -0.067702049039115322 0 -0.31630436981946819 -0.062936971351065629 0 -0.32389808664530562 -0.067702049039115322 0 -0.32481687078849097 -0.058022226865728103 0 -0.32389808664530562 -0.067702049039115322 0 -0.3259684841043719 -0.075020057435826168 0 -0.31636087034116728 -0.076704125898778439 0 -0.31411021802290889 -0.069356746280106005 0 -0.32389808664530562 -0.067702049039115322 0 -0.31636087034116728 -0.076704125898778439 0 -0.30832877355579341 -0.086934752854072747 0 -0.32608803180755441 -0.084321365842938284 0 -0.30832877355579341 -0.086934752854072747 0 -0.31968159473222052 -0.091584555267719248 0 -0.32608803180755441 -0.084321365842938284 0 -0.30832877355579341 -0.086934752854072747 0 -0.31636087034116728 -0.076704125898778439 0 -0.32608803180755441 -0.084321365842938284 0 -0.31968159473222052 -0.091584555267719248 0 -0.32608803180755441 -0.084321365842938284 0 -0.3259684841043719 -0.075020057435826168 0 -0.31636087034116728 -0.076704125898778439 0 -0.32608803180755441 -0.084321365842938284 0 -0.31968159473222052 -0.091584555267719248 0 -0.32608803180755441 -0.084321365842938284 0 -0.34030971713070318 -0.087052614945596102 0 -0.32608803180755441 -0.084321365842938284 0 -0.34030971713070318 -0.087052614945596102 0 -0.34745734249292459 -0.081176736816750444 0 -0.32608803180755441 -0.084321365842938284 0 -0.33752694762346008 -0.07135268896247253 0 -0.34745734249292459 -0.081176736816750444 0 -0.32608803180755441 -0.084321365842938284 0 -0.34745734249292459 -0.081176736816750444 0 -0.33752694762346008 -0.07135268896247253 0 -0.3489658634393657 -0.058384012082006782 0 -0.33645864726091979 -0.05858208772264157 0 -0.33752694762346008 -0.07135268896247253 0 -0.3489658634393657 -0.058384012082006782 0 -0.32389808664530562 -0.067702049039115322 0 -0.33752694762346008 -0.07135268896247253 0 -0.33645864726091979 -0.05858208772264157 0 -0.3259684841043719 -0.075020057435826168 0 -0.32608803180755441 -0.084321365842938284 0 -0.33752694762346008 -0.07135268896247253 0 -0.32608803180755441 -0.084321365842938284 0 -0.33752694762346008 -0.07135268896247253 0 -0.32389808664530562 -0.067702049039115322 0 -0.3259684841043719 -0.075020057435826168 0 -0.33752694762346008 -0.07135268896247253 0 -0.32454403747219479 -0.1081839716812668 0 -0.30877835781368662 -0.12931532841693749 0 -0.30761934067920371 -0.1042503242997595 0 -0.32454403747219479 -0.1081839716812668 0 -0.30877835781368662 -0.12931532841693749 0 -0.32454403747219479 -0.1081839716812668 0 -0.33570809008837621 -0.11845594114356341 0 -0.30877835781368662 -0.12931532841693749 0 -0.30761934067920371 -0.1042503242997595 0 -0.31968159473222052 -0.091584555267719248 0 -0.32454403747219479 -0.1081839716812668 0 -0.34030971713070318 -0.087052614945596102 0 -0.32454403747219479 -0.1081839716812668 0 -0.34278855512837281 -0.1049294584887832 0 -0.31968159473222052 -0.091584555267719248 0 -0.34030971713070318 -0.087052614945596102 0 -0.32454403747219479 -0.1081839716812668 0 -0.34030971713070318 -0.087052614945596102 0 -0.32454403747219479 -0.1081839716812668 0 -0.32454403747219479 -0.1081839716812668 0 -0.34278855512837281 -0.1049294584887832 0 -0.33570809008837621 -0.11845594114356341 0 -0.33570809008837621 -0.11845594114356341 0 -0.35404294059136687 -0.1217835462641018 0 -0.33688620478323589 -0.13358080389391511 0 -0.34278855512837281 -0.1049294584887832 0 -0.35404294059136687 -0.1217835462641018 0 -0.35932798989652742 -0.1047455147758234 0 -0.34278855512837281 -0.1049294584887832 0 -0.33570809008837621 -0.11845594114356341 0 -0.35404294059136687 -0.1217835462641018 0 -0.34278855512837281 -0.1049294584887832 0 -0.35932798989652742 -0.1047455147758234 0 -0.35079718399447979 -0.093651592615473511 0 -0.34030971713070318 -0.087052614945596102 0 -0.34278855512837281 -0.1049294584887832 0 -0.35079718399447979 -0.093651592615473511 0 -0.35932798989652742 -0.1047455147758234 0 -0.35079718399447979 -0.093651592615473511 0 -0.36132419909701757 -0.091459041133748031 0 -0.35932798989652742 -0.1047455147758234 0 -0.37367929427193591 -0.1014825750548952 0 -0.37212838853434238 -0.11808059788504249 0 -0.35932798989652742 -0.1047455147758234 0 -0.37367929427193591 -0.1014825750548952 0 -0.36132419909701757 -0.091459041133748031 0 -0.35404294059136687 -0.1217835462641018 0 -0.37212838853434238 -0.11808059788504249 0 -0.37028068739271691 -0.13083580994494901 0 -0.35404294059136687 -0.1217835462641018 0 -0.35932798989652742 -0.1047455147758234 0 -0.37212838853434238 -0.11808059788504249 0 -0.35069420168351129 -0.07223638641294812 0 -0.34745734249292459 -0.081176736816750444 0 -0.36882665317829499 -0.078032107790563188 0 -0.36882665317829499 -0.078032107790563188 0 -0.3489658634393657 -0.058384012082006782 0 -0.35069420168351129 -0.07223638641294812 0 -0.36882665317829499 -0.078032107790563188 0 -0.3489658634393657 -0.058384012082006782 0 -0.33752694762346008 -0.07135268896247253 0 -0.35069420168351129 -0.07223638641294812 0 -0.3489658634393657 -0.058384012082006782 0 -0.33752694762346008 -0.07135268896247253 0 -0.35069420168351129 -0.07223638641294812 0 -0.34745734249292459 -0.081176736816750444 0 -0.34745734249292459 -0.081176736816750444 0 -0.36882665317829499 -0.078032107790563188 0 -0.34745734249292459 -0.081176736816750444 0 -0.36132419909701757 -0.091459041133748031 0 -0.36882665317829499 -0.078032107790563188 0 -0.34030971713070318 -0.087052614945596102 0 -0.34745734249292459 -0.081176736816750444 0 -0.35079718399447979 -0.093651592615473511 0 -0.34745734249292459 -0.081176736816750444 0 -0.35079718399447979 -0.093651592615473511 0 -0.36132419909701757 -0.091459041133748031 0 -0.37367929427193591 -0.1014825750548952 0 -0.36132419909701757 -0.091459041133748031 0 -0.36882665317829499 -0.078032107790563188 0 -0.36882665317829499 -0.078032107790563188 0 -0.36862349457690058 -0.057461967220355487 0 -0.3489658634393657 -0.058384012082006782 0 -0.36882665317829499 -0.078032107790563188 0 -0.36862349457690058 -0.057461967220355487 0 -0.37947166312044489 -0.067272628224985004 0 -0.36862349457690058 -0.057461967220355487 0 -0.3489658634393657 -0.058384012082006782 0 -0.36066681755822472 -0.045118253717945672 0 -0.36862349457690058 -0.057461967220355487 0 -0.37355784227175309 -0.045246792894939887 0 -0.3815482533063424 -0.052412606119804542 0 -0.36862349457690058 -0.057461967220355487 0 -0.36066681755822472 -0.045118253717945672 0 -0.37355784227175309 -0.045246792894939887 0 -0.3489658634393657 -0.058384012082006782 0 -0.36066681755822472 -0.045118253717945672 0 -0.3489658634393657 -0.058384012082006782 0 -0.34511111307690212 -0.046137334811030092 0 -0.36066681755822472 -0.045118253717945672 0 -0.35304062521722218 -0.036039659744318157 0 -0.3553139768507978 -0.023567241021099371 0 -0.33371347875736079 -0.040226824134751989 0 -0.34511111307690212 -0.046137334811030092 0 -0.35304062521722218 -0.036039659744318157 0 -0.33371347875736079 -0.040226824134751989 0 -0.34511111307690212 -0.046137334811030092 0 -0.35304062521722218 -0.036039659744318157 0 -0.36066681755822472 -0.045118253717945672 0 -0.36066681755822472 -0.045118253717945672 0 -0.37236777167708351 -0.031852495353884333 0 -0.35304062521722218 -0.036039659744318157 0 -0.37236777167708351 -0.031852495353884333 0 -0.35304062521722218 -0.036039659744318157 0 -0.36066681755822472 -0.045118253717945672 0 -0.37236777167708351 -0.031852495353884333 0 -0.36066681755822472 -0.045118253717945672 0 -0.37355784227175309 -0.045246792894939887 0 -0.37236777167708351 -0.031852495353884333 0 -0.37236777167708351 -0.031852495353884333 0 -0.3739022591900184 -0.02415390189740213 0 -0.36770044175442279 -0.02036669541201027 0 -0.37236777167708351 -0.031852495353884333 0 -0.36770044175442279 -0.02036669541201027 0 -0.3553139768507978 -0.023567241021099371 0 -0.36770044175442279 -0.02036669541201027 0 -0.35847393927256738 -0.010652033510738681 0 -0.38297625517291389 -0.017448943304264108 0 -0.35304062521722218 -0.036039659744318157 0 -0.37236777167708351 -0.031852495353884333 0 -0.3553139768507978 -0.023567241021099371 0 -0.3739022591900184 -0.02415390189740213 0 -0.36770044175442279 -0.02036669541201027 0 -0.38297625517291389 -0.017448943304264108 0 -0.36770044175442279 -0.02036669541201027 0 -0.35847393927256738 -0.010652033510738681 0 -0.3553139768507978 -0.023567241021099371 0 -0.35847393927256738 -0.010652033510738681 0 -0.38297625517291389 -0.017448943304264108 0 -0.37278444596104371 -0.0079457960458173115 0 -0.35847393927256738 -0.010652033510738681 0 -0.38297625517291389 -0.017448943304264108 0 -0.37474494217865062 -0.0022388935110706832 0 -0.37278444596104371 -0.0079457960458173115 0 -0.36307869926690151 -0.00068504054922277494 0 -0.37278444596104371 -0.0079457960458173115 0 -0.36307869926690151 -0.00068504054922277494 0 -0.35847393927256738 -0.010652033510738681 0 -0.36307869926690151 -0.00068504054922277494 0 -0.34718119132474479 -0.01384164818341615 0 -0.36064890389212972 0.0125435277679194 0 -0.36307869926690151 -0.00068504054922277494 0 -0.35847393927256738 -0.010652033510738681 0 -0.34718119132474479 -0.01384164818341615 0 -0.34718119132474479 -0.01384164818341615 0 -0.36064890389212972 0.0125435277679194 0 -0.34718119132474479 -0.01384164818341615 0 -0.3553139768507978 -0.023567241021099371 0 -0.33371347875736079 -0.040226824134751989 0 -0.35847393927256738 -0.010652033510738681 0 -0.34718119132474479 -0.01384164818341615 0 -0.3553139768507978 -0.023567241021099371 0 -0.34718119132474479 -0.01384164818341615 0 -0.33035884889608558 -0.02420969997450095 0 -0.33371347875736079 -0.040226824134751989 0 -0.34718119132474479 -0.01384164818341615 0 -0.33371347875736079 -0.040226824134751989 0 -0.34718119132474479 -0.01384164818341615 0 -0.32828291010712762 -0.0049346835118845543 0 -0.34055428987364128 0.0059527955302196532 0 -0.34718119132474479 -0.01384164818341615 0 -0.33035884889608558 -0.02420969997450095 0 -0.32828291010712762 -0.0049346835118845543 0 -0.31144738423897378 -0.02126732740536201 0 -0.32828291010712762 -0.0049346835118845543 0 -0.31177688145040278 0.0050359958776742568 0 -0.31144738423897378 -0.02126732740536201 0 -0.33116928005221918 -0.040778016637091109 0 -0.31144738423897378 -0.02126732740536201 0 -0.33035884889608558 -0.02420969997450095 0 -0.32828291010712762 -0.0049346835118845543 0 -0.31144738423897378 -0.02126732740536201 0 -0.33035884889608558 -0.02420969997450095 0 -0.33116928005221918 -0.040778016637091109 0 -0.3023660715744253 -0.047018139519123002 0 -0.31110423911055801 -0.035316851109560482 0 -0.33116928005221918 -0.040778016637091109 0 -0.3023660715744253 -0.047018139519123002 0 -0.31025625293594222 -0.050033124508212908 0 -0.33116928005221918 -0.040778016637091109 0 -0.3023660715744253 -0.047018139519123002 0 -0.33116928005221918 -0.040778016637091109 0 -0.31144738423897378 -0.02126732740536201 0 -0.31110423911055801 -0.035316851109560482 0 -0.33116928005221918 -0.040778016637091109 0 -0.31025625293594222 -0.050033124508212908 0 -0.31770057673851387 -0.05020147555903863 0 -0.33116928005221918 -0.040778016637091109 0 -0.31025625293594222 -0.050033124508212908 0 -0.31770057673851387 -0.05020147555903863 0 -0.31405483352543062 -0.056831087900065053 0 -0.31770057673851387 -0.05020147555903863 0 -0.31405483352543062 -0.056831087900065053 0 -0.31936567051967829 -0.054711673150449433 0 -0.31630436981946819 -0.062936971351065629 0 -0.31936567051967829 -0.054711673150449433 0 -0.32481687078849097 -0.058022226865728103 0 -0.30728911182784302 -0.064893595009923935 0 -0.31630436981946819 -0.062936971351065629 0 -0.31405483352543062 -0.056831087900065053 0 -0.31630436981946819 -0.062936971351065629 0 -0.31405483352543062 -0.056831087900065053 0 -0.31936567051967829 -0.054711673150449433 0 -0.31770057673851387 -0.05020147555903863 0 -0.32448711316898249 -0.050622394842538963 0 -0.33116928005221918 -0.040778016637091109 0 -0.31936567051967829 -0.054711673150449433 0 -0.32481687078849097 -0.058022226865728103 0 -0.32448711316898249 -0.050622394842538963 0 -0.31770057673851387 -0.05020147555903863 0 -0.31936567051967829 -0.054711673150449433 0 -0.32448711316898249 -0.050622394842538963 0 -0.32481687078849097 -0.058022226865728103 0 -0.32770904195502032 -0.053173566283506987 0 -0.32448711316898249 -0.050622394842538963 0 -0.32770904195502032 -0.053173566283506987 0 -0.32448711316898249 -0.050622394842538963 0 -0.32972533979495861 -0.048040159006195682 0 -0.3489658634393657 -0.058384012082006782 0 -0.34511111307690212 -0.046137334811030092 0 -0.3326728772282519 -0.042265511425067279 0 -0.32972533979495861 -0.048040159006195682 0 -0.33645864726091979 -0.05858208772264157 0 -0.3326728772282519 -0.042265511425067279 0 -0.3489658634393657 -0.058384012082006782 0 -0.3326728772282519 -0.042265511425067279 0 -0.32770904195502032 -0.053173566283506987 0 -0.32972533979495861 -0.048040159006195682 0 -0.33645864726091979 -0.05858208772264157 0 -0.3489658634393657 -0.058384012082006782 0 -0.33645864726091979 -0.05858208772264157 0 -0.3326728772282519 -0.042265511425067279 0 -0.32389808664530562 -0.067702049039115322 0 -0.32481687078849097 -0.058022226865728103 0 -0.33645864726091979 -0.05858208772264157 0 -0.32481687078849097 -0.058022226865728103 0 -0.32770904195502032 -0.053173566283506987 0 -0.33645864726091979 -0.05858208772264157 0 -0.34511111307690212 -0.046137334811030092 0 -0.33371347875736079 -0.040226824134751989 0 -0.3326728772282519 -0.042265511425067279 0 -0.33035884889608558 -0.02420969997450095 0 -0.33116928005221918 -0.040778016637091109 0 -0.33371347875736079 -0.040226824134751989 0 -0.35304062521722218 -0.036039659744318157 0 -0.33371347875736079 -0.040226824134751989 0 -0.32448711316898249 -0.050622394842538963 0 -0.32972533979495861 -0.048040159006195682 0 -0.33116928005221918 -0.040778016637091109 0 -0.33116928005221918 -0.040778016637091109 0 -0.3326728772282519 -0.042265511425067279 0 -0.32972533979495861 -0.048040159006195682 0 -0.3326728772282519 -0.042265511425067279 0 -0.32972533979495861 -0.048040159006195682 0 -0.33116928005221918 -0.040778016637091109 0 -0.3326728772282519 -0.042265511425067279 0 -0.33116928005221918 -0.040778016637091109 0 -0.33371347875736079 -0.040226824134751989 0 -0.33116928005221918 -0.040778016637091109 0 -0.33371347875736079 -0.040226824134751989 0 -0.3326728772282519 -0.042265511425067279 0 -0.33371347875736079 -0.040226824134751989 0 -0.3326728772282519 -0.042265511425067279 0 -0.2907170577323625 -0.25177677077710309 0 -0.30853150187083839 -0.25429835417001312 0 -0.30748271917561598 -0.2431056607245809 0 -0.30748271917561598 -0.2431056607245809 0 -0.3004866401015065 -0.2269264896544945 0 -0.32066485276457768 -0.2334308190911655 0 -0.2907170577323625 -0.25177677077710309 0 -0.30748271917561598 -0.2431056607245809 0 -0.3004866401015065 -0.2269264896544945 0 -0.30853150187083839 -0.25429835417001312 0 -0.30748271917561598 -0.2431056607245809 0 -0.32023222063025569 -0.2489608815952247 0 -0.3004866401015065 -0.2269264896544945 0 -0.27575903677895092 -0.22208668823385669 0 -0.3004866401015065 -0.2269264896544945 0 -0.27309361240676189 -0.24179026653703889 0 -0.27575903677895092 -0.22208668823385669 0 -0.3004866401015065 -0.2269264896544945 0 -0.27575903677895092 -0.22208668823385669 0 -0.29482007196541532 -0.2089319155152673 0 -0.2907170577323625 -0.25177677077710309 0 -0.3004866401015065 -0.2269264896544945 0 -0.27309361240676189 -0.24179026653703889 0 -0.27309361240676189 -0.24179026653703889 0 -0.25431856302814809 -0.24833495949118861 0 -0.25103143345639523 -0.21724688681321891 0 -0.27575903677895092 -0.22208668823385669 0 -0.25103143345639523 -0.21724688681321891 0 -0.27309361240676189 -0.24179026653703889 0 -0.27575903677895092 -0.22208668823385669 0 -0.25103143345639523 -0.21724688681321891 0 -0.27575903677895092 -0.22208668823385669 0 -0.25103143345639523 -0.21724688681321891 0 -0.27708552823660842 -0.19790031786117671 0 -0.25103143345639523 -0.21724688681321891 0 -0.25418198431724581 -0.18809916394242601 0 -0.27708552823660842 -0.19790031786117671 0 -0.27708552823660842 -0.19790031786117671 0 -0.29482007196541532 -0.2089319155152673 0 -0.30195969341908391 -0.19078830755985379 0 -0.29482007196541532 -0.2089319155152673 0 -0.30195969341908391 -0.19078830755985379 0 -0.32674672588845421 -0.2120308859258328 0 -0.3004866401015065 -0.2269264896544945 0 -0.29482007196541532 -0.2089319155152673 0 -0.32674672588845421 -0.2120308859258328 0 -0.27575903677895092 -0.22208668823385669 0 -0.27708552823660842 -0.19790031786117671 0 -0.29482007196541532 -0.2089319155152673 0 -0.30195969341908391 -0.19078830755985379 0 -0.30674796742087651 -0.1684647150882764 0 -0.32123008678095788 -0.18729232698745699 0 -0.30674796742087651 -0.1684647150882764 0 -0.2930126781551784 -0.15044668515260809 0 -0.3206808779707625 -0.15110047818677941 0 -0.27724699849667023 -0.17157804188827869 0 -0.2930126781551784 -0.15044668515260809 0 -0.30674796742087651 -0.1684647150882764 0 -0.27724699849667023 -0.17157804188827869 0 -0.2930126781551784 -0.15044668515260809 0 -0.27708552823660842 -0.19790031786117671 0 -0.30195969341908391 -0.19078830755985379 0 -0.27724699849667023 -0.17157804188827869 0 -0.30195969341908391 -0.19078830755985379 0 -0.30674796742087651 -0.1684647150882764 0 -0.27724699849667023 -0.17157804188827869 0 -0.25418198431724581 -0.18809916394242601 0 -0.27708552823660842 -0.19790031786117671 0 -0.27724699849667023 -0.17157804188827869 0 -0.25418198431724581 -0.18809916394242601 0 -0.2565438833259911 -0.1687602707777138 0 -0.27724699849667023 -0.17157804188827869 0 -0.2435592126657353 -0.1561425335328199 0 -0.2565438833259911 -0.1687602707777138 0 -0.26683780591716472 -0.14870377212940841 0 -0.27724699849667023 -0.17157804188827869 0 -0.26683780591716472 -0.14870377212940841 0 -0.2930126781551784 -0.15044668515260809 0 -0.2565438833259911 -0.1687602707777138 0 -0.27724699849667023 -0.17157804188827869 0 -0.26683780591716472 -0.14870377212940841 0 -0.2435592126657353 -0.1561425335328199 0 -0.2432602079730701 -0.13485583854350039 0 -0.26683780591716472 -0.14870377212940841 0 -0.2432602079730701 -0.13485583854350039 0 -0.26490928006600228 -0.12397715003998409 0 -0.26683780591716472 -0.14870377212940841 0 -0.26490928006600228 -0.12397715003998409 0 -0.26683780591716472 -0.14870377212940841 0 -0.28428672055728371 -0.13281235115180859 0 -0.28428672055728371 -0.13281235115180859 0 -0.2930126781551784 -0.15044668515260809 0 -0.30877835781368662 -0.12931532841693749 0 -0.26683780591716472 -0.14870377212940841 0 -0.28428672055728371 -0.13281235115180859 0 -0.2930126781551784 -0.15044668515260809 0 -0.2930126781551784 -0.15044668515260809 0 -0.30877835781368662 -0.12931532841693749 0 -0.3206808779707625 -0.15110047818677941 0 -0.2930126781551784 -0.15044668515260809 0 -0.30877835781368662 -0.12931532841693749 0 -0.33570809008837621 -0.11845594114356341 0 -0.30877835781368662 -0.12931532841693749 0 -0.33688620478323589 -0.13358080389391511 0 -0.30877835781368662 -0.12931532841693749 0 -0.3206808779707625 -0.15110047818677941 0 -0.33688620478323589 -0.13358080389391511 0 -0.3206808779707625 -0.15110047818677941 0 -0.33688620478323589 -0.13358080389391511 0 -0.34399943231138669 -0.15408109000358611 0 -0.33688620478323589 -0.13358080389391511 0 -0.35929992868189681 -0.1386942596847188 0 -0.35404294059136687 -0.1217835462641018 0 -0.33688620478323589 -0.13358080389391511 0 -0.35929992868189681 -0.1386942596847188 0 -0.35404294059136687 -0.1217835462641018 0 -0.35929992868189681 -0.1386942596847188 0 -0.37028068739271691 -0.13083580994494901 0 -0.35929992868189681 -0.1386942596847188 0 -0.37028068739271691 -0.13083580994494901 0 -0.3804539816512269 -0.14482329966991631 0 -0.35929992868189681 -0.1386942596847188 0 -0.3804539816512269 -0.14482329966991631 0 -0.35929992868189681 -0.1386942596847188 0 -0.3655172116091886 -0.15688196674787641 0 -0.3804539816512269 -0.14482329966991631 0 -0.3655172116091886 -0.15688196674787641 0 -0.3804539816512269 -0.14482329966991631 0 -0.3655172116091886 -0.15688196674787641 0 -0.37839901512320262 -0.15996290040625341 0 -0.3804539816512269 -0.14482329966991631 0 -0.33688620478323589 -0.13358080389391511 0 -0.35929992868189681 -0.1386942596847188 0 -0.34399943231138669 -0.15408109000358611 0 -0.35929992868189681 -0.1386942596847188 0 -0.34399943231138669 -0.15408109000358611 0 -0.3655172116091886 -0.15688196674787641 0 -0.34399943231138669 -0.15408109000358611 0 -0.35323542112630057 -0.1671812377988513 0 -0.3655172116091886 -0.15688196674787641 0 -0.3655172116091886 -0.15688196674787641 0 -0.37378547386561772 -0.17392500984250869 0 -0.37839901512320262 -0.15996290040625341 0 -0.35323542112630057 -0.1671812377988513 0 -0.3655172116091886 -0.15688196674787641 0 -0.37378547386561772 -0.17392500984250869 0 -0.37378547386561772 -0.17392500984250869 0 -0.35240556330307887 -0.18479875362473361 0 -0.36895563931783232 -0.19259611207654981 0 -0.35323542112630057 -0.1671812377988513 0 -0.37378547386561772 -0.17392500984250869 0 -0.35240556330307887 -0.18479875362473361 0 -0.35323542112630057 -0.1671812377988513 0 -0.35240556330307887 -0.18479875362473361 0 -0.33400288196205857 -0.17193246321376471 0 -0.35240556330307887 -0.18479875362473361 0 -0.33400288196205857 -0.17193246321376471 0 -0.33669316521431608 -0.19324526314955739 0 -0.33400288196205857 -0.17193246321376471 0 -0.32123008678095788 -0.18729232698745699 0 -0.33669316521431608 -0.19324526314955739 0 -0.3206808779707625 -0.15110047818677941 0 -0.34399943231138669 -0.15408109000358611 0 -0.33400288196205857 -0.17193246321376471 0 -0.34399943231138669 -0.15408109000358611 0 -0.35323542112630057 -0.1671812377988513 0 -0.33400288196205857 -0.17193246321376471 0 -0.30674796742087651 -0.1684647150882764 0 -0.3206808779707625 -0.15110047818677941 0 -0.33400288196205857 -0.17193246321376471 0 -0.30674796742087651 -0.1684647150882764 0 -0.33400288196205857 -0.17193246321376471 0 -0.32123008678095788 -0.18729232698745699 0 -0.30195969341908391 -0.19078830755985379 0 -0.32123008678095788 -0.18729232698745699 0 -0.32674672588845421 -0.2120308859258328 0 -0.32674672588845421 -0.2120308859258328 0 -0.35024140450074381 -0.20994798342056251 0 -0.32674672588845421 -0.2120308859258328 0 -0.33669316521431608 -0.19324526314955739 0 -0.35024140450074381 -0.20994798342056251 0 -0.32674672588845421 -0.2120308859258328 0 -0.35024140450074381 -0.20994798342056251 0 -0.3377174746324717 -0.2284461722996495 0 -0.32123008678095788 -0.18729232698745699 0 -0.32674672588845421 -0.2120308859258328 0 -0.33669316521431608 -0.19324526314955739 0 -0.35240556330307887 -0.18479875362473361 0 -0.36895563931783232 -0.19259611207654981 0 -0.35024140450074381 -0.20994798342056251 0 -0.35240556330307887 -0.18479875362473361 0 -0.33669316521431608 -0.19324526314955739 0 -0.35024140450074381 -0.20994798342056251 0 -0.36895563931783232 -0.19259611207654981 0 -0.37373608311303341 -0.20786508091529229 0 -0.35024140450074381 -0.20994798342056251 0 -0.37373608311303341 -0.20786508091529229 0 -0.35024140450074381 -0.20994798342056251 0 -0.37373608311303341 -0.20786508091529229 0 -0.35024140450074381 -0.20994798342056251 0 -0.36602803805366552 -0.21914337572849349 0 -0.37373608311303341 -0.20786508091529229 0 -0.36602803805366552 -0.21914337572849349 0 -0.37785639846487218 -0.21906994256996459 0 -0.35024140450074381 -0.20994798342056251 0 -0.357966965356528 -0.23170644806675769 0 -0.3377174746324717 -0.2284461722996495 0 -0.35024140450074381 -0.20994798342056251 0 -0.357966965356528 -0.23170644806675769 0 -0.36602803805366552 -0.21914337572849349 0 -0.357966965356528 -0.23170644806675769 0 -0.36602803805366552 -0.21914337572849349 0 -0.36983275924353248 -0.22875232439276311 0 -0.36602803805366552 -0.21914337572849349 0 -0.36983275924353248 -0.22875232439276311 0 -0.37785639846487218 -0.21906994256996459 0 -0.357966965356528 -0.23170644806675769 0 -0.36983275924353248 -0.22875232439276311 0 -0.37747963509906429 -0.24508953120583671 0 -0.35872453044413888 -0.25078889886649508 0 -0.357966965356528 -0.23170644806675769 0 -0.37747963509906429 -0.24508953120583671 0 -0.357966965356528 -0.23170644806675769 0 -0.34395992200845399 -0.24382677409400949 0 -0.3377174746324717 -0.2284461722996495 0 -0.35872453044413888 -0.25078889886649508 0 -0.357966965356528 -0.23170644806675769 0 -0.34395992200845399 -0.24382677409400949 0 -0.33345250408021371 -0.25331871279766999 0 -0.34395992200845399 -0.24382677409400949 0 -0.33132333615916232 -0.2411148243472106 0 -0.33345250408021371 -0.25331871279766999 0 -0.33132333615916232 -0.2411148243472106 0 -0.32023222063025569 -0.2489608815952247 0 -0.34395992200845399 -0.24382677409400949 0 -0.33132333615916232 -0.2411148243472106 0 -0.3377174746324717 -0.2284461722996495 0 -0.32674672588845421 -0.2120308859258328 0 -0.3377174746324717 -0.2284461722996495 0 -0.32066485276457768 -0.2334308190911655 0 -0.33132333615916232 -0.2411148243472106 0 -0.3377174746324717 -0.2284461722996495 0 -0.32066485276457768 -0.2334308190911655 0 -0.3004866401015065 -0.2269264896544945 0 -0.32674672588845421 -0.2120308859258328 0 -0.32066485276457768 -0.2334308190911655 0 -0.30748271917561598 -0.2431056607245809 0 -0.32066485276457768 -0.2334308190911655 0 -0.32023222063025569 -0.2489608815952247 0 -0.33132333615916232 -0.2411148243472106 0 -0.32066485276457768 -0.2334308190911655 0 -0.32023222063025569 -0.2489608815952247 0 -0.43445882011373449 -0.25478651907497341 0 -0.43806130733353449 -0.23541812032183559 0 -0.43445882011373449 -0.25478651907497341 0 -0.4258852610480256 -0.24284815888716721 0 -0.43806130733353449 -0.23541812032183559 0 -0.4258852610480256 -0.24284815888716721 0 -0.42538833238501789 -0.2333934851751748 0 -0.41698539980062188 -0.23875950084572559 0 -0.43445882011373449 -0.25478651907497341 0 -0.4258852610480256 -0.24284815888716721 0 -0.42335340856967768 -0.24893549408922019 0 -0.4258852610480256 -0.24284815888716721 0 -0.42538833238501789 -0.2333934851751748 0 -0.43806130733353449 -0.23541812032183559 0 -0.43091611572645672 -0.22699763907763329 0 -0.42538833238501789 -0.2333934851751748 0 -0.43806130733353449 -0.23541812032183559 0 -0.43091611572645672 -0.22699763907763329 0 -0.44166379455333399 -0.21604972156869759 0 -0.43806130733353449 -0.23541812032183559 0 -0.43091611572645672 -0.22699763907763329 0 -0.43133498143110582 -0.21921018883561361 0 -0.44166379455333399 -0.21604972156869759 0 -0.43133498143110582 -0.21921018883561361 0 -0.4232485836513401 -0.22477446532261011 0 -0.4232102070061276 -0.21869015764887889 0 -0.43091611572645672 -0.22699763907763329 0 -0.43133498143110582 -0.21921018883561361 0 -0.4232485836513401 -0.22477446532261011 0 -0.43091611572645672 -0.22699763907763329 0 -0.4232485836513401 -0.22477446532261011 0 -0.42538833238501789 -0.2333934851751748 0 -0.4232485836513401 -0.22477446532261011 0 -0.42538833238501789 -0.2333934851751748 0 -0.41731365953457839 -0.2310953018814938 0 -0.4232485836513401 -0.22477446532261011 0 -0.41731365953457839 -0.2310953018814938 0 -0.4121948509493269 -0.2247325638453028 0 -0.41731365953457839 -0.2310953018814938 0 -0.4080561583250083 -0.23272886934204159 0 -0.41698539980062188 -0.23875950084572559 0 -0.4232485836513401 -0.22477446532261011 0 -0.4121948509493269 -0.2247325638453028 0 -0.41685681033243982 -0.21746512418924929 0 -0.4232485836513401 -0.22477446532261011 0 -0.41685681033243982 -0.21746512418924929 0 -0.4232102070061276 -0.21869015764887889 0 -0.4121948509493269 -0.2247325638453028 0 -0.4080561583250083 -0.23272886934204159 0 -0.39971520205611372 -0.2221352637332015 0 -0.4121948509493269 -0.2247325638453028 0 -0.40807454407470489 -0.21592977391801271 0 -0.41685681033243982 -0.21746512418924929 0 -0.4121948509493269 -0.2247325638453028 0 -0.39971520205611372 -0.2221352637332015 0 -0.40807454407470489 -0.21592977391801271 0 -0.41731365953457839 -0.2310953018814938 0 -0.4121948509493269 -0.2247325638453028 0 -0.4080561583250083 -0.23272886934204159 0 -0.4080561583250083 -0.23272886934204159 0 -0.40983148527785651 -0.24118391776602099 0 -0.41698539980062188 -0.23875950084572559 0 -0.42538833238501789 -0.2333934851751748 0 -0.41731365953457839 -0.2310953018814938 0 -0.41698539980062188 -0.23875950084572559 0 -0.40983148527785651 -0.24118391776602099 0 -0.41698539980062188 -0.23875950084572559 0 -0.41627810448972868 -0.24641300060905449 0 -0.4258852610480256 -0.24284815888716721 0 -0.42335340856967768 -0.24893549408922019 0 -0.41627810448972868 -0.24641300060905449 0 -0.4258852610480256 -0.24284815888716721 0 -0.41698539980062188 -0.23875950084572559 0 -0.41627810448972868 -0.24641300060905449 0 -0.41679144862722167 -0.25169429778568547 0 -0.42335340856967768 -0.24893549408922019 0 -0.41627810448972868 -0.24641300060905449 0 -0.41385673751816382 -0.25312989710486528 0 -0.41627810448972868 -0.24641300060905449 0 -0.4086566941719203 -0.24778871483445111 0 -0.40983148527785651 -0.24118391776602099 0 -0.41627810448972868 -0.24641300060905449 0 -0.4086566941719203 -0.24778871483445111 0 -0.40282532782868952 -0.25224285689579767 0 -0.4086566941719203 -0.24778871483445111 0 -0.40022281387448849 -0.24084313907701979 0 -0.40983148527785651 -0.24118391776602099 0 -0.4086566941719203 -0.24778871483445111 0 -0.40022281387448849 -0.24084313907701979 0 -0.4080561583250083 -0.23272886934204159 0 -0.40983148527785651 -0.24118391776602099 0 -0.40022281387448849 -0.24084313907701979 0 -0.40022281387448849 -0.24084313907701979 0 -0.3903832871219331 -0.2411545733314838 0 -0.38772777019650018 -0.2315142496456449 0 -0.3938256931015453 -0.25037754026629511 0 -0.40022281387448849 -0.24084313907701979 0 -0.3903832871219331 -0.2411545733314838 0 -0.3938256931015453 -0.25037754026629511 0 -0.3903832871219331 -0.2411545733314838 0 -0.37747963509906429 -0.24508953120583671 0 -0.3903832871219331 -0.2411545733314838 0 -0.37747963509906429 -0.24508953120583671 0 -0.38772777019650018 -0.2315142496456449 0 -0.37747963509906429 -0.24508953120583671 0 -0.37785639846487218 -0.21906994256996459 0 -0.37747963509906429 -0.24508953120583671 0 -0.37785639846487218 -0.21906994256996459 0 -0.38772777019650018 -0.2315142496456449 0 -0.36983275924353248 -0.22875232439276311 0 -0.37747963509906429 -0.24508953120583671 0 -0.37785639846487218 -0.21906994256996459 0 -0.37785639846487218 -0.21906994256996459 0 -0.38772777019650018 -0.2315142496456449 0 -0.38790285805175961 -0.2167146319195192 0 -0.4080561583250083 -0.23272886934204159 0 -0.40022281387448849 -0.24084313907701979 0 -0.39971520205611372 -0.2221352637332015 0 -0.40022281387448849 -0.24084313907701979 0 -0.39971520205611372 -0.2221352637332015 0 -0.38772777019650018 -0.2315142496456449 0 -0.39971520205611372 -0.2221352637332015 0 -0.38790285805175961 -0.2167146319195192 0 -0.40022281387448849 -0.24084313907701979 0 -0.38772777019650018 -0.2315142496456449 0 -0.39971520205611372 -0.2221352637332015 0 -0.39971520205611372 -0.2221352637332015 0 -0.39723076172532301 -0.205782178410022 0 -0.40807454407470489 -0.21592977391801271 0 -0.39971520205611372 -0.2221352637332015 0 -0.39723076172532301 -0.205782178410022 0 -0.38790285805175961 -0.2167146319195192 0 -0.39723076172532301 -0.205782178410022 0 -0.41303892827123678 -0.21093405469715851 0 -0.40807454407470489 -0.21592977391801271 0 -0.37373608311303341 -0.20786508091529229 0 -0.39723076172532301 -0.205782178410022 0 -0.38370630256805799 -0.1971119561512929 0 -0.37373608311303341 -0.20786508091529229 0 -0.39723076172532301 -0.205782178410022 0 -0.38790285805175961 -0.2167146319195192 0 -0.37373608311303341 -0.20786508091529229 0 -0.39723076172532301 -0.205782178410022 0 -0.37373608311303341 -0.20786508091529229 0 -0.37785639846487218 -0.21906994256996459 0 -0.38790285805175961 -0.2167146319195192 0 -0.36895563931783232 -0.19259611207654981 0 -0.38370630256805799 -0.1971119561512929 0 -0.3831693110633177 -0.1873742460103984 0 -0.36895563931783232 -0.19259611207654981 0 -0.37373608311303341 -0.20786508091529229 0 -0.38370630256805799 -0.1971119561512929 0 -0.38370630256805799 -0.1971119561512929 0 -0.39543971762078378 -0.19194216334420211 0 -0.3831693110633177 -0.1873742460103984 0 -0.39723076172532301 -0.205782178410022 0 -0.38370630256805799 -0.1971119561512929 0 -0.39543971762078378 -0.19194216334420211 0 -0.39723076172532301 -0.205782178410022 0 -0.39543971762078378 -0.19194216334420211 0 -0.40534117689708921 -0.19634387975323889 0 -0.39543971762078378 -0.19194216334420211 0 -0.40534117689708921 -0.19634387975323889 0 -0.40730162077548249 -0.18407395049314179 0 -0.39723076172532301 -0.205782178410022 0 -0.40534117689708921 -0.19634387975323889 0 -0.42072544033761272 -0.20369927590475301 0 -0.42032122747045741 -0.1927313373696285 0 -0.42072544033761272 -0.20369927590475301 0 -0.40730162077548249 -0.18407395049314179 0 -0.42072544033761272 -0.20369927590475301 0 -0.40730162077548249 -0.18407395049314179 0 -0.40534117689708921 -0.19634387975323889 0 -0.42072544033761272 -0.20369927590475301 0 -0.40730162077548249 -0.18407395049314179 0 -0.39723076172532301 -0.205782178410022 0 -0.41303892827123678 -0.21093405469715851 0 -0.42072544033761272 -0.20369927590475301 0 -0.39723076172532301 -0.205782178410022 0 -0.42072544033761272 -0.20369927590475301 0 -0.41303892827123678 -0.21093405469715851 0 -0.40807454407470489 -0.21592977391801271 0 -0.41685681033243982 -0.21746512418924929 0 -0.41303892827123678 -0.21093405469715851 0 -0.41685681033243982 -0.21746512418924929 0 -0.42140045260962489 -0.21331085224804261 0 -0.41685681033243982 -0.21746512418924929 0 -0.42140045260962489 -0.21331085224804261 0 -0.4232102070061276 -0.21869015764887889 0 -0.41303892827123678 -0.21093405469715851 0 -0.42140045260962489 -0.21331085224804261 0 -0.42072544033761272 -0.20369927590475301 0 -0.42512182626149492 -0.2033095177213731 0 -0.43378961613155448 -0.20908682079381441 0 -0.44184138868315109 -0.20247798044170351 0 -0.42072544033761272 -0.20369927590475301 0 -0.42512182626149492 -0.2033095177213731 0 -0.43133498143110582 -0.21921018883561361 0 -0.42072544033761272 -0.20369927590475301 0 -0.42512182626149492 -0.2033095177213731 0 -0.43133498143110582 -0.21921018883561361 0 -0.42512182626149492 -0.2033095177213731 0 -0.43378961613155448 -0.20908682079381441 0 -0.43133498143110582 -0.21921018883561361 0 -0.42140045260962489 -0.21331085224804261 0 -0.4232102070061276 -0.21869015764887889 0 -0.43133498143110582 -0.21921018883561361 0 -0.42072544033761272 -0.20369927590475301 0 -0.43133498143110582 -0.21921018883561361 0 -0.42140045260962489 -0.21331085224804261 0 -0.42072544033761272 -0.20369927590475301 0 -0.43133498143110582 -0.21921018883561361 0 -0.43378961613155448 -0.20908682079381441 0 -0.44166379455333399 -0.21604972156869759 0 -0.42032122747045741 -0.1927313373696285 0 -0.44184138868315109 -0.20247798044170351 0 -0.42032122747045741 -0.1927313373696285 0 -0.43099962817645188 -0.18319011649723049 0 -0.43833565968517207 -0.19112957676178299 0 -0.42032122747045741 -0.1927313373696285 0 -0.42512182626149492 -0.2033095177213731 0 -0.44184138868315109 -0.20247798044170351 0 -0.42032122747045741 -0.1927313373696285 0 -0.43833565968517207 -0.19112957676178299 0 -0.44184138868315109 -0.20247798044170351 0 -0.42032122747045741 -0.1927313373696285 0 -0.42072544033761272 -0.20369927590475301 0 -0.42512182626149492 -0.2033095177213731 0 -0.42549584187692119 -0.17333418479170171 0 -0.43099962817645188 -0.18319011649723049 0 -0.41834400919125792 -0.18158621355319651 0 -0.42032122747045741 -0.1927313373696285 0 -0.43099962817645188 -0.18319011649723049 0 -0.41834400919125792 -0.18158621355319651 0 -0.43099962817645188 -0.18319011649723049 0 -0.43495901877196291 -0.17485617288990979 0 -0.44455133712372419 -0.18300714728765441 0 -0.42549584187692119 -0.17333418479170171 0 -0.43099962817645188 -0.18319011649723049 0 -0.43495901877196291 -0.17485617288990979 0 -0.42549584187692119 -0.17333418479170171 0 -0.43495901877196291 -0.17485617288990979 0 -0.43155613508544272 -0.1669321437644439 0 -0.43495901877196291 -0.17485617288990979 0 -0.43155613508544272 -0.1669321437644439 0 -0.44219215159727421 -0.16781727210851849 0 -0.43155613508544272 -0.1669321437644439 0 -0.43166640735559808 -0.1552039120346444 0 -0.44219215159727421 -0.16781727210851849 0 -0.43155613508544272 -0.1669321437644439 0 -0.4214232379976206 -0.16216052115063159 0 -0.43166640735559808 -0.1552039120346444 0 -0.42549584187692119 -0.17333418479170171 0 -0.43155613508544272 -0.1669321437644439 0 -0.4214232379976206 -0.16216052115063159 0 -0.42549584187692119 -0.17333418479170171 0 -0.4214232379976206 -0.16216052115063159 0 -0.41110577652129249 -0.1670682470007229 0 -0.4214232379976206 -0.16216052115063159 0 -0.41110577652129249 -0.1670682470007229 0 -0.40669002996807779 -0.1495058137550834 0 -0.41110577652129249 -0.1670682470007229 0 -0.41834400919125792 -0.18158621355319651 0 -0.40730162077548249 -0.18407395049314179 0 -0.42549584187692119 -0.17333418479170171 0 -0.41110577652129249 -0.1670682470007229 0 -0.41834400919125792 -0.18158621355319651 0 -0.42032122747045741 -0.1927313373696285 0 -0.41834400919125792 -0.18158621355319651 0 -0.40730162077548249 -0.18407395049314179 0 -0.39543971762078378 -0.19194216334420211 0 -0.40730162077548249 -0.18407395049314179 0 -0.39267839793348491 -0.17927693187167279 0 -0.40730162077548249 -0.18407395049314179 0 -0.39267839793348491 -0.17927693187167279 0 -0.39387780121335469 -0.16444862508152899 0 -0.40730162077548249 -0.18407395049314179 0 -0.39387780121335469 -0.16444862508152899 0 -0.37378547386561772 -0.17392500984250869 0 -0.36895563931783232 -0.19259611207654981 0 -0.3831693110633177 -0.1873742460103984 0 -0.37378547386561772 -0.17392500984250869 0 -0.39267839793348491 -0.17927693187167279 0 -0.3831693110633177 -0.1873742460103984 0 -0.37378547386561772 -0.17392500984250869 0 -0.39267839793348491 -0.17927693187167279 0 -0.39387780121335469 -0.16444862508152899 0 -0.39543971762078378 -0.19194216334420211 0 -0.39267839793348491 -0.17927693187167279 0 -0.3831693110633177 -0.1873742460103984 0 -0.37378547386561772 -0.17392500984250869 0 -0.37839901512320262 -0.15996290040625341 0 -0.39387780121335469 -0.16444862508152899 0 -0.37839901512320262 -0.15996290040625341 0 -0.39387780121335469 -0.16444862508152899 0 -0.3804539816512269 -0.14482329966991631 0 -0.41110577652129249 -0.1670682470007229 0 -0.39387780121335469 -0.16444862508152899 0 -0.40669002996807779 -0.1495058137550834 0 -0.41110577652129249 -0.1670682470007229 0 -0.40730162077548249 -0.18407395049314179 0 -0.39387780121335469 -0.16444862508152899 0 -0.39387780121335469 -0.16444862508152899 0 -0.3804539816512269 -0.14482329966991631 0 -0.40669002996807779 -0.1495058137550834 0 -0.3804539816512269 -0.14482329966991631 0 -0.39647179587780151 -0.13189450107720049 0 -0.40669002996807779 -0.1495058137550834 0 -0.3804539816512269 -0.14482329966991631 0 -0.40669002996807779 -0.1495058137550834 0 -0.39387780121335469 -0.16444862508152899 0 -0.3804539816512269 -0.14482329966991631 0 -0.3804539816512269 -0.14482329966991631 0 -0.38278168804071749 -0.12940228238898679 0 -0.39647179587780151 -0.13189450107720049 0 -0.3804539816512269 -0.14482329966991631 0 -0.39647179587780151 -0.13189450107720049 0 -0.37212838853434238 -0.11808059788504249 0 -0.37028068739271691 -0.13083580994494901 0 -0.38278168804071749 -0.12940228238898679 0 -0.37028068739271691 -0.13083580994494901 0 -0.3804539816512269 -0.14482329966991631 0 -0.38278168804071749 -0.12940228238898679 0 -0.38278168804071749 -0.12940228238898679 0 -0.39647179587780151 -0.13189450107720049 0 -0.39044023874876249 -0.11757149150947201 0 -0.39647179587780151 -0.13189450107720049 0 -0.40828286160401828 -0.1310364195873514 0 -0.40669002996807779 -0.1495058137550834 0 -0.39647179587780151 -0.13189450107720049 0 -0.40828286160401828 -0.1310364195873514 0 -0.41122993917504558 -0.1199812866788818 0 -0.39647179587780151 -0.13189450107720049 0 -0.41122993917504558 -0.1199812866788818 0 -0.40828286160401828 -0.1310364195873514 0 -0.41930562378398423 -0.12797048681614909 0 -0.41122993917504558 -0.1199812866788818 0 -0.41930562378398423 -0.12797048681614909 0 -0.41533589961201212 -0.13938201891822019 0 -0.4273858072007774 -0.14414008567558009 0 -0.40828286160401828 -0.1310364195873514 0 -0.41533589961201212 -0.13938201891822019 0 -0.40669002996807779 -0.1495058137550834 0 -0.40828286160401828 -0.1310364195873514 0 -0.41930562378398423 -0.12797048681614909 0 -0.41533589961201212 -0.13938201891822019 0 -0.40669002996807779 -0.1495058137550834 0 -0.43166640735559808 -0.1552039120346444 0 -0.4214232379976206 -0.16216052115063159 0 -0.40669002996807779 -0.1495058137550834 0 -0.43166640735559808 -0.1552039120346444 0 -0.41533589961201212 -0.13938201891822019 0 -0.40669002996807779 -0.1495058137550834 0 -0.4273858072007774 -0.14414008567558009 0 -0.40669002996807779 -0.1495058137550834 0 -0.4273858072007774 -0.14414008567558009 0 -0.43166640735559808 -0.1552039120346444 0 -0.43166640735559808 -0.1552039120346444 0 -0.43525592456887258 -0.14374997194848471 0 -0.44410307239699631 -0.15282998285397989 0 -0.4273858072007774 -0.14414008567558009 0 -0.43166640735559808 -0.1552039120346444 0 -0.43525592456887258 -0.14374997194848471 0 -0.41930562378398423 -0.12797048681614909 0 -0.43525592456887258 -0.14374997194848471 0 -0.41930562378398423 -0.12797048681614909 0 -0.4273858072007774 -0.14414008567558009 0 -0.43525592456887258 -0.14374997194848471 0 -0.41930562378398423 -0.12797048681614909 0 -0.4273858072007774 -0.14414008567558009 0 -0.41930562378398423 -0.12797048681614909 0 -0.43525592456887258 -0.14374997194848471 0 -0.43389101300267191 -0.13422730327376839 0 -0.41930562378398423 -0.12797048681614909 0 -0.43389101300267191 -0.13422730327376839 0 -0.4149348530849476 -0.1169905694289516 0 -0.43389101300267191 -0.13422730327376839 0 -0.4149348530849476 -0.1169905694289516 0 -0.43389101300267191 -0.13422730327376839 0 -0.43160182387889101 -0.1187955019330571 0 -0.44085253015216358 -0.1237950587173612 0 -0.43389101300267191 -0.13422730327376839 0 -0.44872577578551592 -0.13320174295465559 0 -0.452847172920396 -0.1514640371185853 0 -0.44872577578551592 -0.13320174295465559 0 -0.45896755277767909 -0.12575633132281341 0 -0.45000974795797011 -0.119430952696417 0 -0.44872577578551592 -0.13320174295465559 0 -0.45000974795797011 -0.119430952696417 0 -0.44085253015216358 -0.1237950587173612 0 -0.43389101300267191 -0.13422730327376839 0 -0.44872577578551592 -0.13320174295465559 0 -0.44085253015216358 -0.1237950587173612 0 -0.43525592456887258 -0.14374997194848471 0 -0.43389101300267191 -0.13422730327376839 0 -0.452847172920396 -0.1514640371185853 0 -0.43525592456887258 -0.14374997194848471 0 -0.44410307239699631 -0.15282998285397989 0 -0.452847172920396 -0.1514640371185853 0 -0.44872577578551592 -0.13320174295465559 0 -0.452847172920396 -0.1514640371185853 0 -0.456386085566235 -0.14096643446963419 0 -0.43389101300267191 -0.13422730327376839 0 -0.452847172920396 -0.1514640371185853 0 -0.44410307239699631 -0.15282998285397989 0 -0.452847172920396 -0.1514640371185853 0 -0.45664278474311831 -0.16090201031420531 0 -0.452847172920396 -0.1514640371185853 0 -0.456386085566235 -0.14096643446963419 0 -0.46738274896045578 -0.15003021006820461 0 -0.452847172920396 -0.1514640371185853 0 -0.46738274896045578 -0.15003021006820461 0 -0.45664278474311831 -0.16090201031420531 0 -0.456386085566235 -0.14096643446963419 0 -0.46738274896045578 -0.15003021006820461 0 -0.47200539146090159 -0.13839174763128981 0 -0.456386085566235 -0.14096643446963419 0 -0.47200539146090159 -0.13839174763128981 0 -0.47750202174635031 -0.1215216316744509 0 -0.456386085566235 -0.14096643446963419 0 -0.45896755277767909 -0.12575633132281341 0 -0.47750202174635031 -0.1215216316744509 0 -0.456386085566235 -0.14096643446963419 0 -0.47750202174635031 -0.1215216316744509 0 -0.44872577578551592 -0.13320174295465559 0 -0.456386085566235 -0.14096643446963419 0 -0.45896755277767909 -0.12575633132281341 0 -0.47200539146090159 -0.13839174763128981 0 -0.48675070957056549 -0.14104871431286931 0 -0.47750202174635031 -0.1215216316744509 0 -0.50000000000000011 -0.12648838757554831 0 -0.48675070957056549 -0.14104871431286931 0 -0.5 -0.15043640832747529 0 -0.50000000000000011 -0.12648838757554831 0 -0.48675070957056549 -0.14104871431286931 0 -0.47750202174635031 -0.1215216316744509 0 -0.48675070957056549 -0.14104871431286931 0 -0.5 -0.15043640832747529 0 -0.48062174440056549 -0.15969986187448909 0 -0.46738274896045578 -0.15003021006820461 0 -0.47200539146090159 -0.13839174763128981 0 -0.48675070957056549 -0.14104871431286931 0 -0.48675070957056549 -0.14104871431286931 0 -0.48062174440056549 -0.15969986187448909 0 -0.46738274896045578 -0.15003021006820461 0 -0.48675070957056549 -0.14104871431286931 0 -0.48062174440056549 -0.15969986187448909 0 -0.48062174440056549 -0.15969986187448909 0 -0.46548313673471758 -0.16971310035941381 0 -0.46753260370971428 -0.1600862956540782 0 -0.46738274896045578 -0.15003021006820461 0 -0.48062174440056549 -0.15969986187448909 0 -0.46753260370971428 -0.1600862956540782 0 -0.48062174440056549 -0.15969986187448909 0 -0.47449277923056221 -0.17835100943610771 0 -0.46548313673471758 -0.16971310035941381 0 -0.48062174440056549 -0.15969986187448909 0 -0.47449277923056221 -0.17835100943610771 0 -0.5 -0.15043640832747529 0 -0.48062174440056549 -0.15969986187448909 0 -0.49999999999999828 -0.17438442907940241 0 -0.48062174440056549 -0.15969986187448909 0 -0.49999999999999828 -0.17438442907940241 0 -0.47449277923056221 -0.17835100943610771 0 -0.49999999999999828 -0.17438442907940241 0 -0.47449277923056221 -0.17835100943610771 0 -0.49999999999999828 -0.17438442907940241 0 -0.47449277923056221 -0.17835100943610771 0 -0.48549376880548989 -0.19132810400505559 0 -0.47449277923056221 -0.17835100943610771 0 -0.46892716456320649 -0.19528781647494389 0 -0.47449277923056221 -0.17835100943610771 0 -0.45952205817714309 -0.18067907836188021 0 -0.46892716456320649 -0.19528781647494389 0 -0.45952205817714309 -0.18067907836188021 0 -0.46548313673471758 -0.16971310035941381 0 -0.45289664290439807 -0.17180374819378549 0 -0.47449277923056221 -0.17835100943610771 0 -0.45952205817714309 -0.18067907836188021 0 -0.47449277923056221 -0.17835100943610771 0 -0.45952205817714309 -0.18067907836188021 0 -0.46548313673471758 -0.16971310035941381 0 -0.46548313673471758 -0.16971310035941381 0 -0.46753260370971428 -0.1600862956540782 0 -0.45664278474311831 -0.16090201031420531 0 -0.46738274896045578 -0.15003021006820461 0 -0.46753260370971428 -0.1600862956540782 0 -0.45664278474311831 -0.16090201031420531 0 -0.46548313673471758 -0.16971310035941381 0 -0.45664278474311831 -0.16090201031420531 0 -0.45289664290439807 -0.17180374819378549 0 -0.45664278474311831 -0.16090201031420531 0 -0.45289664290439807 -0.17180374819378549 0 -0.44219215159727421 -0.16781727210851849 0 -0.43166640735559808 -0.1552039120346444 0 -0.45664278474311831 -0.16090201031420531 0 -0.44219215159727421 -0.16781727210851849 0 -0.43166640735559808 -0.1552039120346444 0 -0.45664278474311831 -0.16090201031420531 0 -0.43166640735559808 -0.1552039120346444 0 -0.44410307239699631 -0.15282998285397989 0 -0.45664278474311831 -0.16090201031420531 0 -0.43495901877196291 -0.17485617288990979 0 -0.44219215159727421 -0.16781727210851849 0 -0.44455133712372419 -0.18300714728765441 0 -0.43099962817645188 -0.18319011649723049 0 -0.44455133712372419 -0.18300714728765441 0 -0.43833565968517207 -0.19112957676178299 0 -0.45952205817714309 -0.18067907836188021 0 -0.44455133712372419 -0.18300714728765441 0 -0.45396471697207569 -0.194241302212698 0 -0.45952205817714309 -0.18067907836188021 0 -0.44455133712372419 -0.18300714728765441 0 -0.45952205817714309 -0.18067907836188021 0 -0.45289664290439807 -0.17180374819378549 0 -0.44455133712372419 -0.18300714728765441 0 -0.45289664290439807 -0.17180374819378549 0 -0.44219215159727421 -0.16781727210851849 0 -0.44455133712372419 -0.18300714728765441 0 -0.44455133712372419 -0.18300714728765441 0 -0.43833565968517207 -0.19112957676178299 0 -0.45396471697207569 -0.194241302212698 0 -0.43833565968517207 -0.19112957676178299 0 -0.44184138868315109 -0.20247798044170351 0 -0.45396471697207569 -0.194241302212698 0 -0.44184138868315109 -0.20247798044170351 0 -0.46336154989584488 -0.2122246235137781 0 -0.45396471697207569 -0.194241302212698 0 -0.44184138868315109 -0.20247798044170351 0 -0.46336154989584488 -0.2122246235137781 0 -0.45338394269579491 -0.2190794284651259 0 -0.43378961613155448 -0.20908682079381441 0 -0.44184138868315109 -0.20247798044170351 0 -0.44166379455333399 -0.21604972156869759 0 -0.44184138868315109 -0.20247798044170351 0 -0.44166379455333399 -0.21604972156869759 0 -0.45338394269579491 -0.2190794284651259 0 -0.44184138868315109 -0.20247798044170351 0 -0.46336154989584488 -0.2122246235137781 0 -0.46336154989584488 -0.2122246235137781 0 -0.46892716456320649 -0.19528781647494389 0 -0.46336154989584488 -0.2122246235137781 0 -0.45396471697207569 -0.194241302212698 0 -0.46892716456320649 -0.19528781647494389 0 -0.45952205817714309 -0.18067907836188021 0 -0.45396471697207569 -0.194241302212698 0 -0.46892716456320649 -0.19528781647494389 0 -0.47449277923056221 -0.17835100943610771 0 -0.46892716456320649 -0.19528781647494389 0 -0.48549376880548989 -0.19132810400505559 0 -0.46892716456320649 -0.19528781647494389 0 -0.48549376880548989 -0.19132810400505559 0 -0.47978640147694102 -0.20418872613165631 0 -0.5 -0.20182215567114031 0 -0.48549376880548989 -0.19132810400505559 0 -0.47978640147694102 -0.20418872613165631 0 -0.49999999999999828 -0.17438442907940241 0 -0.5 -0.20182215567114031 0 -0.48549376880548989 -0.19132810400505559 0 -0.5 -0.20182215567114031 0 -0.48114952412016337 -0.22028093099336349 0 -0.49893749834448198 -0.22833723847294871 0 -0.5 -0.20182215567114031 0 -0.47978640147694102 -0.20418872613165631 0 -0.48114952412016337 -0.22028093099336349 0 -0.46336154989584488 -0.2122246235137781 0 -0.48114952412016337 -0.22028093099336349 0 -0.46336154989584488 -0.2122246235137781 0 -0.47978640147694102 -0.20418872613165631 0 -0.48114952412016337 -0.22028093099336349 0 -0.46336154989584488 -0.2122246235137781 0 -0.46892716456320649 -0.19528781647494389 0 -0.47978640147694102 -0.20418872613165631 0 -0.46336154989584488 -0.2122246235137781 0 -0.48114952412016337 -0.22028093099336349 0 -0.46857810181099829 -0.22486784275082261 0 -0.48114952412016337 -0.22028093099336349 0 -0.48798868478634799 -0.231470988200419 0 -0.47142395938804471 -0.23802335247430181 0 -0.48114952412016337 -0.22028093099336349 0 -0.47142395938804471 -0.23802335247430181 0 -0.46857810181099829 -0.22486784275082261 0 -0.48114952412016337 -0.22028093099336349 0 -0.48798868478634799 -0.231470988200419 0 -0.49893749834448198 -0.22833723847294871 0 -0.48114952412016337 -0.22028093099336349 0 -0.49893749834448198 -0.22833723847294871 0 -0.48798868478634799 -0.231470988200419 0 -0.49893749834448198 -0.22833723847294871 0 -0.4875835208682564 -0.24248539692068891 0 -0.5 -0.25669760885461612 0 -0.49893749834448198 -0.22833723847294871 0 -0.4875835208682564 -0.24248539692068891 0 -0.48798868478634799 -0.231470988200419 0 -0.4875835208682564 -0.24248539692068891 0 -0.47142395938804471 -0.23802335247430181 0 -0.47878778985378329 -0.25835102983948688 0 -0.4875835208682564 -0.24248539692068891 0 -0.47142395938804471 -0.23802335247430181 0 -0.45662330498375908 -0.25656877445722759 0 -0.47142395938804471 -0.23802335247430181 0 -0.45034617445999431 -0.24335722649563979 0 -0.47142395938804471 -0.23802335247430181 0 -0.45735065046854989 -0.23051648340969341 0 -0.45034617445999431 -0.24335722649563979 0 -0.46336154989584488 -0.2122246235137781 0 -0.46857810181099829 -0.22486784275082261 0 -0.45735065046854989 -0.23051648340969341 0 -0.46336154989584488 -0.2122246235137781 0 -0.45735065046854989 -0.23051648340969341 0 -0.47142395938804471 -0.23802335247430181 0 -0.46857810181099829 -0.22486784275082261 0 -0.45735065046854989 -0.23051648340969341 0 -0.46336154989584488 -0.2122246235137781 0 -0.45338394269579491 -0.2190794284651259 0 -0.45735065046854989 -0.23051648340969341 0 -0.45338394269579491 -0.2190794284651259 0 -0.45735065046854989 -0.23051648340969341 0 -0.43806130733353449 -0.23541812032183559 0 -0.44166379455333399 -0.21604972156869759 0 -0.43806130733353449 -0.23541812032183559 0 -0.44166379455333399 -0.21604972156869759 0 -0.45338394269579491 -0.2190794284651259 0 -0.43806130733353449 -0.23541812032183559 0 -0.45735065046854989 -0.23051648340969341 0 -0.45034617445999431 -0.24335722649563979 0 -0.43806130733353449 -0.23541812032183559 0 -0.43445882011373449 -0.25478651907497341 0 -0.45034617445999431 -0.24335722649563979 0 -0.43806130733353449 -0.23541812032183559 0 -0.41324955929443102 -0.038374170610562031 0 -0.41005136228565903 -0.05540387285823338 0 -0.42435348212729052 -0.04457483879584373 0 -0.41324955929443102 -0.038374170610562031 0 -0.41005136228565903 -0.05540387285823338 0 -0.39900851660089293 -0.046429079601448257 0 -0.41324955929443102 -0.038374170610562031 0 -0.40747857107326091 -0.02424585309778798 0 -0.40045416304880688 -0.034240371911693122 0 -0.41005136228565903 -0.05540387285823338 0 -0.4246600563061857 -0.059067830999859447 0 -0.41422906440869389 -0.068128229862373102 0 -0.41005136228565903 -0.05540387285823338 0 -0.4246600563061857 -0.059067830999859447 0 -0.42435348212729052 -0.04457483879584373 0 -0.4246600563061857 -0.059067830999859447 0 -0.42435348212729052 -0.04457483879584373 0 -0.43957367317472601 -0.045089571971719818 0 -0.4246600563061857 -0.059067830999859447 0 -0.43957367317472601 -0.045089571971719818 0 -0.44544580640037118 -0.056213229689383748 0 -0.41324955929443102 -0.038374170610562031 0 -0.42435348212729052 -0.04457483879584373 0 -0.42981912379901888 -0.030443092666165631 0 -0.42435348212729052 -0.04457483879584373 0 -0.42981912379901888 -0.030443092666165631 0 -0.43957367317472601 -0.045089571971719818 0 -0.41302196833726168 -0.01226972299954816 0 -0.4392085005598273 -0.024676348383282701 0 -0.42659341977192161 -0.010103830507352861 0 -0.41302196833726168 -0.01226972299954816 0 -0.4392085005598273 -0.024676348383282701 0 -0.42981912379901888 -0.030443092666165631 0 -0.41673372021425997 -0.022240754673565791 0 -0.4392085005598273 -0.024676348383282701 0 -0.41302196833726168 -0.01226972299954816 0 -0.41673372021425997 -0.022240754673565791 0 -0.4392085005598273 -0.024676348383282701 0 -0.43741768347029059 -0.01288367903972009 0 -0.42659341977192161 -0.010103830507352861 0 -0.4392085005598273 -0.024676348383282701 0 -0.4441818909265971 -0.00998157505946092 0 -0.42578104856505677 0.0031949168855625672 0 -0.43741768347029059 -0.01288367903972009 0 -0.4441818909265971 -0.00998157505946092 0 -0.42578104856505677 0.0031949168855625672 0 -0.43741768347029059 -0.01288367903972009 0 -0.42659341977192161 -0.010103830507352861 0 -0.42578104856505677 0.0031949168855625672 0 -0.43741768347029059 -0.01288367903972009 0 -0.42578104856505677 0.0031949168855625672 0 -0.42659341977192161 -0.010103830507352861 0 -0.41753789792717189 -0.0038843189997757009 0 -0.42578104856505677 0.0031949168855625672 0 -0.42659341977192161 -0.010103830507352861 0 -0.41753789792717189 -0.0038843189997757009 0 -0.41302196833726168 -0.01226972299954816 0 -0.41753789792717189 -0.0038843189997757009 0 -0.41302196833726168 -0.01226972299954816 0 -0.40771050441737638 -0.0035262849216432719 0 -0.41753789792717189 -0.0038843189997757009 0 -0.40771050441737638 -0.0035262849216432719 0 -0.41105156913745711 0.0034129409419674369 0 -0.42981912379901888 -0.030443092666165631 0 -0.40747857107326091 -0.02424585309778798 0 -0.41324955929443102 -0.038374170610562031 0 -0.42981912379901888 -0.030443092666165631 0 -0.40747857107326091 -0.02424585309778798 0 -0.42981912379901888 -0.030443092666165631 0 -0.41673372021425997 -0.022240754673565791 0 -0.40747857107326091 -0.02424585309778798 0 -0.41302196833726168 -0.01226972299954816 0 -0.41673372021425997 -0.022240754673565791 0 -0.40747857107326091 -0.02424585309778798 0 -0.41673372021425997 -0.022240754673565791 0 -0.40747857107326091 -0.02424585309778798 0 -0.40747857107326091 -0.02424585309778798 0 -0.38992317137517202 -0.02804917422583518 0 -0.40747857107326091 -0.02424585309778798 0 -0.38992317137517202 -0.02804917422583518 0 -0.38297625517291389 -0.017448943304264108 0 -0.40747857107326091 -0.02424585309778798 0 -0.38992317137517202 -0.02804917422583518 0 -0.40045416304880688 -0.034240371911693122 0 -0.40747857107326091 -0.02424585309778798 0 -0.39567459441968961 -0.012635194689989219 0 -0.38297625517291389 -0.017448943304264108 0 -0.40747857107326091 -0.02424585309778798 0 -0.38297625517291389 -0.017448943304264108 0 -0.41302196833726168 -0.01226972299954816 0 -0.40747857107326091 -0.02424585309778798 0 -0.39567459441968961 -0.012635194689989219 0 -0.41302196833726168 -0.01226972299954816 0 -0.40771050441737638 -0.0035262849216432719 0 -0.38683543611469601 0.0001369023841863784 0 -0.41302196833726168 -0.01226972299954816 0 -0.39567459441968961 -0.012635194689989219 0 -0.38683543611469601 0.0001369023841863784 0 -0.41302196833726168 -0.01226972299954816 0 -0.38683543611469601 0.0001369023841863784 0 -0.40771050441737638 -0.0035262849216432719 0 -0.38683543611469601 0.0001369023841863784 0 -0.40226596945639398 0.0014711925349297271 0 -0.39567459441968961 -0.012635194689989219 0 -0.38502252263107412 -0.0084426060797158468 0 -0.38683543611469601 0.0001369023841863784 0 -0.39567459441968961 -0.012635194689989219 0 -0.38502252263107412 -0.0084426060797158468 0 -0.38297625517291389 -0.017448943304264108 0 -0.38502252263107412 -0.0084426060797158468 0 -0.38009964520605882 -0.0090403485437739461 0 -0.38297625517291389 -0.017448943304264108 0 -0.37278444596104371 -0.0079457960458173115 0 -0.38009964520605882 -0.0090403485437739461 0 -0.38297625517291389 -0.017448943304264108 0 -0.37474494217865062 -0.0022388935110706832 0 -0.38502252263107412 -0.0084426060797158468 0 -0.38683543611469601 0.0001369023841863784 0 -0.37474494217865062 -0.0022388935110706832 0 -0.38502252263107412 -0.0084426060797158468 0 -0.38009964520605882 -0.0090403485437739461 0 -0.37474494217865062 -0.0022388935110706832 0 -0.37278444596104371 -0.0079457960458173115 0 -0.38009964520605882 -0.0090403485437739461 0 -0.37236777167708351 -0.031852495353884333 0 -0.38992317137517202 -0.02804917422583518 0 -0.37990921189048049 -0.023302515363219579 0 -0.37236777167708351 -0.031852495353884333 0 -0.38992317137517202 -0.02804917422583518 0 -0.38992317137517202 -0.02804917422583518 0 -0.38297625517291389 -0.017448943304264108 0 -0.37990921189048049 -0.023302515363219579 0 -0.3739022591900184 -0.02415390189740213 0 -0.38297625517291389 -0.017448943304264108 0 -0.37990921189048049 -0.023302515363219579 0 -0.37236777167708351 -0.031852495353884333 0 -0.3739022591900184 -0.02415390189740213 0 -0.37990921189048049 -0.023302515363219579 0 -0.37236777167708351 -0.031852495353884333 0 -0.37990921189048049 -0.023302515363219579 0 -0.38458287424021398 -0.039388642062709187 0 -0.39900851660089293 -0.046429079601448257 0 -0.3815482533063424 -0.052412606119804542 0 -0.37355784227175309 -0.045246792894939887 0 -0.37236777167708351 -0.031852495353884333 0 -0.38458287424021398 -0.039388642062709187 0 -0.37236777167708351 -0.031852495353884333 0 -0.38992317137517202 -0.02804917422583518 0 -0.38458287424021398 -0.039388642062709187 0 -0.37355784227175309 -0.045246792894939887 0 -0.38458287424021398 -0.039388642062709187 0 -0.3815482533063424 -0.052412606119804542 0 -0.38458287424021398 -0.039388642062709187 0 -0.39900851660089293 -0.046429079601448257 0 -0.40045416304880688 -0.034240371911693122 0 -0.38992317137517202 -0.02804917422583518 0 -0.38458287424021398 -0.039388642062709187 0 -0.40045416304880688 -0.034240371911693122 0 -0.41324955929443102 -0.038374170610562031 0 -0.39900851660089293 -0.046429079601448257 0 -0.40045416304880688 -0.034240371911693122 0 -0.39900851660089293 -0.046429079601448257 0 -0.39626447370361728 -0.06091275685647668 0 -0.3815482533063424 -0.052412606119804542 0 -0.41005136228565903 -0.05540387285823338 0 -0.39626447370361728 -0.06091275685647668 0 -0.40517181862379281 -0.066558370858305557 0 -0.41005136228565903 -0.05540387285823338 0 -0.39900851660089293 -0.046429079601448257 0 -0.39626447370361728 -0.06091275685647668 0 -0.36862349457690058 -0.057461967220355487 0 -0.3815482533063424 -0.052412606119804542 0 -0.37947166312044489 -0.067272628224985004 0 -0.3815482533063424 -0.052412606119804542 0 -0.37947166312044489 -0.067272628224985004 0 -0.39260231949431601 -0.074533368335879327 0 -0.36882665317829499 -0.078032107790563188 0 -0.39260231949431601 -0.074533368335879327 0 -0.39626447370361728 -0.06091275685647668 0 -0.3815482533063424 -0.052412606119804542 0 -0.39260231949431601 -0.074533368335879327 0 -0.3815482533063424 -0.052412606119804542 0 -0.39260231949431601 -0.074533368335879327 0 -0.36882665317829499 -0.078032107790563188 0 -0.37947166312044489 -0.067272628224985004 0 -0.39260231949431601 -0.074533368335879327 0 -0.36882665317829499 -0.078032107790563188 0 -0.39260231949431601 -0.074533368335879327 0 -0.39002829617667018 -0.099006697234722524 0 -0.36882665317829499 -0.078032107790563188 0 -0.39002829617667018 -0.099006697234722524 0 -0.37367929427193591 -0.1014825750548952 0 -0.36882665317829499 -0.078032107790563188 0 -0.39002829617667018 -0.099006697234722524 0 -0.39260231949431601 -0.074533368335879327 0 -0.39002829617667018 -0.099006697234722524 0 -0.39510370691593599 -0.098958215311000047 0 -0.39260231949431601 -0.074533368335879327 0 -0.40274583300482147 -0.094831984843681591 0 -0.39260231949431601 -0.074533368335879327 0 -0.39510370691593599 -0.098958215311000047 0 -0.40274583300482147 -0.094831984843681591 0 -0.40361170428446441 -0.083317353290434007 0 -0.39260231949431601 -0.074533368335879327 0 -0.40274583300482147 -0.094831984843681591 0 -0.40361170428446441 -0.083317353290434007 0 -0.39867569396630093 -0.073639632925658519 0 -0.40696916935602839 -0.074517235882718885 0 -0.39867569396630093 -0.073639632925658519 0 -0.40517181862379281 -0.066558370858305557 0 -0.40696916935602839 -0.074517235882718885 0 -0.39626447370361728 -0.06091275685647668 0 -0.39867569396630093 -0.073639632925658519 0 -0.40517181862379281 -0.066558370858305557 0 -0.39626447370361728 -0.06091275685647668 0 -0.39867569396630093 -0.073639632925658519 0 -0.39260231949431601 -0.074533368335879327 0 -0.40361170428446441 -0.083317353290434007 0 -0.39867569396630093 -0.073639632925658519 0 -0.39260231949431601 -0.074533368335879327 0 -0.39867569396630093 -0.073639632925658519 0 -0.39260231949431601 -0.074533368335879327 0 -0.37212838853434238 -0.11808059788504249 0 -0.38278168804071749 -0.12940228238898679 0 -0.39044023874876249 -0.11757149150947201 0 -0.37367929427193591 -0.1014825750548952 0 -0.37212838853434238 -0.11808059788504249 0 -0.39044023874876249 -0.11757149150947201 0 -0.37367929427193591 -0.1014825750548952 0 -0.39044023874876249 -0.11757149150947201 0 -0.39002829617667018 -0.099006697234722524 0 -0.39510370691593599 -0.098958215311000047 0 -0.40274583300482147 -0.094831984843681591 0 -0.41288934651532883 -0.11513060135148299 0 -0.39002829617667018 -0.099006697234722524 0 -0.39510370691593599 -0.098958215311000047 0 -0.41122993917504558 -0.1199812866788818 0 -0.39510370691593599 -0.098958215311000047 0 -0.41288934651532883 -0.11513060135148299 0 -0.39647179587780151 -0.13189450107720049 0 -0.39044023874876249 -0.11757149150947201 0 -0.41122993917504558 -0.1199812866788818 0 -0.39002829617667018 -0.099006697234722524 0 -0.41122993917504558 -0.1199812866788818 0 -0.39044023874876249 -0.11757149150947201 0 -0.39002829617667018 -0.099006697234722524 0 -0.41122993917504558 -0.1199812866788818 0 -0.39510370691593599 -0.098958215311000047 0 -0.41122993917504558 -0.1199812866788818 0 -0.41288934651532883 -0.11513060135148299 0 -0.41930562378398423 -0.12797048681614909 0 -0.41122993917504558 -0.1199812866788818 0 -0.4149348530849476 -0.1169905694289516 0 -0.41930562378398423 -0.12797048681614909 0 -0.41122993917504558 -0.1199812866788818 0 -0.41930562378398423 -0.12797048681614909 0 -0.4149348530849476 -0.1169905694289516 0 -0.41122993917504558 -0.1199812866788818 0 -0.41288934651532883 -0.11513060135148299 0 -0.4149348530849476 -0.1169905694289516 0 -0.41122993917504558 -0.1199812866788818 0 -0.4149348530849476 -0.1169905694289516 0 -0.41288934651532883 -0.11513060135148299 0 -0.4149348530849476 -0.1169905694289516 0 -0.41288934651532883 -0.11513060135148299 0 -0.4149348530849476 -0.1169905694289516 0 -0.41458672172207622 -0.10427776634057311 0 -0.40274583300482147 -0.094831984843681591 0 -0.41288934651532883 -0.11513060135148299 0 -0.4149348530849476 -0.1169905694289516 0 -0.41458672172207622 -0.10427776634057311 0 -0.43059848591229039 -0.1043464168163742 0 -0.40274583300482147 -0.094831984843681591 0 -0.41288934651532883 -0.11513060135148299 0 -0.41458672172207622 -0.10427776634057311 0 -0.41458672172207622 -0.10427776634057311 0 -0.41348552386521947 -0.090840815536544176 0 -0.43025813067654672 -0.08737754853092726 0 -0.40274583300482147 -0.094831984843681591 0 -0.41458672172207622 -0.10427776634057311 0 -0.41348552386521947 -0.090840815536544176 0 -0.43059848591229039 -0.1043464168163742 0 -0.43025813067654672 -0.08737754853092726 0 -0.44626211873963212 -0.091702264203795431 0 -0.41458672172207622 -0.10427776634057311 0 -0.43059848591229039 -0.1043464168163742 0 -0.43025813067654672 -0.08737754853092726 0 -0.41458672172207622 -0.10427776634057311 0 -0.43025813067654672 -0.08737754853092726 0 -0.4149348530849476 -0.1169905694289516 0 -0.43059848591229039 -0.1043464168163742 0 -0.43160182387889101 -0.1187955019330571 0 -0.4149348530849476 -0.1169905694289516 0 -0.43059848591229039 -0.1043464168163742 0 -0.43389101300267191 -0.13422730327376839 0 -0.4149348530849476 -0.1169905694289516 0 -0.43160182387889101 -0.1187955019330571 0 -0.43059848591229039 -0.1043464168163742 0 -0.43160182387889101 -0.1187955019330571 0 -0.44003429013576911 -0.11331979272890801 0 -0.43160182387889101 -0.1187955019330571 0 -0.44085253015216358 -0.1237950587173612 0 -0.44003429013576911 -0.11331979272890801 0 -0.41422906440869389 -0.068128229862373102 0 -0.41539885585273961 -0.080089681603359497 0 -0.42594434486026628 -0.073522222089585226 0 -0.4246600563061857 -0.059067830999859447 0 -0.41422906440869389 -0.068128229862373102 0 -0.42594434486026628 -0.073522222089585226 0 -0.41005136228565903 -0.05540387285823338 0 -0.40517181862379281 -0.066558370858305557 0 -0.41422906440869389 -0.068128229862373102 0 -0.40517181862379281 -0.066558370858305557 0 -0.41422906440869389 -0.068128229862373102 0 -0.40696916935602839 -0.074517235882718885 0 -0.41422906440869389 -0.068128229862373102 0 -0.40696916935602839 -0.074517235882718885 0 -0.41539885585273961 -0.080089681603359497 0 -0.41348552386521947 -0.090840815536544176 0 -0.41539885585273961 -0.080089681603359497 0 -0.43025813067654672 -0.08737754853092726 0 -0.40361170428446441 -0.083317353290434007 0 -0.41348552386521947 -0.090840815536544176 0 -0.41539885585273961 -0.080089681603359497 0 -0.40361170428446441 -0.083317353290434007 0 -0.40696916935602839 -0.074517235882718885 0 -0.41539885585273961 -0.080089681603359497 0 -0.40361170428446441 -0.083317353290434007 0 -0.40274583300482147 -0.094831984843681591 0 -0.41348552386521947 -0.090840815536544176 0 -0.41539885585273961 -0.080089681603359497 0 -0.43025813067654672 -0.08737754853092726 0 -0.42594434486026628 -0.073522222089585226 0 -0.4246600563061857 -0.059067830999859447 0 -0.44592953963101739 -0.07047733072128165 0 -0.43025813067654672 -0.08737754853092726 0 -0.42594434486026628 -0.073522222089585226 0 -0.44592953963101739 -0.07047733072128165 0 -0.4246600563061857 -0.059067830999859447 0 -0.42594434486026628 -0.073522222089585226 0 -0.44592953963101739 -0.07047733072128165 0 -0.44592953963101739 -0.07047733072128165 0 -0.45893666683642192 -0.056450303318209168 0 -0.44592953963101739 -0.07047733072128165 0 -0.44626211873963212 -0.091702264203795431 0 -0.46192575156697407 -0.079058111591217034 0 -0.43025813067654672 -0.08737754853092726 0 -0.44592953963101739 -0.07047733072128165 0 -0.43025813067654672 -0.08737754853092726 0 -0.44592953963101739 -0.07047733072128165 0 -0.44626211873963212 -0.091702264203795431 0 -0.44626211873963212 -0.091702264203795431 0 -0.46631049206888459 -0.091444160656324658 0 -0.46192575156697407 -0.079058111591217034 0 -0.44626211873963212 -0.091702264203795431 0 -0.46192575156697407 -0.079058111591217034 0 -0.46631049206888459 -0.091444160656324658 0 -0.46192575156697407 -0.079058111591217034 0 -0.47702460168979111 -0.087157524427869615 0 -0.44592953963101739 -0.07047733072128165 0 -0.46192575156697407 -0.079058111591217034 0 -0.45893666683642192 -0.056450303318209168 0 -0.46192575156697407 -0.079058111591217034 0 -0.47491389520024407 -0.068573693827893439 0 -0.45893666683642192 -0.056450303318209168 0 -0.46192575156697407 -0.079058111591217034 0 -0.47491389520024407 -0.068573693827893439 0 -0.44592953963101739 -0.07047733072128165 0 -0.46192575156697407 -0.079058111591217034 0 -0.45000974795797011 -0.119430952696417 0 -0.44085253015216358 -0.1237950587173612 0 -0.44003429013576911 -0.11331979272890801 0 -0.45000974795797011 -0.119430952696417 0 -0.44003429013576911 -0.11331979272890801 0 -0.44926481423485548 -0.10476542824413421 0 -0.43059848591229039 -0.1043464168163742 0 -0.44626211873963212 -0.091702264203795431 0 -0.43059848591229039 -0.1043464168163742 0 -0.44626211873963212 -0.091702264203795431 0 -0.44926481423485548 -0.10476542824413421 0 -0.43059848591229039 -0.1043464168163742 0 -0.44003429013576911 -0.11331979272890801 0 -0.44926481423485548 -0.10476542824413421 0 -0.44626211873963212 -0.091702264203795431 0 -0.44926481423485548 -0.10476542824413421 0 -0.46153012095291662 -0.1019472767233552 0 -0.44626211873963212 -0.091702264203795431 0 -0.46631049206888459 -0.091444160656324658 0 -0.46153012095291662 -0.1019472767233552 0 -0.46631049206888459 -0.091444160656324658 0 -0.46153012095291662 -0.1019472767233552 0 -0.4710589232177344 -0.098453604121520433 0 -0.46153012095291662 -0.1019472767233552 0 -0.46221413283232399 -0.11366089481890911 0 -0.47430793409480421 -0.10627177682285049 0 -0.44926481423485548 -0.10476542824413421 0 -0.46153012095291662 -0.1019472767233552 0 -0.46221413283232399 -0.11366089481890911 0 -0.45896755277767909 -0.12575633132281341 0 -0.46221413283232399 -0.11366089481890911 0 -0.47750202174635031 -0.1215216316744509 0 -0.45000974795797011 -0.119430952696417 0 -0.44926481423485548 -0.10476542824413421 0 -0.46221413283232399 -0.11366089481890911 0 -0.45896755277767909 -0.12575633132281341 0 -0.45000974795797011 -0.119430952696417 0 -0.46221413283232399 -0.11366089481890911 0 -0.47750202174635031 -0.1215216316744509 0 -0.47430793409480421 -0.10627177682285049 0 -0.48673501487359588 -0.1010237797652184 0 -0.46221413283232399 -0.11366089481890911 0 -0.47750202174635031 -0.1215216316744509 0 -0.47430793409480421 -0.10627177682285049 0 -0.47430793409480421 -0.10627177682285049 0 -0.47745372589702628 -0.099742000537211661 0 -0.48673501487359588 -0.1010237797652184 0 -0.46153012095291662 -0.1019472767233552 0 -0.47430793409480421 -0.10627177682285049 0 -0.4710589232177344 -0.098453604121520433 0 -0.46631049206888459 -0.091444160656324658 0 -0.4710589232177344 -0.098453604121520433 0 -0.47771303140197108 -0.093218841439257433 0 -0.47430793409480421 -0.10627177682285049 0 -0.4710589232177344 -0.098453604121520433 0 -0.47745372589702628 -0.099742000537211661 0 -0.4710589232177344 -0.098453604121520433 0 -0.47745372589702628 -0.099742000537211661 0 -0.47771303140197108 -0.093218841439257433 0 -0.47745372589702628 -0.099742000537211661 0 -0.48673501487359588 -0.1010237797652184 0 -0.47771303140197108 -0.093218841439257433 0 -0.48673501487359588 -0.1010237797652184 0 -0.47771303140197108 -0.093218841439257433 0 -0.47702460168979111 -0.087157524427869615 0 -0.47750202174635031 -0.1215216316744509 0 -0.48673501487359588 -0.1010237797652184 0 -0.4986179579264654 -0.1020768288792674 0 -0.48673501487359588 -0.1010237797652184 0 -0.49842317329231273 -0.098636270432611556 0 -0.47702460168979111 -0.087157524427869615 0 -0.48673501487359588 -0.1010237797652184 0 -0.49842317329231273 -0.098636270432611556 0 -0.4986179579264654 -0.1020768288792674 0 -0.49999999999999939 -0.099482120969144883 0 -0.49842317329231273 -0.098636270432611556 0 -0.4986179579264654 -0.1020768288792674 0 -0.49842317329231273 -0.098636270432611556 0 -0.4986179579264654 -0.1020768288792674 0 -0.49999999999999939 -0.099482120969144883 0 -0.49842317329231273 -0.098636270432611556 0 -0.50000000000000011 -0.12648838757554831 0 -0.47750202174635031 -0.1215216316744509 0 -0.4986179579264654 -0.1020768288792674 0 -0.47750202174635031 -0.1215216316744509 0 -0.4986179579264654 -0.1020768288792674 0 -0.47491389520024407 -0.068573693827893439 0 -0.47702460168979111 -0.087157524427869615 0 -0.4847984782487687 -0.075944598732494498 0 -0.47491389520024407 -0.068573693827893439 0 -0.47702460168979111 -0.087157524427869615 0 -0.47967839073812912 -0.064727650616396362 0 -0.4847984782487687 -0.075944598732494498 0 -0.48794163871831331 -0.064119883023254248 0 -0.47967839073812912 -0.064727650616396362 0 -0.47491389520024407 -0.068573693827893439 0 -0.4847984782487687 -0.075944598732494498 0 -0.47967839073812912 -0.064727650616396362 0 -0.47491389520024407 -0.068573693827893439 0 -0.46192575156697407 -0.079058111591217034 0 -0.47702460168979111 -0.087157524427869615 0 -0.46192575156697407 -0.079058111591217034 0 -0.47491389520024407 -0.068573693827893439 0 -0.47702460168979111 -0.087157524427869615 0 -0.46631049206888459 -0.091444160656324658 0 -0.47771303140197108 -0.093218841439257433 0 -0.47702460168979111 -0.087157524427869615 0 -0.47771303140197108 -0.093218841439257433 0 -0.47702460168979111 -0.087157524427869615 0 -0.49842317329231273 -0.098636270432611556 0 -0.49712708577170861 -0.075742961183477536 0 -0.4847984782487687 -0.075944598732494498 0 -0.49999999999999939 -0.099482120969144883 0 -0.49842317329231273 -0.098636270432611556 0 -0.5 -0.078030389970551228 0 -0.49842317329231273 -0.098636270432611556 0 -0.49712708577170861 -0.075742961183477536 0 -0.49842317329231273 -0.098636270432611556 0 -0.5 -0.078030389970551228 0 -0.49712708577170861 -0.075742961183477536 0 -0.49842317329231273 -0.098636270432611556 0 -0.47702460168979111 -0.087157524427869615 0 -0.4847984782487687 -0.075944598732494498 0 -0.49842317329231273 -0.098636270432611556 0 -0.47702460168979111 -0.087157524427869615 0 -0.5 -0.078030389970551228 0 -0.49712708577170861 -0.075742961183477536 0 -0.49999999999999928 -0.056578658971957581 0 -0.49712708577170861 -0.075742961183477536 0 -0.49583099825110311 -0.052849651934343489 0 -0.49712708577170861 -0.075742961183477536 0 -0.48794163871831331 -0.064119883023254248 0 -0.49583099825110311 -0.052849651934343489 0 -0.49712708577170861 -0.075742961183477536 0 -0.4847984782487687 -0.075944598732494498 0 -0.48794163871831331 -0.064119883023254248 0 -0.49712708577170861 -0.075742961183477536 0 -0.49999999999999928 -0.056578658971957581 0 -0.49583099825110311 -0.052849651934343489 0 -0.49583099825110311 -0.052849651934343489 0 -0.47748890114140963 -0.036443372127734748 0 -0.48227324058185622 -0.051334552649559453 0 -0.49999999999999928 -0.056578658971957581 0 -0.49583099825110311 -0.052849651934343489 0 -0.49999999999999928 -0.056578658971957581 0 -0.50000000000000144 -0.053559852644015388 0 -0.49583099825110311 -0.052849651934343489 0 -0.48794163871831331 -0.064119883023254248 0 -0.49583099825110311 -0.052849651934343489 0 -0.48227324058185622 -0.051334552649559453 0 -0.50000000000000144 -0.053559852644015388 0 -0.49583099825110311 -0.052849651934343489 0 -0.48598145264485831 -0.02728491224803695 0 -0.49583099825110311 -0.052849651934343489 0 -0.47748890114140963 -0.036443372127734748 0 -0.48598145264485831 -0.02728491224803695 0 -0.50000000000000144 -0.053559852644015388 0 -0.48598145264485831 -0.02728491224803695 0 -0.50000000000000144 -0.053559852644015388 0 -0.48598145264485831 -0.02728491224803695 0 -0.5 -0.025161366008633609 0 -0.49583099825110311 -0.052849651934343489 0 -0.47748890114140963 -0.036443372127734748 0 -0.47748890114140963 -0.036443372127734748 0 -0.48598145264485831 -0.02728491224803695 0 -0.47748890114140963 -0.036443372127734748 0 -0.47194379404182718 -0.042423275915137587 0 -0.48227324058185622 -0.051334552649559453 0 -0.47748890114140963 -0.036443372127734748 0 -0.47194379404182718 -0.042423275915137587 0 -0.47748890114140963 -0.036443372127734748 0 -0.47194379404182718 -0.042423275915137587 0 -0.47056077858213702 -0.03024644074295027 0 -0.47194379404182718 -0.042423275915137587 0 -0.46539503278239303 -0.037082973767017267 0 -0.47056077858213702 -0.03024644074295027 0 -0.47194379404182718 -0.042423275915137587 0 -0.47056077858213702 -0.03024644074295027 0 -0.47748890114140963 -0.036443372127734748 0 -0.47056077858213702 -0.03024644074295027 0 -0.47748890114140963 -0.036443372127734748 0 -0.47056077858213702 -0.03024644074295027 0 -0.47745882259212458 -0.028728106929589409 0 -0.47967839073812912 -0.064727650616396362 0 -0.47491389520024407 -0.068573693827893439 0 -0.47194379404182718 -0.042423275915137587 0 -0.47967839073812912 -0.064727650616396362 0 -0.47194379404182718 -0.042423275915137587 0 -0.48227324058185622 -0.051334552649559453 0 -0.47491389520024407 -0.068573693827893439 0 -0.47194379404182718 -0.042423275915137587 0 -0.47967839073812912 -0.064727650616396362 0 -0.48794163871831331 -0.064119883023254248 0 -0.48227324058185622 -0.051334552649559453 0 -0.47491389520024407 -0.068573693827893439 0 -0.47194379404182718 -0.042423275915137587 0 -0.45893666683642192 -0.056450303318209168 0 -0.45893666683642192 -0.056450303318209168 0 -0.45743491846808387 -0.04563500224908737 0 -0.44544580640037118 -0.056213229689383748 0 -0.47194379404182718 -0.042423275915137587 0 -0.45893666683642192 -0.056450303318209168 0 -0.45743491846808387 -0.04563500224908737 0 -0.47194379404182718 -0.042423275915137587 0 -0.45893666683642192 -0.056450303318209168 0 -0.46539503278239303 -0.037082973767017267 0 -0.44890774518284438 -0.02927164544362729 0 -0.46539503278239303 -0.037082973767017267 0 -0.45215967652477718 -0.036640332234541717 0 -0.44890774518284438 -0.02927164544362729 0 -0.46539503278239303 -0.037082973767017267 0 -0.44890774518284438 -0.02927164544362729 0 -0.46189821575704781 -0.02986243911986371 0 -0.47194379404182718 -0.042423275915137587 0 -0.46539503278239303 -0.037082973767017267 0 -0.45743491846808387 -0.04563500224908737 0 -0.46539503278239303 -0.037082973767017267 0 -0.46189821575704781 -0.02986243911986371 0 -0.47056077858213702 -0.03024644074295027 0 -0.46539503278239303 -0.037082973767017267 0 -0.45743491846808387 -0.04563500224908737 0 -0.45215967652477718 -0.036640332234541717 0 -0.42981912379901888 -0.030443092666165631 0 -0.45215967652477718 -0.036640332234541717 0 -0.45743491846808387 -0.04563500224908737 0 -0.45215967652477718 -0.036640332234541717 0 -0.43957367317472601 -0.045089571971719818 0 -0.42981912379901888 -0.030443092666165631 0 -0.45215967652477718 -0.036640332234541717 0 -0.43957367317472601 -0.045089571971719818 0 -0.45743491846808387 -0.04563500224908737 0 -0.43957367317472601 -0.045089571971719818 0 -0.44544580640037118 -0.056213229689383748 0 -0.4246600563061857 -0.059067830999859447 0 -0.44592953963101739 -0.07047733072128165 0 -0.44544580640037118 -0.056213229689383748 0 -0.44592953963101739 -0.07047733072128165 0 -0.45893666683642192 -0.056450303318209168 0 -0.44544580640037118 -0.056213229689383748 0 -0.4441818909265971 -0.00998157505946092 0 -0.45588653083934588 0.00041698580085632909 0 -0.44737850259376799 0.0077656591989471307 0 -0.4441818909265971 -0.00998157505946092 0 -0.4570262928383732 -0.018140378997512391 0 -0.45633913854906122 -0.0094275687658610888 0 -0.4441818909265971 -0.00998157505946092 0 -0.45633913854906122 -0.0094275687658610888 0 -0.45588653083934588 0.00041698580085632909 0 -0.43741768347029059 -0.01288367903972009 0 -0.4441818909265971 -0.00998157505946092 0 -0.44890774518284438 -0.02927164544362729 0 -0.42981912379901888 -0.030443092666165631 0 -0.45215967652477718 -0.036640332234541717 0 -0.4392085005598273 -0.024676348383282701 0 -0.4441818909265971 -0.00998157505946092 0 -0.44890774518284438 -0.02927164544362729 0 -0.46258273328813732 -0.023158067004484729 0 -0.43741768347029059 -0.01288367903972009 0 -0.44890774518284438 -0.02927164544362729 0 -0.43741768347029059 -0.01288367903972009 0 -0.4392085005598273 -0.024676348383282701 0 -0.44890774518284438 -0.02927164544362729 0 -0.4392085005598273 -0.024676348383282701 0 -0.44890774518284438 -0.02927164544362729 0 -0.45215967652477718 -0.036640332234541717 0 -0.4392085005598273 -0.024676348383282701 0 -0.44890774518284438 -0.02927164544362729 0 -0.4441818909265971 -0.00998157505946092 0 -0.46258273328813732 -0.023158067004484729 0 -0.46258273328813732 -0.023158067004484729 0 -0.46826183959192841 -0.01000530680732737 0 -0.47056077858213702 -0.03024644074295027 0 -0.4441818909265971 -0.00998157505946092 0 -0.4570262928383732 -0.018140378997512391 0 -0.46258273328813732 -0.023158067004484729 0 -0.4570262928383732 -0.018140378997512391 0 -0.46258273328813732 -0.023158067004484729 0 -0.44890774518284438 -0.02927164544362729 0 -0.46189821575704781 -0.02986243911986371 0 -0.46258273328813732 -0.023158067004484729 0 -0.46258273328813732 -0.023158067004484729 0 -0.47056077858213702 -0.03024644074295027 0 -0.46189821575704781 -0.02986243911986371 0 -0.46258273328813732 -0.023158067004484729 0 -0.47056077858213702 -0.03024644074295027 0 -0.4570262928383732 -0.018140378997512391 0 -0.46258273328813732 -0.023158067004484729 0 -0.46826183959192841 -0.01000530680732737 0 -0.4570262928383732 -0.018140378997512391 0 -0.46826183959192841 -0.01000530680732737 0 -0.45633913854906122 -0.0094275687658610888 0 -0.46826183959192841 -0.01000530680732737 0 -0.45633913854906122 -0.0094275687658610888 0 -0.45588653083934588 0.00041698580085632909 0 -0.46826183959192841 -0.01000530680732737 0 -0.47597217662329228 -0.0085245425598697612 0 -0.4659629006017233 0.010235827128295859 0 -0.46826183959192841 -0.01000530680732737 0 -0.47597217662329228 -0.0085245425598697612 0 -0.47580415800009379 -0.02093770259963601 0 -0.47597217662329228 -0.0085245425598697612 0 -0.48922725890134677 -0.010453537226696331 0 -0.48082517856277007 0.001845263919603602 0 -0.47597217662329228 -0.0085245425598697612 0 -0.47580415800009379 -0.02093770259963601 0 -0.48598145264485831 -0.02728491224803695 0 -0.47597217662329228 -0.0085245425598697612 0 -0.48598145264485831 -0.02728491224803695 0 -0.46826183959192841 -0.01000530680732737 0 -0.47056077858213702 -0.03024644074295027 0 -0.47580415800009379 -0.02093770259963601 0 -0.47597217662329228 -0.0085245425598697612 0 -0.48598145264485831 -0.02728491224803695 0 -0.4893389393206713 -0.02366416211133009 0 -0.46826183959192841 -0.01000530680732737 0 -0.47056077858213702 -0.03024644074295027 0 -0.47056077858213702 -0.03024644074295027 0 -0.47580415800009379 -0.02093770259963601 0 -0.47745882259212458 -0.028728106929589409 0 -0.47580415800009379 -0.02093770259963601 0 -0.47745882259212458 -0.028728106929589409 0 -0.48598145264485831 -0.02728491224803695 0 -0.47748890114140963 -0.036443372127734748 0 -0.47745882259212458 -0.028728106929589409 0 -0.48598145264485831 -0.02728491224803695 0 -0.48598145264485831 -0.02728491224803695 0 -0.4893389393206713 -0.02366416211133009 0 -0.5 -0.025161366008633609 0 -0.48598145264485831 -0.02728491224803695 0 -0.4893389393206713 -0.02366416211133009 0 -0.4893389393206713 -0.02366416211133009 0 -0.5 -0.025161366008633609 0 -0.48922725890134677 -0.010453537226696331 0 -0.48922725890134677 -0.010453537226696331 0 -0.5 0.0032371206267481911 0 -0.48082517856277007 0.001845263919603602 0 -0.5 -0.025161366008633609 0 -0.48922725890134677 -0.010453537226696331 0 -0.5 0.0032371206267481911 0 -0.47597217662329228 -0.0085245425598697612 0 -0.4893389393206713 -0.02366416211133009 0 -0.48922725890134677 -0.010453537226696331 0 -0.5 0.0032371206267481911 0 -0.48596576445654982 0.01457961489688041 0 -0.48082517856277007 0.001845263919603602 0 -0.48596576445654982 0.01457961489688041 0 -0.47541999506787802 0.025418180444172121 0 -0.5 0.031635607262129987 0 -0.5 0.0032371206267481911 0 -0.48596576445654982 0.01457961489688041 0 -0.5 0.031635607262129987 0 -0.48596576445654982 0.01457961489688041 0 -0.47541999506787802 0.025418180444172121 0 -0.47401658579892991 0.013489912392399149 0 -0.47541999506787802 0.025418180444172121 0 -0.46963945276383978 0.01793989872667965 0 -0.47401658579892991 0.013489912392399149 0 -0.47597217662329228 -0.0085245425598697612 0 -0.48082517856277007 0.001845263919603602 0 -0.4659629006017233 0.010235827128295859 0 -0.47401658579892991 0.013489912392399149 0 -0.48082517856277007 0.001845263919603602 0 -0.4659629006017233 0.010235827128295859 0 -0.46963945276383978 0.01793989872667965 0 -0.47401658579892991 0.013489912392399149 0 -0.4659629006017233 0.010235827128295859 0 -0.47597217662329228 -0.0085245425598697612 0 -0.4659629006017233 0.010235827128295859 0 -0.48596576445654982 0.01457961489688041 0 -0.47401658579892991 0.013489912392399149 0 -0.48082517856277007 0.001845263919603602 0 -0.5 0.060034093897511798 0 -0.47816362815030861 0.043832779932641487 0 -0.48068047186290208 0.063626500276227002 0 -0.47541999506787802 0.025418180444172121 0 -0.5 0.031635607262129987 0 -0.47816362815030861 0.043832779932641487 0 -0.5 0.060034093897511798 0 -0.5 0.031635607262129987 0 -0.47816362815030861 0.043832779932641487 0 -0.47541999506787802 0.025418180444172121 0 -0.47816362815030861 0.043832779932641487 0 -0.46442391639916691 0.036471327701905212 0 -0.47816362815030861 0.043832779932641487 0 -0.46119618507356652 0.049359273152949731 0 -0.48068047186290208 0.063626500276227002 0 -0.46119618507356652 0.049359273152949731 0 -0.46103932749027238 0.064238871702306077 0 -0.48068047186290208 0.063626500276227002 0 -0.46119618507356652 0.049359273152949731 0 -0.44286953411296898 0.045255716157198693 0 -0.46103932749027238 0.064238871702306077 0 -0.47816362815030861 0.043832779932641487 0 -0.46119618507356652 0.049359273152949731 0 -0.46442391639916691 0.036471327701905212 0 -0.46119618507356652 0.049359273152949731 0 -0.46442391639916691 0.036471327701905212 0 -0.45082509298125129 0.038608595210277222 0 -0.46442391639916691 0.036471327701905212 0 -0.45082509298125129 0.038608595210277222 0 -0.4583939967914884 0.024422211169287101 0 -0.45082509298125129 0.038608595210277222 0 -0.4583939967914884 0.024422211169287101 0 -0.46119618507356652 0.049359273152949731 0 -0.45082509298125129 0.038608595210277222 0 -0.44286953411296898 0.045255716157198693 0 -0.45082509298125129 0.038608595210277222 0 -0.4405409619944019 0.035432846457562263 0 -0.4458839614772655 0.023387518650519249 0 -0.45082509298125129 0.038608595210277222 0 -0.4405409619944019 0.035432846457562263 0 -0.44286953411296898 0.045255716157198693 0 -0.4405409619944019 0.035432846457562263 0 -0.44286953411296898 0.045255716157198693 0 -0.43229092530358848 0.04451632412921195 0 -0.44286953411296898 0.045255716157198693 0 -0.44282721760043869 0.062046251170956107 0 -0.46103932749027238 0.064238871702306077 0 -0.44286953411296898 0.045255716157198693 0 -0.44282721760043869 0.062046251170956107 0 -0.43188097302969042 0.056955122555226501 0 -0.44286953411296898 0.045255716157198693 0 -0.46103932749027238 0.064238871702306077 0 -0.46826183959192841 -0.01000530680732737 0 -0.45588653083934588 0.00041698580085632909 0 -0.4659629006017233 0.010235827128295859 0 -0.46826183959192841 -0.01000530680732737 0 -0.4659629006017233 0.010235827128295859 0 -0.45609316173783881 0.014082317838893479 0 -0.45588653083934588 0.00041698580085632909 0 -0.4659629006017233 0.010235827128295859 0 -0.46963945276383978 0.01793989872667965 0 -0.4659629006017233 0.010235827128295859 0 -0.4583939967914884 0.024422211169287101 0 -0.4659629006017233 0.010235827128295859 0 -0.4583939967914884 0.024422211169287101 0 -0.47541999506787802 0.025418180444172121 0 -0.46963945276383978 0.01793989872667965 0 -0.4583939967914884 0.024422211169287101 0 -0.47541999506787802 0.025418180444172121 0 -0.46442391639916691 0.036471327701905212 0 -0.4583939967914884 0.024422211169287101 0 -0.45609316173783881 0.014082317838893479 0 -0.4659629006017233 0.010235827128295859 0 -0.4583939967914884 0.024422211169287101 0 -0.45609316173783881 0.014082317838893479 0 -0.4583939967914884 0.024422211169287101 0 -0.4458839614772655 0.023387518650519249 0 -0.45082509298125129 0.038608595210277222 0 -0.4583939967914884 0.024422211169287101 0 -0.4458839614772655 0.023387518650519249 0 -0.4405409619944019 0.035432846457562263 0 -0.4458839614772655 0.023387518650519249 0 -0.43566193494816191 0.02574822372494872 0 -0.4458839614772655 0.023387518650519249 0 -0.4359559447540089 0.01018896392150693 0 -0.43566193494816191 0.02574822372494872 0 -0.4441818909265971 -0.00998157505946092 0 -0.44737850259376799 0.0077656591989471307 0 -0.4359559447540089 0.01018896392150693 0 -0.4458839614772655 0.023387518650519249 0 -0.44737850259376799 0.0077656591989471307 0 -0.4359559447540089 0.01018896392150693 0 -0.45609316173783881 0.014082317838893479 0 -0.4458839614772655 0.023387518650519249 0 -0.44737850259376799 0.0077656591989471307 0 -0.45609316173783881 0.014082317838893479 0 -0.45588653083934588 0.00041698580085632909 0 -0.44737850259376799 0.0077656591989471307 0 -0.4441818909265971 -0.00998157505946092 0 -0.4359559447540089 0.01018896392150693 0 -0.42578104856505677 0.0031949168855625672 0 -0.42578104856505677 0.0031949168855625672 0 -0.41622595309658328 0.016397403714119251 0 -0.42870406893849561 0.019163111370922251 0 -0.4359559447540089 0.01018896392150693 0 -0.42578104856505677 0.0031949168855625672 0 -0.42870406893849561 0.019163111370922251 0 -0.41753789792717189 -0.0038843189997757009 0 -0.42578104856505677 0.0031949168855625672 0 -0.41105156913745711 0.0034129409419674369 0 -0.42578104856505677 0.0031949168855625672 0 -0.40852807671777941 0.0155494406680463 0 -0.41622595309658328 0.016397403714119251 0 -0.42578104856505677 0.0031949168855625672 0 -0.40852807671777941 0.0155494406680463 0 -0.41105156913745711 0.0034129409419674369 0 -0.42578104856505677 0.0031949168855625672 0 -0.40852807671777941 0.0155494406680463 0 -0.42578104856505677 0.0031949168855625672 0 -0.41622595309658328 0.016397403714119251 0 -0.40852807671777941 0.0155494406680463 0 -0.41105156913745711 0.0034129409419674369 0 -0.40262572535869262 0.0089097845909437267 0 -0.40771050441737638 -0.0035262849216432719 0 -0.41105156913745711 0.0034129409419674369 0 -0.40226596945639398 0.0014711925349297271 0 -0.40667085762811028 0.029599890542676258 0 -0.41622595309658328 0.016397403714119251 0 -0.42870406893849561 0.019163111370922251 0 -0.40667085762811028 0.029599890542676258 0 -0.42870406893849561 0.019163111370922251 0 -0.40667085762811028 0.029599890542676258 0 -0.41990433555607742 0.03061685230769556 0 -0.42870406893849561 0.019163111370922251 0 -0.40852807671777941 0.0155494406680463 0 -0.40667085762811028 0.029599890542676258 0 -0.41622595309658328 0.016397403714119251 0 -0.40667085762811028 0.029599890542676258 0 -0.41622595309658328 0.016397403714119251 0 -0.41990433555607742 0.03061685230769556 0 -0.4284463216954002 0.029357354603554459 0 -0.42870406893849561 0.019163111370922251 0 -0.4359559447540089 0.01018896392150693 0 -0.42870406893849561 0.019163111370922251 0 -0.43566193494816191 0.02574822372494872 0 -0.4284463216954002 0.029357354603554459 0 -0.42870406893849561 0.019163111370922251 0 -0.43566193494816191 0.02574822372494872 0 -0.4284463216954002 0.029357354603554459 0 -0.43566193494816191 0.02574822372494872 0 -0.43264023121812112 0.033917661463996759 0 -0.4405409619944019 0.035432846457562263 0 -0.43264023121812112 0.033917661463996759 0 -0.43229092530358848 0.04451632412921195 0 -0.43264023121812112 0.033917661463996759 0 -0.43229092530358848 0.04451632412921195 0 -0.42532103781614489 0.037340924150209003 0 -0.4405409619944019 0.035432846457562263 0 -0.43566193494816191 0.02574822372494872 0 -0.43264023121812112 0.033917661463996759 0 -0.43229092530358848 0.04451632412921195 0 -0.42532103781614489 0.037340924150209003 0 -0.42042490988599091 0.046091327469671317 0 -0.4284463216954002 0.029357354603554459 0 -0.43264023121812112 0.033917661463996759 0 -0.42532103781614489 0.037340924150209003 0 -0.41990433555607742 0.03061685230769556 0 -0.4284463216954002 0.029357354603554459 0 -0.42532103781614489 0.037340924150209003 0 -0.43229092530358848 0.04451632412921195 0 -0.43188097302969042 0.056955122555226501 0 -0.42585725303016408 0.051510102087770737 0 -0.44286953411296898 0.045255716157198693 0 -0.43229092530358848 0.04451632412921195 0 -0.43188097302969042 0.056955122555226501 0 -0.43229092530358848 0.04451632412921195 0 -0.42585725303016408 0.051510102087770737 0 -0.42042490988599091 0.046091327469671317 0 -0.43188097302969042 0.056955122555226501 0 -0.41883220390138681 0.058477634196973202 0 -0.43131469147834472 0.070632617455275076 0 -0.43188097302969042 0.056955122555226501 0 -0.42585725303016408 0.051510102087770737 0 -0.41883220390138681 0.058477634196973202 0 -0.41883220390138681 0.058477634196973202 0 -0.40840220717331749 0.048304634434869917 0 -0.39985653820026013 0.060860810446949978 0 -0.42585725303016408 0.051510102087770737 0 -0.41883220390138681 0.058477634196973202 0 -0.42042490988599091 0.046091327469671317 0 -0.41883220390138681 0.058477634196973202 0 -0.40840220717331749 0.048304634434869917 0 -0.42042490988599091 0.046091327469671317 0 -0.41990433555607742 0.03061685230769556 0 -0.42532103781614489 0.037340924150209003 0 -0.4122967326089878 0.037821593301397609 0 -0.42532103781614489 0.037340924150209003 0 -0.42042490988599091 0.046091327469671317 0 -0.4122967326089878 0.037821593301397609 0 -0.40840220717331749 0.048304634434869917 0 -0.4122967326089878 0.037821593301397609 0 -0.40579981868685489 0.041495006097714962 0 -0.40840220717331749 0.048304634434869917 0 -0.42042490988599091 0.046091327469671317 0 -0.4122967326089878 0.037821593301397609 0 -0.4122967326089878 0.037821593301397609 0 -0.40278544391907911 0.034968452634622761 0 -0.40579981868685489 0.041495006097714962 0 -0.40667085762811028 0.029599890542676258 0 -0.4122967326089878 0.037821593301397609 0 -0.40278544391907911 0.034968452634622761 0 -0.40667085762811028 0.029599890542676258 0 -0.41990433555607742 0.03061685230769556 0 -0.4122967326089878 0.037821593301397609 0 -0.40667085762811028 0.029599890542676258 0 -0.40278544391907911 0.034968452634622761 0 -0.40667085762811028 0.029599890542676258 0 -0.38856614517843069 0.038175802748282091 0 -0.40667085762811028 0.029599890542676258 0 -0.38856614517843069 0.038175802748282091 0 -0.39127510487050182 0.027903964450529759 0 -0.40667085762811028 0.029599890542676258 0 -0.40278544391907911 0.034968452634622761 0 -0.38856614517843069 0.038175802748282091 0 -0.40278544391907911 0.034968452634622761 0 -0.40579981868685489 0.041495006097714962 0 -0.3977250587697031 0.045015474274426849 0 -0.40840220717331749 0.048304634434869917 0 -0.40579981868685489 0.041495006097714962 0 -0.3977250587697031 0.045015474274426849 0 -0.40278544391907911 0.034968452634622761 0 -0.3977250587697031 0.045015474274426849 0 -0.38856614517843069 0.038175802748282091 0 -0.40840220717331749 0.048304634434869917 0 -0.3977250587697031 0.045015474274426849 0 -0.39985653820026013 0.060860810446949978 0 -0.3977250587697031 0.045015474274426849 0 -0.39985653820026013 0.060860810446949978 0 -0.38472691017257071 0.052921849058569698 0 -0.39985653820026013 0.060860810446949978 0 -0.38472691017257071 0.052921849058569698 0 -0.38510762700538009 0.066428587654483159 0 -0.38472691017257071 0.052921849058569698 0 -0.37046143272875132 0.04675171495388801 0 -0.37000681959492809 0.05831264468359916 0 -0.38472691017257071 0.052921849058569698 0 -0.38510762700538009 0.066428587654483159 0 -0.37000681959492809 0.05831264468359916 0 -0.38856614517843069 0.038175802748282091 0 -0.37871402691879819 0.03757115751491092 0 -0.37046143272875132 0.04675171495388801 0 -0.38856614517843069 0.038175802748282091 0 -0.37046143272875132 0.04675171495388801 0 -0.38472691017257071 0.052921849058569698 0 -0.38856614517843069 0.038175802748282091 0 -0.37046143272875132 0.04675171495388801 0 -0.38856614517843069 0.038175802748282091 0 -0.38315308642314733 0.033917821982192238 0 -0.39127510487050182 0.027903964450529759 0 -0.38856614517843069 0.038175802748282091 0 -0.38315308642314733 0.033917821982192238 0 -0.37871402691879819 0.03757115751491092 0 -0.3977250587697031 0.045015474274426849 0 -0.38472691017257071 0.052921849058569698 0 -0.38856614517843069 0.038175802748282091 0 -0.37871402691879819 0.03757115751491092 0 -0.3764786745208083 0.032098692741998169 0 -0.37046143272875132 0.04675171495388801 0 -0.38315308642314733 0.033917821982192238 0 -0.3764786745208083 0.032098692741998169 0 -0.38155727091044611 0.028316364585127811 0 -0.38315308642314733 0.033917821982192238 0 -0.37871402691879819 0.03757115751491092 0 -0.3764786745208083 0.032098692741998169 0 -0.3764786745208083 0.032098692741998169 0 -0.38155727091044611 0.028316364585127811 0 -0.37960108001976323 0.022263106047543741 0 -0.37960108001976323 0.022263106047543741 0 -0.37998819155715241 0.0057865511937031933 0 -0.37123175334181557 0.027162262264614271 0 -0.3764786745208083 0.032098692741998169 0 -0.37960108001976323 0.022263106047543741 0 -0.37123175334181557 0.027162262264614271 0 -0.38155727091044611 0.028316364585127811 0 -0.38533699425949169 0.022674384769296389 0 -0.37960108001976323 0.022263106047543741 0 -0.38155727091044611 0.028316364585127811 0 -0.38533699425949169 0.022674384769296389 0 -0.39127510487050182 0.027903964450529759 0 -0.38315308642314733 0.033917821982192238 0 -0.38155727091044611 0.028316364585127811 0 -0.39127510487050182 0.027903964450529759 0 -0.39054146691731162 0.018060194648231769 0 -0.38533699425949169 0.022674384769296389 0 -0.39127510487050182 0.027903964450529759 0 -0.38533699425949169 0.022674384769296389 0 -0.3837100485794358 0.01682829411504885 0 -0.37960108001976323 0.022263106047543741 0 -0.39054146691731162 0.018060194648231769 0 -0.38533699425949169 0.022674384769296389 0 -0.3837100485794358 0.01682829411504885 0 -0.3837100485794358 0.01682829411504885 0 -0.37960108001976323 0.022263106047543741 0 -0.37998819155715241 0.0057865511937031933 0 -0.37998819155715241 0.0057865511937031933 0 -0.38683543611469601 0.0001369023841863784 0 -0.36064890389212972 0.0125435277679194 0 -0.37998819155715241 0.0057865511937031933 0 -0.38683543611469601 0.0001369023841863784 0 -0.38901012294298121 0.0062908016400105649 0 -0.38683543611469601 0.0001369023841863784 0 -0.38901012294298121 0.0062908016400105649 0 -0.39501457079486157 0.0055715078560810288 0 -0.37998819155715241 0.0057865511937031933 0 -0.38901012294298121 0.0062908016400105649 0 -0.38744744785130802 0.01185902438546781 0 -0.3837100485794358 0.01682829411504885 0 -0.37998819155715241 0.0057865511937031933 0 -0.38744744785130802 0.01185902438546781 0 -0.38901012294298121 0.0062908016400105649 0 -0.38744744785130802 0.01185902438546781 0 -0.39422738021243581 0.01127211946813913 0 -0.39054146691731162 0.018060194648231769 0 -0.3837100485794358 0.01682829411504885 0 -0.38744744785130802 0.01185902438546781 0 -0.39054146691731162 0.018060194648231769 0 -0.39422738021243581 0.01127211946813913 0 -0.39743955081534421 0.016339100765178138 0 -0.39054146691731162 0.018060194648231769 0 -0.38744744785130802 0.01185902438546781 0 -0.39422738021243581 0.01127211946813913 0 -0.39422738021243581 0.01127211946813913 0 -0.39501457079486157 0.0055715078560810288 0 -0.40262572535869262 0.0089097845909437267 0 -0.39422738021243581 0.01127211946813913 0 -0.40262572535869262 0.0089097845909437267 0 -0.39743955081534421 0.016339100765178138 0 -0.38683543611469601 0.0001369023841863784 0 -0.39501457079486157 0.0055715078560810288 0 -0.40226596945639398 0.0014711925349297271 0 -0.38901012294298121 0.0062908016400105649 0 -0.39422738021243581 0.01127211946813913 0 -0.39501457079486157 0.0055715078560810288 0 -0.41105156913745711 0.0034129409419674369 0 -0.40226596945639398 0.0014711925349297271 0 -0.40262572535869262 0.0089097845909437267 0 -0.39501457079486157 0.0055715078560810288 0 -0.40226596945639398 0.0014711925349297271 0 -0.40262572535869262 0.0089097845909437267 0 -0.40852807671777941 0.0155494406680463 0 -0.40262572535869262 0.0089097845909437267 0 -0.39743955081534421 0.016339100765178138 0 -0.40852807671777941 0.0155494406680463 0 -0.39127510487050182 0.027903964450529759 0 -0.40852807671777941 0.0155494406680463 0 -0.40667085762811028 0.029599890542676258 0 -0.39127510487050182 0.027903964450529759 0 -0.40852807671777941 0.0155494406680463 0 -0.39127510487050182 0.027903964450529759 0 -0.39743955081534421 0.016339100765178138 0 -0.39054146691731162 0.018060194648231769 0 -0.39127510487050182 0.027903964450529759 0 -0.39743955081534421 0.016339100765178138 0 -0.39792088922733271 0.1160922105611595 0 -0.40104213778508202 0.092866093853817611 0 -0.41467909406405851 0.1139188519362445 0 -0.39792088922733271 0.1160922105611595 0 -0.3782625711058698 0.101617738696854 0 -0.40104213778508202 0.092866093853817611 0 -0.3782625711058698 0.101617738696854 0 -0.38372255811484618 0.13025780258704611 0 -0.3782625711058698 0.101617738696854 0 -0.38372255811484618 0.13025780258704611 0 -0.36747352968705388 0.12273486311700831 0 -0.39792088922733271 0.1160922105611595 0 -0.3782625711058698 0.101617738696854 0 -0.38372255811484618 0.13025780258704611 0 -0.39792088922733271 0.1160922105611595 0 -0.3782625711058698 0.101617738696854 0 -0.3782625711058698 0.101617738696854 0 -0.40104213778508202 0.092866093853817611 0 -0.37470600383380392 0.082961959162170973 0 -0.39520328107527708 0.075997639864115257 0 -0.40104213778508202 0.092866093853817611 0 -0.37470600383380392 0.082961959162170973 0 -0.3782625711058698 0.101617738696854 0 -0.37470600383380392 0.082961959162170973 0 -0.40104213778508202 0.092866093853817611 0 -0.37470600383380392 0.082961959162170973 0 -0.38510762700538009 0.066428587654483159 0 -0.37000681959492809 0.05831264468359916 0 -0.37470600383380392 0.082961959162170973 0 -0.38510762700538009 0.066428587654483159 0 -0.39520328107527708 0.075997639864115257 0 -0.37470600383380392 0.082961959162170973 0 -0.39985653820026013 0.060860810446949978 0 -0.39520328107527708 0.075997639864115257 0 -0.41322693425173768 0.074694678089132868 0 -0.39985653820026013 0.060860810446949978 0 -0.38510762700538009 0.066428587654483159 0 -0.39520328107527708 0.075997639864115257 0 -0.39520328107527708 0.075997639864115257 0 -0.40104213778508202 0.092866093853817611 0 -0.41322693425173768 0.074694678089132868 0 -0.40104213778508202 0.092866093853817611 0 -0.41322693425173768 0.074694678089132868 0 -0.42957324029363853 0.085693113452461764 0 -0.41883220390138681 0.058477634196973202 0 -0.41322693425173768 0.074694678089132868 0 -0.43131469147834472 0.070632617455275076 0 -0.41883220390138681 0.058477634196973202 0 -0.39985653820026013 0.060860810446949978 0 -0.41322693425173768 0.074694678089132868 0 -0.43131469147834472 0.070632617455275076 0 -0.42957324029363853 0.085693113452461764 0 -0.4470315618909167 0.073148927984774167 0 -0.41322693425173768 0.074694678089132868 0 -0.43131469147834472 0.070632617455275076 0 -0.42957324029363853 0.085693113452461764 0 -0.44282721760043869 0.062046251170956107 0 -0.43188097302969042 0.056955122555226501 0 -0.43131469147834472 0.070632617455275076 0 -0.42957324029363853 0.085693113452461764 0 -0.42737827173636012 0.1027702285454639 0 -0.44343173260412461 0.097571970950778963 0 -0.40104213778508202 0.092866093853817611 0 -0.42737827173636012 0.1027702285454639 0 -0.41467909406405851 0.1139188519362445 0 -0.40104213778508202 0.092866093853817611 0 -0.42737827173636012 0.1027702285454639 0 -0.40104213778508202 0.092866093853817611 0 -0.42957324029363853 0.085693113452461764 0 -0.42737827173636012 0.1027702285454639 0 -0.39792088922733271 0.1160922105611595 0 -0.41467909406405851 0.1139188519362445 0 -0.417579207348795 0.13056668242546571 0 -0.39792088922733271 0.1160922105611595 0 -0.417579207348795 0.13056668242546571 0 -0.41467909406405851 0.1139188519362445 0 -0.42608096723388439 0.1205091241492761 0 -0.417579207348795 0.13056668242546571 0 -0.42737827173636012 0.1027702285454639 0 -0.41467909406405851 0.1139188519362445 0 -0.42608096723388439 0.1205091241492761 0 -0.42737827173636012 0.1027702285454639 0 -0.42608096723388439 0.1205091241492761 0 -0.43826405507869293 0.1195835460605416 0 -0.42608096723388439 0.1205091241492761 0 -0.43826405507869293 0.1195835460605416 0 -0.43293323699752101 0.1317554923945817 0 -0.43826405507869293 0.1195835460605416 0 -0.45371440568763749 0.1126743632371118 0 -0.44901593584904892 0.12912088192892021 0 -0.42737827173636012 0.1027702285454639 0 -0.43826405507869293 0.1195835460605416 0 -0.45371440568763749 0.1126743632371118 0 -0.4523882543875366 0.10983005993361 0 -0.45371440568763749 0.1126743632371118 0 -0.42737827173636012 0.1027702285454639 0 -0.4523882543875366 0.10983005993361 0 -0.44343173260412461 0.097571970950778963 0 -0.42737827173636012 0.1027702285454639 0 -0.4523882543875366 0.10983005993361 0 -0.45371440568763749 0.1126743632371118 0 -0.42737827173636012 0.1027702285454639 0 -0.45371440568763749 0.1126743632371118 0 -0.44343173260412461 0.097571970950778963 0 -0.45084974973894648 0.096020795281878568 0 -0.45306155814551219 0.1028275296158008 0 -0.44343173260412461 0.097571970950778963 0 -0.45084974973894648 0.096020795281878568 0 -0.44733932132275389 0.088290098875458828 0 -0.4523882543875366 0.10983005993361 0 -0.44343173260412461 0.097571970950778963 0 -0.45306155814551219 0.1028275296158008 0 -0.4523882543875366 0.10983005993361 0 -0.45306155814551219 0.1028275296158008 0 -0.45661100561120399 0.109540819014999 0 -0.45306155814551219 0.1028275296158008 0 -0.46084618436187341 0.10490351706993729 0 -0.45661100561120399 0.109540819014999 0 -0.45306155814551219 0.1028275296158008 0 -0.46084618436187341 0.10490351706993729 0 -0.45799439118323759 0.099220837031069903 0 -0.46084618436187341 0.10490351706993729 0 -0.4635407771028337 0.1124237257980706 0 -0.45661100561120399 0.109540819014999 0 -0.45799439118323759 0.099220837031069903 0 -0.46723244863383712 0.097971273043108306 0 -0.45594156200913483 0.091684632610025046 0 -0.45084974973894648 0.096020795281878568 0 -0.45799439118323759 0.099220837031069903 0 -0.45594156200913483 0.091684632610025046 0 -0.45084974973894648 0.096020795281878568 0 -0.45306155814551219 0.1028275296158008 0 -0.45799439118323759 0.099220837031069903 0 -0.46084618436187341 0.10490351706993729 0 -0.45799439118323759 0.099220837031069903 0 -0.46723244863383712 0.097971273043108306 0 -0.46084618436187341 0.10490351706993729 0 -0.46723244863383712 0.097971273043108306 0 -0.46686982756835349 0.1074114054382402 0 -0.46084618436187341 0.10490351706993729 0 -0.46686982756835349 0.1074114054382402 0 -0.4635407771028337 0.1124237257980706 0 -0.45371440568763749 0.1126743632371118 0 -0.46425598871103851 0.13528374379222011 0 -0.4635407771028337 0.1124237257980706 0 -0.45674497769142258 0.1138140594952527 0 -0.46958882025875243 0.12035793204680111 0 -0.46686982756835349 0.1074114054382402 0 -0.4635407771028337 0.1124237257980706 0 -0.47044075898603932 0.11380610730348489 0 -0.4635407771028337 0.1124237257980706 0 -0.46958882025875243 0.12035793204680111 0 -0.47044075898603932 0.11380610730348489 0 -0.45674497769142258 0.1138140594952527 0 -0.45371440568763749 0.1126743632371118 0 -0.46425598871103851 0.13528374379222011 0 -0.45674497769142258 0.1138140594952527 0 -0.46958882025875243 0.12035793204680111 0 -0.46425598871103851 0.13528374379222011 0 -0.4523882543875366 0.10983005993361 0 -0.45661100561120399 0.109540819014999 0 -0.45371440568763749 0.1126743632371118 0 -0.45674497769142258 0.1138140594952527 0 -0.45661100561120399 0.109540819014999 0 -0.45371440568763749 0.1126743632371118 0 -0.45674497769142258 0.1138140594952527 0 -0.45371440568763749 0.1126743632371118 0 -0.4635407771028337 0.1124237257980706 0 -0.45674497769142258 0.1138140594952527 0 -0.45661100561120399 0.109540819014999 0 -0.44282721760043869 0.062046251170956107 0 -0.4470315618909167 0.073148927984774167 0 -0.46103932749027238 0.064238871702306077 0 -0.44282721760043869 0.062046251170956107 0 -0.43131469147834472 0.070632617455275076 0 -0.4470315618909167 0.073148927984774167 0 -0.42957324029363853 0.085693113452461764 0 -0.44343173260412461 0.097571970950778963 0 -0.44733932132275389 0.088290098875458828 0 -0.42957324029363853 0.085693113452461764 0 -0.4470315618909167 0.073148927984774167 0 -0.44733932132275389 0.088290098875458828 0 -0.4470315618909167 0.073148927984774167 0 -0.44733932132275389 0.088290098875458828 0 -0.46047789149500767 0.082617330138573752 0 -0.45084974973894648 0.096020795281878568 0 -0.44733932132275389 0.088290098875458828 0 -0.45594156200913483 0.091684632610025046 0 -0.44733932132275389 0.088290098875458828 0 -0.45594156200913483 0.091684632610025046 0 -0.46047789149500767 0.082617330138573752 0 -0.46723244863383712 0.097971273043108306 0 -0.45594156200913483 0.091684632610025046 0 -0.46047789149500767 0.082617330138573752 0 -0.46047789149500767 0.082617330138573752 0 -0.46103932749027238 0.064238871702306077 0 -0.47920912086757578 0.083222027247413538 0 -0.4470315618909167 0.073148927984774167 0 -0.46047789149500767 0.082617330138573752 0 -0.46103932749027238 0.064238871702306077 0 -0.46103932749027238 0.064238871702306077 0 -0.48068047186290208 0.063626500276227002 0 -0.47920912086757578 0.083222027247413538 0 -0.46103932749027238 0.064238871702306077 0 -0.47920912086757578 0.083222027247413538 0 -0.46723244863383712 0.097971273043108306 0 -0.46047789149500767 0.082617330138573752 0 -0.47920912086757578 0.083222027247413538 0 -0.48068047186290208 0.063626500276227002 0 -0.47920912086757578 0.083222027247413538 0 -0.5 0.088432580532893601 0 -0.47920912086757578 0.083222027247413538 0 -0.49737891424487929 0.102205182792521 0 -0.47920912086757578 0.083222027247413538 0 -0.5 0.088432580532893601 0 -0.49737891424487929 0.102205182792521 0 -0.5 0.060034093897511798 0 -0.48068047186290208 0.063626500276227002 0 -0.5 0.088432580532893601 0 -0.47827810320487629 0.116675775998883 0 -0.48837893466537508 0.1117690854599766 0 -0.4842723158563047 0.1301441798928954 0 -0.47827810320487629 0.116675775998883 0 -0.47512549980118862 0.10796659812409699 0 -0.48837893466537508 0.1117690854599766 0 -0.47827810320487629 0.116675775998883 0 -0.46958882025875243 0.12035793204680111 0 -0.4842723158563047 0.1301441798928954 0 -0.47827810320487629 0.116675775998883 0 -0.47044075898603932 0.11380610730348489 0 -0.47512549980118862 0.10796659812409699 0 -0.46686982756835349 0.1074114054382402 0 -0.47044075898603932 0.11380610730348489 0 -0.47512549980118862 0.10796659812409699 0 -0.47827810320487629 0.116675775998883 0 -0.46958882025875243 0.12035793204680111 0 -0.47044075898603932 0.11380610730348489 0 -0.46723244863383712 0.097971273043108306 0 -0.47512549980118862 0.10796659812409699 0 -0.48162445158666772 0.1005823670901454 0 -0.46723244863383712 0.097971273043108306 0 -0.47920912086757578 0.083222027247413538 0 -0.48162445158666772 0.1005823670901454 0 -0.46723244863383712 0.097971273043108306 0 -0.46686982756835349 0.1074114054382402 0 -0.47512549980118862 0.10796659812409699 0 -0.47512549980118862 0.10796659812409699 0 -0.48162445158666772 0.1005823670901454 0 -0.48837893466537508 0.1117690854599766 0 -0.48162445158666772 0.1005823670901454 0 -0.49737891424487929 0.102205182792521 0 -0.48837893466537508 0.1117690854599766 0 -0.47920912086757578 0.083222027247413538 0 -0.48162445158666772 0.1005823670901454 0 -0.49737891424487929 0.102205182792521 0 -0.5 0.088432580532893601 0 -0.49737891424487929 0.102205182792521 0 -0.5 0.1168310671682755 0 -0.49737891424487929 0.102205182792521 0 -0.5 0.1168310671682755 0 -0.48837893466537508 0.1117690854599766 0 -0.5 0.1168310671682755 0 -0.48837893466537508 0.1117690854599766 0 -0.4842723158563047 0.1301441798928954 0 -0.5 0.1168310671682755 0 -0.4842723158563047 0.1301441798928954 0 -0.5 0.14522955380365729 0 -0.46958882025875243 0.12035793204680111 0 -0.4842723158563047 0.1301441798928954 0 -0.46425598871103851 0.13528374379222011 0 -0.4842723158563047 0.1301441798928954 0 -0.47479757173443998 0.15789312434732811 0 -0.46425598871103851 0.13528374379222011 0 -0.47479757173443998 0.15789312434732811 0 -0.46425598871103851 0.13528374379222011 0 -0.4842723158563047 0.1301441798928954 0 -0.5 0.14522955380365729 0 -0.47479757173443998 0.15789312434732811 0 -0.5 0.14522955380365729 0 -0.49999999999999972 0.17362804043903909 0 -0.47479757173443998 0.15789312434732811 0 -0.49999999999999972 0.17362804043903909 0 -0.47479757173443998 0.15789312434732811 0 -0.49999999999999972 0.17362804043903909 0 -0.49200992699072321 0.1743962810239672 0 -0.47479757173443998 0.15789312434732811 0 -0.48341269367675271 0.17637066895233999 0 -0.49170634683837577 0.1941587336203292 0 -0.49368671912131301 0.1828531969182482 0 -0.49999999999999972 0.17362804043903909 0 -0.5 0.19278741936367841 0 -0.49368671912131301 0.1828531969182482 0 -0.48341269367675271 0.17637066895233999 0 -0.49170634683837577 0.1941587336203292 0 -0.49368671912131301 0.1828531969182482 0 -0.49999999999999972 0.17362804043903909 0 -0.49200992699072321 0.1743962810239672 0 -0.49200992699072321 0.1743962810239672 0 -0.48341269367675271 0.17637066895233999 0 -0.49368671912131301 0.1828531969182482 0 -0.49200992699072321 0.1743962810239672 0 -0.48341269367675271 0.17637066895233999 0 -0.48341269367675271 0.17637066895233999 0 -0.45591042926964898 0.18268667049205081 0 -0.47274380268756999 0.19288508587190861 0 -0.48341269367675271 0.17637066895233999 0 -0.45591042926964898 0.18268667049205081 0 -0.49200992699072321 0.1743962810239672 0 -0.48341269367675271 0.17637066895233999 0 -0.47479757173443998 0.15789312434732811 0 -0.48341269367675271 0.17637066895233999 0 -0.47479757173443998 0.15789312434732811 0 -0.48341269367675271 0.17637066895233999 0 -0.47479757173443998 0.15789312434732811 0 -0.45723956394668003 0.16387676974864759 0 -0.48341269367675271 0.17637066895233999 0 -0.45723956394668003 0.16387676974864759 0 -0.45591042926964898 0.18268667049205081 0 -0.45591042926964898 0.18268667049205081 0 -0.43992511097516529 0.17411109905454999 0 -0.4284081648625454 0.1890026720317621 0 -0.45591042926964898 0.18268667049205081 0 -0.4284081648625454 0.1890026720317621 0 -0.45723956394668003 0.16387676974864759 0 -0.45591042926964898 0.18268667049205081 0 -0.43992511097516529 0.17411109905454999 0 -0.45723956394668003 0.16387676974864759 0 -0.43992511097516529 0.17411109905454999 0 -0.43892522612619872 0.15930650560997939 0 -0.43892522612619872 0.15930650560997939 0 -0.43796764784210812 0.14528805014891141 0 -0.45386540436598038 0.14482430837095511 0 -0.45723956394668003 0.16387676974864759 0 -0.43892522612619872 0.15930650560997939 0 -0.45386540436598038 0.14482430837095511 0 -0.45386540436598038 0.14482430837095511 0 -0.43293323699752101 0.1317554923945817 0 -0.43826405507869293 0.1195835460605416 0 -0.44901593584904892 0.12912088192892021 0 -0.43293323699752101 0.1317554923945817 0 -0.43796764784210812 0.14528805014891141 0 -0.45386540436598038 0.14482430837095511 0 -0.43293323699752101 0.1317554923945817 0 -0.44901593584904892 0.12912088192892021 0 -0.45386540436598038 0.14482430837095511 0 -0.43293323699752101 0.1317554923945817 0 -0.45371440568763749 0.1126743632371118 0 -0.44901593584904892 0.12912088192892021 0 -0.46425598871103851 0.13528374379222011 0 -0.44901593584904892 0.12912088192892021 0 -0.46425598871103851 0.13528374379222011 0 -0.45386540436598038 0.14482430837095511 0 -0.47479757173443998 0.15789312434732811 0 -0.45723956394668003 0.16387676974864759 0 -0.45386540436598038 0.14482430837095511 0 -0.47479757173443998 0.15789312434732811 0 -0.46425598871103851 0.13528374379222011 0 -0.45386540436598038 0.14482430837095511 0 -0.47479757173443998 0.15789312434732811 0 -0.45386540436598038 0.14482430837095511 0 -0.48226153920099157 0.23766317590200001 0 -0.47864167104372218 0.246590621409366 0 -0.48932095354102823 0.25454658797793611 0 -0.47315400564016008 0.2364435414805684 0 -0.47864167104372218 0.246590621409366 0 -0.46938038244821267 0.25133041049185839 0 -0.47315400564016008 0.2364435414805684 0 -0.48226153920099157 0.23766317590200001 0 -0.47864167104372218 0.246590621409366 0 -0.49106398183666961 0.22759324404760359 0 -0.48932095354102823 0.25454658797793611 0 -0.5 0.23810140997737081 0 -0.49106398183666961 0.22759324404760359 0 -0.48932095354102823 0.25454658797793611 0 -0.48226153920099157 0.23766317590200001 0 -0.49106398183666961 0.22759324404760359 0 -0.48932095354102823 0.25454658797793611 0 -0.5 0.23810140997737081 0 -0.49106398183666961 0.22759324404760359 0 -0.50000000000000022 0.21194679828831781 0 -0.49106398183666961 0.22759324404760359 0 -0.47912708394337772 0.2231418845945258 0 -0.48726644121087642 0.21298690825741631 0 -0.48226153920099157 0.23766317590200001 0 -0.49106398183666961 0.22759324404760359 0 -0.47912708394337772 0.2231418845945258 0 -0.47315400564016008 0.2364435414805684 0 -0.48226153920099157 0.23766317590200001 0 -0.47912708394337772 0.2231418845945258 0 -0.47315400564016008 0.2364435414805684 0 -0.47912708394337772 0.2231418845945258 0 -0.46764368341616458 0.22415830119077751 0 -0.47912708394337772 0.2231418845945258 0 -0.47360767850491831 0.20951316246361981 0 -0.46764368341616458 0.22415830119077751 0 -0.47360767850491831 0.20951316246361981 0 -0.48726644121087642 0.21298690825741631 0 -0.49170634683837577 0.1941587336203292 0 -0.47912708394337772 0.2231418845945258 0 -0.47360767850491831 0.20951316246361981 0 -0.48726644121087642 0.21298690825741631 0 -0.49106398183666961 0.22759324404760359 0 -0.50000000000000022 0.21194679828831781 0 -0.48726644121087642 0.21298690825741631 0 -0.50000000000000022 0.21194679828831781 0 -0.48726644121087642 0.21298690825741631 0 -0.49170634683837577 0.1941587336203292 0 -0.50000000000000022 0.21194679828831781 0 -0.49170634683837577 0.1941587336203292 0 -0.50000000000000022 0.21194679828831781 0 -0.5 0.19278741936367841 0 -0.49170634683837577 0.1941587336203292 0 -0.49368671912131301 0.1828531969182482 0 -0.5 0.19278741936367841 0 -0.49170634683837577 0.1941587336203292 0 -0.48341269367675271 0.17637066895233999 0 -0.49170634683837577 0.1941587336203292 0 -0.47274380268756999 0.19288508587190861 0 -0.47360767850491831 0.20951316246361981 0 -0.49170634683837577 0.1941587336203292 0 -0.47274380268756999 0.19288508587190861 0 -0.47360767850491831 0.20951316246361981 0 -0.47274380268756999 0.19288508587190861 0 -0.45820261548712909 0.20353130823034371 0 -0.45591042926964898 0.18268667049205081 0 -0.47274380268756999 0.19288508587190861 0 -0.45820261548712909 0.20353130823034371 0 -0.45591042926964898 0.18268667049205081 0 -0.43516662619925378 0.20614333559983469 0 -0.4284081648625454 0.1890026720317621 0 -0.45591042926964898 0.18268667049205081 0 -0.45820261548712909 0.20353130823034371 0 -0.43516662619925378 0.20614333559983469 0 -0.44192508753596349 0.22328399916790689 0 -0.43516662619925378 0.20614333559983469 0 -0.45032248765871591 0.2151961798839368 0 -0.44192508753596349 0.22328399916790689 0 -0.43516662619925378 0.20614333559983469 0 -0.45032248765871591 0.2151961798839368 0 -0.45820261548712909 0.20353130823034371 0 -0.43516662619925378 0.20614333559983469 0 -0.45032248765871591 0.2151961798839368 0 -0.46109406183397039 0.21551848415653921 0 -0.45620465585954723 0.2251951411450015 0 -0.45032248765871591 0.2151961798839368 0 -0.45820261548712909 0.20353130823034371 0 -0.46109406183397039 0.21551848415653921 0 -0.47360767850491831 0.20951316246361981 0 -0.45820261548712909 0.20353130823034371 0 -0.46109406183397039 0.21551848415653921 0 -0.47360767850491831 0.20951316246361981 0 -0.46109406183397039 0.21551848415653921 0 -0.46764368341616458 0.22415830119077751 0 -0.47315400564016008 0.2364435414805684 0 -0.46764368341616458 0.22415830119077751 0 -0.45925329591452863 0.2407771106774913 0 -0.46764368341616458 0.22415830119077751 0 -0.45620465585954723 0.2251951411450015 0 -0.45925329591452863 0.2407771106774913 0 -0.46109406183397039 0.21551848415653921 0 -0.46764368341616458 0.22415830119077751 0 -0.45620465585954723 0.2251951411450015 0 -0.45032248765871591 0.2151961798839368 0 -0.45620465585954723 0.2251951411450015 0 -0.44192508753596349 0.22328399916790689 0 -0.44192508753596349 0.22328399916790689 0 -0.44062222049055039 0.24203477259657111 0 -0.43146145522804691 0.2313120115293863 0 -0.45620465585954723 0.2251951411450015 0 -0.44062222049055039 0.24203477259657111 0 -0.45620465585954723 0.2251951411450015 0 -0.44192508753596349 0.22328399916790689 0 -0.44062222049055039 0.24203477259657111 0 -0.44062222049055039 0.24203477259657111 0 -0.45046339488490522 0.249057113070103 0 -0.44442574262614493 0.25832327296872359 0 -0.44062222049055039 0.24203477259657111 0 -0.45046339488490522 0.249057113070103 0 -0.45925329591452863 0.2407771106774913 0 -0.45620465585954723 0.2251951411450015 0 -0.44062222049055039 0.24203477259657111 0 -0.45925329591452863 0.2407771106774913 0 -0.45046339488490522 0.249057113070103 0 -0.45925329591452863 0.2407771106774913 0 -0.45807104112411212 0.25534721177055669 0 -0.45925329591452863 0.2407771106774913 0 -0.46938038244821267 0.25133041049185839 0 -0.45807104112411212 0.25534721177055669 0 -0.47315400564016008 0.2364435414805684 0 -0.45925329591452863 0.2407771106774913 0 -0.46938038244821267 0.25133041049185839 0 -0.4198454647722451 0.23985190764030939 0 -0.40081965837488509 0.24074316727492401 0 -0.40585136056822319 0.25674789398696107 0 -0.4198454647722451 0.23985190764030939 0 -0.405480724964072 0.22581663549259839 0 -0.40081965837488509 0.24074316727492401 0 -0.44062222049055039 0.24203477259657111 0 -0.4198454647722451 0.23985190764030939 0 -0.42503978512155383 0.25887440404814072 0 -0.44062222049055039 0.24203477259657111 0 -0.4198454647722451 0.23985190764030939 0 -0.43146145522804691 0.2313120115293863 0 -0.4198454647722451 0.23985190764030939 0 -0.43146145522804691 0.2313120115293863 0 -0.42370673975344808 0.22056464269113771 0 -0.44192508753596349 0.22328399916790689 0 -0.43146145522804691 0.2313120115293863 0 -0.42370673975344808 0.22056464269113771 0 -0.4198454647722451 0.23985190764030939 0 -0.42370673975344808 0.22056464269113771 0 -0.405480724964072 0.22581663549259839 0 -0.42370673975344808 0.22056464269113771 0 -0.40708390191205951 0.20882890034131879 0 -0.405480724964072 0.22581663549259839 0 -0.42370673975344808 0.22056464269113771 0 -0.40708390191205951 0.20882890034131879 0 -0.42107335870595469 0.2022269477122331 0 -0.44192508753596349 0.22328399916790689 0 -0.42370673975344808 0.22056464269113771 0 -0.43516662619925378 0.20614333559983469 0 -0.42370673975344808 0.22056464269113771 0 -0.43516662619925378 0.20614333559983469 0 -0.42107335870595469 0.2022269477122331 0 -0.43516662619925378 0.20614333559983469 0 -0.4284081648625454 0.1890026720317621 0 -0.42107335870595469 0.2022269477122331 0 -0.43516662619925378 0.20614333559983469 0 -0.4284081648625454 0.1890026720317621 0 -0.4284081648625454 0.1890026720317621 0 -0.40915969581062839 0.19342315750049971 0 -0.4284081648625454 0.1890026720317621 0 -0.42107335870595469 0.2022269477122331 0 -0.40915969581062839 0.19342315750049971 0 -0.40708390191205951 0.20882890034131879 0 -0.42107335870595469 0.2022269477122331 0 -0.40915969581062839 0.19342315750049971 0 -0.40708390191205951 0.20882890034131879 0 -0.40915969581062839 0.19342315750049971 0 -0.38991122675871148 0.19784364296923759 0 -0.40915969581062839 0.19342315750049971 0 -0.38991122675871148 0.19784364296923759 0 -0.40915969581062839 0.19342315750049971 0 -0.38991122675871148 0.19784364296923759 0 -0.39569501158598158 0.17813944679546001 0 -0.39158905321283283 0.2136173787495643 0 -0.38435338999826391 0.22831720607051781 0 -0.36414166766971379 0.2074649771098355 0 -0.38991122675871148 0.19784364296923759 0 -0.39158905321283283 0.2136173787495643 0 -0.36414166766971379 0.2074649771098355 0 -0.40708390191205951 0.20882890034131879 0 -0.39158905321283283 0.2136173787495643 0 -0.405480724964072 0.22581663549259839 0 -0.40708390191205951 0.20882890034131879 0 -0.38991122675871148 0.19784364296923759 0 -0.39158905321283283 0.2136173787495643 0 -0.405480724964072 0.22581663549259839 0 -0.38435338999826391 0.22831720607051781 0 -0.40081965837488509 0.24074316727492401 0 -0.39158905321283283 0.2136173787495643 0 -0.405480724964072 0.22581663549259839 0 -0.38435338999826391 0.22831720607051781 0 -0.37619177155740557 0.24036243622333081 0 -0.38790582398472923 0.24962922847932231 0 -0.36318679658289171 0.25196182354824148 0 -0.38435338999826391 0.22831720607051781 0 -0.37619177155740557 0.24036243622333081 0 -0.38790582398472923 0.24962922847932231 0 -0.38435338999826391 0.22831720607051781 0 -0.38790582398472923 0.24962922847932231 0 -0.40081965837488509 0.24074316727492401 0 -0.38790582398472923 0.24962922847932231 0 -0.40081965837488509 0.24074316727492401 0 -0.40585136056822319 0.25674789398696107 0 -0.40926453963391513 0.14045102348790381 0 -0.42614672387873248 0.14526589422012931 0 -0.41883635224822963 0.16472684775983329 0 -0.40926453963391513 0.14045102348790381 0 -0.41883635224822963 0.16472684775983329 0 -0.40926453963391513 0.14045102348790381 0 -0.41883635224822963 0.16472684775983329 0 -0.40029434983296169 0.15790366282291429 0 -0.40926453963391513 0.14045102348790381 0 -0.417579207348795 0.13056668242546571 0 -0.40026410281127539 0.13237877311027449 0 -0.40926453963391513 0.14045102348790381 0 -0.417579207348795 0.13056668242546571 0 -0.42614672387873248 0.14526589422012931 0 -0.417579207348795 0.13056668242546571 0 -0.43293323699752101 0.1317554923945817 0 -0.42614672387873248 0.14526589422012931 0 -0.42608096723388439 0.1205091241492761 0 -0.417579207348795 0.13056668242546571 0 -0.43293323699752101 0.1317554923945817 0 -0.43796764784210812 0.14528805014891141 0 -0.43293323699752101 0.1317554923945817 0 -0.42614672387873248 0.14526589422012931 0 -0.43892522612619872 0.15930650560997939 0 -0.43796764784210812 0.14528805014891141 0 -0.42614672387873248 0.14526589422012931 0 -0.43892522612619872 0.15930650560997939 0 -0.42614672387873248 0.14526589422012931 0 -0.41883635224822963 0.16472684775983329 0 -0.43992511097516529 0.17411109905454999 0 -0.43892522612619872 0.15930650560997939 0 -0.41883635224822963 0.16472684775983329 0 -0.4284081648625454 0.1890026720317621 0 -0.41883635224822963 0.16472684775983329 0 -0.43992511097516529 0.17411109905454999 0 -0.4284081648625454 0.1890026720317621 0 -0.41883635224822963 0.16472684775983329 0 -0.40915969581062839 0.19342315750049971 0 -0.41883635224822963 0.16472684775983329 0 -0.39569501158598158 0.17813944679546001 0 -0.4284081648625454 0.1890026720317621 0 -0.40915969581062839 0.19342315750049971 0 -0.41883635224822963 0.16472684775983329 0 -0.40029434983296169 0.15790366282291429 0 -0.39569501158598158 0.17813944679546001 0 -0.38484252596519369 0.16167484958157691 0 -0.41883635224822963 0.16472684775983329 0 -0.40029434983296169 0.15790366282291429 0 -0.39569501158598158 0.17813944679546001 0 -0.39569501158598158 0.17813944679546001 0 -0.38484252596519369 0.16167484958157691 0 -0.36525228834216061 0.17922160577889321 0 -0.38991122675871148 0.19784364296923759 0 -0.39569501158598158 0.17813944679546001 0 -0.36525228834216061 0.17922160577889321 0 -0.39283331973148827 0.14452614648979731 0 -0.38372255811484618 0.13025780258704611 0 -0.36636290901460722 0.1509782344479508 0 -0.38484252596519369 0.16167484958157691 0 -0.39283331973148827 0.14452614648979731 0 -0.36636290901460722 0.1509782344479508 0 -0.40029434983296169 0.15790366282291429 0 -0.38484252596519369 0.16167484958157691 0 -0.39283331973148827 0.14452614648979731 0 -0.40926453963391513 0.14045102348790381 0 -0.40029434983296169 0.15790366282291429 0 -0.39283331973148827 0.14452614648979731 0 -0.39283331973148827 0.14452614648979731 0 -0.40026410281127539 0.13237877311027449 0 -0.38372255811484618 0.13025780258704611 0 -0.39792088922733271 0.1160922105611595 0 -0.417579207348795 0.13056668242546571 0 -0.40026410281127539 0.13237877311027449 0 -0.39792088922733271 0.1160922105611595 0 -0.40026410281127539 0.13237877311027449 0 -0.38372255811484618 0.13025780258704611 0 -0.40926453963391513 0.14045102348790381 0 -0.39283331973148827 0.14452614648979731 0 -0.40026410281127539 0.13237877311027449 0 -0.38372255811484618 0.13025780258704611 0 -0.36636290901460722 0.1509782344479508 0 -0.36747352968705388 0.12273486311700831 0 -0.36636290901460722 0.1509782344479508 0 -0.36747352968705388 0.12273486311700831 0 -0.35528769071996391 0.12689780186549679 0 -0.36636290901460722 0.1509782344479508 0 -0.36747352968705388 0.12273486311700831 0 -0.35528769071996391 0.12689780186549679 0 -0.33512599087492562 0.1447950320020088 0 -0.35528769071996391 0.12689780186549679 0 -0.35168351666373848 0.14314256241625531 0 -0.33512599087492562 0.1447950320020088 0 -0.35528769071996391 0.12689780186549679 0 -0.33512599087492562 0.1447950320020088 0 -0.34115039425197219 0.12498493974687711 0 -0.35528769071996391 0.12689780186549679 0 -0.35168351666373848 0.14314256241625531 0 -0.36636290901460722 0.1509782344479508 0 -0.35168351666373848 0.14314256241625531 0 -0.36636290901460722 0.1509782344479508 0 -0.34333519974196419 0.16612441953572921 0 -0.38484252596519369 0.16167484958157691 0 -0.36636290901460722 0.1509782344479508 0 -0.36525228834216061 0.17922160577889321 0 -0.36636290901460722 0.1509782344479508 0 -0.36525228834216061 0.17922160577889321 0 -0.36525228834216061 0.17922160577889321 0 -0.34333519974196419 0.16612441953572921 0 -0.34654591437965571 0.19533490523866279 0 -0.36636290901460722 0.1509782344479508 0 -0.36525228834216061 0.17922160577889321 0 -0.34333519974196419 0.16612441953572921 0 -0.34333519974196419 0.16612441953572921 0 -0.31496429102988749 0.16269226213852109 0 -0.33512599087492562 0.1447950320020088 0 -0.34333519974196419 0.16612441953572921 0 -0.34654591437965571 0.19533490523866279 0 -0.32412519241006588 0.1878495682783011 0 -0.31496429102988749 0.16269226213852109 0 -0.32412519241006588 0.1878495682783011 0 -0.34333519974196419 0.16612441953572921 0 -0.31496429102988749 0.16269226213852109 0 -0.32412519241006588 0.1878495682783011 0 -0.31303823693556859 0.17707572181323081 0 -0.31496429102988749 0.16269226213852109 0 -0.32412519241006588 0.1878495682783011 0 -0.31303823693556859 0.17707572181323081 0 -0.32412519241006588 0.1878495682783011 0 -0.3108046026399135 0.18379038091696129 0 -0.31496429102988749 0.16269226213852109 0 -0.31353256245119709 0.1587605055712967 0 -0.31354631638020197 0.13395604467094269 0 -0.33512599087492562 0.1447950320020088 0 -0.3122891553291075 0.14635758184588041 0 -0.31353256245119709 0.1587605055712967 0 -0.33512599087492562 0.1447950320020088 0 -0.3122891553291075 0.14635758184588041 0 -0.31496429102988749 0.16269226213852109 0 -0.31353256245119709 0.1587605055712967 0 -0.33512599087492562 0.1447950320020088 0 -0.31496429102988749 0.16269226213852109 0 -0.33512599087492562 0.1447950320020088 0 -0.31354631638020197 0.13395604467094269 0 -0.32917568526667751 0.12578156900391591 0 -0.33512599087492562 0.1447950320020088 0 -0.31354631638020197 0.13395604467094269 0 -0.32917568526667751 0.12578156900391591 0 -0.32114709127587232 0.11611322513389059 0 -0.32917568526667751 0.12578156900391591 0 -0.33512599087492562 0.1447950320020088 0 -0.34115039425197219 0.12498493974687711 0 -0.35168351666373848 0.14314256241625531 0 -0.34333519974196419 0.16612441953572921 0 -0.33512599087492562 0.1447950320020088 0 -0.36303104699726713 0.23570834844077809 0 -0.34244699517042121 0.23816418055786151 0 -0.36318679658289171 0.25196182354824148 0 -0.34244699517042121 0.23816418055786151 0 -0.36318679658289171 0.25196182354824148 0 -0.33952374355129727 0.25899057541505788 0 -0.37619177155740557 0.24036243622333081 0 -0.36303104699726713 0.23570834844077809 0 -0.36318679658289171 0.25196182354824148 0 -0.38435338999826391 0.22831720607051781 0 -0.37619177155740557 0.24036243622333081 0 -0.36303104699726713 0.23570834844077809 0 -0.38435338999826391 0.22831720607051781 0 -0.36303104699726713 0.23570834844077809 0 -0.36414166766971379 0.2074649771098355 0 -0.36303104699726713 0.23570834844077809 0 -0.36414166766971379 0.2074649771098355 0 -0.36303104699726713 0.23570834844077809 0 -0.35084793517488477 0.2210857468323085 0 -0.34244699517042121 0.23816418055786151 0 -0.36303104699726713 0.23570834844077809 0 -0.35084793517488477 0.2210857468323085 0 -0.36414166766971379 0.2074649771098355 0 -0.35084793517488477 0.2210857468323085 0 -0.36414166766971379 0.2074649771098355 0 -0.34654591437965571 0.19533490523866279 0 -0.36525228834216061 0.17922160577889321 0 -0.36414166766971379 0.2074649771098355 0 -0.38991122675871148 0.19784364296923759 0 -0.36525228834216061 0.17922160577889321 0 -0.36414166766971379 0.2074649771098355 0 -0.36525228834216061 0.17922160577889321 0 -0.36414166766971379 0.2074649771098355 0 -0.34654591437965571 0.19533490523866279 0 -0.32412519241006588 0.1878495682783011 0 -0.33328609379024349 0.2130068744180813 0 -0.34654591437965571 0.19533490523866279 0 -0.32412519241006588 0.1878495682783011 0 -0.33328609379024349 0.2130068744180813 0 -0.32412519241006588 0.1878495682783011 0 -0.33328609379024349 0.2130068744180813 0 -0.31080006153106382 0.20197173666100501 0 -0.32412519241006588 0.1878495682783011 0 -0.31080006153106382 0.20197173666100501 0 -0.3108046026399135 0.18379038091696129 0 -0.33328609379024349 0.2130068744180813 0 -0.31873218963182409 0.22654972870499029 0 -0.31080006153106382 0.20197173666100501 0 -0.35084793517488477 0.2210857468323085 0 -0.34654591437965571 0.19533490523866279 0 -0.33328609379024349 0.2130068744180813 0 -0.35084793517488477 0.2210857468323085 0 -0.33328609379024349 0.2130068744180813 0 -0.34244699517042121 0.23816418055786151 0 -0.33328609379024349 0.2130068744180813 0 -0.34244699517042121 0.23816418055786151 0 -0.33328609379024349 0.2130068744180813 0 -0.31873218963182409 0.22654972870499029 0 -0.34244699517042121 0.23816418055786151 0 -0.31873218963182409 0.22654972870499029 0 -0.32200613725511351 0.24850726385495631 0 -0.34244699517042121 0.23816418055786151 0 -0.31873218963182409 0.22654972870499029 0 -0.32200613725511351 0.24850726385495631 0 -0.30672251365844311 0.23743048015470111 0 -0.32200613725511351 0.24850726385495631 0 -0.34244699517042121 0.23816418055786151 0 -0.33952374355129727 0.25899057541505788 0 -0.29125564533142001 0.24067530578368901 0 -0.30672251365844311 0.23743048015470111 0 -0.30640548876467488 0.25787073169030861 0 -0.32200613725511351 0.24850726385495631 0 -0.30672251365844311 0.23743048015470111 0 -0.30640548876467488 0.25787073169030861 0 -0.29125564533142001 0.24067530578368901 0 -0.30672251365844311 0.23743048015470111 0 -0.29521310730918271 0.21354937073956171 0 -0.31873218963182409 0.22654972870499029 0 -0.30672251365844311 0.23743048015470111 0 -0.29521310730918271 0.21354937073956171 0 -0.29125564533142001 0.24067530578368901 0 -0.29521310730918271 0.21354937073956171 0 -0.29125564533142001 0.24067530578368901 0 -0.29521310730918271 0.21354937073956171 0 -0.27258595833473342 0.22149207507906341 0 -0.29521310730918271 0.21354937073956171 0 -0.28878760701375322 0.1984352968903606 0 -0.27490594785389072 0.20112241201531189 0 -0.31873218963182409 0.22654972870499029 0 -0.29521310730918271 0.21354937073956171 0 -0.31080006153106382 0.20197173666100501 0 -0.29521310730918271 0.21354937073956171 0 -0.29917056928694541 0.1864234356954344 0 -0.29521310730918271 0.21354937073956171 0 -0.31080006153106382 0.20197173666100501 0 -0.29917056928694541 0.1864234356954344 0 -0.31080006153106382 0.20197173666100501 0 -0.3108046026399135 0.18379038091696129 0 -0.29917056928694541 0.1864234356954344 0 -0.28878760701375322 0.1984352968903606 0 -0.29917056928694541 0.1864234356954344 0 -0.28955343229492791 0.1852490896997587 0 -0.29521310730918271 0.21354937073956171 0 -0.28878760701375322 0.1984352968903606 0 -0.29917056928694541 0.1864234356954344 0 -0.28878760701375322 0.1984352968903606 0 -0.27938784373491388 0.18917199981814359 0 -0.28955343229492791 0.1852490896997587 0 -0.27938784373491388 0.18917199981814359 0 -0.27490594785389072 0.20112241201531189 0 -0.26439180367967152 0.18225540552070321 0 -0.28878760701375322 0.1984352968903606 0 -0.27938784373491388 0.18917199981814359 0 -0.27490594785389072 0.20112241201531189 0 -0.27490594785389072 0.20112241201531189 0 -0.25370102580463139 0.2052288024824625 0 -0.26439180367967152 0.18225540552070321 0 -0.25370102580463139 0.2052288024824625 0 -0.26439180367967152 0.18225540552070321 0 -0.23359887481107691 0.1809086922627815 0 -0.27490594785389072 0.20112241201531189 0 -0.25370102580463139 0.2052288024824625 0 -0.27258595833473342 0.22149207507906341 0 -0.29521310730918271 0.21354937073956171 0 -0.27490594785389072 0.20112241201531189 0 -0.27258595833473342 0.22149207507906341 0 -0.29125564533142001 0.24067530578368901 0 -0.27258595833473342 0.22149207507906341 0 -0.26834113505385238 0.23837358332174549 0 -0.27258595833473342 0.22149207507906341 0 -0.25272375818517617 0.22994970808158929 0 -0.26834113505385238 0.23837358332174549 0 -0.25370102580463139 0.2052288024824625 0 -0.27258595833473342 0.22149207507906341 0 -0.25272375818517617 0.22994970808158929 0 -0.25272375818517617 0.22994970808158929 0 -0.25621817608628389 0.2460965770837312 0 -0.26834113505385238 0.23837358332174549 0 -0.25621817608628389 0.2460965770837312 0 -0.26834113505385238 0.23837358332174549 0 -0.26892213733164849 0.25365425058065472 0 -0.29125564533142001 0.24067530578368901 0 -0.26834113505385238 0.23837358332174549 0 -0.26892213733164849 0.25365425058065472 0 -0.29370567785695612 0.15770531643225719 0 -0.28412418886142132 0.16518528890623771 0 -0.28065913062351988 0.14575155473079041 0 -0.30159211447790629 0.14759241864651959 0 -0.29370567785695612 0.15770531643225719 0 -0.28065913062351988 0.14575155473079041 0 -0.29682817834931757 0.13068013418198679 0 -0.30159211447790629 0.14759241864651959 0 -0.28065913062351988 0.14575155473079041 0 -0.29682817834931757 0.13068013418198679 0 -0.28065913062351988 0.14575155473079041 0 -0.28285123447775751 0.1183560919224374 0 -0.31354631638020197 0.13395604467094269 0 -0.29682817834931757 0.13068013418198679 0 -0.30159211447790629 0.14759241864651959 0 -0.31354631638020197 0.13395604467094269 0 -0.3122891553291075 0.14635758184588041 0 -0.30159211447790629 0.14759241864651959 0 -0.31353256245119709 0.1587605055712967 0 -0.3122891553291075 0.14635758184588041 0 -0.30159211447790629 0.14759241864651959 0 -0.31496429102988749 0.16269226213852109 0 -0.31353256245119709 0.1587605055712967 0 -0.30488677357152572 0.1641353808659653 0 -0.30159211447790629 0.14759241864651959 0 -0.30488677357152572 0.1641353808659653 0 -0.29370567785695612 0.15770531643225719 0 -0.31353256245119709 0.1587605055712967 0 -0.30159211447790629 0.14759241864651959 0 -0.30488677357152572 0.1641353808659653 0 -0.31496429102988749 0.16269226213852109 0 -0.30225886166240762 0.17397067591913981 0 -0.31303823693556859 0.17707572181323081 0 -0.31496429102988749 0.16269226213852109 0 -0.30225886166240762 0.17397067591913981 0 -0.31496429102988749 0.16269226213852109 0 -0.30488677357152572 0.1641353808659653 0 -0.30225886166240762 0.17397067591913981 0 -0.30488677357152572 0.1641353808659653 0 -0.30225886166240762 0.17397067591913981 0 -0.29597535979189887 0.1670989905046398 0 -0.30488677357152572 0.1641353808659653 0 -0.29370567785695612 0.15770531643225719 0 -0.29597535979189887 0.1670989905046398 0 -0.31303823693556859 0.17707572181323081 0 -0.3108046026399135 0.18379038091696129 0 -0.30225886166240762 0.17397067591913981 0 -0.30225886166240762 0.17397067591913981 0 -0.29917056928694541 0.1864234356954344 0 -0.28955343229492791 0.1852490896997587 0 -0.3108046026399135 0.18379038091696129 0 -0.30225886166240762 0.17397067591913981 0 -0.29917056928694541 0.1864234356954344 0 -0.30225886166240762 0.17397067591913981 0 -0.28955343229492791 0.1852490896997587 0 -0.30225886166240762 0.17397067591913981 0 -0.28955343229492791 0.1852490896997587 0 -0.29024545837739651 0.173916500811098 0 -0.28955343229492791 0.1852490896997587 0 -0.29024545837739651 0.173916500811098 0 -0.27889874324695868 0.17762520371433099 0 -0.29024545837739651 0.173916500811098 0 -0.28412418886142132 0.16518528890623771 0 -0.27889874324695868 0.17762520371433099 0 -0.27938784373491388 0.18917199981814359 0 -0.28955343229492791 0.1852490896997587 0 -0.27889874324695868 0.17762520371433099 0 -0.29370567785695612 0.15770531643225719 0 -0.29597535979189887 0.1670989905046398 0 -0.28412418886142132 0.16518528890623771 0 -0.30225886166240762 0.17397067591913981 0 -0.29024545837739651 0.173916500811098 0 -0.29597535979189887 0.1670989905046398 0 -0.29024545837739651 0.173916500811098 0 -0.29597535979189887 0.1670989905046398 0 -0.28412418886142132 0.16518528890623771 0 -0.28412418886142132 0.16518528890623771 0 -0.26844272787379447 0.16268744982768751 0 -0.27889874324695868 0.17762520371433099 0 -0.28412418886142132 0.16518528890623771 0 -0.26844272787379447 0.16268744982768751 0 -0.28065913062351988 0.14575155473079041 0 -0.26844272787379447 0.16268744982768751 0 -0.27889874324695868 0.17762520371433099 0 -0.26439180367967152 0.18225540552070321 0 -0.27938784373491388 0.18917199981814359 0 -0.27889874324695868 0.17762520371433099 0 -0.26439180367967152 0.18225540552070321 0 -0.26844272787379447 0.16268744982768751 0 -0.26439180367967152 0.18225540552070321 0 -0.247018622616726 0.15992587597476091 0 -0.26844272787379447 0.16268744982768751 0 -0.25846103874104392 0.14702121199507179 0 -0.247018622616726 0.15992587597476091 0 -0.26844272787379447 0.16268744982768751 0 -0.25846103874104392 0.14702121199507179 0 -0.28065913062351988 0.14575155473079041 0 -0.25846103874104392 0.14702121199507179 0 -0.28065913062351988 0.14575155473079041 0 -0.25922316449870308 0.12628093809151891 0 -0.28065913062351988 0.14575155473079041 0 -0.25922316449870308 0.12628093809151891 0 -0.28285123447775751 0.1183560919224374 0 -0.25846103874104392 0.14702121199507179 0 -0.25922316449870308 0.12628093809151891 0 -0.2369615480924761 0.1404602413506009 0 -0.25922316449870308 0.12628093809151891 0 -0.25136603029008331 0.1103208693098497 0 -0.26687835675477128 0.1014348965859585 0 -0.25136603029008331 0.1103208693098497 0 -0.26687835675477128 0.1014348965859585 0 -0.24377998071086901 0.096378574065869249 0 -0.26687835675477128 0.1014348965859585 0 -0.28737892951993471 0.098967158637655914 0 -0.27569457229827071 0.081243623470509244 0 -0.26687835675477128 0.1014348965859585 0 -0.28285123447775751 0.1183560919224374 0 -0.28737892951993471 0.098967158637655914 0 -0.25922316449870308 0.12628093809151891 0 -0.26687835675477128 0.1014348965859585 0 -0.28285123447775751 0.1183560919224374 0 -0.29682817834931757 0.13068013418198679 0 -0.28285123447775751 0.1183560919224374 0 -0.30549209578720232 0.10774456093924389 0 -0.28285123447775751 0.1183560919224374 0 -0.28737892951993471 0.098967158637655914 0 -0.30549209578720232 0.10774456093924389 0 -0.28737892951993471 0.098967158637655914 0 -0.30549209578720232 0.10774456093924389 0 -0.29743787519420251 0.08153307720754506 0 -0.30549209578720232 0.10774456093924389 0 -0.29743787519420251 0.08153307720754506 0 -0.31354631638020197 0.13395604467094269 0 -0.29682817834931757 0.13068013418198679 0 -0.30549209578720232 0.10774456093924389 0 -0.31354631638020197 0.13395604467094269 0 -0.30549209578720232 0.10774456093924389 0 -0.29926204670725021 0.066629363318123747 0 -0.30931237829482389 0.073252958087475881 0 -0.31697319293959142 0.061410437985649477 0 -0.29926204670725021 0.066629363318123747 0 -0.30931237829482389 0.073252958087475881 0 -0.29743787519420251 0.08153307720754506 0 -0.30549209578720232 0.10774456093924389 0 -0.29743787519420251 0.08153307720754506 0 -0.31312795334666071 0.083579729522452809 0 -0.30931237829482389 0.073252958087475881 0 -0.29743787519420251 0.08153307720754506 0 -0.31312795334666071 0.083579729522452809 0 -0.28737892951993471 0.098967158637655914 0 -0.29743787519420251 0.08153307720754506 0 -0.27569457229827071 0.081243623470509244 0 -0.29743787519420251 0.08153307720754506 0 -0.28743776060402371 0.060458689408765323 0 -0.28938365460120269 0.05532159347584624 0 -0.29743787519420251 0.08153307720754506 0 -0.28938365460120269 0.05532159347584624 0 -0.29926204670725021 0.066629363318123747 0 -0.29743787519420251 0.08153307720754506 0 -0.28938365460120269 0.05532159347584624 0 -0.29743787519420251 0.08153307720754506 0 -0.27569457229827071 0.081243623470509244 0 -0.28743776060402371 0.060458689408765323 0 -0.27569457229827071 0.081243623470509244 0 -0.26257114212692878 0.06573449919026883 0 -0.28743776060402371 0.060458689408765323 0 -0.26257114212692878 0.06573449919026883 0 -0.28743776060402371 0.060458689408765323 0 -0.26687835675477128 0.1014348965859585 0 -0.25261226255175379 0.080423606239198905 0 -0.24377998071086901 0.096378574065869249 0 -0.26687835675477128 0.1014348965859585 0 -0.27569457229827071 0.081243623470509244 0 -0.25261226255175379 0.080423606239198905 0 -0.26257114212692878 0.06573449919026883 0 -0.23770452364983391 0.071010308971772351 0 -0.25261226255175379 0.080423606239198905 0 -0.26257114212692878 0.06573449919026883 0 -0.23770452364983391 0.071010308971772351 0 -0.27569457229827071 0.081243623470509244 0 -0.25261226255175379 0.080423606239198905 0 -0.26257114212692878 0.06573449919026883 0 -0.2522816967992324 0.037264740289820159 0 -0.27263172987273521 0.051913181220590639 0 -0.24906194248509719 0.058488871325365822 0 -0.26257114212692878 0.06573449919026883 0 -0.27263172987273521 0.051913181220590639 0 -0.24906194248509719 0.058488871325365822 0 -0.2522816967992324 0.037264740289820159 0 -0.2684979789729644 0.03593820420606865 0 -0.27263172987273521 0.051913181220590639 0 -0.2684979789729644 0.03593820420606865 0 -0.27263172987273521 0.051913181220590639 0 -0.28132943400820298 0.02911010974414751 0 -0.27263172987273521 0.051913181220590639 0 -0.28132943400820298 0.02911010974414751 0 -0.28938365460120269 0.05532159347584624 0 -0.26257114212692878 0.06573449919026883 0 -0.27263172987273521 0.051913181220590639 0 -0.28743776060402371 0.060458689408765323 0 -0.25267499080189931 -0.0034516002120552492 0 -0.26909988492935111 -0.0018655285383734981 0 -0.25157722050270093 0.012682655753942951 0 -0.26909988492935111 -0.0018655285383734981 0 -0.25157722050270093 0.012682655753942951 0 -0.27200359261247947 0.017754051058092819 0 -0.2522816967992324 0.037264740289820159 0 -0.25157722050270093 0.012682655753942951 0 -0.27200359261247947 0.017754051058092819 0 -0.2522816967992324 0.037264740289820159 0 -0.2684979789729644 0.03593820420606865 0 -0.27200359261247947 0.017754051058092819 0 -0.2522816967992324 0.037264740289820159 0 -0.27200359261247947 0.017754051058092819 0 -0.27200359261247947 0.017754051058092819 0 -0.28831373269731447 0.017122983851404761 0 -0.28132943400820298 0.02911010974414751 0 -0.2684979789729644 0.03593820420606865 0 -0.27200359261247947 0.017754051058092819 0 -0.28132943400820298 0.02911010974414751 0 -0.26909988492935111 -0.0018655285383734981 0 -0.2917254884257266 -0.0017566381736345419 0 -0.27200359261247947 0.017754051058092819 0 -0.2917254884257266 -0.0017566381736345419 0 -0.27200359261247947 0.017754051058092819 0 -0.28831373269731447 0.017122983851404761 0 -0.2917254884257266 -0.0017566381736345419 0 -0.28831373269731447 0.017122983851404761 0 -0.29997880334656019 0.01439552450637107 0 -0.2917254884257266 -0.0017566381736345419 0 -0.27200359261247947 0.017754051058092819 0 -0.28831373269731447 0.017122983851404761 0 -0.29656482898857922 0.02610767777843559 0 -0.29997880334656019 0.01439552450637107 0 -0.28831373269731447 0.017122983851404761 0 -0.28132943400820298 0.02911010974414751 0 -0.29656482898857922 0.02610767777843559 0 -0.28132943400820298 0.02911010974414751 0 -0.29656482898857922 0.02610767777843559 0 -0.29344050585463782 0.03493273697686209 0 -0.29656482898857922 0.02610767777843559 0 -0.31039051656375261 0.022327184027059441 0 -0.30541723396373921 0.038711125382435783 0 -0.31039051656375261 0.022327184027059441 0 -0.30541723396373921 0.038711125382435783 0 -0.32038394146944787 0.031620215762440292 0 -0.29656482898857922 0.02610767777843559 0 -0.31039051656375261 0.022327184027059441 0 -0.29997880334656019 0.01439552450637107 0 -0.31039051656375261 0.022327184027059441 0 -0.31177688145040278 0.0050359958776742568 0 -0.29997880334656019 0.01439552450637107 0 -0.2917254884257266 -0.0017566381736345419 0 -0.31177688145040278 0.0050359958776742568 0 -0.29997880334656019 0.01439552450637107 0 -0.27263172987273521 0.051913181220590639 0 -0.28743776060402371 0.060458689408765323 0 -0.28938365460120269 0.05532159347584624 0 -0.28938365460120269 0.05532159347584624 0 -0.29045052645802971 0.045802035002429492 0 -0.29738278035354182 0.050541329601553678 0 -0.28938365460120269 0.05532159347584624 0 -0.29738278035354182 0.050541329601553678 0 -0.29780899910201009 0.056562827273038227 0 -0.29926204670725021 0.066629363318123747 0 -0.28938365460120269 0.05532159347584624 0 -0.29780899910201009 0.056562827273038227 0 -0.28132943400820298 0.02911010974414751 0 -0.28938365460120269 0.05532159347584624 0 -0.29045052645802971 0.045802035002429492 0 -0.28132943400820298 0.02911010974414751 0 -0.28938365460120269 0.05532159347584624 0 -0.28132943400820298 0.02911010974414751 0 -0.29344050585463782 0.03493273697686209 0 -0.29045052645802971 0.045802035002429492 0 -0.29344050585463782 0.03493273697686209 0 -0.29045052645802971 0.045802035002429492 0 -0.30541723396373921 0.038711125382435783 0 -0.29045052645802971 0.045802035002429492 0 -0.30541723396373921 0.038711125382435783 0 -0.29738278035354182 0.050541329601553678 0 -0.29045052645802971 0.045802035002429492 0 -0.30541723396373921 0.038711125382435783 0 -0.29656482898857922 0.02610767777843559 0 -0.29344050585463782 0.03493273697686209 0 -0.30541723396373921 0.038711125382435783 0 -0.30541723396373921 0.038711125382435783 0 -0.30520751474604563 0.05375902269662923 0 -0.31780711793698518 0.045521831715634557 0 -0.29926204670725021 0.066629363318123747 0 -0.30520751474604563 0.05375902269662923 0 -0.31697319293959142 0.061410437985649477 0 -0.30541723396373921 0.038711125382435783 0 -0.30520751474604563 0.05375902269662923 0 -0.29738278035354182 0.050541329601553678 0 -0.30520751474604563 0.05375902269662923 0 -0.29738278035354182 0.050541329601553678 0 -0.29780899910201009 0.056562827273038227 0 -0.29926204670725021 0.066629363318123747 0 -0.30520751474604563 0.05375902269662923 0 -0.29780899910201009 0.056562827273038227 0 -0.32553678940662539 0.052415823907368687 0 -0.31780711793698518 0.045521831715634557 0 -0.33422422494732851 0.04449049745268327 0 -0.31697319293959142 0.061410437985649477 0 -0.32553678940662539 0.052415823907368687 0 -0.31780711793698518 0.045521831715634557 0 -0.30520751474604563 0.05375902269662923 0 -0.31697319293959142 0.061410437985649477 0 -0.31780711793698518 0.045521831715634557 0 -0.31697319293959142 0.061410437985649477 0 -0.32808937753058609 0.059947696530402161 0 -0.32553678940662539 0.052415823907368687 0 -0.31780711793698518 0.045521831715634557 0 -0.32038394146944787 0.031620215762440292 0 -0.33422422494732851 0.04449049745268327 0 -0.30541723396373921 0.038711125382435783 0 -0.31780711793698518 0.045521831715634557 0 -0.32038394146944787 0.031620215762440292 0 -0.30541723396373921 0.038711125382435783 0 -0.32038394146944787 0.031620215762440292 0 -0.32038394146944787 0.031620215762440292 0 -0.33422422494732851 0.04449049745268327 0 -0.33422422494732851 0.04449049745268327 0 -0.34051642268078958 0.02208187176518148 0 -0.34924074101412461 0.03711639968071382 0 -0.32038394146944787 0.031620215762440292 0 -0.33422422494732851 0.04449049745268327 0 -0.34051642268078958 0.02208187176518148 0 -0.33422422494732851 0.04449049745268327 0 -0.34715076893326918 0.04673829876922056 0 -0.34924074101412461 0.03711639968071382 0 -0.33422422494732851 0.04449049745268327 0 -0.34806450842520742 0.057360779142928031 0 -0.34715076893326918 0.04673829876922056 0 -0.33422422494732851 0.04449049745268327 0 -0.34806450842520742 0.057360779142928031 0 -0.33422422494732851 0.04449049745268327 0 -0.33482930480244999 0.055095026294593591 0 -0.34806450842520742 0.057360779142928031 0 -0.3407399656121517 0.06083029771636933 0 -0.33482930480244999 0.055095026294593591 0 -0.33440717105718593 0.063083878638897639 0 -0.3407399656121517 0.06083029771636933 0 -0.33482930480244999 0.055095026294593591 0 -0.34806450842520742 0.057360779142928031 0 -0.32808937753058609 0.059947696530402161 0 -0.33482930480244999 0.055095026294593591 0 -0.33440717105718593 0.063083878638897639 0 -0.32808937753058609 0.059947696530402161 0 -0.32553678940662539 0.052415823907368687 0 -0.33482930480244999 0.055095026294593591 0 -0.32553678940662539 0.052415823907368687 0 -0.33422422494732851 0.04449049745268327 0 -0.33482930480244999 0.055095026294593591 0 -0.31039051656375261 0.022327184027059441 0 -0.31177688145040278 0.0050359958776742568 0 -0.3261420213634148 0.01391490981329808 0 -0.32828291010712762 -0.0049346835118845543 0 -0.31177688145040278 0.0050359958776742568 0 -0.3261420213634148 0.01391490981329808 0 -0.31039051656375261 0.022327184027059441 0 -0.32038394146944787 0.031620215762440292 0 -0.3261420213634148 0.01391490981329808 0 -0.31039051656375261 0.022327184027059441 0 -0.32038394146944787 0.031620215762440292 0 -0.32038394146944787 0.031620215762440292 0 -0.34051642268078958 0.02208187176518148 0 -0.32038394146944787 0.031620215762440292 0 -0.3261420213634148 0.01391490981329808 0 -0.34051642268078958 0.02208187176518148 0 -0.3261420213634148 0.01391490981329808 0 -0.34051642268078958 0.02208187176518148 0 -0.34055428987364128 0.0059527955302196532 0 -0.32828291010712762 -0.0049346835118845543 0 -0.3261420213634148 0.01391490981329808 0 -0.34055428987364128 0.0059527955302196532 0 -0.34051642268078958 0.02208187176518148 0 -0.34055428987364128 0.0059527955302196532 0 -0.36064890389212972 0.0125435277679194 0 -0.34718119132474479 -0.01384164818341615 0 -0.34055428987364128 0.0059527955302196532 0 -0.36064890389212972 0.0125435277679194 0 -0.34051642268078958 0.02208187176518148 0 -0.36064890389212972 0.0125435277679194 0 -0.34051642268078958 0.02208187176518148 0 -0.35699945364537122 0.027147445145089769 0 -0.34924074101412461 0.03711639968071382 0 -0.34051642268078958 0.02208187176518148 0 -0.35699945364537122 0.027147445145089769 0 -0.36064890389212972 0.0125435277679194 0 -0.35699945364537122 0.027147445145089769 0 -0.36163302121541668 0.029781402687577421 0 -0.35940737946489582 0.035374977024224222 0 -0.37998819155715241 0.0057865511937031933 0 -0.36738966121720701 0.029980518529024301 0 -0.37123175334181557 0.027162262264614271 0 -0.37998819155715241 0.0057865511937031933 0 -0.36738966121720701 0.029980518529024301 0 -0.3645477689834325 0.020181962352102071 0 -0.37998819155715241 0.0057865511937031933 0 -0.36738966121720701 0.029980518529024301 0 -0.36273559053419291 0.026622670051971411 0 -0.36738966121720701 0.029980518529024301 0 -0.3645477689834325 0.020181962352102071 0 -0.35699945364537122 0.027147445145089769 0 -0.36163302121541668 0.029781402687577421 0 -0.36273559053419291 0.026622670051971411 0 -0.35699945364537122 0.027147445145089769 0 -0.36273559053419291 0.026622670051971411 0 -0.3645477689834325 0.020181962352102071 0 -0.36163302121541668 0.029781402687577421 0 -0.36273559053419291 0.026622670051971411 0 -0.36738966121720701 0.029980518529024301 0 -0.35699945364537122 0.027147445145089769 0 -0.3645477689834325 0.020181962352102071 0 -0.36064890389212972 0.0125435277679194 0 -0.3645477689834325 0.020181962352102071 0 -0.36064890389212972 0.0125435277679194 0 -0.37998819155715241 0.0057865511937031933 0 -0.3645477689834325 0.020181962352102071 0 -0.36064890389212972 0.0125435277679194 0 -0.38683543611469601 0.0001369023841863784 0 -0.36064890389212972 0.0125435277679194 0 -0.37474494217865062 -0.0022388935110706832 0 -0.38683543611469601 0.0001369023841863784 0 -0.36064890389212972 0.0125435277679194 0 -0.37474494217865062 -0.0022388935110706832 0 -0.36307869926690151 -0.00068504054922277494 0 -0.36064890389212972 0.0125435277679194 0 -0.35479113087726238 0.05417448586434577 0 -0.34715076893326918 0.04673829876922056 0 -0.35593663516940488 0.04278932274017315 0 -0.35479113087726238 0.05417448586434577 0 -0.35147867423579721 0.06053566178096708 0 -0.3622197730044176 0.060127746183944272 0 -0.35479113087726238 0.05417448586434577 0 -0.35147867423579721 0.06053566178096708 0 -0.35479113087726238 0.05417448586434577 0 -0.34806450842520742 0.057360779142928031 0 -0.35147867423579721 0.06053566178096708 0 -0.35479113087726238 0.05417448586434577 0 -0.34806450842520742 0.057360779142928031 0 -0.34806450842520742 0.057360779142928031 0 -0.35147867423579721 0.06053566178096708 0 -0.3447014191436914 0.063951910484466787 0 -0.34806450842520742 0.057360779142928031 0 -0.35147867423579721 0.06053566178096708 0 -0.3407399656121517 0.06083029771636933 0 -0.34806450842520742 0.057360779142928031 0 -0.3407399656121517 0.06083029771636933 0 -0.34806450842520742 0.057360779142928031 0 -0.3447014191436914 0.063951910484466787 0 -0.35479113087726238 0.05417448586434577 0 -0.34806450842520742 0.057360779142928031 0 -0.34715076893326918 0.04673829876922056 0 -0.34715076893326918 0.04673829876922056 0 -0.34924074101412461 0.03711639968071382 0 -0.35593663516940488 0.04278932274017315 0 -0.36738966121720701 0.029980518529024301 0 -0.35479113087726238 0.05417448586434577 0 -0.35593663516940488 0.04278932274017315 0 -0.35699945364537122 0.027147445145089769 0 -0.34924074101412461 0.03711639968071382 0 -0.35940737946489582 0.035374977024224222 0 -0.34924074101412461 0.03711639968071382 0 -0.35593663516940488 0.04278932274017315 0 -0.35940737946489582 0.035374977024224222 0 -0.36738966121720701 0.029980518529024301 0 -0.35479113087726238 0.05417448586434577 0 -0.36677646394688163 0.041367990420506082 0 -0.37123175334181557 0.027162262264614271 0 -0.37046143272875132 0.04675171495388801 0 -0.36738966121720701 0.029980518529024301 0 -0.35479113087726238 0.05417448586434577 0 -0.37123175334181557 0.027162262264614271 0 -0.36677646394688163 0.041367990420506082 0 -0.37046143272875132 0.04675171495388801 0 -0.3764786745208083 0.032098692741998169 0 -0.37123175334181557 0.027162262264614271 0 -0.37046143272875132 0.04675171495388801 0 -0.36163302121541668 0.029781402687577421 0 -0.36738966121720701 0.029980518529024301 0 -0.35940737946489582 0.035374977024224222 0 -0.36738966121720701 0.029980518529024301 0 -0.35593663516940488 0.04278932274017315 0 -0.35940737946489582 0.035374977024224222 0 -0.36738966121720701 0.029980518529024301 0 -0.37123175334181557 0.027162262264614271 0 -0.36677646394688163 0.041367990420506082 0 -0.36677646394688163 0.041367990420506082 0 -0.37046143272875132 0.04675171495388801 0 -0.36802302346639398 0.047906750352184523 0 -0.36677646394688163 0.041367990420506082 0 -0.36802302346639398 0.047906750352184523 0 -0.37046143272875132 0.04675171495388801 0 -0.37000681959492809 0.05831264468359916 0 -0.36802302346639398 0.047906750352184523 0 -0.37000681959492809 0.05831264468359916 0 -0.37046143272875132 0.04675171495388801 0 -0.36802302346639398 0.047906750352184523 0 -0.37000681959492809 0.05831264468359916 0 -0.37046143272875132 0.04675171495388801 0 -0.36802302346639398 0.047906750352184523 0 -0.35479113087726238 0.05417448586434577 0 -0.36802302346639398 0.047906750352184523 0 -0.35479113087726238 0.05417448586434577 0 -0.36802302346639398 0.047906750352184523 0 -0.3622197730044176 0.060127746183944272 0 -0.35479113087726238 0.05417448586434577 0 -0.36677646394688163 0.041367990420506082 0 -0.36802302346639398 0.047906750352184523 0 -0.36802302346639398 0.047906750352184523 0 -0.3622197730044176 0.060127746183944272 0 -0.37000681959492809 0.05831264468359916 0 -0.35147867423579721 0.06053566178096708 0 -0.36926886504626422 0.077079019973005369 0 -0.3622197730044176 0.060127746183944272 0 -0.37000681959492809 0.05831264468359916 0 -0.36926886504626422 0.077079019973005369 0 -0.37000681959492809 0.05831264468359916 0 -0.36926886504626422 0.077079019973005369 0 -0.37079498002478778 0.078498176574577722 0 -0.36926886504626422 0.077079019973005369 0 -0.34551673285671652 0.071984855543133663 0 -0.36912013352382872 0.080861301107253064 0 -0.37000681959492809 0.05831264468359916 0 -0.37079498002478778 0.078498176574577722 0 -0.37470600383380392 0.082961959162170973 0 -0.35147867423579721 0.06053566178096708 0 -0.3622197730044176 0.060127746183944272 0 -0.36926886504626422 0.077079019973005369 0 -0.37000681959492809 0.05831264468359916 0 -0.37470600383380392 0.082961959162170973 0 -0.37000681959492809 0.05831264468359916 0 -0.36926886504626422 0.077079019973005369 0 -0.36926886504626422 0.077079019973005369 0 -0.37079498002478778 0.078498176574577722 0 -0.34551673285671652 0.071984855543133663 0 -0.34763839367566191 0.079069075487607554 0 -0.36912013352382872 0.080861301107253064 0 -0.34551673285671652 0.071984855543133663 0 -0.36912013352382872 0.080861301107253064 0 -0.35147867423579721 0.06053566178096708 0 -0.36926886504626422 0.077079019973005369 0 -0.34551673285671652 0.071984855543133663 0 -0.34408269824063842 0.074738747125954852 0 -0.34763839367566191 0.079069075487607554 0 -0.34179116264722731 0.080399472229040897 0 -0.34408269824063842 0.074738747125954852 0 -0.34551673285671652 0.071984855543133663 0 -0.34763839367566191 0.079069075487607554 0 -0.34408269824063842 0.074738747125954852 0 -0.34551673285671652 0.071984855543133663 0 -0.35147867423579721 0.06053566178096708 0 -0.34551673285671652 0.071984855543133663 0 -0.3447014191436914 0.063951910484466787 0 -0.35147867423579721 0.06053566178096708 0 -0.34551673285671652 0.071984855543133663 0 -0.34763839367566191 0.079069075487607554 0 -0.36858415035949882 0.094491491786065696 0 -0.34763839367566191 0.079069075487607554 0 -0.36858415035949882 0.094491491786065696 0 -0.35198293914272999 0.094145145766245733 0 -0.34456144318064219 0.08667329674911145 0 -0.34763839367566191 0.079069075487607554 0 -0.35198293914272999 0.094145145766245733 0 -0.34456144318064219 0.08667329674911145 0 -0.35198293914272999 0.094145145766245733 0 -0.34431035454597703 0.093789606507308373 0 -0.34456144318064219 0.08667329674911145 0 -0.34763839367566191 0.079069075487607554 0 -0.34179116264722731 0.080399472229040897 0 -0.3782625711058698 0.101617738696854 0 -0.37470600383380392 0.082961959162170973 0 -0.36858415035949882 0.094491491786065696 0 -0.34763839367566191 0.079069075487607554 0 -0.36912013352382872 0.080861301107253064 0 -0.36858415035949882 0.094491491786065696 0 -0.36926886504626422 0.077079019973005369 0 -0.37079498002478778 0.078498176574577722 0 -0.36912013352382872 0.080861301107253064 0 -0.36926886504626422 0.077079019973005369 0 -0.36912013352382872 0.080861301107253064 0 -0.36912013352382872 0.080861301107253064 0 -0.37470600383380392 0.082961959162170973 0 -0.37079498002478778 0.078498176574577722 0 -0.36912013352382872 0.080861301107253064 0 -0.37470600383380392 0.082961959162170973 0 -0.36912013352382872 0.080861301107253064 0 -0.37470600383380392 0.082961959162170973 0 -0.36858415035949882 0.094491491786065696 0 -0.36912013352382872 0.080861301107253064 0 -0.36858415035949882 0.094491491786065696 0 -0.36858415035949882 0.094491491786065696 0 -0.36747352968705388 0.12273486311700831 0 -0.3782625711058698 0.101617738696854 0 -0.36858415035949882 0.094491491786065696 0 -0.36858415035949882 0.094491491786065696 0 -0.36006702585218792 0.10838608290929221 0 -0.35198293914272999 0.094145145766245733 0 -0.36858415035949882 0.094491491786065696 0 -0.36006702585218792 0.10838608290929221 0 -0.36747352968705388 0.12273486311700831 0 -0.3782625711058698 0.101617738696854 0 -0.36858415035949882 0.094491491786065696 0 -0.36747352968705388 0.12273486311700831 0 -0.36006702585218792 0.10838608290929221 0 -0.36747352968705388 0.12273486311700831 0 -0.35832203275528268 0.1183511860346923 0 -0.35528769071996391 0.12689780186549679 0 -0.36747352968705388 0.12273486311700831 0 -0.35832203275528268 0.1183511860346923 0 -0.35528769071996391 0.12689780186549679 0 -0.35832203275528268 0.1183511860346923 0 -0.35045988476192508 0.115385996246972 0 -0.36006702585218792 0.10838608290929221 0 -0.35832203275528268 0.1183511860346923 0 -0.35045988476192508 0.115385996246972 0 -0.35045988476192508 0.115385996246972 0 -0.34547580274860562 0.10394098399483009 0 -0.33570271963636877 0.11206429961599181 0 -0.35528769071996391 0.12689780186549679 0 -0.35045988476192508 0.115385996246972 0 -0.34115039425197219 0.12498493974687711 0 -0.36006702585218792 0.10838608290929221 0 -0.35198293914272999 0.094145145766245733 0 -0.34547580274860562 0.10394098399483009 0 -0.36006702585218792 0.10838608290929221 0 -0.35045988476192508 0.115385996246972 0 -0.34547580274860562 0.10394098399483009 0 -0.35198293914272999 0.094145145766245733 0 -0.34547580274860562 0.10394098399483009 0 -0.34431035454597703 0.093789606507308373 0 -0.34547580274860562 0.10394098399483009 0 -0.34431035454597703 0.093789606507308373 0 -0.335413749579693 0.097286071719103154 0 -0.34547580274860562 0.10394098399483009 0 -0.335413749579693 0.097286071719103154 0 -0.33570271963636877 0.11206429961599181 0 -0.335413749579693 0.097286071719103154 0 -0.33570271963636877 0.11206429961599181 0 -0.32444247844199348 0.1047035033472971 0 -0.35045988476192508 0.115385996246972 0 -0.34115039425197219 0.12498493974687711 0 -0.33570271963636877 0.11206429961599181 0 -0.32917568526667751 0.12578156900391591 0 -0.33570271963636877 0.11206429961599181 0 -0.32114709127587232 0.11611322513389059 0 -0.32917568526667751 0.12578156900391591 0 -0.34115039425197219 0.12498493974687711 0 -0.33570271963636877 0.11206429961599181 0 -0.31354631638020197 0.13395604467094269 0 -0.30549209578720232 0.10774456093924389 0 -0.32114709127587232 0.11611322513389059 0 -0.30549209578720232 0.10774456093924389 0 -0.32114709127587232 0.11611322513389059 0 -0.32444247844199348 0.1047035033472971 0 -0.33570271963636877 0.11206429961599181 0 -0.32114709127587232 0.11611322513389059 0 -0.32444247844199348 0.1047035033472971 0 -0.30549209578720232 0.10774456093924389 0 -0.32444247844199348 0.1047035033472971 0 -0.32445673593083119 0.090309359328255762 0 -0.30549209578720232 0.10774456093924389 0 -0.32445673593083119 0.090309359328255762 0 -0.31312795334666071 0.083579729522452809 0 -0.335413749579693 0.097286071719103154 0 -0.32444247844199348 0.1047035033472971 0 -0.32445673593083119 0.090309359328255762 0 -0.32445673593083119 0.090309359328255762 0 -0.3275606083710243 0.080211281293741998 0 -0.31312795334666071 0.083579729522452809 0 -0.3275606083710243 0.080211281293741998 0 -0.31312795334666071 0.083579729522452809 0 -0.31976082328641481 0.073112182403608325 0 -0.30931237829482389 0.073252958087475881 0 -0.31312795334666071 0.083579729522452809 0 -0.31976082328641481 0.073112182403608325 0 -0.30931237829482389 0.073252958087475881 0 -0.31697319293959142 0.061410437985649477 0 -0.31976082328641481 0.073112182403608325 0 -0.31697319293959142 0.061410437985649477 0 -0.31976082328641481 0.073112182403608325 0 -0.32886731949388731 0.069155273298144179 0 -0.31697319293959142 0.061410437985649477 0 -0.32808937753058609 0.059947696530402161 0 -0.32886731949388731 0.069155273298144179 0 -0.3275606083710243 0.080211281293741998 0 -0.31976082328641481 0.073112182403608325 0 -0.32886731949388731 0.069155273298144179 0 -0.32886731949388731 0.069155273298144179 0 -0.33770721458858299 0.069047958238937293 0 -0.336378655355973 0.076693290193422539 0 -0.3275606083710243 0.080211281293741998 0 -0.32886731949388731 0.069155273298144179 0 -0.336378655355973 0.076693290193422539 0 -0.33440717105718593 0.063083878638897639 0 -0.32886731949388731 0.069155273298144179 0 -0.33770721458858299 0.069047958238937293 0 -0.32808937753058609 0.059947696530402161 0 -0.33440717105718593 0.063083878638897639 0 -0.32886731949388731 0.069155273298144179 0 -0.3407399656121517 0.06083029771636933 0 -0.33440717105718593 0.063083878638897639 0 -0.33770721458858299 0.069047958238937293 0 -0.3407399656121517 0.06083029771636933 0 -0.3447014191436914 0.063951910484466787 0 -0.33770721458858299 0.069047958238937293 0 -0.34551673285671652 0.071984855543133663 0 -0.3447014191436914 0.063951910484466787 0 -0.33770721458858299 0.069047958238937293 0 -0.34408269824063842 0.074738747125954852 0 -0.33770721458858299 0.069047958238937293 0 -0.336378655355973 0.076693290193422539 0 -0.34408269824063842 0.074738747125954852 0 -0.34551673285671652 0.071984855543133663 0 -0.33770721458858299 0.069047958238937293 0 -0.34551673285671652 0.071984855543133663 0 -0.33770721458858299 0.069047958238937293 0 -0.34408269824063842 0.074738747125954852 0 -0.336378655355973 0.076693290193422539 0 -0.34179116264722731 0.080399472229040897 0 -0.336378655355973 0.076693290193422539 0 -0.34179116264722731 0.080399472229040897 0 -0.33708436589161489 0.085963183755354639 0 -0.34456144318064219 0.08667329674911145 0 -0.34179116264722731 0.080399472229040897 0 -0.33708436589161489 0.085963183755354639 0 -0.34456144318064219 0.08667329674911145 0 -0.34431035454597703 0.093789606507308373 0 -0.33708436589161489 0.085963183755354639 0 -0.34431035454597703 0.093789606507308373 0 -0.335413749579693 0.097286071719103154 0 -0.33708436589161489 0.085963183755354639 0 -0.335413749579693 0.097286071719103154 0 -0.32445673593083119 0.090309359328255762 0 -0.33708436589161489 0.085963183755354639 0 -0.32445673593083119 0.090309359328255762 0 -0.3275606083710243 0.080211281293741998 0 -0.33708436589161489 0.085963183755354639 0 -0.3275606083710243 0.080211281293741998 0 -0.336378655355973 0.076693290193422539 0 -0.33708436589161489 0.085963183755354639 0 -0.38891458820749281 0.47713565504117422 0 -0.42172655890518862 0.5 0 -0.3640375775585698 0.5 0 -0.38891458820749281 0.47713565504117422 0 -0.37103467036260362 0.45695891695805302 0 -0.36943712044780219 0.47475959506207249 0 -0.39694697642853649 0.45370639251272787 0 -0.37103467036260362 0.45695891695805302 0 -0.38891458820749281 0.47713565504117422 0 -0.39694697642853649 0.45370639251272787 0 -0.37103467036260362 0.45695891695805302 0 -0.38249991962136642 0.44345487931465249 0 -0.39694697642853649 0.45370639251272787 0 -0.37103467036260362 0.45695891695805302 0 -0.38249991962136642 0.44345487931465249 0 -0.39694697642853649 0.45370639251272787 0 -0.40464661760035381 0.43350824459614162 0 -0.38891458820749281 0.47713565504117422 0 -0.39694697642853649 0.45370639251272787 0 -0.41631826774707797 0.4711213942969617 0 -0.39694697642853649 0.45370639251272787 0 -0.42285928249446952 0.45045386806740279 0 -0.41631826774707797 0.4711213942969617 0 -0.42285928249446952 0.45045386806740279 0 -0.42501824733507809 0.43459816807542118 0 -0.40464661760035381 0.43350824459614162 0 -0.39694697642853649 0.45370639251272787 0 -0.42285928249446952 0.45045386806740279 0 -0.39694697642853649 0.45370639251272787 0 -0.42285928249446952 0.45045386806740279 0 -0.40464661760035381 0.43350824459614162 0 -0.42285928249446952 0.45045386806740279 0 -0.43521244088076849 0.46107148678855758 0 -0.44877158856040261 0.44720134362207808 0 -0.42285928249446952 0.45045386806740279 0 -0.44877158856040261 0.44720134362207808 0 -0.42285928249446952 0.45045386806740279 0 -0.43592409671607729 0.44045812782560079 0 -0.44877158856040261 0.44720134362207808 0 -0.42285928249446952 0.45045386806740279 0 -0.43592409671607729 0.44045812782560079 0 -0.42501824733507809 0.43459816807542118 0 -0.42285928249446952 0.45045386806740279 0 -0.43521244088076849 0.46107148678855758 0 -0.41631826774707797 0.4711213942969617 0 -0.41631826774707797 0.4711213942969617 0 -0.42172655890518862 0.5 0 -0.43935827984199688 0.47473889959161758 0 -0.43521244088076849 0.46107148678855758 0 -0.41631826774707797 0.4711213942969617 0 -0.43935827984199688 0.47473889959161758 0 -0.38891458820749281 0.47713565504117422 0 -0.41631826774707797 0.4711213942969617 0 -0.42172655890518862 0.5 0 -0.42172655890518862 0.5 0 -0.43935827984199688 0.47473889959161758 0 -0.47784082473980471 0.47626967285504462 0 -0.42172655890518862 0.5 0 -0.5 0.5 0 -0.47784082473980471 0.47626967285504462 0 -0.43935827984199688 0.47473889959161758 0 -0.47784082473980471 0.47626967285504462 0 -0.4487547857598953 0.46184192836472759 0 -0.5 0.5 0 -0.47784082473980471 0.47626967285504462 0 -0.49999999999999589 0.44077113011354369 0 -0.47784082473980471 0.47626967285504462 0 -0.47438579428019922 0.44398623686781052 0 -0.4627013265822788 0.4545376326069438 0 -0.47784082473980471 0.47626967285504462 0 -0.49999999999999589 0.44077113011354369 0 -0.47438579428019922 0.44398623686781052 0 -0.49999999999999589 0.44077113011354369 0 -0.47438579428019922 0.44398623686781052 0 -0.48180565015534738 0.42787197640755792 0 -0.49999999999999589 0.44077113011354369 0 -0.47438579428019922 0.44398623686781052 0 -0.47438579428019922 0.44398623686781052 0 -0.4627013265822788 0.4545376326069438 0 -0.44877158856040261 0.44720134362207808 0 -0.47438579428019922 0.44398623686781052 0 -0.44877158856040261 0.44720134362207808 0 -0.47438579428019922 0.44398623686781052 0 -0.44877158856040261 0.44720134362207808 0 -0.46289485375526918 0.43579199928955081 0 -0.44877158856040261 0.44720134362207808 0 -0.44878504691792248 0.43547483269414872 0 -0.46289485375526918 0.43579199928955081 0 -0.47784082473980471 0.47626967285504462 0 -0.4627013265822788 0.4545376326069438 0 -0.4487547857598953 0.46184192836472759 0 -0.4627013265822788 0.4545376326069438 0 -0.4487547857598953 0.46184192836472759 0 -0.44877158856040261 0.44720134362207808 0 -0.4487547857598953 0.46184192836472759 0 -0.44877158856040261 0.44720134362207808 0 -0.43521244088076849 0.46107148678855758 0 -0.4487547857598953 0.46184192836472759 0 -0.44877158856040261 0.44720134362207808 0 -0.43521244088076849 0.46107148678855758 0 -0.43935827984199688 0.47473889959161758 0 -0.4487547857598953 0.46184192836472759 0 -0.44877158856040261 0.44720134362207808 0 -0.44508566455651338 0.43839632914573512 0 -0.44878504691792248 0.43547483269414872 0 -0.44877158856040261 0.44720134362207808 0 -0.44878504691792248 0.43547483269414872 0 -0.43592409671607729 0.44045812782560079 0 -0.44877158856040261 0.44720134362207808 0 -0.44508566455651338 0.43839632914573512 0 -0.44531233658805403 0.42513554986162888 0 -0.44878504691792248 0.43547483269414872 0 -0.44880957839306629 0.41410011360809668 0 -0.44878504691792248 0.43547483269414872 0 -0.44880957839306629 0.41410011360809668 0 -0.43788570063392329 0.43164093021736671 0 -0.44531233658805403 0.42513554986162888 0 -0.44878504691792248 0.43547483269414872 0 -0.43592409671607729 0.44045812782560079 0 -0.44508566455651338 0.43839632914573512 0 -0.43788570063392329 0.43164093021736671 0 -0.44508566455651338 0.43839632914573512 0 -0.43788570063392329 0.43164093021736671 0 -0.44878504691792248 0.43547483269414872 0 -0.44508566455651338 0.43839632914573512 0 -0.44878504691792248 0.43547483269414872 0 -0.44531233658805403 0.42513554986162888 0 -0.44880957839306629 0.41410011360809668 0 -0.42391867717568832 0.41711337076656618 0 -0.44880957839306629 0.41410011360809668 0 -0.46585669794528167 0.42199291516666237 0 -0.4641229039382897 0.40091036417177778 0 -0.44878504691792248 0.43547483269414872 0 -0.46585669794528167 0.42199291516666237 0 -0.44878504691792248 0.43547483269414872 0 -0.44880957839306629 0.41410011360809668 0 -0.46585669794528167 0.42199291516666237 0 -0.44878504691792248 0.43547483269414872 0 -0.46585669794528167 0.42199291516666237 0 -0.46289485375526918 0.43579199928955081 0 -0.47438579428019922 0.44398623686781052 0 -0.46289485375526918 0.43579199928955081 0 -0.48180565015534738 0.42787197640755792 0 -0.46585669794528167 0.42199291516666237 0 -0.46289485375526918 0.43579199928955081 0 -0.48180565015534738 0.42787197640755792 0 -0.46585669794528167 0.42199291516666237 0 -0.48292834897264081 0.4085109976391762 0 -0.4641229039382897 0.40091036417177778 0 -0.46585669794528167 0.42199291516666237 0 -0.48292834897264081 0.4085109976391762 0 -0.46585669794528167 0.42199291516666237 0 -0.48180565015534738 0.42787197640755792 0 -0.48292834897264081 0.4085109976391762 0 -0.48292834897264081 0.4085109976391762 0 -0.5 0.41790010511261683 0 -0.5 0.39502908011169002 0 -0.48180565015534738 0.42787197640755792 0 -0.48292834897264081 0.4085109976391762 0 -0.5 0.41790010511261683 0 -0.49999999999999589 0.44077113011354369 0 -0.48180565015534738 0.42787197640755792 0 -0.5 0.41790010511261683 0 -0.48850556386005051 0.3766603246979251 0 -0.5 0.39502908011169002 0 -0.47832653283541199 0.38608194873200979 0 -0.48850556386005051 0.3766603246979251 0 -0.5 0.39502908011169002 0 -0.5 0.36887446842263683 0 -0.48292834897264081 0.4085109976391762 0 -0.5 0.39502908011169002 0 -0.47832653283541199 0.38608194873200979 0 -0.48292834897264081 0.4085109976391762 0 -0.5 0.39502908011169002 0 -0.48292834897264081 0.4085109976391762 0 -0.47832653283541199 0.38608194873200979 0 -0.4641229039382897 0.40091036417177778 0 -0.48850556386005051 0.3766603246979251 0 -0.47832653283541199 0.38608194873200979 0 -0.48259334700195489 0.36409898273387958 0 -0.47832653283541199 0.38608194873200979 0 -0.46059005399087027 0.38292215568240928 0 -0.4641229039382897 0.40091036417177778 0 -0.47832653283541199 0.38608194873200979 0 -0.46059005399087027 0.38292215568240928 0 -0.46572599417265398 0.36772482908493609 0 -0.44880957839306629 0.41410011360809668 0 -0.4641229039382897 0.40091036417177778 0 -0.44883410986820999 0.3927253945220448 0 -0.46059005399087027 0.38292215568240928 0 -0.4641229039382897 0.40091036417177778 0 -0.44883410986820999 0.3927253945220448 0 -0.44880957839306629 0.41410011360809668 0 -0.44883410986820999 0.3927253945220448 0 -0.43699833754743561 0.40294499431243458 0 -0.44880957839306629 0.41410011360809668 0 -0.44883410986820999 0.3927253945220448 0 -0.44883410986820999 0.3927253945220448 0 -0.43978391516082421 0.3912231797547942 0 -0.43699833754743561 0.40294499431243458 0 -0.44883410986820999 0.3927253945220448 0 -0.43978391516082421 0.3912231797547942 0 -0.44802713623065987 0.37645115623263098 0 -0.44883410986820999 0.3927253945220448 0 -0.44885864134335329 0.37135067543599282 0 -0.44883410986820999 0.3927253945220448 0 -0.44802713623065987 0.37645115623263098 0 -0.44885864134335329 0.37135067543599282 0 -0.43978391516082421 0.3912231797547942 0 -0.44802713623065987 0.37645115623263098 0 -0.42527607699699133 0.39277117395206662 0 -0.46059005399087027 0.38292215568240928 0 -0.44883410986820999 0.3927253945220448 0 -0.44885864134335329 0.37135067543599282 0 -0.44802713623065987 0.37645115623263098 0 -0.4250431626101242 0.37647010748543319 0 -0.42527607699699133 0.39277117395206662 0 -0.44802713623065987 0.37645115623263098 0 -0.42527607699699133 0.39277117395206662 0 -0.4250431626101242 0.37647010748543319 0 -0.4134887672477453 0.38574914578498593 0 -0.40122768387689522 0.38158953953487368 0 -0.4250431626101242 0.37647010748543319 0 -0.40122768387689522 0.38158953953487368 0 -0.4250431626101242 0.37647010748543319 0 -0.4134887672477453 0.38574914578498593 0 -0.42527607699699133 0.39277117395206662 0 -0.4250431626101242 0.37647010748543319 0 -0.40122768387689522 0.38158953953487368 0 -0.40086489287733429 0.37467411733839928 0 -0.4134887672477453 0.38574914578498593 0 -0.40798835104355652 0.39359067917546098 0 -0.40557429982823212 0.38794008425198068 0 -0.4134887672477453 0.38574914578498593 0 -0.40122768387689522 0.38158953953487368 0 -0.40557429982823212 0.38794008425198068 0 -0.40798835104355652 0.39359067917546098 0 -0.42527607699699133 0.39277117395206662 0 -0.40252501776332311 0.40909119167150271 0 -0.42527607699699133 0.39277117395206662 0 -0.40252501776332311 0.40909119167150271 0 -0.4134887672477453 0.38574914578498593 0 -0.40798835104355652 0.39359067917546098 0 -0.42527607699699133 0.39277117395206662 0 -0.42527607699699133 0.39277117395206662 0 -0.43699833754743561 0.40294499431243458 0 -0.42391867717568832 0.41711337076656618 0 -0.43978391516082421 0.3912231797547942 0 -0.42527607699699133 0.39277117395206662 0 -0.43699833754743561 0.40294499431243458 0 -0.44880957839306629 0.41410011360809668 0 -0.43699833754743561 0.40294499431243458 0 -0.42391867717568832 0.41711337076656618 0 -0.44531233658805403 0.42513554986162888 0 -0.42391867717568832 0.41711337076656618 0 -0.43788570063392329 0.43164093021736671 0 -0.44531233658805403 0.42513554986162888 0 -0.42391867717568832 0.41711337076656618 0 -0.43788570063392329 0.43164093021736671 0 -0.42391867717568832 0.41711337076656618 0 -0.42501824733507809 0.43459816807542118 0 -0.43592409671607729 0.44045812782560079 0 -0.43788570063392329 0.43164093021736671 0 -0.42501824733507809 0.43459816807542118 0 -0.42391867717568832 0.41711337076656618 0 -0.42501824733507809 0.43459816807542118 0 -0.40464661760035381 0.43350824459614162 0 -0.42527607699699133 0.39277117395206662 0 -0.42391867717568832 0.41711337076656618 0 -0.40252501776332311 0.40909119167150271 0 -0.42391867717568832 0.41711337076656618 0 -0.40252501776332311 0.40909119167150271 0 -0.40464661760035381 0.43350824459614162 0 -0.42391867717568832 0.41711337076656618 0 -0.40252501776332311 0.40909119167150271 0 -0.40252501776332311 0.40909119167150271 0 -0.37875820238401509 0.42613984176471847 0 -0.40252501776332311 0.40909119167150271 0 -0.40464661760035381 0.43350824459614162 0 -0.37875820238401509 0.42613984176471847 0 -0.38249991962136642 0.44345487931465249 0 -0.40464661760035381 0.43350824459614162 0 -0.37875820238401509 0.42613984176471847 0 -0.40252501776332311 0.40909119167150271 0 -0.37875820238401509 0.42613984176471847 0 -0.37769092578324193 0.39977892163450779 0 -0.37769092578324193 0.39977892163450779 0 -0.38963770449155072 0.39285491215608792 0 -0.37686086334024771 0.38257038446795849 0 -0.40252501776332311 0.40909119167150271 0 -0.37769092578324193 0.39977892163450779 0 -0.38963770449155072 0.39285491215608792 0 -0.40252501776332311 0.40909119167150271 0 -0.37769092578324193 0.39977892163450779 0 -0.37686086334024771 0.38257038446795849 0 -0.39363670834615189 0.38450398520198442 0 -0.40086489287733429 0.37467411733839928 0 -0.38963770449155072 0.39285491215608792 0 -0.37686086334024771 0.38257038446795849 0 -0.39363670834615189 0.38450398520198442 0 -0.37686086334024771 0.38257038446795849 0 -0.40086489287733429 0.37467411733839928 0 -0.37686086334024771 0.38257038446795849 0 -0.40086489287733429 0.37467411733839928 0 -0.39033592763893787 0.37070590072739279 0 -0.39363670834615189 0.38450398520198442 0 -0.40122768387689522 0.38158953953487368 0 -0.39959239714473138 0.39083097251260251 0 -0.38963770449155072 0.39285491215608792 0 -0.39363670834615189 0.38450398520198442 0 -0.39959239714473138 0.39083097251260251 0 -0.39363670834615189 0.38450398520198442 0 -0.40122768387689522 0.38158953953487368 0 -0.40086489287733429 0.37467411733839928 0 -0.40122768387689522 0.38158953953487368 0 -0.40557429982823212 0.38794008425198068 0 -0.39959239714473138 0.39083097251260251 0 -0.40798835104355652 0.39359067917546098 0 -0.40557429982823212 0.38794008425198068 0 -0.39959239714473138 0.39083097251260251 0 -0.40252501776332311 0.40909119167150271 0 -0.38963770449155072 0.39285491215608792 0 -0.39959239714473138 0.39083097251260251 0 -0.40798835104355652 0.39359067917546098 0 -0.40252501776332311 0.40909119167150271 0 -0.39959239714473138 0.39083097251260251 0 -0.3926828114571661 0.35541775914535301 0 -0.40105078960399698 0.34662517948293931 0 -0.40586906590548888 0.3393029225754271 0 -0.3926828114571661 0.35541775914535301 0 -0.39400561065841477 0.34382680172727831 0 -0.40586906590548888 0.3393029225754271 0 -0.3926828114571661 0.35541775914535301 0 -0.40586906590548888 0.3393029225754271 0 -0.3926828114571661 0.35541775914535301 0 -0.39969836615416421 0.35756427730283669 0 -0.39341808057325789 0.36431669671432632 0 -0.3926828114571661 0.35541775914535301 0 -0.40105078960399698 0.34662517948293931 0 -0.39969836615416421 0.35756427730283669 0 -0.3926828114571661 0.35541775914535301 0 -0.39400561065841477 0.34382680172727831 0 -0.38539473684528258 0.34837828204789067 0 -0.40105078960399698 0.34662517948293931 0 -0.40525205349158999 0.35429039595711992 0 -0.40888688292129022 0.34941903462410451 0 -0.40105078960399698 0.34662517948293931 0 -0.4080564418273247 0.34368885170405422 0 -0.40888688292129022 0.34941903462410451 0 -0.40105078960399698 0.34662517948293931 0 -0.40525205349158999 0.35429039595711992 0 -0.39969836615416421 0.35756427730283669 0 -0.40525205349158999 0.35429039595711992 0 -0.39969836615416421 0.35756427730283669 0 -0.40553625032349627 0.36037170931698131 0 -0.40553625032349627 0.36037170931698131 0 -0.40544017780568847 0.3661562974108753 0 -0.40025021147547779 0.36436392320030081 0 -0.40544017780568847 0.3661562974108753 0 -0.40025021147547779 0.36436392320030081 0 -0.397742957241214 0.36844985128713797 0 -0.39969836615416421 0.35756427730283669 0 -0.40553625032349627 0.36037170931698131 0 -0.40025021147547779 0.36436392320030081 0 -0.40544017780568847 0.3661562974108753 0 -0.40086489287733429 0.37467411733839928 0 -0.397742957241214 0.36844985128713797 0 -0.40086489287733429 0.37467411733839928 0 -0.397742957241214 0.36844985128713797 0 -0.39033592763893787 0.37070590072739279 0 -0.397742957241214 0.36844985128713797 0 -0.39341808057325789 0.36431669671432632 0 -0.39033592763893787 0.37070590072739279 0 -0.39969836615416421 0.35756427730283669 0 -0.40025021147547779 0.36436392320030081 0 -0.39341808057325789 0.36431669671432632 0 -0.40025021147547779 0.36436392320030081 0 -0.397742957241214 0.36844985128713797 0 -0.39341808057325789 0.36431669671432632 0 -0.3926828114571661 0.35541775914535301 0 -0.39341808057325789 0.36431669671432632 0 -0.37949655700884349 0.37153259571527891 0 -0.37949655700884349 0.37153259571527891 0 -0.37823932191431281 0.35548757599615399 0 -0.37024808467873749 0.36543132639488701 0 -0.3926828114571661 0.35541775914535301 0 -0.37949655700884349 0.37153259571527891 0 -0.37823932191431281 0.35548757599615399 0 -0.3926828114571661 0.35541775914535301 0 -0.37949655700884349 0.37153259571527891 0 -0.39341808057325789 0.36431669671432632 0 -0.39033592763893787 0.37070590072739279 0 -0.37949655700884349 0.37153259571527891 0 -0.37686086334024771 0.38257038446795849 0 -0.39033592763893787 0.37070590072739279 0 -0.37949655700884349 0.37153259571527891 0 -0.37823932191431281 0.35548757599615399 0 -0.38539473684528258 0.34837828204789067 0 -0.3787015959315434 0.33902802614693439 0 -0.3926828114571661 0.35541775914535301 0 -0.37823932191431281 0.35548757599615399 0 -0.38539473684528258 0.34837828204789067 0 -0.3787015959315434 0.33902802614693439 0 -0.37816355277066899 0.32985684687273281 0 -0.39158393304450312 0.32769252248945308 0 -0.39400561065841477 0.34382680172727831 0 -0.38539473684528258 0.34837828204789067 0 -0.3787015959315434 0.33902802614693439 0 -0.39158393304450312 0.32769252248945308 0 -0.37442838800096029 0.32044424157556423 0 -0.37816355277066899 0.32985684687273281 0 -0.39158393304450312 0.32769252248945308 0 -0.37442838800096029 0.32044424157556423 0 -0.38613629988198012 0.31665983269396758 0 -0.39158393304450312 0.32769252248945308 0 -0.37442838800096029 0.32044424157556423 0 -0.38613629988198012 0.31665983269396758 0 -0.37442838800096029 0.32044424157556423 0 -0.37415321332832258 0.31386652142517069 0 -0.39158393304450312 0.32769252248945308 0 -0.4039094095666334 0.320812311378052 0 -0.40925887999808552 0.33516025262174892 0 -0.38613629988198012 0.31665983269396758 0 -0.39830358576524327 0.31266849694114901 0 -0.39158393304450312 0.32769252248945308 0 -0.39830358576524327 0.31266849694114901 0 -0.39158393304450312 0.32769252248945308 0 -0.4039094095666334 0.320812311378052 0 -0.39830358576524327 0.31266849694114901 0 -0.4039094095666334 0.320812311378052 0 -0.40826549608127172 0.31275764886218971 0 -0.3787015959315434 0.33902802614693439 0 -0.40777024278950652 0.33697950655941222 0 -0.39158393304450312 0.32769252248945308 0 -0.40925887999808552 0.33516025262174892 0 -0.39158393304450312 0.32769252248945308 0 -0.40777024278950652 0.33697950655941222 0 -0.40925887999808552 0.33516025262174892 0 -0.3787015959315434 0.33902802614693439 0 -0.39158393304450312 0.32769252248945308 0 -0.40777024278950652 0.33697950655941222 0 -0.39400561065841477 0.34382680172727831 0 -0.3787015959315434 0.33902802614693439 0 -0.40777024278950652 0.33697950655941222 0 -0.39400561065841477 0.34382680172727831 0 -0.40586906590548888 0.3393029225754271 0 -0.40777024278950652 0.33697950655941222 0 -0.40105078960399698 0.34662517948293931 0 -0.40586906590548888 0.3393029225754271 0 -0.40105078960399698 0.34662517948293931 0 -0.40586906590548888 0.3393029225754271 0 -0.4080564418273247 0.34368885170405422 0 -0.4080564418273247 0.34368885170405422 0 -0.41125860555200922 0.34134685969384471 0 -0.40895905381070002 0.33957121871677393 0 -0.40586906590548888 0.3393029225754271 0 -0.4080564418273247 0.34368885170405422 0 -0.40895905381070002 0.33957121871677393 0 -0.4080564418273247 0.34368885170405422 0 -0.41125860555200922 0.34134685969384471 0 -0.41366919887348358 0.34576378073699821 0 -0.41125860555200922 0.34134685969384471 0 -0.41273643032526569 0.33662953043248711 0 -0.41433336845197538 0.3415594658204692 0 -0.41125860555200922 0.34134685969384471 0 -0.41433336845197538 0.3415594658204692 0 -0.41366919887348358 0.34576378073699821 0 -0.41125860555200922 0.34134685969384471 0 -0.41273643032526569 0.33662953043248711 0 -0.40895905381070002 0.33957121871677393 0 -0.41273643032526569 0.33662953043248711 0 -0.40777024278950652 0.33697950655941222 0 -0.41273643032526569 0.33662953043248711 0 -0.40895905381070002 0.33957121871677393 0 -0.40777024278950652 0.33697950655941222 0 -0.41273643032526569 0.33662953043248711 0 -0.40777024278950652 0.33697950655941222 0 -0.40925887999808552 0.33516025262174892 0 -0.40777024278950652 0.33697950655941222 0 -0.40925887999808552 0.33516025262174892 0 -0.40586906590548888 0.3393029225754271 0 -0.40895905381070002 0.33957121871677393 0 -0.40777024278950652 0.33697950655941222 0 -0.40586906590548888 0.3393029225754271 0 -0.40777024278950652 0.33697950655941222 0 -0.41273643032526569 0.33662953043248711 0 -0.40925887999808552 0.33516025262174892 0 -0.40925887999808552 0.33516025262174892 0 -0.42024067891477529 0.32173946694831868 0 -0.40925887999808552 0.33516025262174892 0 -0.42071708592719742 0.33131558094746122 0 -0.42024067891477529 0.32173946694831868 0 -0.41273643032526569 0.33662953043248711 0 -0.40925887999808552 0.33516025262174892 0 -0.42071708592719742 0.33131558094746122 0 -0.41273643032526569 0.33662953043248711 0 -0.4199209072431685 0.34318781838679219 0 -0.41433336845197538 0.3415594658204692 0 -0.4199209072431685 0.34318781838679219 0 -0.41433336845197538 0.3415594658204692 0 -0.41366919887348358 0.34576378073699821 0 -0.40925887999808552 0.33516025262174892 0 -0.41892768793075841 0.31754462100172592 0 -0.42141481873501418 0.31567829233095179 0 -0.40925887999808552 0.33516025262174892 0 -0.411263050936583 0.31954773430139438 0 -0.41892768793075841 0.31754462100172592 0 -0.40925887999808552 0.33516025262174892 0 -0.42141481873501418 0.31567829233095179 0 -0.40925887999808552 0.33516025262174892 0 -0.42024067891477529 0.32173946694831868 0 -0.42141481873501418 0.31567829233095179 0 -0.411263050936583 0.31954773430139438 0 -0.40826549608127172 0.31275764886218971 0 -0.41647318301620623 0.31168328686166002 0 -0.4039094095666334 0.320812311378052 0 -0.411263050936583 0.31954773430139438 0 -0.40826549608127172 0.31275764886218971 0 -0.4039094095666334 0.320812311378052 0 -0.40925887999808552 0.33516025262174892 0 -0.411263050936583 0.31954773430139438 0 -0.411263050936583 0.31954773430139438 0 -0.41892768793075841 0.31754462100172592 0 -0.41647318301620623 0.31168328686166002 0 -0.41892768793075841 0.31754462100172592 0 -0.42141481873501418 0.31567829233095179 0 -0.41892768793075841 0.31754462100172592 0 -0.42141481873501418 0.31567829233095179 0 -0.41647318301620623 0.31168328686166002 0 -0.42024067891477529 0.32173946694831868 0 -0.43790895006943947 0.32081412042189511 0 -0.43122247783146522 0.30831868127488848 0 -0.42024067891477529 0.32173946694831868 0 -0.42938605365092247 0.3272194948190838 0 -0.43790895006943947 0.32081412042189511 0 -0.42024067891477529 0.32173946694831868 0 -0.42141481873501418 0.31567829233095179 0 -0.43122247783146522 0.30831868127488848 0 -0.42024067891477529 0.32173946694831868 0 -0.43122247783146522 0.30831868127488848 0 -0.42071708592719742 0.33131558094746122 0 -0.42024067891477529 0.32173946694831868 0 -0.42938605365092247 0.3272194948190838 0 -0.42938605365092247 0.3272194948190838 0 -0.43674098495811231 0.33493788649063261 0 -0.43790895006943947 0.32081412042189511 0 -0.43790895006943947 0.32081412042189511 0 -0.4401847358662575 0.3127477530096977 0 -0.43122247783146522 0.30831868127488848 0 -0.41273643032526569 0.33662953043248711 0 -0.43674098495811231 0.33493788649063261 0 -0.42071708592719742 0.33131558094746122 0 -0.42938605365092247 0.3272194948190838 0 -0.43674098495811231 0.33493788649063261 0 -0.41273643032526569 0.33662953043248711 0 -0.4199209072431685 0.34318781838679219 0 -0.43385085243219867 0.34555045147446217 0 -0.41273643032526569 0.33662953043248711 0 -0.42071708592719742 0.33131558094746122 0 -0.43674098495811231 0.33493788649063261 0 -0.41273643032526569 0.33662953043248711 0 -0.43385085243219867 0.34555045147446217 0 -0.41273643032526569 0.33662953043248711 0 -0.43674098495811231 0.33493788649063261 0 -0.43385085243219867 0.34555045147446217 0 -0.43385085243219867 0.34555045147446217 0 -0.4302486007270056 0.35272204188882378 0 -0.42573384958437638 0.34916959158482058 0 -0.43385085243219867 0.34555045147446217 0 -0.43539550265875948 0.35741731211322858 0 -0.44110397924445488 0.35756373905142852 0 -0.43539550265875948 0.35741731211322858 0 -0.4302486007270056 0.35272204188882378 0 -0.42757171946388478 0.35850981688022993 0 -0.43385085243219867 0.34555045147446217 0 -0.43539550265875948 0.35741731211322858 0 -0.4302486007270056 0.35272204188882378 0 -0.4302486007270056 0.35272204188882378 0 -0.42480748600639012 0.35482075793933809 0 -0.42573384958437638 0.34916959158482058 0 -0.4302486007270056 0.35272204188882378 0 -0.42757171946388478 0.35850981688022993 0 -0.42480748600639012 0.35482075793933809 0 -0.42757171946388478 0.35850981688022993 0 -0.42480748600639012 0.35482075793933809 0 -0.42195212413097077 0.36043988011418487 0 -0.4199209072431685 0.34318781838679219 0 -0.43385085243219867 0.34555045147446217 0 -0.42573384958437638 0.34916959158482058 0 -0.42480748600639012 0.35482075793933809 0 -0.42573384958437638 0.34916959158482058 0 -0.41984140151311927 0.3495668882346864 0 -0.4199209072431685 0.34318781838679219 0 -0.42573384958437638 0.34916959158482058 0 -0.41984140151311927 0.3495668882346864 0 -0.4199209072431685 0.34318781838679219 0 -0.41984140151311927 0.3495668882346864 0 -0.41366919887348358 0.34576378073699821 0 -0.41984140151311927 0.3495668882346864 0 -0.41366919887348358 0.34576378073699821 0 -0.41404230344944593 0.35073751764187411 0 -0.42480748600639012 0.35482075793933809 0 -0.41984140151311927 0.3495668882346864 0 -0.41755863725870102 0.35684421707679032 0 -0.42480748600639012 0.35482075793933809 0 -0.41755863725870102 0.35684421707679032 0 -0.42195212413097077 0.36043988011418487 0 -0.41984140151311927 0.3495668882346864 0 -0.41755863725870102 0.35684421707679032 0 -0.41404230344944593 0.35073751764187411 0 -0.41755863725870102 0.35684421707679032 0 -0.41125051028190041 0.35540848222164118 0 -0.41404230344944593 0.35073751764187411 0 -0.41125051028190041 0.35540848222164118 0 -0.40888688292129022 0.34941903462410451 0 -0.41404230344944593 0.35073751764187411 0 -0.41755863725870102 0.35684421707679032 0 -0.41125051028190041 0.35540848222164118 0 -0.41142088061722581 0.36176204086772412 0 -0.40553625032349627 0.36037170931698131 0 -0.41125051028190041 0.35540848222164118 0 -0.41142088061722581 0.36176204086772412 0 -0.40525205349158999 0.35429039595711992 0 -0.40553625032349627 0.36037170931698131 0 -0.41125051028190041 0.35540848222164118 0 -0.40525205349158999 0.35429039595711992 0 -0.41125051028190041 0.35540848222164118 0 -0.40888688292129022 0.34941903462410451 0 -0.4080564418273247 0.34368885170405422 0 -0.40888688292129022 0.34941903462410451 0 -0.41366919887348358 0.34576378073699821 0 -0.40888688292129022 0.34941903462410451 0 -0.41366919887348358 0.34576378073699821 0 -0.41404230344944593 0.35073751764187411 0 -0.4250431626101242 0.37647010748543319 0 -0.40086489287733429 0.37467411733839928 0 -0.42486892241442098 0.36677785020884007 0 -0.40086489287733429 0.37467411733839928 0 -0.42486892241442098 0.36677785020884007 0 -0.40086489287733429 0.37467411733839928 0 -0.41378193274770297 0.36450427419225789 0 -0.42486892241442098 0.36677785020884007 0 -0.40544017780568847 0.3661562974108753 0 -0.40086489287733429 0.37467411733839928 0 -0.41378193274770297 0.36450427419225789 0 -0.40544017780568847 0.3661562974108753 0 -0.41142088061722581 0.36176204086772412 0 -0.41378193274770297 0.36450427419225789 0 -0.40553625032349627 0.36037170931698131 0 -0.40544017780568847 0.3661562974108753 0 -0.41142088061722581 0.36176204086772412 0 -0.41755863725870102 0.35684421707679032 0 -0.41378193274770297 0.36450427419225789 0 -0.42195212413097077 0.36043988011418487 0 -0.41378193274770297 0.36450427419225789 0 -0.42486892241442098 0.36677785020884007 0 -0.42195212413097077 0.36043988011418487 0 -0.41755863725870102 0.35684421707679032 0 -0.41142088061722581 0.36176204086772412 0 -0.41378193274770297 0.36450427419225789 0 -0.4250431626101242 0.37647010748543319 0 -0.44885864134335329 0.37135067543599282 0 -0.4250431626101242 0.37647010748543319 0 -0.42486892241442098 0.36677785020884007 0 -0.44885864134335329 0.37135067543599282 0 -0.42486892241442098 0.36677785020884007 0 -0.448872951951507 0.35888158307927881 0 -0.43539550265875948 0.35741731211322858 0 -0.42486892241442098 0.36677785020884007 0 -0.44110397924445488 0.35756373905142852 0 -0.43539550265875948 0.35741731211322858 0 -0.42757171946388478 0.35850981688022993 0 -0.42486892241442098 0.36677785020884007 0 -0.42757171946388478 0.35850981688022993 0 -0.42486892241442098 0.36677785020884007 0 -0.42195212413097077 0.36043988011418487 0 -0.42486892241442098 0.36677785020884007 0 -0.44885864134335329 0.37135067543599282 0 -0.448872951951507 0.35888158307927881 0 -0.44802713623065987 0.37645115623263098 0 -0.4250431626101242 0.37647010748543319 0 -0.44885864134335329 0.37135067543599282 0 -0.42486892241442098 0.36677785020884007 0 -0.44110397924445488 0.35756373905142852 0 -0.448872951951507 0.35888158307927881 0 -0.44885864134335329 0.37135067543599282 0 -0.448872951951507 0.35888158307927881 0 -0.44885864134335329 0.37135067543599282 0 -0.448872951951507 0.35888158307927881 0 -0.45634368000688869 0.36512471152292858 0 -0.43385085243219867 0.34555045147446217 0 -0.45496527453913199 0.35447137251643651 0 -0.44889299330712729 0.34242966823447613 0 -0.43385085243219867 0.34555045147446217 0 -0.45496527453913199 0.35447137251643651 0 -0.43385085243219867 0.34555045147446217 0 -0.44887533288597797 0.35680703170406669 0 -0.45496527453913199 0.35447137251643651 0 -0.43385085243219867 0.34555045147446217 0 -0.44110397924445488 0.35756373905142852 0 -0.44887533288597797 0.35680703170406669 0 -0.44110397924445488 0.35756373905142852 0 -0.44887533288597797 0.35680703170406669 0 -0.448872951951507 0.35888158307927881 0 -0.44887533288597797 0.35680703170406669 0 -0.448872951951507 0.35888158307927881 0 -0.44887533288597797 0.35680703170406669 0 -0.448872951951507 0.35888158307927881 0 -0.45496527453913199 0.35447137251643651 0 -0.448872951951507 0.35888158307927881 0 -0.45496527453913199 0.35447137251643651 0 -0.47186707529616939 0.3513175305497272 0 -0.448872951951507 0.35888158307927881 0 -0.47186707529616939 0.3513175305497272 0 -0.448872951951507 0.35888158307927881 0 -0.45634368000688869 0.36512471152292858 0 -0.47186707529616939 0.3513175305497272 0 -0.45911772068334677 0.34536620346235469 0 -0.45496527453913199 0.35447137251643651 0 -0.47186707529616939 0.3513175305497272 0 -0.45911772068334677 0.34536620346235469 0 -0.45496527453913199 0.35447137251643651 0 -0.44889299330712729 0.34242966823447613 0 -0.46572599417265398 0.36772482908493609 0 -0.45634368000688869 0.36512471152292858 0 -0.47186707529616939 0.3513175305497272 0 -0.46059005399087027 0.38292215568240928 0 -0.44885864134335329 0.37135067543599282 0 -0.46572599417265398 0.36772482908493609 0 -0.44885864134335329 0.37135067543599282 0 -0.46572599417265398 0.36772482908493609 0 -0.44885864134335329 0.37135067543599282 0 -0.46572599417265398 0.36772482908493609 0 -0.45634368000688869 0.36512471152292858 0 -0.47832653283541199 0.38608194873200979 0 -0.46572599417265398 0.36772482908493609 0 -0.48259334700195489 0.36409898273387958 0 -0.46572599417265398 0.36772482908493609 0 -0.48259334700195489 0.36409898273387958 0 -0.47186707529616939 0.3513175305497272 0 -0.46572599417265398 0.36772482908493609 0 -0.48259334700195489 0.36409898273387958 0 -0.47186707529616939 0.3513175305497272 0 -0.494861198640831 0.34375347802017348 0 -0.47186707529616939 0.3513175305497272 0 -0.48536711719674469 0.35339641184703091 0 -0.494861198640831 0.34375347802017348 0 -0.48259334700195489 0.36409898273387958 0 -0.47186707529616939 0.3513175305497272 0 -0.48536711719674469 0.35339641184703091 0 -0.48259334700195489 0.36409898273387958 0 -0.49214684784802371 0.35441565608434311 0 -0.48536711719674469 0.35339641184703091 0 -0.49214684784802371 0.35441565608434311 0 -0.5 0.36887446842263683 0 -0.5 0.34271985673358363 0 -0.49214684784802371 0.35441565608434311 0 -0.48536711719674469 0.35339641184703091 0 -0.494861198640831 0.34375347802017348 0 -0.49214684784802371 0.35441565608434311 0 -0.494861198640831 0.34375347802017348 0 -0.5 0.34271985673358363 0 -0.48850556386005051 0.3766603246979251 0 -0.48259334700195489 0.36409898273387958 0 -0.5 0.36887446842263683 0 -0.48259334700195489 0.36409898273387958 0 -0.49214684784802371 0.35441565608434311 0 -0.5 0.36887446842263683 0 -0.485708092488497 0.3189911195031831 0 -0.5 0.31656524504453032 0 -0.48475009422380527 0.3315545986069256 0 -0.485708092488497 0.3189911195031831 0 -0.5 0.31656524504453032 0 -0.48583489694974541 0.30845327583860088 0 -0.5 0.31656524504453032 0 -0.5 0.34271985673358363 0 -0.48475009422380527 0.3315545986069256 0 -0.494861198640831 0.34375347802017348 0 -0.5 0.34271985673358363 0 -0.48475009422380527 0.3315545986069256 0 -0.48475009422380527 0.3315545986069256 0 -0.46074553959095882 0.3332462425487791 0 -0.47186707529616939 0.3513175305497272 0 -0.494861198640831 0.34375347802017348 0 -0.48475009422380527 0.3315545986069256 0 -0.47186707529616939 0.3513175305497272 0 -0.48475009422380527 0.3315545986069256 0 -0.46074553959095882 0.3332462425487791 0 -0.48475009422380527 0.3315545986069256 0 -0.47224737878043732 0.31939135852267558 0 -0.46074553959095882 0.3332462425487791 0 -0.485708092488497 0.3189911195031831 0 -0.48475009422380527 0.3315545986069256 0 -0.47224737878043732 0.31939135852267558 0 -0.485708092488497 0.3189911195031831 0 -0.47224737878043732 0.31939135852267558 0 -0.48583489694974541 0.30845327583860088 0 -0.47224737878043732 0.31939135852267558 0 -0.46258830912673421 0.31343425170936878 0 -0.46074553959095882 0.3332462425487791 0 -0.46258830912673421 0.31343425170936878 0 -0.46074553959095882 0.3332462425487791 0 -0.45107709460752138 0.31557533431346357 0 -0.45911772068334677 0.34536620346235469 0 -0.47186707529616939 0.3513175305497272 0 -0.46074553959095882 0.3332462425487791 0 -0.45911772068334677 0.34536620346235469 0 -0.46074553959095882 0.3332462425487791 0 -0.44889299330712729 0.34242966823447613 0 -0.43674098495811231 0.33493788649063261 0 -0.46074553959095882 0.3332462425487791 0 -0.43674098495811231 0.33493788649063261 0 -0.46074553959095882 0.3332462425487791 0 -0.44889299330712729 0.34242966823447613 0 -0.43674098495811231 0.33493788649063261 0 -0.46074553959095882 0.3332462425487791 0 -0.43790895006943947 0.32081412042189511 0 -0.43674098495811231 0.33493788649063261 0 -0.43385085243219867 0.34555045147446217 0 -0.44889299330712729 0.34242966823447613 0 -0.46074553959095882 0.3332462425487791 0 -0.45107709460752138 0.31557533431346357 0 -0.43790895006943947 0.32081412042189511 0 -0.45107709460752138 0.31557533431346357 0 -0.43790895006943947 0.32081412042189511 0 -0.4401847358662575 0.3127477530096977 0 -0.44444415583193408 0.29216055381020578 0 -0.43122247783146522 0.30831868127488848 0 -0.44810052680614793 0.29565349026271098 0 -0.43122247783146522 0.30831868127488848 0 -0.44368336155109173 0.30649675881006838 0 -0.44810052680614793 0.29565349026271098 0 -0.43122247783146522 0.30831868127488848 0 -0.4401847358662575 0.3127477530096977 0 -0.44368336155109173 0.30649675881006838 0 -0.43122247783146522 0.30831868127488848 0 -0.44444415583193408 0.29216055381020578 0 -0.44810052680614793 0.29565349026271098 0 -0.43122247783146522 0.30831868127488848 0 -0.45107709460752138 0.31557533431346357 0 -0.4401847358662575 0.3127477530096977 0 -0.44368336155109173 0.30649675881006838 0 -0.44368336155109173 0.30649675881006838 0 -0.44996115485610377 0.3015940899144034 0 -0.4551770389262465 0.30483297142504889 0 -0.44368336155109173 0.30649675881006838 0 -0.44996115485610377 0.3015940899144034 0 -0.44810052680614793 0.29565349026271098 0 -0.45288369214092922 0.29939313915978533 0 -0.44996115485610377 0.3015940899144034 0 -0.44810052680614793 0.29565349026271098 0 -0.45288369214092922 0.29939313915978533 0 -0.44996115485610377 0.3015940899144034 0 -0.4551770389262465 0.30483297142504889 0 -0.45107709460752138 0.31557533431346357 0 -0.44368336155109173 0.30649675881006838 0 -0.4551770389262465 0.30483297142504889 0 -0.44702735364695217 0.27675533545947301 0 -0.43422108619098299 0.29621681389521232 0 -0.44444415583193408 0.29216055381020578 0 -0.44702735364695217 0.27675533545947301 0 -0.43422108619098299 0.29621681389521232 0 -0.44702735364695217 0.27675533545947301 0 -0.43274811138672559 0.28469846643612018 0 -0.43422108619098299 0.29621681389521232 0 -0.44810052680614793 0.29565349026271098 0 -0.4493542421043164 0.28919027156790111 0 -0.45395006383388498 0.28587005882998617 0 -0.44444415583193408 0.29216055381020578 0 -0.44810052680614793 0.29565349026271098 0 -0.4493542421043164 0.28919027156790111 0 -0.44444415583193408 0.29216055381020578 0 -0.4493542421043164 0.28919027156790111 0 -0.44702735364695217 0.27675533545947301 0 -0.4493542421043164 0.28919027156790111 0 -0.45395006383388498 0.28587005882998617 0 -0.44702735364695217 0.27675533545947301 0 -0.44810052680614793 0.29565349026271098 0 -0.45395006383388498 0.28587005882998617 0 -0.46497857578083068 0.28298829925053381 0 -0.44810052680614793 0.29565349026271098 0 -0.4593999708052337 0.29480301670676529 0 -0.46497857578083068 0.28298829925053381 0 -0.44810052680614793 0.29565349026271098 0 -0.46497857578083068 0.28298829925053381 0 -0.45288369214092922 0.29939313915978533 0 -0.44810052680614793 0.29565349026271098 0 -0.4593999708052337 0.29480301670676529 0 -0.4593999708052337 0.29480301670676529 0 -0.46827174088950307 0.29409138505043392 0 -0.46497857578083068 0.28298829925053381 0 -0.46258830912673421 0.31343425170936878 0 -0.45107709460752138 0.31557533431346357 0 -0.4551770389262465 0.30483297142504889 0 -0.45288369214092922 0.29939313915978533 0 -0.4593999708052337 0.29480301670676529 0 -0.4551770389262465 0.30483297142504889 0 -0.4593999708052337 0.29480301670676529 0 -0.4551770389262465 0.30483297142504889 0 -0.46625021185001803 0.30380681263807602 0 -0.4593999708052337 0.29480301670676529 0 -0.46827174088950307 0.29409138505043392 0 -0.46625021185001803 0.30380681263807602 0 -0.47224737878043732 0.31939135852267558 0 -0.46258830912673421 0.31343425170936878 0 -0.46625021185001803 0.30380681263807602 0 -0.46258830912673421 0.31343425170936878 0 -0.4551770389262465 0.30483297142504889 0 -0.46625021185001803 0.30380681263807602 0 -0.47551717359816043 0.30301602212345602 0 -0.4769183937012712 0.29196404103452073 0 -0.48583489694974541 0.30845327583860088 0 -0.47224737878043732 0.31939135852267558 0 -0.46625021185001803 0.30380681263807602 0 -0.47551717359816043 0.30301602212345602 0 -0.47224737878043732 0.31939135852267558 0 -0.47551717359816043 0.30301602212345602 0 -0.48583489694974541 0.30845327583860088 0 -0.46827174088950307 0.29409138505043392 0 -0.46625021185001803 0.30380681263807602 0 -0.47551717359816043 0.30301602212345602 0 -0.46827174088950307 0.29409138505043392 0 -0.46497857578083068 0.28298829925053381 0 -0.4769183937012712 0.29196404103452073 0 -0.4769183937012712 0.29196404103452073 0 -0.48757792524538679 0.2814999319082685 0 -0.48583489694974541 0.30845327583860088 0 -0.46827174088950307 0.29409138505043392 0 -0.47551717359816043 0.30301602212345602 0 -0.4769183937012712 0.29196404103452073 0 -0.46497857578083068 0.28298829925053381 0 -0.47783287987075052 0.28169384510791978 0 -0.4769183937012712 0.29196404103452073 0 -0.47783287987075052 0.28169384510791978 0 -0.4769183937012712 0.29196404103452073 0 -0.48757792524538679 0.2814999319082685 0 -0.5 0.29041063335547701 0 -0.48757792524538679 0.2814999319082685 0 -0.48583489694974541 0.30845327583860088 0 -0.48757792524538679 0.2814999319082685 0 -0.48583489694974541 0.30845327583860088 0 -0.5 0.31656524504453032 0 -0.5 0.29041063335547701 0 -0.48583489694974541 0.30845327583860088 0 -0.5 0.23810140997737081 0 -0.5 0.26425602166642381 0 -0.48932095354102823 0.25454658797793611 0 -0.48757792524538679 0.2814999319082685 0 -0.48932095354102823 0.25454658797793611 0 -0.48366697684514259 0.26703881783025729 0 -0.48757792524538679 0.2814999319082685 0 -0.5 0.26425602166642381 0 -0.48932095354102823 0.25454658797793611 0 -0.48757792524538679 0.2814999319082685 0 -0.48932095354102823 0.25454658797793611 0 -0.5 0.29041063335547701 0 -0.48757792524538679 0.2814999319082685 0 -0.5 0.26425602166642381 0 -0.46497857578083068 0.28298829925053381 0 -0.48185662475551339 0.27032310823835648 0 -0.46497857578083068 0.28298829925053381 0 -0.47783287987075052 0.28169384510791978 0 -0.48185662475551339 0.27032310823835648 0 -0.48366697684514259 0.26703881783025729 0 -0.45893043448094739 0.2699305570534084 0 -0.48757792524538679 0.2814999319082685 0 -0.48366697684514259 0.26703881783025729 0 -0.48185662475551339 0.27032310823835648 0 -0.48366697684514259 0.26703881783025729 0 -0.48185662475551339 0.27032310823835648 0 -0.47235815296560851 0.27257019559313889 0 -0.46497857578083068 0.28298829925053381 0 -0.48185662475551339 0.27032310823835648 0 -0.47235815296560851 0.27257019559313889 0 -0.48366697684514259 0.26703881783025729 0 -0.46959483388743167 0.25994315597580908 0 -0.45893043448094739 0.2699305570534084 0 -0.48366697684514259 0.26703881783025729 0 -0.47235815296560851 0.27257019559313889 0 -0.45893043448094739 0.2699305570534084 0 -0.47783287987075052 0.28169384510791978 0 -0.48757792524538679 0.2814999319082685 0 -0.48185662475551339 0.27032310823835648 0 -0.48932095354102823 0.25454658797793611 0 -0.48366697684514259 0.26703881783025729 0 -0.47792533453874358 0.25606878273296479 0 -0.48366697684514259 0.26703881783025729 0 -0.46959483388743167 0.25994315597580908 0 -0.47792533453874358 0.25606878273296479 0 -0.47864167104372218 0.246590621409366 0 -0.48932095354102823 0.25454658797793611 0 -0.47792533453874358 0.25606878273296479 0 -0.47864167104372218 0.246590621409366 0 -0.47792533453874358 0.25606878273296479 0 -0.46938038244821267 0.25133041049185839 0 -0.46959483388743167 0.25994315597580908 0 -0.47792533453874358 0.25606878273296479 0 -0.46938038244821267 0.25133041049185839 0 -0.46959483388743167 0.25994315597580908 0 -0.46938038244821267 0.25133041049185839 0 -0.45807104112411212 0.25534721177055669 0 -0.46959483388743167 0.25994315597580908 0 -0.45807104112411212 0.25534721177055669 0 -0.45893043448094739 0.2699305570534084 0 -0.45807104112411212 0.25534721177055669 0 -0.45893043448094739 0.2699305570534084 0 -0.44442574262614493 0.25832327296872359 0 -0.45395006383388498 0.28587005882998617 0 -0.46497857578083068 0.28298829925053381 0 -0.45893043448094739 0.2699305570534084 0 -0.45395006383388498 0.28587005882998617 0 -0.45893043448094739 0.2699305570534084 0 -0.44702735364695217 0.27675533545947301 0 -0.46497857578083068 0.28298829925053381 0 -0.47235815296560851 0.27257019559313889 0 -0.45893043448094739 0.2699305570534084 0 -0.45893043448094739 0.2699305570534084 0 -0.43419389211675241 0.27282229627655952 0 -0.45893043448094739 0.2699305570534084 0 -0.44442574262614493 0.25832327296872359 0 -0.43419389211675241 0.27282229627655952 0 -0.45893043448094739 0.2699305570534084 0 -0.44702735364695217 0.27675533545947301 0 -0.43419389211675241 0.27282229627655952 0 -0.44702735364695217 0.27675533545947301 0 -0.43419389211675241 0.27282229627655952 0 -0.43274811138672559 0.28469846643612018 0 -0.45046339488490522 0.249057113070103 0 -0.45807104112411212 0.25534721177055669 0 -0.44442574262614493 0.25832327296872359 0 -0.44062222049055039 0.24203477259657111 0 -0.44442574262614493 0.25832327296872359 0 -0.42503978512155383 0.25887440404814072 0 -0.44062222049055039 0.24203477259657111 0 -0.42503978512155383 0.25887440404814072 0 -0.44442574262614493 0.25832327296872359 0 -0.42503978512155383 0.25887440404814072 0 -0.43419389211675241 0.27282229627655952 0 -0.42503978512155383 0.25887440404814072 0 -0.40945734975255721 0.27571403549971041 0 -0.40585136056822319 0.25674789398696107 0 -0.4198454647722451 0.23985190764030939 0 -0.42503978512155383 0.25887440404814072 0 -0.40585136056822319 0.25674789398696107 0 -0.40945734975255721 0.27571403549971041 0 -0.43419389211675241 0.27282229627655952 0 -0.42503978512155383 0.25887440404814072 0 -0.40945734975255721 0.27571403549971041 0 -0.42503978512155383 0.25887440404814072 0 -0.40945734975255721 0.27571403549971041 0 -0.43419389211675241 0.27282229627655952 0 -0.40945734975255721 0.27571403549971041 0 -0.43419389211675241 0.27282229627655952 0 -0.4229835889384117 0.28415291652507912 0 -0.43419389211675241 0.27282229627655952 0 -0.43274811138672559 0.28469846643612018 0 -0.4229835889384117 0.28415291652507912 0 -0.43274811138672559 0.28469846643612018 0 -0.43422108619098299 0.29621681389521232 0 -0.42519236151645012 0.29288975242762622 0 -0.43274811138672559 0.28469846643612018 0 -0.42519236151645012 0.29288975242762622 0 -0.4229835889384117 0.28415291652507912 0 -0.42141481873501418 0.31567829233095179 0 -0.43422108619098299 0.29621681389521232 0 -0.42141481873501418 0.31567829233095179 0 -0.43422108619098299 0.29621681389521232 0 -0.42237726971740519 0.30236741203524931 0 -0.44444415583193408 0.29216055381020578 0 -0.43422108619098299 0.29621681389521232 0 -0.43122247783146522 0.30831868127488848 0 -0.42141481873501418 0.31567829233095179 0 -0.43422108619098299 0.29621681389521232 0 -0.43122247783146522 0.30831868127488848 0 -0.43422108619098299 0.29621681389521232 0 -0.42519236151645012 0.29288975242762622 0 -0.42237726971740519 0.30236741203524931 0 -0.42141481873501418 0.31567829233095179 0 -0.43122247783146522 0.30831868127488848 0 -0.42237726971740519 0.30236741203524931 0 -0.41647318301620623 0.31168328686166002 0 -0.40812109447663159 0.30329838776079099 0 -0.42141481873501418 0.31567829233095179 0 -0.42237726971740519 0.30236741203524931 0 -0.41647318301620623 0.31168328686166002 0 -0.42237726971740519 0.30236741203524931 0 -0.40812109447663159 0.30329838776079099 0 -0.41256551749876041 0.29129965580367562 0 -0.40826549608127172 0.31275764886218971 0 -0.41647318301620623 0.31168328686166002 0 -0.40812109447663159 0.30329838776079099 0 -0.40945734975255721 0.27571403549971041 0 -0.4229835889384117 0.28415291652507912 0 -0.41256551749876041 0.29129965580367562 0 -0.42519236151645012 0.29288975242762622 0 -0.4229835889384117 0.28415291652507912 0 -0.41256551749876041 0.29129965580367562 0 -0.42519236151645012 0.29288975242762622 0 -0.42237726971740519 0.30236741203524931 0 -0.41256551749876041 0.29129965580367562 0 -0.40945734975255721 0.27571403549971041 0 -0.39180528154043992 0.29479027846244049 0 -0.39350738277932218 0.27757861076756318 0 -0.40945734975255721 0.27571403549971041 0 -0.39180528154043992 0.29479027846244049 0 -0.40812109447663159 0.30329838776079099 0 -0.41256551749876041 0.29129965580367562 0 -0.39180528154043992 0.29479027846244049 0 -0.40945734975255721 0.27571403549971041 0 -0.41256551749876041 0.29129965580367562 0 -0.39180528154043992 0.29479027846244049 0 -0.38613629988198012 0.31665983269396758 0 -0.39830358576524327 0.31266849694114901 0 -0.39180528154043992 0.29479027846244049 0 -0.39830358576524327 0.31266849694114901 0 -0.40812109447663159 0.30329838776079099 0 -0.39180528154043992 0.29479027846244049 0 -0.39830358576524327 0.31266849694114901 0 -0.40826549608127172 0.31275764886218971 0 -0.40812109447663159 0.30329838776079099 0 -0.39180528154043992 0.29479027846244049 0 -0.37819889022761238 0.29924868842846319 0 -0.37415321332832258 0.31386652142517069 0 -0.38613629988198012 0.31665983269396758 0 -0.39180528154043992 0.29479027846244049 0 -0.37415321332832258 0.31386652142517069 0 -0.39180528154043992 0.29479027846244049 0 -0.37415321332832258 0.31386652142517069 0 -0.39180528154043992 0.29479027846244049 0 -0.37819889022761238 0.29924868842846319 0 -0.37870614451813112 0.28175948497688769 0 -0.39180528154043992 0.29479027846244049 0 -0.37870614451813112 0.28175948497688769 0 -0.39350738277932218 0.27757861076756318 0 -0.37870614451813112 0.28175948497688769 0 -0.37647038179830861 0.26645711442365799 0 -0.39350738277932218 0.27757861076756318 0 -0.37647038179830861 0.26645711442365799 0 -0.39336972403141229 0.26369738761855421 0 -0.39350738277932218 0.27757861076756318 0 -0.38790582398472923 0.24962922847932231 0 -0.37647038179830861 0.26645711442365799 0 -0.39336972403141229 0.26369738761855421 0 -0.38790582398472923 0.24962922847932231 0 -0.37647038179830861 0.26645711442365799 0 -0.36318679658289171 0.25196182354824148 0 -0.40945734975255721 0.27571403549971041 0 -0.40585136056822319 0.25674789398696107 0 -0.39336972403141229 0.26369738761855421 0 -0.38790582398472923 0.24962922847932231 0 -0.40585136056822319 0.25674789398696107 0 -0.39336972403141229 0.26369738761855421 0 -0.40945734975255721 0.27571403549971041 0 -0.39336972403141229 0.26369738761855421 0 -0.39350738277932218 0.27757861076756318 0 -0.40945734975255721 0.27571403549971041 0 -0.39350738277932218 0.27757861076756318 0 -0.35583614606747688 0.27501819518035592 0 -0.36318679658289171 0.25196182354824148 0 -0.33952374355129727 0.25899057541505788 0 -0.37647038179830861 0.26645711442365799 0 -0.35583614606747688 0.27501819518035592 0 -0.36318679658289171 0.25196182354824148 0 -0.37870614451813112 0.28175948497688769 0 -0.37647038179830861 0.26645711442365799 0 -0.35583614606747688 0.27501819518035592 0 -0.37819889022761238 0.29924868842846319 0 -0.37870614451813112 0.28175948497688769 0 -0.36775571630023218 0.2927315942663431 0 -0.37870614451813112 0.28175948497688769 0 -0.35583614606747688 0.27501819518035592 0 -0.36775571630023218 0.2927315942663431 0 -0.37819889022761238 0.29924868842846319 0 -0.36899777432263853 0.30469822459034263 0 -0.37415321332832258 0.31386652142517069 0 -0.36899777432263853 0.30469822459034263 0 -0.36272901898995358 0.31473918551029578 0 -0.37415321332832258 0.31386652142517069 0 -0.37819889022761238 0.29924868842846319 0 -0.36775571630023218 0.2927315942663431 0 -0.36899777432263853 0.30469822459034263 0 -0.36775571630023218 0.2927315942663431 0 -0.36899777432263853 0.30469822459034263 0 -0.35931620367806588 0.30475084950198522 0 -0.36775571630023218 0.2927315942663431 0 -0.35931620367806588 0.30475084950198522 0 -0.35261706249820868 0.29381533636168528 0 -0.36899777432263853 0.30469822459034263 0 -0.35931620367806588 0.30475084950198522 0 -0.36272901898995358 0.31473918551029578 0 -0.35931620367806588 0.30475084950198522 0 -0.35261706249820868 0.29381533636168528 0 -0.34344143829887858 0.30736403781452232 0 -0.35931620367806588 0.30475084950198522 0 -0.34344143829887858 0.30736403781452232 0 -0.35467675850453528 0.31743756764607989 0 -0.35931620367806588 0.30475084950198522 0 -0.35467675850453528 0.31743756764607989 0 -0.36272901898995358 0.31473918551029578 0 -0.35583614606747688 0.27501819518035592 0 -0.36775571630023218 0.2927315942663431 0 -0.35261706249820868 0.29381533636168528 0 -0.35583614606747688 0.27501819518035592 0 -0.35261706249820868 0.29381533636168528 0 -0.33673580814638959 0.28921200504521999 0 -0.35261706249820868 0.29381533636168528 0 -0.33673580814638959 0.28921200504521999 0 -0.34344143829887858 0.30736403781452232 0 -0.33673580814638959 0.28921200504521999 0 -0.32075162894010661 0.28280614760534989 0 -0.33379142081270979 0.2734424933293601 0 -0.34344143829887858 0.30736403781452232 0 -0.31699951866320542 0.30755322334125379 0 -0.34344143829887858 0.30736403781452232 0 -0.31699951866320542 0.30755322334125379 0 -0.33459812393413729 0.32207732583041709 0 -0.33673580814638959 0.28921200504521999 0 -0.34344143829887858 0.30736403781452232 0 -0.31699951866320542 0.30755322334125379 0 -0.33673580814638959 0.28921200504521999 0 -0.31699951866320542 0.30755322334125379 0 -0.32075162894010661 0.28280614760534989 0 -0.31699951866320542 0.30755322334125379 0 -0.32075162894010661 0.28280614760534989 0 -0.30493521127791462 0.28695781074044469 0 -0.32075162894010661 0.28280614760534989 0 -0.31931282352829687 0.26617321261290411 0 -0.33379142081270979 0.2734424933293601 0 -0.32075162894010661 0.28280614760534989 0 -0.31931282352829687 0.26617321261290411 0 -0.30493521127791462 0.28695781074044469 0 -0.35583614606747688 0.27501819518035592 0 -0.33673580814638959 0.28921200504521999 0 -0.33379142081270979 0.2734424933293601 0 -0.35583614606747688 0.27501819518035592 0 -0.33379142081270979 0.2734424933293601 0 -0.33952374355129727 0.25899057541505788 0 -0.31931282352829687 0.26617321261290411 0 -0.33379142081270979 0.2734424933293601 0 -0.33952374355129727 0.25899057541505788 0 -0.32200613725511351 0.24850726385495631 0 -0.31931282352829687 0.26617321261290411 0 -0.33952374355129727 0.25899057541505788 0 -0.32200613725511351 0.24850726385495631 0 -0.31931282352829687 0.26617321261290411 0 -0.30640548876467488 0.25787073169030861 0 -0.31931282352829687 0.26617321261290411 0 -0.30640548876467488 0.25787073169030861 0 -0.3010630097917536 0.27273037638764702 0 -0.31931282352829687 0.26617321261290411 0 -0.3010630097917536 0.27273037638764702 0 -0.30493521127791462 0.28695781074044469 0 -0.31931282352829687 0.26617321261290411 0 -0.30493521127791462 0.28695781074044469 0 -0.3010630097917536 0.27273037638764702 0 -0.29309283898050847 0.28048055459605348 0 -0.30493521127791462 0.28695781074044469 0 -0.3010630097917536 0.27273037638764702 0 -0.29309283898050847 0.28048055459605348 0 -0.28156868640737281 0.27216957229852412 0 -0.30640548876467488 0.25787073169030861 0 -0.3010630097917536 0.27273037638764702 0 -0.28156868640737281 0.27216957229852412 0 -0.30640548876467488 0.25787073169030861 0 -0.28156868640737281 0.27216957229852412 0 -0.28729818335365731 0.26780124082781631 0 -0.28156868640737281 0.27216957229852412 0 -0.28729818335365731 0.26780124082781631 0 -0.27880962639343299 0.26078065685839158 0 -0.29309283898050847 0.28048055459605348 0 -0.28156868640737281 0.27216957229852412 0 -0.28401529333418091 0.28255904946725641 0 -0.30640548876467488 0.25787073169030861 0 -0.28156868640737281 0.27216957229852412 0 -0.29125564533142001 0.24067530578368901 0 -0.30640548876467488 0.25787073169030861 0 -0.28729818335365731 0.26780124082781631 0 -0.29125564533142001 0.24067530578368901 0 -0.28729818335365731 0.26780124082781631 0 -0.27880962639343299 0.26078065685839158 0 -0.29125564533142001 0.24067530578368901 0 -0.28729818335365731 0.26780124082781631 0 -0.29125564533142001 0.24067530578368901 0 -0.26892213733164849 0.25365425058065472 0 -0.27880962639343299 0.26078065685839158 0 -0.26892213733164849 0.25365425058065472 0 -0.27880962639343299 0.26078065685839158 0 -0.26500347954306669 0.26960291480127369 0 -0.28156868640737281 0.27216957229852412 0 -0.25673188405007052 0.28646841290673969 0 -0.28156868640737281 0.27216957229852412 0 -0.26500347954306669 0.26960291480127369 0 -0.25673188405007052 0.28646841290673969 0 -0.28156868640737281 0.27216957229852412 0 -0.27880962639343299 0.26078065685839158 0 -0.26500347954306669 0.26960291480127369 0 -0.28156868640737281 0.27216957229852412 0 -0.27479408276187339 0.28687287199942368 0 -0.28401529333418091 0.28255904946725641 0 -0.26500347954306669 0.26960291480127369 0 -0.25265925142613249 0.26128234508680298 0 -0.25673188405007052 0.28646841290673969 0 -0.26892213733164849 0.25365425058065472 0 -0.26500347954306669 0.26960291480127369 0 -0.25265925142613249 0.26128234508680298 0 -0.25621817608628389 0.2460965770837312 0 -0.26892213733164849 0.25365425058065472 0 -0.25265925142613249 0.26128234508680298 0 -0.25505401324638421 0.30366623925853881 0 -0.26661761067819428 0.2958317928062858 0 -0.26721257633701828 0.30790943684761429 0 -0.25505401324638421 0.30366623925853881 0 -0.26721257633701828 0.30790943684761429 0 -0.25901197930261888 0.31383205914145501 0 -0.26721257633701828 0.30790943684761429 0 -0.25901197930261888 0.31383205914145501 0 -0.26528599585519008 0.31471464054907522 0 -0.25505401324638421 0.30366623925853881 0 -0.25901197930261888 0.31383205914145501 0 -0.24885494741763489 0.31718848033418301 0 -0.25505401324638421 0.30366623925853881 0 -0.25673188405007052 0.28646841290673969 0 -0.26661761067819428 0.2958317928062858 0 -0.26661761067819428 0.2958317928062858 0 -0.27573637841232751 0.29432500902679382 0 -0.27326763327687947 0.30016750757533939 0 -0.28156868640737281 0.27216957229852412 0 -0.25673188405007052 0.28646841290673969 0 -0.27479408276187339 0.28687287199942368 0 -0.26661761067819428 0.2958317928062858 0 -0.27479408276187339 0.28687287199942368 0 -0.27573637841232751 0.29432500902679382 0 -0.25673188405007052 0.28646841290673969 0 -0.26661761067819428 0.2958317928062858 0 -0.27479408276187339 0.28687287199942368 0 -0.27479408276187339 0.28687287199942368 0 -0.28401529333418091 0.28255904946725641 0 -0.28313816676434478 0.29069510378855717 0 -0.27479408276187339 0.28687287199942368 0 -0.27573637841232751 0.29432500902679382 0 -0.28313816676434478 0.29069510378855717 0 -0.27573637841232751 0.29432500902679382 0 -0.28086439858034518 0.29805776896436298 0 -0.28313816676434478 0.29069510378855717 0 -0.28086439858034518 0.29805776896436298 0 -0.27753065875984329 0.30327410754998058 0 -0.28274061889410179 0.30278083970340541 0 -0.27753065875984329 0.30327410754998058 0 -0.27514776209796898 0.30785266251660498 0 -0.28274061889410179 0.30278083970340541 0 -0.27753065875984329 0.30327410754998058 0 -0.27326763327687947 0.30016750757533939 0 -0.27348155140824082 0.30658246875079598 0 -0.28086439858034518 0.29805776896436298 0 -0.27753065875984329 0.30327410754998058 0 -0.27326763327687947 0.30016750757533939 0 -0.27573637841232751 0.29432500902679382 0 -0.28086439858034518 0.29805776896436298 0 -0.27326763327687947 0.30016750757533939 0 -0.26661761067819428 0.2958317928062858 0 -0.27326763327687947 0.30016750757533939 0 -0.26721257633701828 0.30790943684761429 0 -0.26721257633701828 0.30790943684761429 0 -0.27514776209796898 0.30785266251660498 0 -0.27123720609067609 0.3158529302113221 0 -0.26721257633701828 0.30790943684761429 0 -0.27348155140824082 0.30658246875079598 0 -0.27514776209796898 0.30785266251660498 0 -0.26721257633701828 0.30790943684761429 0 -0.27514776209796898 0.30785266251660498 0 -0.27326763327687947 0.30016750757533939 0 -0.26721257633701828 0.30790943684761429 0 -0.27348155140824082 0.30658246875079598 0 -0.27514776209796898 0.30785266251660498 0 -0.2851872012256097 0.31550597615259851 0 -0.27753065875984329 0.30327410754998058 0 -0.27348155140824082 0.30658246875079598 0 -0.27514776209796898 0.30785266251660498 0 -0.27348155140824082 0.30658246875079598 0 -0.27514776209796898 0.30785266251660498 0 -0.27514776209796898 0.30785266251660498 0 -0.2905575990275322 0.30774240886798532 0 -0.27514776209796898 0.30785266251660498 0 -0.2905575990275322 0.30774240886798532 0 -0.2851872012256097 0.31550597615259851 0 -0.2896026760048197 0.2969772506180926 0 -0.2905575990275322 0.30774240886798532 0 -0.30493521127791462 0.28695781074044469 0 -0.27514776209796898 0.30785266251660498 0 -0.28274061889410179 0.30278083970340541 0 -0.2905575990275322 0.30774240886798532 0 -0.2905575990275322 0.30774240886798532 0 -0.2851872012256097 0.31550597615259851 0 -0.28274061889410179 0.30278083970340541 0 -0.2896026760048197 0.2969772506180926 0 -0.2905575990275322 0.30774240886798532 0 -0.28086439858034518 0.29805776896436298 0 -0.28274061889410179 0.30278083970340541 0 -0.2896026760048197 0.2969772506180926 0 -0.28401529333418091 0.28255904946725641 0 -0.28313816676434478 0.29069510378855717 0 -0.29095683727235372 0.28753395384208091 0 -0.28086439858034518 0.29805776896436298 0 -0.2896026760048197 0.2969772506180926 0 -0.28313816676434478 0.29069510378855717 0 -0.2896026760048197 0.2969772506180926 0 -0.28313816676434478 0.29069510378855717 0 -0.29095683727235372 0.28753395384208091 0 -0.2896026760048197 0.2969772506180926 0 -0.29095683727235372 0.28753395384208091 0 -0.30493521127791462 0.28695781074044469 0 -0.29309283898050847 0.28048055459605348 0 -0.29095683727235372 0.28753395384208091 0 -0.30493521127791462 0.28695781074044469 0 -0.29309283898050847 0.28048055459605348 0 -0.28401529333418091 0.28255904946725641 0 -0.29095683727235372 0.28753395384208091 0 -0.31699951866320542 0.30755322334125379 0 -0.2905575990275322 0.30774240886798532 0 -0.30563014257680821 0.31779627416788381 0 -0.31699951866320542 0.30755322334125379 0 -0.2905575990275322 0.30774240886798532 0 -0.2905575990275322 0.30774240886798532 0 -0.30493521127791462 0.28695781074044469 0 -0.31699951866320542 0.30755322334125379 0 -0.2905575990275322 0.30774240886798532 0 -0.30493521127791462 0.28695781074044469 0 -0.30538608464820588 0.33090408634228141 0 -0.28942706780696309 0.31873813168532672 0 -0.30563014257680821 0.31779627416788381 0 -0.30538608464820588 0.33090408634228141 0 -0.31811651498789978 0.32488887006413791 0 -0.30563014257680821 0.31779627416788381 0 -0.30538608464820588 0.33090408634228141 0 -0.2937791937433501 0.31637108240395312 0 -0.30538608464820588 0.33090408634228141 0 -0.3017933608705089 0.344447887165377 0 -0.32134510148944728 0.34307004099923799 0 -0.30538608464820588 0.33090408634228141 0 -0.29093013722955491 0.33661105704622479 0 -0.3017933608705089 0.344447887165377 0 -0.30538608464820588 0.33090408634228141 0 -0.29093013722955491 0.33661105704622479 0 -0.2885751077852815 0.32830696870384862 0 -0.29093013722955491 0.33661105704622479 0 -0.28224162025157051 0.34582573333151501 0 -0.3017933608705089 0.344447887165377 0 -0.2885751077852815 0.32830696870384862 0 -0.28146834572906437 0.33465123959114113 0 -0.2790455690922089 0.3243844570517187 0 -0.29093013722955491 0.33661105704622479 0 -0.2885751077852815 0.32830696870384862 0 -0.28146834572906437 0.33465123959114113 0 -0.29093013722955491 0.33661105704622479 0 -0.28146834572906437 0.33465123959114113 0 -0.28224162025157051 0.34582573333151501 0 -0.30538608464820588 0.33090408634228141 0 -0.2885751077852815 0.32830696870384862 0 -0.28942706780696309 0.31873813168532672 0 -0.30538608464820588 0.33090408634228141 0 -0.28942706780696309 0.31873813168532672 0 -0.2937791937433501 0.31637108240395312 0 -0.28942706780696309 0.31873813168532672 0 -0.2937791937433501 0.31637108240395312 0 -0.2851872012256097 0.31550597615259851 0 -0.2905575990275322 0.30774240886798532 0 -0.30563014257680821 0.31779627416788381 0 -0.2937791937433501 0.31637108240395312 0 -0.2905575990275322 0.30774240886798532 0 -0.2937791937433501 0.31637108240395312 0 -0.2851872012256097 0.31550597615259851 0 -0.28942706780696309 0.31873813168532672 0 -0.2937791937433501 0.31637108240395312 0 -0.2885751077852815 0.32830696870384862 0 -0.28942706780696309 0.31873813168532672 0 -0.2790455690922089 0.3243844570517187 0 -0.28942706780696309 0.31873813168532672 0 -0.2790455690922089 0.3243844570517187 0 -0.2851872012256097 0.31550597615259851 0 -0.2790455690922089 0.3243844570517187 0 -0.28942706780696309 0.31873813168532672 0 -0.2851872012256097 0.31550597615259851 0 -0.2790455690922089 0.3243844570517187 0 -0.28942706780696309 0.31873813168532672 0 -0.2851872012256097 0.31550597615259851 0 -0.27514776209796898 0.30785266251660498 0 -0.2851872012256097 0.31550597615259851 0 -0.27699557949655113 0.31645322234696882 0 -0.2851872012256097 0.31550597615259851 0 -0.27699557949655113 0.31645322234696882 0 -0.2790455690922089 0.3243844570517187 0 -0.27514776209796898 0.30785266251660498 0 -0.27699557949655113 0.31645322234696882 0 -0.27123720609067609 0.3158529302113221 0 -0.27001263578126711 0.32263717043347712 0 -0.2790455690922089 0.3243844570517187 0 -0.25910260253645218 0.33523110656146687 0 -0.26721257633701828 0.30790943684761429 0 -0.27123720609067609 0.3158529302113221 0 -0.26528599585519008 0.31471464054907522 0 -0.27699557949655113 0.31645322234696882 0 -0.27123720609067609 0.3158529302113221 0 -0.27001263578126711 0.32263717043347712 0 -0.27123720609067609 0.3158529302113221 0 -0.26528599585519008 0.31471464054907522 0 -0.26368222169044719 0.32126413599590953 0 -0.27123720609067609 0.3158529302113221 0 -0.27001263578126711 0.32263717043347712 0 -0.26368222169044719 0.32126413599590953 0 -0.27699557949655113 0.31645322234696882 0 -0.27001263578126711 0.32263717043347712 0 -0.2790455690922089 0.3243844570517187 0 -0.2790455690922089 0.3243844570517187 0 -0.25910260253645218 0.33523110656146687 0 -0.2790455690922089 0.3243844570517187 0 -0.26824012707650141 0.34000504592112352 0 -0.28146834572906437 0.33465123959114113 0 -0.2790455690922089 0.3243844570517187 0 -0.26824012707650141 0.34000504592112352 0 -0.2790455690922089 0.3243844570517187 0 -0.26824012707650141 0.34000504592112352 0 -0.25910260253645218 0.33523110656146687 0 -0.28146834572906437 0.33465123959114113 0 -0.26824012707650141 0.34000504592112352 0 -0.28224162025157051 0.34582573333151501 0 -0.25910260253645218 0.33523110656146687 0 -0.25407523553642281 0.3497448278934856 0 -0.23915963598069589 0.34607775607121571 0 -0.25910260253645218 0.33523110656146687 0 -0.25407523553642281 0.3497448278934856 0 -0.26309588156361569 0.34576168367824162 0 -0.26824012707650141 0.34000504592112352 0 -0.25910260253645218 0.33523110656146687 0 -0.26309588156361569 0.34576168367824162 0 -0.25910260253645218 0.33523110656146687 0 -0.25451497659773847 0.32559442806853028 0 -0.24843663428782739 0.33758714710907461 0 -0.25451497659773847 0.32559442806853028 0 -0.25901197930261888 0.31383205914145501 0 -0.24885494741763489 0.31718848033418301 0 -0.25451497659773847 0.32559442806853028 0 -0.25901197930261888 0.31383205914145501 0 -0.26368222169044719 0.32126413599590953 0 -0.25901197930261888 0.31383205914145501 0 -0.26528599585519008 0.31471464054907522 0 -0.26368222169044719 0.32126413599590953 0 -0.27001263578126711 0.32263717043347712 0 -0.25910260253645218 0.33523110656146687 0 -0.26368222169044719 0.32126413599590953 0 -0.25910260253645218 0.33523110656146687 0 -0.25451497659773847 0.32559442806853028 0 -0.26368222169044719 0.32126413599590953 0 -0.26470209097228098 0.37140351159401941 0 -0.25562758441007077 0.36194187249828802 0 -0.266880351992417 0.3582272519812631 0 -0.26470209097228098 0.37140351159401941 0 -0.25213085833087667 0.37355178257669552 0 -0.25562758441007077 0.36194187249828802 0 -0.25213085833087667 0.37355178257669552 0 -0.25562758441007077 0.36194187249828802 0 -0.24329038266145239 0.36134909741814653 0 -0.25562758441007077 0.36194187249828802 0 -0.25407523553642281 0.3497448278934856 0 -0.24329038266145239 0.36134909741814653 0 -0.25407523553642281 0.3497448278934856 0 -0.26309588156361569 0.34576168367824162 0 -0.266880351992417 0.3582272519812631 0 -0.25562758441007077 0.36194187249828802 0 -0.25407523553642281 0.3497448278934856 0 -0.266880351992417 0.3582272519812631 0 -0.266880351992417 0.3582272519812631 0 -0.27640009279511962 0.35155878343443242 0 -0.28837447244510311 0.36628710188532532 0 -0.26309588156361569 0.34576168367824162 0 -0.266880351992417 0.3582272519812631 0 -0.27640009279511962 0.35155878343443242 0 -0.26824012707650141 0.34000504592112352 0 -0.26309588156361569 0.34576168367824162 0 -0.27640009279511962 0.35155878343443242 0 -0.26824012707650141 0.34000504592112352 0 -0.27640009279511962 0.35155878343443242 0 -0.28224162025157051 0.34582573333151501 0 -0.266880351992417 0.3582272519812631 0 -0.28837447244510311 0.36628710188532532 0 -0.266880351992417 0.3582272519812631 0 -0.28837447244510311 0.36628710188532532 0 -0.27747916353329311 0.37529003384729942 0 -0.26470209097228098 0.37140351159401941 0 -0.266880351992417 0.3582272519812631 0 -0.27747916353329311 0.37529003384729942 0 -0.28837447244510311 0.36628710188532532 0 -0.28714059247178902 0.37543321948423419 0 -0.27747916353329311 0.37529003384729942 0 -0.28837447244510311 0.36628710188532532 0 -0.28956810344150979 0.35324588380912608 0 -0.30292150033679799 0.36018321991941088 0 -0.28837447244510311 0.36628710188532532 0 -0.29874239202075642 0.37528196759933868 0 -0.28714059247178902 0.37543321948423419 0 -0.28224162025157051 0.34582573333151501 0 -0.3017933608705089 0.344447887165377 0 -0.28224162025157051 0.34582573333151501 0 -0.28956810344150979 0.35324588380912608 0 -0.3017933608705089 0.344447887165377 0 -0.27640009279511962 0.35155878343443242 0 -0.28224162025157051 0.34582573333151501 0 -0.28956810344150979 0.35324588380912608 0 -0.27640009279511962 0.35155878343443242 0 -0.28837447244510311 0.36628710188532532 0 -0.28956810344150979 0.35324588380912608 0 -0.3017933608705089 0.344447887165377 0 -0.31193410579265052 0.3536039280541286 0 -0.30292150033679799 0.36018321991941088 0 -0.28956810344150979 0.35324588380912608 0 -0.3017933608705089 0.344447887165377 0 -0.30292150033679799 0.36018321991941088 0 -0.3017933608705089 0.344447887165377 0 -0.32134510148944728 0.34307004099923799 0 -0.3017933608705089 0.344447887165377 0 -0.31193410579265052 0.3536039280541286 0 -0.32134510148944728 0.34307004099923799 0 -0.31193410579265052 0.3536039280541286 0 -0.30292150033679799 0.36018321991941088 0 -0.31340485972314069 0.36375751913665871 0 -0.28837447244510311 0.36628710188532532 0 -0.30292150033679799 0.36018321991941088 0 -0.30986859289778912 0.37434695178938759 0 -0.28837447244510311 0.36628710188532532 0 -0.30986859289778912 0.37434695178938759 0 -0.28837447244510311 0.36628710188532532 0 -0.30986859289778912 0.37434695178938759 0 -0.29874239202075642 0.37528196759933868 0 -0.30292150033679799 0.36018321991941088 0 -0.30986859289778912 0.37434695178938759 0 -0.31340485972314069 0.36375751913665871 0 -0.30986859289778912 0.37434695178938759 0 -0.31340485972314069 0.36375751913665871 0 -0.32167824364597858 0.36970754211250728 0 -0.31340485972314069 0.36375751913665871 0 -0.32243327870136801 0.35950699838777223 0 -0.32167824364597858 0.36970754211250728 0 -0.32243327870136801 0.35950699838777223 0 -0.32167824364597858 0.36970754211250728 0 -0.33132177355711989 0.36851943955526861 0 -0.32167824364597858 0.36970754211250728 0 -0.33132177355711989 0.36851943955526861 0 -0.33136271335047512 0.38240680169344993 0 -0.32243327870136801 0.35950699838777223 0 -0.33132177355711989 0.36851943955526861 0 -0.33989838930305449 0.35721367281084643 0 -0.33132177355711989 0.36851943955526861 0 -0.34304766554360439 0.37232322735168022 0 -0.33136271335047512 0.38240680169344993 0 -0.33132177355711989 0.36851943955526861 0 -0.34304766554360439 0.37232322735168022 0 -0.33989838930305449 0.35721367281084643 0 -0.33989838930305449 0.35721367281084643 0 -0.32134510148944728 0.34307004099923799 0 -0.33989838930305449 0.35721367281084643 0 -0.32134510148944728 0.34307004099923799 0 -0.3500233487104954 0.34104903357308669 0 -0.32243327870136801 0.35950699838777223 0 -0.33989838930305449 0.35721367281084643 0 -0.32134510148944728 0.34307004099923799 0 -0.31193410579265052 0.3536039280541286 0 -0.32243327870136801 0.35950699838777223 0 -0.32134510148944728 0.34307004099923799 0 -0.31193410579265052 0.3536039280541286 0 -0.31340485972314069 0.36375751913665871 0 -0.32243327870136801 0.35950699838777223 0 -0.30538608464820588 0.33090408634228141 0 -0.32134510148944728 0.34307004099923799 0 -0.30538608464820588 0.33090408634228141 0 -0.32134510148944728 0.34307004099923799 0 -0.31811651498789978 0.32488887006413791 0 -0.32134510148944728 0.34307004099923799 0 -0.31811651498789978 0.32488887006413791 0 -0.33459812393413729 0.32207732583041709 0 -0.31699951866320542 0.30755322334125379 0 -0.30563014257680821 0.31779627416788381 0 -0.31811651498789978 0.32488887006413791 0 -0.31699951866320542 0.30755322334125379 0 -0.31811651498789978 0.32488887006413791 0 -0.33459812393413729 0.32207732583041709 0 -0.32134510148944728 0.34307004099923799 0 -0.34342889555096417 0.33131534648734451 0 -0.3500233487104954 0.34104903357308669 0 -0.32134510148944728 0.34307004099923799 0 -0.33459812393413729 0.32207732583041709 0 -0.34342889555096417 0.33131534648734451 0 -0.32134510148944728 0.34307004099923799 0 -0.3500233487104954 0.34104903357308669 0 -0.3500233487104954 0.34104903357308669 0 -0.35650114511620551 0.33294276438790088 0 -0.36794029410566942 0.33226259727897972 0 -0.34342889555096417 0.33131534648734451 0 -0.3500233487104954 0.34104903357308669 0 -0.35650114511620551 0.33294276438790088 0 -0.33459812393413729 0.32207732583041709 0 -0.34342889555096417 0.33131534648734451 0 -0.35467675850453528 0.31743756764607989 0 -0.34344143829887858 0.30736403781452232 0 -0.33459812393413729 0.32207732583041709 0 -0.35467675850453528 0.31743756764607989 0 -0.35650114511620551 0.33294276438790088 0 -0.35467675850453528 0.31743756764607989 0 -0.36272901898995358 0.31473918551029578 0 -0.34342889555096417 0.33131534648734451 0 -0.35650114511620551 0.33294276438790088 0 -0.35467675850453528 0.31743756764607989 0 -0.35650114511620551 0.33294276438790088 0 -0.36272901898995358 0.31473918551029578 0 -0.37415321332832258 0.31386652142517069 0 -0.35650114511620551 0.33294276438790088 0 -0.37415321332832258 0.31386652142517069 0 -0.35650114511620551 0.33294276438790088 0 -0.37442838800096029 0.32044424157556423 0 -0.37415321332832258 0.31386652142517069 0 -0.37816355277066899 0.32985684687273281 0 -0.37442838800096029 0.32044424157556423 0 -0.36794029410566942 0.33226259727897972 0 -0.3787015959315434 0.33902802614693439 0 -0.3500233487104954 0.34104903357308669 0 -0.36794029410566942 0.33226259727897972 0 -0.35650114511620551 0.33294276438790088 0 -0.37442838800096029 0.32044424157556423 0 -0.36794029410566942 0.33226259727897972 0 -0.3787015959315434 0.33902802614693439 0 -0.3500233487104954 0.34104903357308669 0 -0.3787015959315434 0.33902802614693439 0 -0.37816355277066899 0.32985684687273281 0 -0.36794029410566942 0.33226259727897972 0 -0.3787015959315434 0.33902802614693439 0 -0.3500233487104954 0.34104903357308669 0 -0.36501658974902518 0.35367198233662939 0 -0.37823932191431281 0.35548757599615399 0 -0.3787015959315434 0.33902802614693439 0 -0.36501658974902518 0.35367198233662939 0 -0.37823932191431281 0.35548757599615399 0 -0.36501658974902518 0.35367198233662939 0 -0.37024808467873749 0.36543132639488701 0 -0.36501658974902518 0.35367198233662939 0 -0.37024808467873749 0.36543132639488701 0 -0.35845167711666143 0.37135730462245548 0 -0.37949655700884349 0.37153259571527891 0 -0.37024808467873749 0.36543132639488701 0 -0.36758280318953013 0.37627165255961892 0 -0.37024808467873749 0.36543132639488701 0 -0.35845167711666143 0.37135730462245548 0 -0.36758280318953013 0.37627165255961892 0 -0.36501658974902518 0.35367198233662939 0 -0.35845167711666143 0.37135730462245548 0 -0.35334750121980912 0.35582299833575448 0 -0.34304766554360439 0.37232322735168022 0 -0.33989838930305449 0.35721367281084643 0 -0.35845167711666143 0.37135730462245548 0 -0.33989838930305449 0.35721367281084643 0 -0.35845167711666143 0.37135730462245548 0 -0.35334750121980912 0.35582299833575448 0 -0.33989838930305449 0.35721367281084643 0 -0.35845167711666143 0.37135730462245548 0 -0.33989838930305449 0.35721367281084643 0 -0.3500233487104954 0.34104903357308669 0 -0.35334750121980912 0.35582299833575448 0 -0.3500233487104954 0.34104903357308669 0 -0.36501658974902518 0.35367198233662939 0 -0.35334750121980912 0.35582299833575448 0 -0.35285683380316007 0.39046665159751448 0 -0.36027192889352422 0.40897543894708011 0 -0.34270265381785459 0.40768080501023862 0 -0.34304766554360439 0.37232322735168022 0 -0.35845167711666143 0.37135730462245548 0 -0.35285683380316007 0.39046665159751448 0 -0.37686086334024771 0.38257038446795849 0 -0.35285683380316007 0.39046665159751448 0 -0.37686086334024771 0.38257038446795849 0 -0.35285683380316007 0.39046665159751448 0 -0.36758280318953013 0.37627165255961892 0 -0.35845167711666143 0.37135730462245548 0 -0.35285683380316007 0.39046665159751448 0 -0.36758280318953013 0.37627165255961892 0 -0.37686086334024771 0.38257038446795849 0 -0.37949655700884349 0.37153259571527891 0 -0.36758280318953013 0.37627165255961892 0 -0.37769092578324193 0.39977892163450779 0 -0.35285683380316007 0.39046665159751448 0 -0.37769092578324193 0.39977892163450779 0 -0.37686086334024771 0.38257038446795849 0 -0.35285683380316007 0.39046665159751448 0 -0.37769092578324193 0.39977892163450779 0 -0.35285683380316007 0.39046665159751448 0 -0.36027192889352422 0.40897543894708011 0 -0.37875820238401509 0.42613984176471847 0 -0.37769092578324193 0.39977892163450779 0 -0.36027192889352422 0.40897543894708011 0 -0.37875820238401509 0.42613984176471847 0 -0.36027192889352422 0.40897543894708011 0 -0.36048507512927641 0.42545129427310208 0 -0.37875820238401509 0.42613984176471847 0 -0.36048507512927641 0.42545129427310208 0 -0.35499138700470761 0.44318849185793469 0 -0.37875820238401509 0.42613984176471847 0 -0.35499138700470761 0.44318849185793469 0 -0.34691622899781399 0.42161541908905831 0 -0.33223168701086447 0.43660936806356893 0 -0.35499138700470761 0.44318849185793469 0 -0.36048507512927641 0.42545129427310208 0 -0.34691622899781399 0.42161541908905831 0 -0.35499138700470761 0.44318849185793469 0 -0.36027192889352422 0.40897543894708011 0 -0.34691622899781399 0.42161541908905831 0 -0.34270265381785459 0.40768080501023862 0 -0.36027192889352422 0.40897543894708011 0 -0.36048507512927641 0.42545129427310208 0 -0.34691622899781399 0.42161541908905831 0 -0.34270265381785459 0.40768080501023862 0 -0.32841174735063311 0.41773478988879181 0 -0.32505653004414181 0.39961172552874852 0 -0.34691622899781399 0.42161541908905831 0 -0.34270265381785459 0.40768080501023862 0 -0.32841174735063311 0.41773478988879181 0 -0.34691622899781399 0.42161541908905831 0 -0.32841174735063311 0.41773478988879181 0 -0.33223168701086447 0.43660936806356893 0 -0.32841174735063311 0.41773478988879181 0 -0.33223168701086447 0.43660936806356893 0 -0.31148998866141242 0.43181261152586448 0 -0.32841174735063311 0.41773478988879181 0 -0.31441363705571701 0.41408607272300291 0 -0.32505653004414181 0.39961172552874852 0 -0.32841174735063311 0.41773478988879181 0 -0.31441363705571701 0.41408607272300291 0 -0.31148998866141242 0.43181261152586448 0 -0.32505653004414181 0.39961172552874852 0 -0.31219235154091651 0.39185403334122892 0 -0.30619500853749271 0.39725637532293351 0 -0.32505653004414181 0.39961172552874852 0 -0.31778050989885959 0.38527433798844479 0 -0.31219235154091651 0.39185403334122892 0 -0.35285683380316007 0.39046665159751448 0 -0.32505653004414181 0.39961172552874852 0 -0.33136271335047512 0.38240680169344993 0 -0.35285683380316007 0.39046665159751448 0 -0.34270265381785459 0.40768080501023862 0 -0.32505653004414181 0.39961172552874852 0 -0.35285683380316007 0.39046665159751448 0 -0.32505653004414181 0.39961172552874852 0 -0.35285683380316007 0.39046665159751448 0 -0.33136271335047512 0.38240680169344993 0 -0.34304766554360439 0.37232322735168022 0 -0.35285683380316007 0.39046665159751448 0 -0.33136271335047512 0.38240680169344993 0 -0.30986859289778912 0.37434695178938759 0 -0.32167824364597858 0.36970754211250728 0 -0.33136271335047512 0.38240680169344993 0 -0.30986859289778912 0.37434695178938759 0 -0.33136271335047512 0.38240680169344993 0 -0.32505653004414181 0.39961172552874852 0 -0.33136271335047512 0.38240680169344993 0 -0.31778050989885959 0.38527433798844479 0 -0.30986859289778912 0.37434695178938759 0 -0.33136271335047512 0.38240680169344993 0 -0.31778050989885959 0.38527433798844479 0 -0.30986859289778912 0.37434695178938759 0 -0.31778050989885959 0.38527433798844479 0 -0.30574515252343709 0.38648905476423068 0 -0.30986859289778912 0.37434695178938759 0 -0.30574515252343709 0.38648905476423068 0 -0.29874239202075642 0.37528196759933868 0 -0.30574515252343709 0.38648905476423068 0 -0.29874239202075642 0.37528196759933868 0 -0.29146244090030071 0.40289140707507309 0 -0.31778050989885959 0.38527433798844479 0 -0.30574515252343709 0.38648905476423068 0 -0.31219235154091651 0.39185403334122892 0 -0.32505653004414181 0.39961172552874852 0 -0.30619500853749271 0.39725637532293351 0 -0.29725622628512233 0.40875679945997928 0 -0.32505653004414181 0.39961172552874852 0 -0.29725622628512233 0.40875679945997928 0 -0.30574515252343709 0.38648905476423068 0 -0.30619500853749271 0.39725637532293351 0 -0.29146244090030071 0.40289140707507309 0 -0.30574515252343709 0.38648905476423068 0 -0.31219235154091651 0.39185403334122892 0 -0.30619500853749271 0.39725637532293351 0 -0.30619500853749271 0.39725637532293351 0 -0.29146244090030071 0.40289140707507309 0 -0.29725622628512233 0.40875679945997928 0 -0.29146244090030071 0.40289140707507309 0 -0.2882496590958894 0.39023794275143442 0 -0.278827461574497 0.39790462172635238 0 -0.28396634188800352 0.38487377460497352 0 -0.2882496590958894 0.39023794275143442 0 -0.278827461574497 0.39790462172635238 0 -0.29146244090030071 0.40289140707507309 0 -0.278827461574497 0.39790462172635238 0 -0.27940045790464241 0.41220012044695847 0 -0.29874239202075642 0.37528196759933868 0 -0.29146244090030071 0.40289140707507309 0 -0.29874239202075642 0.37528196759933868 0 -0.29146244090030071 0.40289140707507309 0 -0.2882496590958894 0.39023794275143442 0 -0.29874239202075642 0.37528196759933868 0 -0.28396634188800352 0.38487377460497352 0 -0.28714059247178902 0.37543321948423419 0 -0.29874239202075642 0.37528196759933868 0 -0.28396634188800352 0.38487377460497352 0 -0.2882496590958894 0.39023794275143442 0 -0.28396634188800352 0.38487377460497352 0 -0.28714059247178902 0.37543321948423419 0 -0.27747916353329311 0.37529003384729942 0 -0.28396634188800352 0.38487377460497352 0 -0.27747916353329311 0.37529003384729942 0 -0.26775424033426293 0.38456849691175748 0 -0.28396634188800352 0.38487377460497352 0 -0.26775424033426293 0.38456849691175748 0 -0.278827461574497 0.39790462172635238 0 -0.26470209097228098 0.37140351159401941 0 -0.27747916353329311 0.37529003384729942 0 -0.26775424033426293 0.38456849691175748 0 -0.278827461574497 0.39790462172635238 0 -0.26298604578065232 0.3973558675440883 0 -0.2677584473194361 0.40899541659639099 0 -0.26775424033426293 0.38456849691175748 0 -0.278827461574497 0.39790462172635238 0 -0.26298604578065232 0.3973558675440883 0 -0.26298604578065232 0.3973558675440883 0 -0.25152819264859128 0.38883491631829081 0 -0.2490618870264745 0.40647588616764979 0 -0.26298604578065232 0.3973558675440883 0 -0.2677584473194361 0.40899541659639099 0 -0.2490618870264745 0.40647588616764979 0 -0.25213085833087667 0.37355178257669552 0 -0.26775424033426293 0.38456849691175748 0 -0.25152819264859128 0.38883491631829081 0 -0.26775424033426293 0.38456849691175748 0 -0.26298604578065232 0.3973558675440883 0 -0.25152819264859128 0.38883491631829081 0 -0.26470209097228098 0.37140351159401941 0 -0.25213085833087667 0.37355178257669552 0 -0.26775424033426293 0.38456849691175748 0 -0.2572482915111563 0.42152384209731297 0 -0.26330490497154813 0.43976041958731371 0 -0.24092688658692171 0.43286849171069308 0 -0.2572482915111563 0.42152384209731297 0 -0.27163392734069919 0.42205675226444578 0 -0.26330490497154813 0.43976041958731371 0 -0.2572482915111563 0.42152384209731297 0 -0.2677584473194361 0.40899541659639099 0 -0.2490618870264745 0.40647588616764979 0 -0.2572482915111563 0.42152384209731297 0 -0.2677584473194361 0.40899541659639099 0 -0.27163392734069919 0.42205675226444578 0 -0.27940045790464241 0.41220012044695847 0 -0.27163392734069919 0.42205675226444578 0 -0.28418248977984512 0.43050084655080739 0 -0.2677584473194361 0.40899541659639099 0 -0.27940045790464241 0.41220012044695847 0 -0.27163392734069919 0.42205675226444578 0 -0.278827461574497 0.39790462172635238 0 -0.2677584473194361 0.40899541659639099 0 -0.27940045790464241 0.41220012044695847 0 -0.27163392734069919 0.42205675226444578 0 -0.28418248977984512 0.43050084655080739 0 -0.26330490497154813 0.43976041958731371 0 -0.28418248977984512 0.43050084655080739 0 -0.29943060469912958 0.42576946359573847 0 -0.28981068171355151 0.44369098771903792 0 -0.29146244090030071 0.40289140707507309 0 -0.28418248977984512 0.43050084655080739 0 -0.29146244090030071 0.40289140707507309 0 -0.27940045790464241 0.41220012044695847 0 -0.28418248977984512 0.43050084655080739 0 -0.28418248977984512 0.43050084655080739 0 -0.29725622628512233 0.40875679945997928 0 -0.29943060469912958 0.42576946359573847 0 -0.29146244090030071 0.40289140707507309 0 -0.28418248977984512 0.43050084655080739 0 -0.29725622628512233 0.40875679945997928 0 -0.31441363705571701 0.41408607272300291 0 -0.32505653004414181 0.39961172552874852 0 -0.29725622628512233 0.40875679945997928 0 -0.31441363705571701 0.41408607272300291 0 -0.29725622628512233 0.40875679945997928 0 -0.29943060469912958 0.42576946359573847 0 -0.31441363705571701 0.41408607272300291 0 -0.29943060469912958 0.42576946359573847 0 -0.31148998866141242 0.43181261152586448 0 -0.29943060469912958 0.42576946359573847 0 -0.31148998866141242 0.43181261152586448 0 -0.28981068171355151 0.44369098771903792 0 -0.31148998866141242 0.43181261152586448 0 -0.30120616623050861 0.45239726712555162 0 -0.31718999816658727 0.45065056632578487 0 -0.31148998866141242 0.43181261152586448 0 -0.30120616623050861 0.45239726712555162 0 -0.31148998866141242 0.43181261152586448 0 -0.30120616623050861 0.45239726712555162 0 -0.28981068171355151 0.44369098771903792 0 -0.30120616623050861 0.45239726712555162 0 -0.29092234379960469 0.47298192272523881 0 -0.30745775624609217 0.47728579204436761 0 -0.30120616623050861 0.45239726712555162 0 -0.30745775624609217 0.47728579204436761 0 -0.31718999816658727 0.45065056632578487 0 -0.2852957606144535 0.45730244818253718 0 -0.28186649269177161 0.46567885888970018 0 -0.29092234379960469 0.47298192272523881 0 -0.30120616623050861 0.45239726712555162 0 -0.29092234379960469 0.47298192272523881 0 -0.30120616623050861 0.45239726712555162 0 -0.2852957606144535 0.45730244818253718 0 -0.29092234379960469 0.47298192272523881 0 -0.2852957606144535 0.45730244818253718 0 -0.28186649269177161 0.46567885888970018 0 -0.27690253865938408 0.45811028602654041 0 -0.28418248977984512 0.43050084655080739 0 -0.28981068171355151 0.44369098771903792 0 -0.27690253865938408 0.45811028602654041 0 -0.30120616623050861 0.45239726712555162 0 -0.2852957606144535 0.45730244818253718 0 -0.28981068171355151 0.44369098771903792 0 -0.2852957606144535 0.45730244818253718 0 -0.28981068171355151 0.44369098771903792 0 -0.27690253865938408 0.45811028602654041 0 -0.28418248977984512 0.43050084655080739 0 -0.27690253865938408 0.45811028602654041 0 -0.28418248977984512 0.43050084655080739 0 -0.27690253865938408 0.45811028602654041 0 -0.26330490497154813 0.43976041958731371 0 -0.2852957606144535 0.45730244818253718 0 -0.27690253865938408 0.45811028602654041 0 -0.28186649269177161 0.46567885888970018 0 -0.27690253865938408 0.45811028602654041 0 -0.27835780074514338 0.47366975871288508 0 -0.27690253865938408 0.45811028602654041 0 -0.25345677561811758 0.46036691342989022 0 -0.27690253865938408 0.45811028602654041 0 -0.25345677561811758 0.46036691342989022 0 -0.26590293397843329 0.47057525233348851 0 -0.25345677561811758 0.46036691342989022 0 -0.25315469521642581 0.4750486889203015 0 -0.26590293397843329 0.47057525233348851 0 -0.25345677561811758 0.46036691342989022 0 -0.26330490497154813 0.43976041958731371 0 -0.24129970279445639 0.44943490890582899 0 -0.27690253865938408 0.45811028602654041 0 -0.25345677561811758 0.46036691342989022 0 -0.26330490497154813 0.43976041958731371 0 -0.26169037092037989 0.4910190989046625 0 -0.25397816739109252 0.5 0 -0.27113802145370669 0.49283981386083792 0 -0.26169037092037989 0.4910190989046625 0 -0.25474868654415728 0.48692894813519849 0 -0.26689660829256312 0.48430763362261348 0 -0.26169037092037989 0.4910190989046625 0 -0.25397816739109252 0.5 0 -0.25474868654415728 0.48692894813519849 0 -0.25315469521642581 0.4750486889203015 0 -0.26689660829256312 0.48430763362261348 0 -0.25315469521642581 0.4750486889203015 0 -0.26689660829256312 0.48430763362261348 0 -0.26590293397843329 0.47057525233348851 0 -0.25474868654415728 0.48692894813519849 0 -0.25315469521642581 0.4750486889203015 0 -0.26689660829256312 0.48430763362261348 0 -0.27690253865938408 0.45811028602654041 0 -0.26590293397843329 0.47057525233348851 0 -0.26946370716205509 0.4860372782758946 0 -0.27690253865938408 0.45811028602654041 0 -0.26946370716205509 0.4860372782758946 0 -0.27690253865938408 0.45811028602654041 0 -0.27835780074514338 0.47366975871288508 0 -0.26946370716205509 0.4860372782758946 0 -0.26689660829256312 0.48430763362261348 0 -0.26590293397843329 0.47057525233348851 0 -0.26946370716205509 0.4860372782758946 0 -0.28186649269177161 0.46567885888970018 0 -0.27835780074514338 0.47366975871288508 0 -0.28298297564177088 0.4743823417855309 0 -0.27835780074514338 0.47366975871288508 0 -0.2798907507987049 0.48286402398659151 0 -0.28298297564177088 0.4743823417855309 0 -0.27835780074514338 0.47366975871288508 0 -0.2798907507987049 0.48286402398659151 0 -0.26946370716205509 0.4860372782758946 0 -0.26946370716205509 0.4860372782758946 0 -0.28063852136870049 0.49356657832492562 0 -0.26946370716205509 0.4860372782758946 0 -0.27113802145370669 0.49283981386083792 0 -0.28063852136870049 0.49356657832492562 0 -0.2798907507987049 0.48286402398659151 0 -0.26946370716205509 0.4860372782758946 0 -0.28063852136870049 0.49356657832492562 0 -0.25397816739109252 0.5 0 -0.27113802145370669 0.49283981386083792 0 -0.27742446875513049 0.50000000000000155 0 -0.26689660829256312 0.48430763362261348 0 -0.26946370716205509 0.4860372782758946 0 -0.27113802145370669 0.49283981386083792 0 -0.26169037092037989 0.4910190989046625 0 -0.26689660829256312 0.48430763362261348 0 -0.27113802145370669 0.49283981386083792 0 -0.26689660829256312 0.48430763362261348 0 -0.26946370716205509 0.4860372782758946 0 -0.27113802145370669 0.49283981386083792 0 -0.28063852136870049 0.49356657832492562 0 -0.27742446875513049 0.50000000000000155 0 -0.28063852136870049 0.49356657832492562 0 -0.27742446875513049 0.50000000000000155 0 -0.28063852136870049 0.49356657832492562 0 -0.27742446875513049 0.50000000000000155 0 -0.29018685806186229 0.50000000000000122 0 -0.28063852136870049 0.49356657832492562 0 -0.29018685806186229 0.50000000000000122 0 -0.29092234379960469 0.47298192272523881 0 -0.28063852136870049 0.49356657832492562 0 -0.29018685806186229 0.50000000000000122 0 -0.29018685806186229 0.50000000000000122 0 -0.29092234379960469 0.47298192272523881 0 -0.30745775624609217 0.47728579204436761 0 -0.28063852136870049 0.49356657832492562 0 -0.29092234379960469 0.47298192272523881 0 -0.2798907507987049 0.48286402398659151 0 -0.28063852136870049 0.49356657832492562 0 -0.29092234379960469 0.47298192272523881 0 -0.28186649269177161 0.46567885888970018 0 -0.28298297564177088 0.4743823417855309 0 -0.29092234379960469 0.47298192272523881 0 -0.2798907507987049 0.48286402398659151 0 -0.28298297564177088 0.4743823417855309 0 -0.29092234379960469 0.47298192272523881 0 -0.29018685806186229 0.50000000000000122 0 -0.30745775624609217 0.47728579204436761 0 -0.3640375775585698 0.5 0 -0.30745775624609217 0.47728579204436761 0 -0.33122457162539992 0.46023714195115112 0 -0.3640375775585698 0.5 0 -0.30745775624609217 0.47728579204436761 0 -0.33122457162539992 0.46023714195115112 0 -0.30745775624609217 0.47728579204436761 0 -0.31718999816658727 0.45065056632578487 0 -0.33122457162539992 0.46023714195115112 0 -0.33223168701086447 0.43660936806356893 0 -0.31148998866141242 0.43181261152586448 0 -0.31718999816658727 0.45065056632578487 0 -0.33223168701086447 0.43660936806356893 0 -0.31718999816658727 0.45065056632578487 0 -0.33122457162539992 0.46023714195115112 0 -0.33122457162539992 0.46023714195115112 0 -0.35499138700470761 0.44318849185793469 0 -0.33223168701086447 0.43660936806356893 0 -0.33122457162539992 0.46023714195115112 0 -0.35499138700470761 0.44318849185793469 0 -0.33122457162539992 0.46023714195115112 0 -0.35376164566254242 0.46494380824906301 0 -0.35499138700470761 0.44318849185793469 0 -0.38249991962136642 0.44345487931465249 0 -0.35499138700470761 0.44318849185793469 0 -0.37103467036260362 0.45695891695805302 0 -0.38249991962136642 0.44345487931465249 0 -0.37875820238401509 0.42613984176471847 0 -0.35499138700470761 0.44318849185793469 0 -0.35376164566254242 0.46494380824906301 0 -0.35499138700470761 0.44318849185793469 0 -0.37103467036260362 0.45695891695805302 0 -0.35376164566254242 0.46494380824906301 0 -0.37103467036260362 0.45695891695805302 0 -0.36943712044780219 0.47475959506207249 0 -0.33122457162539992 0.46023714195115112 0 -0.35376164566254242 0.46494380824906301 0 -0.3640375775585698 0.5 0 -0.38891458820749281 0.47713565504117422 0 -0.36943712044780219 0.47475959506207249 0 -0.3640375775585698 0.5 0 -0.35376164566254242 0.46494380824906301 0 -0.36943712044780219 0.47475959506207249 0 -0.3640375775585698 0.5 0 -0.1410608215807003 0.47118489318428192 0 -0.1506389915883973 0.47451242435581331 0 -0.15779819732271971 0.4695739402503486 0 -0.1410608215807003 0.47118489318428192 0 -0.15779819732271971 0.4695739402503486 0 -0.1455325599989582 0.47665965757352818 0 -0.14983465253105441 0.48099067897208148 0 -0.1405957742956809 0.47995063378193648 0 -0.14983465253105441 0.48099067897208148 0 -0.14427471349546869 0.48965289008050411 0 -0.1405957742956809 0.47995063378193648 0 -0.1455325599989582 0.47665965757352818 0 -0.1410608215807003 0.47118489318428192 0 -0.1506389915883973 0.47451242435581331 0 -0.1455325599989582 0.47665965757352818 0 -0.1410608215807003 0.47118489318428192 0 -0.1405957742956809 0.47995063378193648 0 -0.1506389915883973 0.47451242435581331 0 -0.15682389603308189 0.47748605108520858 0 -0.15779819732271971 0.4695739402503486 0 -0.1506389915883973 0.47451242435581331 0 -0.14983465253105441 0.48099067897208148 0 -0.15682389603308189 0.47748605108520858 0 -0.1455325599989582 0.47665965757352818 0 -0.1506389915883973 0.47451242435581331 0 -0.14983465253105441 0.48099067897208148 0 -0.14983465253105441 0.48099067897208148 0 -0.1558122254133027 0.48316327461493752 0 -0.15682389603308189 0.47748605108520858 0 -0.14983465253105441 0.48099067897208148 0 -0.1558122254133027 0.48316327461493752 0 -0.15140604362779489 0.486968875654338 0 -0.1558122254133027 0.48316327461493752 0 -0.15140604362779489 0.486968875654338 0 -0.15545271364459581 0.49281799385228547 0 -0.14983465253105441 0.48099067897208148 0 -0.15140604362779489 0.486968875654338 0 -0.14427471349546869 0.48965289008050411 0 -0.15140604362779489 0.486968875654338 0 -0.15545271364459581 0.49281799385228547 0 -0.14427471349546869 0.48965289008050411 0 -0.15453849507163009 0.5 0 -0.14427471349546869 0.48965289008050411 0 -0.12543772684428189 0.5 0 -0.15453849507163009 0.5 0 -0.15545271364459581 0.49281799385228547 0 -0.14427471349546869 0.48965289008050411 0 -0.14427471349546869 0.48965289008050411 0 -0.12543772684428189 0.5 0 -0.13178312884530541 0.48627570230508688 0 -0.14427471349546869 0.48965289008050411 0 -0.13178312884530541 0.48627570230508688 0 -0.1405957742956809 0.47995063378193648 0 -0.13178312884530541 0.48627570230508688 0 -0.1317912103042716 0.47600940211286807 0 -0.11642361318749669 0.48420448820259387 0 -0.1317912103042716 0.47600940211286807 0 -0.14083201439797821 0.46516349611765162 0 -0.12052644250191399 0.4682622397032008 0 -0.13178312884530541 0.48627570230508688 0 -0.1405957742956809 0.47995063378193648 0 -0.1317912103042716 0.47600940211286807 0 -0.1410608215807003 0.47118489318428192 0 -0.1405957742956809 0.47995063378193648 0 -0.1317912103042716 0.47600940211286807 0 -0.1410608215807003 0.47118489318428192 0 -0.1317912103042716 0.47600940211286807 0 -0.14083201439797821 0.46516349611765162 0 -0.12618187852634369 0.45882241462805679 0 -0.14083201439797821 0.46516349611765162 0 -0.12052644250191399 0.4682622397032008 0 -0.14083201439797821 0.46516349611765162 0 -0.12052644250191399 0.4682622397032008 0 -0.12618187852634369 0.45882241462805679 0 -0.13621980461969219 0.45775649261309698 0 -0.13482926781972801 0.45201676164804122 0 -0.13621980461969219 0.45775649261309698 0 -0.13482926781972801 0.45201676164804122 0 -0.1430360577347192 0.45502329805863873 0 -0.13621980461969219 0.45775649261309698 0 -0.14083201439797821 0.46516349611765162 0 -0.1430360577347192 0.45502329805863873 0 -0.12618187852634369 0.45882241462805679 0 -0.13621980461969219 0.45775649261309698 0 -0.14083201439797821 0.46516349611765162 0 -0.12618187852634369 0.45882241462805679 0 -0.13482926781972801 0.45201676164804122 0 -0.1248743097581413 0.44162978393037222 0 -0.13482926781972801 0.45201676164804122 0 -0.13973201497409549 0.44099892737807922 0 -0.1415241139788854 0.4488412036993919 0 -0.13482926781972801 0.45201676164804122 0 -0.1415241139788854 0.4488412036993919 0 -0.1430360577347192 0.45502329805863873 0 -0.13973201497409549 0.44099892737807922 0 -0.13491063247587859 0.43073185275000708 0 -0.1248743097581413 0.44162978393037222 0 -0.13482926781972801 0.45201676164804122 0 -0.13973201497409549 0.44099892737807922 0 -0.1248743097581413 0.44162978393037222 0 -0.13973201497409549 0.44099892737807922 0 -0.14849911538699881 0.44732582771280882 0 -0.14949031039727409 0.43903968606904947 0 -0.14849911538699881 0.44732582771280882 0 -0.1430360577347192 0.45502329805863873 0 -0.15230793746503779 0.45507497120342549 0 -0.13973201497409549 0.44099892737807922 0 -0.1415241139788854 0.4488412036993919 0 -0.14849911538699881 0.44732582771280882 0 -0.1415241139788854 0.4488412036993919 0 -0.14849911538699881 0.44732582771280882 0 -0.1430360577347192 0.45502329805863873 0 -0.14849911538699881 0.44732582771280882 0 -0.15230793746503779 0.45507497120342549 0 -0.15767924869329919 0.44641741059368378 0 -0.14949031039727409 0.43903968606904947 0 -0.15767924869329919 0.44641741059368378 0 -0.15912083936695831 0.4347249498771325 0 -0.14849911538699881 0.44732582771280882 0 -0.14949031039727409 0.43903968606904947 0 -0.15767924869329919 0.44641741059368378 0 -0.14083201439797821 0.46516349611765162 0 -0.16113758629404229 0.46206475253210239 0 -0.15779819732271971 0.4695739402503486 0 -0.1410608215807003 0.47118489318428192 0 -0.14083201439797821 0.46516349611765162 0 -0.15779819732271971 0.4695739402503486 0 -0.14083201439797821 0.46516349611765162 0 -0.16113758629404229 0.46206475253210239 0 -0.14083201439797821 0.46516349611765162 0 -0.15230793746503779 0.45507497120342549 0 -0.16113758629404229 0.46206475253210239 0 -0.14083201439797821 0.46516349611765162 0 -0.1430360577347192 0.45502329805863873 0 -0.15230793746503779 0.45507497120342549 0 -0.16113758629404229 0.46206475253210239 0 -0.16940388650370539 0.44815354093755089 0 -0.18144315819010631 0.45896600894655282 0 -0.16113758629404229 0.46206475253210239 0 -0.18144315819010631 0.45896600894655282 0 -0.16113758629404229 0.46206475253210239 0 -0.17453557306473899 0.46796298731641428 0 -0.15779819732271971 0.4695739402503486 0 -0.15230793746503779 0.45507497120342549 0 -0.16113758629404229 0.46206475253210239 0 -0.16013216473902109 0.45292766881669072 0 -0.16113758629404229 0.46206475253210239 0 -0.16013216473902109 0.45292766881669072 0 -0.16940388650370539 0.44815354093755089 0 -0.15767924869329919 0.44641741059368378 0 -0.16940388650370539 0.44815354093755089 0 -0.15912083936695831 0.4347249498771325 0 -0.15230793746503779 0.45507497120342549 0 -0.16013216473902109 0.45292766881669072 0 -0.15767924869329919 0.44641741059368378 0 -0.16013216473902109 0.45292766881669072 0 -0.15767924869329919 0.44641741059368378 0 -0.16940388650370539 0.44815354093755089 0 -0.1829590266345629 0.45699162349075462 0 -0.18255950863604661 0.43173185523385532 0 -0.1829590266345629 0.45699162349075462 0 -0.19557533522393281 0.44055915781337712 0 -0.18255950863604661 0.43173185523385532 0 -0.16940388650370539 0.44815354093755089 0 -0.1829590266345629 0.45699162349075462 0 -0.18255950863604661 0.43173185523385532 0 -0.16113758629404229 0.46206475253210239 0 -0.17453557306473899 0.46796298731641428 0 -0.18144315819010631 0.45896600894655282 0 -0.17453557306473899 0.46796298731641428 0 -0.18144315819010631 0.45896600894655282 0 -0.17453557306473899 0.46796298731641428 0 -0.18311948649431831 0.46713679563994498 0 -0.16940388650370539 0.44815354093755089 0 -0.18144315819010631 0.45896600894655282 0 -0.1829590266345629 0.45699162349075462 0 -0.18144315819010631 0.45896600894655282 0 -0.1829590266345629 0.45699162349075462 0 -0.18144315819010631 0.45896600894655282 0 -0.1829865290739871 0.45873048193697258 0 -0.1829590266345629 0.45699162349075462 0 -0.18144315819010631 0.45896600894655282 0 -0.1829865290739871 0.45873048193697258 0 -0.1829865290739871 0.45873048193697258 0 -0.1829590266345629 0.45699162349075462 0 -0.17453557306473899 0.46796298731641428 0 -0.18144315819010631 0.45896600894655282 0 -0.18311948649431831 0.46713679563994498 0 -0.1829865290739871 0.45873048193697258 0 -0.18311948649431831 0.46713679563994498 0 -0.18144315819010631 0.45896600894655282 0 -0.1829865290739871 0.45873048193697258 0 -0.18311948649431831 0.46713679563994498 0 -0.18311948649431831 0.46713679563994498 0 -0.18337937489664821 0.48356839781997168 0 -0.19511197543601369 0.47606725323690458 0 -0.18311948649431831 0.46713679563994498 0 -0.18337937489664821 0.48356839781997168 0 -0.18311948649431831 0.46713679563994498 0 -0.18337937489664821 0.48356839781997168 0 -0.17485937494801759 0.47808814193434568 0 -0.17453557306473899 0.46796298731641428 0 -0.18311948649431831 0.46713679563994498 0 -0.17485937494801759 0.47808814193434568 0 -0.17453557306473899 0.46796298731641428 0 -0.15779819732271971 0.4695739402503486 0 -0.17453557306473899 0.46796298731641428 0 -0.16499414335466689 0.48039049058434952 0 -0.17453557306473899 0.46796298731641428 0 -0.16499414335466689 0.48039049058434952 0 -0.15779819732271971 0.4695739402503486 0 -0.17453557306473899 0.46796298731641428 0 -0.17485937494801759 0.47808814193434568 0 -0.16499414335466689 0.48039049058434952 0 -0.17485937494801759 0.47808814193434568 0 -0.16499414335466689 0.48039049058434952 0 -0.1699453859209171 0.49288017845899518 0 -0.1558122254133027 0.48316327461493752 0 -0.16499414335466689 0.48039049058434952 0 -0.15682389603308189 0.47748605108520858 0 -0.16499414335466689 0.48039049058434952 0 -0.15682389603308189 0.47748605108520858 0 -0.15779819732271971 0.4695739402503486 0 -0.15453849507163009 0.5 0 -0.1699453859209171 0.49288017845899518 0 -0.18363926329897839 0.49999999999999828 0 -0.15453849507163009 0.5 0 -0.15545271364459581 0.49281799385228547 0 -0.1699453859209171 0.49288017845899518 0 -0.15545271364459581 0.49281799385228547 0 -0.16499414335466689 0.48039049058434952 0 -0.1699453859209171 0.49288017845899518 0 -0.15545271364459581 0.49281799385228547 0 -0.16499414335466689 0.48039049058434952 0 -0.1558122254133027 0.48316327461493752 0 -0.15545271364459581 0.49281799385228547 0 -0.16499414335466689 0.48039049058434952 0 -0.18337937489664821 0.48356839781997168 0 -0.18363926329897839 0.49999999999999828 0 -0.18337937489664821 0.48356839781997168 0 -0.1699453859209171 0.49288017845899518 0 -0.18363926329897839 0.49999999999999828 0 -0.18337937489664821 0.48356839781997168 0 -0.17485937494801759 0.47808814193434568 0 -0.1699453859209171 0.49288017845899518 0 -0.18337937489664821 0.48356839781997168 0 -0.18363926329897839 0.49999999999999828 0 -0.19848883175809501 0.48685236178056529 0 -0.18363926329897839 0.49999999999999828 0 -0.19848883175809501 0.48685236178056529 0 -0.20708556466301639 0.5 0 -0.18311948649431831 0.46713679563994498 0 -0.19511197543601369 0.47606725323690458 0 -0.20656524953558469 0.46488016823659339 0 -0.18337937489664821 0.48356839781997168 0 -0.19848883175809501 0.48685236178056529 0 -0.19511197543601369 0.47606725323690458 0 -0.19848883175809501 0.48685236178056529 0 -0.19511197543601369 0.47606725323690458 0 -0.206747867840962 0.47700509082497228 0 -0.19511197543601369 0.47606725323690458 0 -0.206747867840962 0.47700509082497228 0 -0.20656524953558469 0.46488016823659339 0 -0.19848883175809501 0.48685236178056529 0 -0.206747867840962 0.47700509082497228 0 -0.21585796601610141 0.48648558657266339 0 -0.206747867840962 0.47700509082497228 0 -0.21852396914967101 0.47285401242330122 0 -0.20656524953558469 0.46488016823659339 0 -0.206747867840962 0.47700509082497228 0 -0.21852396914967101 0.47285401242330122 0 -0.21585796601610141 0.48648558657266339 0 -0.20708556466301639 0.5 0 -0.21585796601610141 0.48648558657266339 0 -0.23053186602705439 0.5 0 -0.19848883175809501 0.48685236178056529 0 -0.20708556466301639 0.5 0 -0.21585796601610141 0.48648558657266339 0 -0.21585796601610141 0.48648558657266339 0 -0.23053186602705439 0.5 0 -0.2373192826940049 0.48342253064983348 0 -0.21852396914967101 0.47285401242330122 0 -0.2373192826940049 0.48342253064983348 0 -0.23001101257685119 0.46262354083324181 0 -0.21852396914967101 0.47285401242330122 0 -0.21585796601610141 0.48648558657266339 0 -0.2373192826940049 0.48342253064983348 0 -0.25474868654415728 0.48692894813519849 0 -0.25315469521642581 0.4750486889203015 0 -0.2373192826940049 0.48342253064983348 0 -0.25315469521642581 0.4750486889203015 0 -0.2373192826940049 0.48342253064983348 0 -0.23001101257685119 0.46262354083324181 0 -0.25397816739109252 0.5 0 -0.23053186602705439 0.5 0 -0.2373192826940049 0.48342253064983348 0 -0.25397816739109252 0.5 0 -0.25474868654415728 0.48692894813519849 0 -0.2373192826940049 0.48342253064983348 0 -0.26330490497154813 0.43976041958731371 0 -0.24129970279445639 0.44943490890582899 0 -0.24092688658692171 0.43286849171069308 0 -0.24129970279445639 0.44943490890582899 0 -0.2242493546558077 0.44235471361969553 0 -0.24092688658692171 0.43286849171069308 0 -0.25345677561811758 0.46036691342989022 0 -0.23001101257685119 0.46262354083324181 0 -0.25345677561811758 0.46036691342989022 0 -0.24129970279445639 0.44943490890582899 0 -0.23001101257685119 0.46262354083324181 0 -0.25345677561811758 0.46036691342989022 0 -0.25315469521642581 0.4750486889203015 0 -0.23001101257685119 0.46262354083324181 0 -0.24129970279445639 0.44943490890582899 0 -0.23001101257685119 0.46262354083324181 0 -0.2242493546558077 0.44235471361969553 0 -0.23001101257685119 0.46262354083324181 0 -0.2242493546558077 0.44235471361969553 0 -0.2144914677851314 0.45380351874251162 0 -0.2242493546558077 0.44235471361969553 0 -0.20880164963731279 0.443380440886459 0 -0.2144914677851314 0.45380351874251162 0 -0.20880164963731279 0.443380440886459 0 -0.2144914677851314 0.45380351874251162 0 -0.20415969833182021 0.45549933815243238 0 -0.23001101257685119 0.46262354083324181 0 -0.2144914677851314 0.45380351874251162 0 -0.20656524953558469 0.46488016823659339 0 -0.21852396914967101 0.47285401242330122 0 -0.23001101257685119 0.46262354083324181 0 -0.20656524953558469 0.46488016823659339 0 -0.23001101257685119 0.46262354083324181 0 -0.20656524953558469 0.46488016823659339 0 -0.2144914677851314 0.45380351874251162 0 -0.20415969833182021 0.45549933815243238 0 -0.20656524953558469 0.46488016823659339 0 -0.1829865290739871 0.45873048193697258 0 -0.1829590266345629 0.45699162349075462 0 -0.20415969833182021 0.45549933815243238 0 -0.1829865290739871 0.45873048193697258 0 -0.20415969833182021 0.45549933815243238 0 -0.18311948649431831 0.46713679563994498 0 -0.20415969833182021 0.45549933815243238 0 -0.20656524953558469 0.46488016823659339 0 -0.1829865290739871 0.45873048193697258 0 -0.18311948649431831 0.46713679563994498 0 -0.20415969833182021 0.45549933815243238 0 -0.18311948649431831 0.46713679563994498 0 -0.20656524953558469 0.46488016823659339 0 -0.1829590266345629 0.45699162349075462 0 -0.19557533522393281 0.44055915781337712 0 -0.1829590266345629 0.45699162349075462 0 -0.20415969833182021 0.45549933815243238 0 -0.19557533522393281 0.44055915781337712 0 -0.20880164963731279 0.443380440886459 0 -0.20415969833182021 0.45549933815243238 0 -0.19557533522393281 0.44055915781337712 0 -0.19557533522393281 0.44055915781337712 0 -0.20819164381331129 0.42412669213600601 0 -0.19557533522393281 0.44055915781337712 0 -0.19413142888046839 0.4217351031076268 0 -0.18255950863604661 0.43173185523385532 0 -0.19557533522393281 0.44055915781337712 0 -0.19413142888046839 0.4217351031076268 0 -0.20819164381331129 0.42412669213600601 0 -0.19413142888046839 0.4217351031076268 0 -0.20819164381331129 0.42412669213600601 0 -0.2021706660915297 0.40578572337793972 0 -0.19413142888046839 0.4217351031076268 0 -0.2021706660915297 0.40578572337793972 0 -0.18215999063752189 0.40647208697695608 0 -0.20819164381331129 0.42412669213600601 0 -0.22405449890785839 0.40643558214578251 0 -0.2021706660915297 0.40578572337793972 0 -0.20880164963731279 0.443380440886459 0 -0.19557533522393281 0.44055915781337712 0 -0.20819164381331129 0.42412669213600601 0 -0.2242493546558077 0.44235471361969553 0 -0.20880164963731279 0.443380440886459 0 -0.20819164381331129 0.42412669213600601 0 -0.2242493546558077 0.44235471361969553 0 -0.20819164381331129 0.42412669213600601 0 -0.22600929792909111 0.42518400498706249 0 -0.2242493546558077 0.44235471361969553 0 -0.22600929792909111 0.42518400498706249 0 -0.24092688658692171 0.43286849171069308 0 -0.20819164381331129 0.42412669213600601 0 -0.22600929792909111 0.42518400498706249 0 -0.22405449890785839 0.40643558214578251 0 -0.22600929792909111 0.42518400498706249 0 -0.22405449890785839 0.40643558214578251 0 -0.2382988550227183 0.41778448946306668 0 -0.2572482915111563 0.42152384209731297 0 -0.2382988550227183 0.41778448946306668 0 -0.2490618870264745 0.40647588616764979 0 -0.22405449890785839 0.40643558214578251 0 -0.2382988550227183 0.41778448946306668 0 -0.2490618870264745 0.40647588616764979 0 -0.2572482915111563 0.42152384209731297 0 -0.2382988550227183 0.41778448946306668 0 -0.24092688658692171 0.43286849171069308 0 -0.22600929792909111 0.42518400498706249 0 -0.2382988550227183 0.41778448946306668 0 -0.24092688658692171 0.43286849171069308 0 -0.24000210142933509 0.37809552861286783 0 -0.23801773827758249 0.39392053259368742 0 -0.22567210936962789 0.38582584627882549 0 -0.25152819264859128 0.38883491631829081 0 -0.24000210142933509 0.37809552861286783 0 -0.23801773827758249 0.39392053259368742 0 -0.25213085833087667 0.37355178257669552 0 -0.25152819264859128 0.38883491631829081 0 -0.24000210142933509 0.37809552861286783 0 -0.25152819264859128 0.38883491631829081 0 -0.2490618870264745 0.40647588616764979 0 -0.23801773827758249 0.39392053259368742 0 -0.22405449890785839 0.40643558214578251 0 -0.2490618870264745 0.40647588616764979 0 -0.23801773827758249 0.39392053259368742 0 -0.22405449890785839 0.40643558214578251 0 -0.22567210936962789 0.38582584627882549 0 -0.2099895612515065 0.38861519238670661 0 -0.22405449890785839 0.40643558214578251 0 -0.23801773827758249 0.39392053259368742 0 -0.22567210936962789 0.38582584627882549 0 -0.22567210936962789 0.38582584627882549 0 -0.21752164111765379 0.37637519474985792 0 -0.23054114355980421 0.3681661286558337 0 -0.24000210142933509 0.37809552861286783 0 -0.22567210936962789 0.38582584627882549 0 -0.23054114355980421 0.3681661286558337 0 -0.22567210936962789 0.38582584627882549 0 -0.21752164111765379 0.37637519474985792 0 -0.2099895612515065 0.38861519238670661 0 -0.21752164111765379 0.37637519474985792 0 -0.2099895612515065 0.38861519238670661 0 -0.20825127389149589 0.37038948781896619 0 -0.2099895612515065 0.38861519238670661 0 -0.1956253707180633 0.37355818799515828 0 -0.20825127389149589 0.37038948781896619 0 -0.22405449890785839 0.40643558214578251 0 -0.2099895612515065 0.38861519238670661 0 -0.2021706660915297 0.40578572337793972 0 -0.2021706660915297 0.40578572337793972 0 -0.19434121226752371 0.39112870189136351 0 -0.18215999063752189 0.40647208697695608 0 -0.2099895612515065 0.38861519238670661 0 -0.2021706660915297 0.40578572337793972 0 -0.19434121226752371 0.39112870189136351 0 -0.2099895612515065 0.38861519238670661 0 -0.19434121226752371 0.39112870189136351 0 -0.1956253707180633 0.37355818799515828 0 -0.19434121226752371 0.39112870189136351 0 -0.18176047263899719 0.38121231872005679 0 -0.1956253707180633 0.37355818799515828 0 -0.18176047263899719 0.38121231872005679 0 -0.16585623702428451 0.39107516703040651 0 -0.16689278400863089 0.37048631692620287 0 -0.16585623702428451 0.39107516703040651 0 -0.1532541744773912 0.375434017343177 0 -0.15169756500005979 0.38990146883471011 0 -0.16585623702428451 0.39107516703040651 0 -0.1532541744773912 0.375434017343177 0 -0.16689278400863089 0.37048631692620287 0 -0.16585623702428451 0.39107516703040651 0 -0.1665369108918931 0.40914444316194981 0 -0.1556916669008335 0.40278409093046019 0 -0.16585623702428451 0.39107516703040651 0 -0.18215999063752189 0.40647208697695608 0 -0.1665369108918931 0.40914444316194981 0 -0.16585623702428451 0.39107516703040651 0 -0.15169756500005979 0.38990146883471011 0 -0.1556916669008335 0.40278409093046019 0 -0.18176047263899719 0.38121231872005679 0 -0.16585623702428451 0.39107516703040651 0 -0.18215999063752189 0.40647208697695608 0 -0.18176047263899719 0.38121231872005679 0 -0.18215999063752189 0.40647208697695608 0 -0.19434121226752371 0.39112870189136351 0 -0.18176047263899719 0.38121231872005679 0 -0.18215999063752189 0.40647208697695608 0 -0.18215999063752189 0.40647208697695608 0 -0.18255950863604661 0.43173185523385532 0 -0.18215999063752189 0.40647208697695608 0 -0.16958367679162159 0.42493542776846188 0 -0.1665369108918931 0.40914444316194981 0 -0.19413142888046839 0.4217351031076268 0 -0.18215999063752189 0.40647208697695608 0 -0.18255950863604661 0.43173185523385532 0 -0.18215999063752189 0.40647208697695608 0 -0.18255950863604661 0.43173185523385532 0 -0.16958367679162159 0.42493542776846188 0 -0.16940388650370539 0.44815354093755089 0 -0.18255950863604661 0.43173185523385532 0 -0.16958367679162159 0.42493542776846188 0 -0.16940388650370539 0.44815354093755089 0 -0.16958367679162159 0.42493542776846188 0 -0.15912083936695831 0.4347249498771325 0 -0.16958367679162159 0.42493542776846188 0 -0.15912083936695831 0.4347249498771325 0 -0.15604886632200479 0.41831593774319042 0 -0.16958367679162159 0.42493542776846188 0 -0.1665369108918931 0.40914444316194981 0 -0.15604886632200479 0.41831593774319042 0 -0.1665369108918931 0.40914444316194981 0 -0.15604886632200479 0.41831593774319042 0 -0.1556916669008335 0.40278409093046019 0 -0.15604886632200479 0.41831593774319042 0 -0.14768726638806501 0.40958107086639878 0 -0.1556916669008335 0.40278409093046019 0 -0.15604886632200479 0.41831593774319042 0 -0.1455440964649429 0.41771164433310332 0 -0.14575226394851429 0.42876386523653243 0 -0.15604886632200479 0.41831593774319042 0 -0.1455440964649429 0.41771164433310332 0 -0.14768726638806501 0.40958107086639878 0 -0.1455440964649429 0.41771164433310332 0 -0.14768726638806501 0.40958107086639878 0 -0.13820848934052041 0.41088683445876423 0 -0.15912083936695831 0.4347249498771325 0 -0.15604886632200479 0.41831593774319042 0 -0.14575226394851429 0.42876386523653243 0 -0.14949031039727409 0.43903968606904947 0 -0.15912083936695831 0.4347249498771325 0 -0.14575226394851429 0.42876386523653243 0 -0.1455440964649429 0.41771164433310332 0 -0.14575226394851429 0.42876386523653243 0 -0.13557398954387551 0.42076075412316039 0 -0.13973201497409549 0.44099892737807922 0 -0.14949031039727409 0.43903968606904947 0 -0.14575226394851429 0.42876386523653243 0 -0.13491063247587859 0.43073185275000708 0 -0.1242188050129694 0.42501783294758849 0 -0.1248743097581413 0.44162978393037222 0 -0.13973201497409549 0.44099892737807922 0 -0.14575226394851429 0.42876386523653243 0 -0.13491063247587859 0.43073185275000708 0 -0.14575226394851429 0.42876386523653243 0 -0.13491063247587859 0.43073185275000708 0 -0.13557398954387551 0.42076075412316039 0 -0.13491063247587859 0.43073185275000708 0 -0.13557398954387551 0.42076075412316039 0 -0.1242188050129694 0.42501783294758849 0 -0.13820848934052041 0.41088683445876423 0 -0.13557398954387551 0.42076075412316039 0 -0.12623023605756489 0.41143854881348008 0 -0.1455440964649429 0.41771164433310332 0 -0.13820848934052041 0.41088683445876423 0 -0.13557398954387551 0.42076075412316039 0 -0.13557398954387551 0.42076075412316039 0 -0.12623023605756489 0.41143854881348008 0 -0.1242188050129694 0.42501783294758849 0 -0.13820848934052041 0.41088683445876423 0 -0.12623023605756489 0.41143854881348008 0 -0.13398515235888339 0.40371564514020769 0 -0.12997925716256209 0.39431640422262348 0 -0.14074253368576661 0.38200722200303072 0 -0.1429432129120235 0.39820684686647628 0 -0.12623023605756489 0.41143854881348008 0 -0.13398515235888339 0.40371564514020769 0 -0.12997925716256209 0.39431640422262348 0 -0.13398515235888339 0.40371564514020769 0 -0.12997925716256209 0.39431640422262348 0 -0.1429432129120235 0.39820684686647628 0 -0.13820848934052041 0.41088683445876423 0 -0.13398515235888339 0.40371564514020769 0 -0.1429432129120235 0.39820684686647628 0 -0.12997925716256209 0.39431640422262348 0 -0.14074253368576661 0.38200722200303072 0 -0.12523428666698541 0.37069662222368049 0 -0.12997925716256209 0.39431640422262348 0 -0.12523428666698541 0.37069662222368049 0 -0.12103247972044499 0.39311621374447298 0 -0.14074253368576661 0.38200722200303072 0 -0.15169756500005979 0.38990146883471011 0 -0.1429432129120235 0.39820684686647628 0 -0.14074253368576661 0.38200722200303072 0 -0.1532541744773912 0.375434017343177 0 -0.15169756500005979 0.38990146883471011 0 -0.15169756500005979 0.38990146883471011 0 -0.1556916669008335 0.40278409093046019 0 -0.1429432129120235 0.39820684686647628 0 -0.14768726638806501 0.40958107086639878 0 -0.1556916669008335 0.40278409093046019 0 -0.1429432129120235 0.39820684686647628 0 -0.14768726638806501 0.40958107086639878 0 -0.13820848934052041 0.41088683445876423 0 -0.1429432129120235 0.39820684686647628 0 -0.14407255521749979 0.34403263722221961 0 -0.15504053286571459 0.3545366000593369 0 -0.14129669608781389 0.36249735492572199 0 -0.14407255521749979 0.34403263722221961 0 -0.15504053286571459 0.3545366000593369 0 -0.1549481930100888 0.34056708499864929 0 -0.14074253368576661 0.38200722200303072 0 -0.1532541744773912 0.375434017343177 0 -0.14129669608781389 0.36249735492572199 0 -0.1532541744773912 0.375434017343177 0 -0.15504053286571459 0.3545366000593369 0 -0.14129669608781389 0.36249735492572199 0 -0.14129669608781389 0.36249735492572199 0 -0.12523428666698541 0.37069662222368049 0 -0.1294360936135257 0.3482770307028879 0 -0.12523428666698541 0.37069662222368049 0 -0.1294360936135257 0.3482770307028879 0 -0.14074253368576661 0.38200722200303072 0 -0.14129669608781389 0.36249735492572199 0 -0.12523428666698541 0.37069662222368049 0 -0.14407255521749979 0.34403263722221961 0 -0.14129669608781389 0.36249735492572199 0 -0.1294360936135257 0.3482770307028879 0 -0.1294360936135257 0.3482770307028879 0 -0.13363790056006589 0.32585743918209531 0 -0.14407255521749979 0.34403263722221961 0 -0.1294360936135257 0.3482770307028879 0 -0.13363790056006589 0.32585743918209531 0 -0.1294360936135257 0.3482770307028879 0 -0.13363790056006589 0.32585743918209531 0 -0.1154499742120704 0.34086754873962172 0 -0.12722248981549561 0.3181430308760943 0 -0.13363790056006589 0.32585743918209531 0 -0.1360408951285694 0.3130357752318072 0 -0.12722248981549561 0.3181430308760943 0 -0.1360408951285694 0.3130357752318072 0 -0.12136448477009221 0.30951812845445109 0 -0.12722248981549561 0.3181430308760943 0 -0.13363790056006589 0.32585743918209531 0 -0.12142985306419619 0.32461006626398298 0 -0.13363790056006589 0.32585743918209531 0 -0.12142985306419619 0.32461006626398298 0 -0.13363790056006589 0.32585743918209531 0 -0.1360408951285694 0.3130357752318072 0 -0.14290423209994971 0.32095809222069871 0 -0.13363790056006589 0.32585743918209531 0 -0.1360408951285694 0.3130357752318072 0 -0.14290423209994971 0.32095809222069871 0 -0.1532404752523272 0.32269894785805692 0 -0.1464174014568787 0.29836992735667278 0 -0.13363790056006589 0.32585743918209531 0 -0.14290423209994971 0.32095809222069871 0 -0.15729966860100811 0.32827511069417059 0 -0.13363790056006589 0.32585743918209531 0 -0.15729966860100811 0.32827511069417059 0 -0.14290423209994971 0.32095809222069871 0 -0.1532404752523272 0.32269894785805692 0 -0.15729966860100811 0.32827511069417059 0 -0.1532404752523272 0.32269894785805692 0 -0.15943794807189979 0.31595908059817063 0 -0.1547819877644892 0.3091453549012102 0 -0.14407255521749979 0.34403263722221961 0 -0.13363790056006589 0.32585743918209531 0 -0.14748957934716561 0.33468306802428371 0 -0.13363790056006589 0.32585743918209531 0 -0.14748957934716561 0.33468306802428371 0 -0.15729966860100811 0.32827511069417059 0 -0.14748957934716561 0.33468306802428371 0 -0.1549481930100888 0.34056708499864929 0 -0.15729966860100811 0.32827511069417059 0 -0.14407255521749979 0.34403263722221961 0 -0.14748957934716561 0.33468306802428371 0 -0.1549481930100888 0.34056708499864929 0 -0.15729966860100811 0.32827511069417059 0 -0.18096143664194889 0.33069278220625808 0 -0.1549481930100888 0.34056708499864929 0 -0.15729966860100811 0.32827511069417059 0 -0.16781010436956259 0.34240718275037813 0 -0.15729966860100811 0.32827511069417059 0 -0.16781010436956259 0.34240718275037813 0 -0.18096143664194889 0.33069278220625808 0 -0.15729966860100811 0.32827511069417059 0 -0.17028988351433311 0.32233995817617028 0 -0.18096143664194889 0.33069278220625808 0 -0.15943794807189979 0.31595908059817063 0 -0.16495134068588049 0.31685297469802859 0 -0.1638395481514221 0.30983277085387728 0 -0.1532404752523272 0.32269894785805692 0 -0.15943794807189979 0.31595908059817063 0 -0.16037638850537991 0.32126535467967993 0 -0.15943794807189979 0.31595908059817063 0 -0.16037638850537991 0.32126535467967993 0 -0.16495134068588049 0.31685297469802859 0 -0.15729966860100811 0.32827511069417059 0 -0.16037638850537991 0.32126535467967993 0 -0.17028988351433311 0.32233995817617028 0 -0.1532404752523272 0.32269894785805692 0 -0.15729966860100811 0.32827511069417059 0 -0.16037638850537991 0.32126535467967993 0 -0.16495134068588049 0.31685297469802859 0 -0.17285953122972289 0.31090601179704258 0 -0.1638395481514221 0.30983277085387728 0 -0.17028988351433311 0.32233995817617028 0 -0.16495134068588049 0.31685297469802859 0 -0.17285953122972289 0.31090601179704258 0 -0.16037638850537991 0.32126535467967993 0 -0.17028988351433311 0.32233995817617028 0 -0.16495134068588049 0.31685297469802859 0 -0.18077272512400111 0.31876138179813301 0 -0.17285953122972289 0.31090601179704258 0 -0.17028988351433311 0.32233995817617028 0 -0.18077272512400111 0.31876138179813301 0 -0.17285953122972289 0.31090601179704258 0 -0.17028988351433311 0.32233995817617028 0 -0.18077272512400111 0.31876138179813301 0 -0.18096143664194889 0.33069278220625808 0 -0.18077272512400111 0.31876138179813301 0 -0.19386790912735871 0.33176087567547108 0 -0.18077272512400111 0.31876138179813301 0 -0.18096143664194889 0.33069278220625808 0 -0.18077272512400111 0.31876138179813301 0 -0.18096143664194889 0.33069278220625808 0 -0.19386790912735871 0.33176087567547108 0 -0.18096143664194889 0.33069278220625808 0 -0.1813609546404725 0.35595255046315749 0 -0.18096143664194889 0.33069278220625808 0 -0.1813609546404725 0.35595255046315749 0 -0.19258948339875709 0.33633707034479371 0 -0.16781010436956259 0.34240718275037813 0 -0.18096143664194889 0.33069278220625808 0 -0.1813609546404725 0.35595255046315749 0 -0.18096143664194889 0.33069278220625808 0 -0.19386790912735871 0.33176087567547108 0 -0.15504053286571459 0.3545366000593369 0 -0.16781010436956259 0.34240718275037813 0 -0.1813609546404725 0.35595255046315749 0 -0.15504053286571459 0.3545366000593369 0 -0.1549481930100888 0.34056708499864929 0 -0.16781010436956259 0.34240718275037813 0 -0.1532541744773912 0.375434017343177 0 -0.15504053286571459 0.3545366000593369 0 -0.16689278400863089 0.37048631692620287 0 -0.15504053286571459 0.3545366000593369 0 -0.1813609546404725 0.35595255046315749 0 -0.16689278400863089 0.37048631692620287 0 -0.18176047263899719 0.38121231872005679 0 -0.1813609546404725 0.35595255046315749 0 -0.18176047263899719 0.38121231872005679 0 -0.1813609546404725 0.35595255046315749 0 -0.1956253707180633 0.37355818799515828 0 -0.18176047263899719 0.38121231872005679 0 -0.1813609546404725 0.35595255046315749 0 -0.16689278400863089 0.37048631692620287 0 -0.1813609546404725 0.35595255046315749 0 -0.1956253707180633 0.37355818799515828 0 -0.2000380028121157 0.35856944723279938 0 -0.1956253707180633 0.37355818799515828 0 -0.2000380028121157 0.35856944723279938 0 -0.20825127389149589 0.37038948781896619 0 -0.1813609546404725 0.35595255046315749 0 -0.1951678646333711 0.34883535218340811 0 -0.19258948339875709 0.33633707034479371 0 -0.1813609546404725 0.35595255046315749 0 -0.1951678646333711 0.34883535218340811 0 -0.2000380028121157 0.35856944723279938 0 -0.1951678646333711 0.34883535218340811 0 -0.2000380028121157 0.35856944723279938 0 -0.20668301768213909 0.34448234069288158 0 -0.20668301768213909 0.34448234069288158 0 -0.2120127789660084 0.36084248239747968 0 -0.21921666942493959 0.3569244055809645 0 -0.2000380028121157 0.35856944723279938 0 -0.20668301768213909 0.34448234069288158 0 -0.2120127789660084 0.36084248239747968 0 -0.2120127789660084 0.36084248239747968 0 -0.21921666942493959 0.3569244055809645 0 -0.20668301768213909 0.34448234069288158 0 -0.21921666942493959 0.3569244055809645 0 -0.22158808080033929 0.34557455345049992 0 -0.20668301768213909 0.34448234069288158 0 -0.21921666942493959 0.3569244055809645 0 -0.2000380028121157 0.35856944723279938 0 -0.20825127389149589 0.37038948781896619 0 -0.2120127789660084 0.36084248239747968 0 -0.2120127789660084 0.36084248239747968 0 -0.2199937556016836 0.36693485901855288 0 -0.21921666942493959 0.3569244055809645 0 -0.20825127389149589 0.37038948781896619 0 -0.2120127789660084 0.36084248239747968 0 -0.2199937556016836 0.36693485901855288 0 -0.21752164111765379 0.37637519474985792 0 -0.20825127389149589 0.37038948781896619 0 -0.2199937556016836 0.36693485901855288 0 -0.21752164111765379 0.37637519474985792 0 -0.23054114355980421 0.3681661286558337 0 -0.2199937556016836 0.36693485901855288 0 -0.23054114355980421 0.3681661286558337 0 -0.21921666942493959 0.3569244055809645 0 -0.23305195790672301 0.35812934693154008 0 -0.23054114355980421 0.3681661286558337 0 -0.2199937556016836 0.36693485901855288 0 -0.21921666942493959 0.3569244055809645 0 -0.23054114355980421 0.3681661286558337 0 -0.21921666942493959 0.3569244055809645 0 -0.21921666942493959 0.3569244055809645 0 -0.22158808080033929 0.34557455345049992 0 -0.23915963598069589 0.34607775607121571 0 -0.21921666942493959 0.3569244055809645 0 -0.23915963598069589 0.34607775607121571 0 -0.21921666942493959 0.3569244055809645 0 -0.23305195790672301 0.35812934693154008 0 -0.23915963598069589 0.34607775607121571 0 -0.23305195790672301 0.35812934693154008 0 -0.23915963598069589 0.34607775607121571 0 -0.24329038266145239 0.36134909741814653 0 -0.25407523553642281 0.3497448278934856 0 -0.23915963598069589 0.34607775607121571 0 -0.24329038266145239 0.36134909741814653 0 -0.25213085833087667 0.37355178257669552 0 -0.24000210142933509 0.37809552861286783 0 -0.24329038266145239 0.36134909741814653 0 -0.24000210142933509 0.37809552861286783 0 -0.23054114355980421 0.3681661286558337 0 -0.24329038266145239 0.36134909741814653 0 -0.23054114355980421 0.3681661286558337 0 -0.23305195790672301 0.35812934693154008 0 -0.24329038266145239 0.36134909741814653 0 -0.23582541811145999 0.32679902143390172 0 -0.24885494741763489 0.31718848033418301 0 -0.23189508169276829 0.30076725351495531 0 -0.23582541811145999 0.32679902143390172 0 -0.24885494741763489 0.31718848033418301 0 -0.24633099797708269 0.32737693631841108 0 -0.25451497659773847 0.32559442806853028 0 -0.24885494741763489 0.31718848033418301 0 -0.24633099797708269 0.32737693631841108 0 -0.24843663428782739 0.33758714710907461 0 -0.22129300011358269 0.33481371145693772 0 -0.25451497659773847 0.32559442806853028 0 -0.24633099797708269 0.32737693631841108 0 -0.24843663428782739 0.33758714710907461 0 -0.25910260253645218 0.33523110656146687 0 -0.23915963598069589 0.34607775607121571 0 -0.23582541811145999 0.32679902143390172 0 -0.24633099797708269 0.32737693631841108 0 -0.24843663428782739 0.33758714710907461 0 -0.25910260253645218 0.33523110656146687 0 -0.23915963598069589 0.34607775607121571 0 -0.24843663428782739 0.33758714710907461 0 -0.23582541811145999 0.32679902143390172 0 -0.24843663428782739 0.33758714710907461 0 -0.22129300011358269 0.33481371145693772 0 -0.23915963598069589 0.34607775607121571 0 -0.24843663428782739 0.33758714710907461 0 -0.22129300011358269 0.33481371145693772 0 -0.22158808080033929 0.34557455345049992 0 -0.23915963598069589 0.34607775607121571 0 -0.22129300011358269 0.33481371145693772 0 -0.23582541811145999 0.32679902143390172 0 -0.21954464392232159 0.31820766509236142 0 -0.23189508169276829 0.30076725351495531 0 -0.23582541811145999 0.32679902143390172 0 -0.22129300011358269 0.33481371145693772 0 -0.21954464392232159 0.31820766509236142 0 -0.21954464392232159 0.31820766509236142 0 -0.20492818889453221 0.32276220977772679 0 -0.20060783596013981 0.3076349397264902 0 -0.22129300011358269 0.33481371145693772 0 -0.21954464392232159 0.31820766509236142 0 -0.20492818889453221 0.32276220977772679 0 -0.22129300011358269 0.33481371145693772 0 -0.20492818889453221 0.32276220977772679 0 -0.19386790912735871 0.33176087567547108 0 -0.22129300011358269 0.33481371145693772 0 -0.19386790912735871 0.33176087567547108 0 -0.20668301768213909 0.34448234069288158 0 -0.22129300011358269 0.33481371145693772 0 -0.19386790912735871 0.33176087567547108 0 -0.20668301768213909 0.34448234069288158 0 -0.22158808080033929 0.34557455345049992 0 -0.22129300011358269 0.33481371145693772 0 -0.20668301768213909 0.34448234069288158 0 -0.19386790912735871 0.33176087567547108 0 -0.19258948339875709 0.33633707034479371 0 -0.20668301768213909 0.34448234069288158 0 -0.19386790912735871 0.33176087567547108 0 -0.1951678646333711 0.34883535218340811 0 -0.20668301768213909 0.34448234069288158 0 -0.19258948339875709 0.33633707034479371 0 -0.18096143664194889 0.33069278220625808 0 -0.19386790912735871 0.33176087567547108 0 -0.19258948339875709 0.33633707034479371 0 -0.19386790912735871 0.33176087567547108 0 -0.19258948339875709 0.33633707034479371 0 -0.18077272512400111 0.31876138179813301 0 -0.19386790912735871 0.33176087567547108 0 -0.20060783596013981 0.3076349397264902 0 -0.20492818889453221 0.32276220977772679 0 -0.19386790912735871 0.33176087567547108 0 -0.20060783596013981 0.3076349397264902 0 -0.19386790912735871 0.33176087567547108 0 -0.20060783596013981 0.3076349397264902 0 -0.20060783596013981 0.3076349397264902 0 -0.20734776279292019 0.28350900377750898 0 -0.23189508169276829 0.30076725351495531 0 -0.21954464392232159 0.31820766509236142 0 -0.20060783596013981 0.3076349397264902 0 -0.23189508169276829 0.30076725351495531 0 -0.20060783596013981 0.3076349397264902 0 -0.20734776279292019 0.28350900377750898 0 -0.18034630435624241 0.29180066960649809 0 -0.20734776279292019 0.28350900377750898 0 -0.19375927737912041 0.2730469699042487 0 -0.18034630435624241 0.29180066960649809 0 -0.20060783596013981 0.3076349397264902 0 -0.20734776279292019 0.28350900377750898 0 -0.20734776279292019 0.28350900377750898 0 -0.23189508169276829 0.30076725351495531 0 -0.22396762922540969 0.27514125130055722 0 -0.23189508169276829 0.30076725351495531 0 -0.2378434694439332 0.28391349183279069 0 -0.22396762922540969 0.27514125130055722 0 -0.25673188405007052 0.28646841290673969 0 -0.23189508169276829 0.30076725351495531 0 -0.2378434694439332 0.28391349183279069 0 -0.25673188405007052 0.28646841290673969 0 -0.23189508169276829 0.30076725351495531 0 -0.25505401324638421 0.30366623925853881 0 -0.25673188405007052 0.28646841290673969 0 -0.23189508169276829 0.30076725351495531 0 -0.25505401324638421 0.30366623925853881 0 -0.24885494741763489 0.31718848033418301 0 -0.23189508169276829 0.30076725351495531 0 -0.25265925142613249 0.26128234508680298 0 -0.23885305679183191 0.2684477152547543 0 -0.23951274761537589 0.2474853768326048 0 -0.23885305679183191 0.2684477152547543 0 -0.22811192938500721 0.25829645972706228 0 -0.23951274761537589 0.2474853768326048 0 -0.25621817608628389 0.2460965770837312 0 -0.25265925142613249 0.26128234508680298 0 -0.23951274761537589 0.2474853768326048 0 -0.25673188405007052 0.28646841290673969 0 -0.2378434694439332 0.28391349183279069 0 -0.23885305679183191 0.2684477152547543 0 -0.25265925142613249 0.26128234508680298 0 -0.25673188405007052 0.28646841290673969 0 -0.23885305679183191 0.2684477152547543 0 -0.23885305679183191 0.2684477152547543 0 -0.22396762922540969 0.27514125130055722 0 -0.22811192938500721 0.25829645972706228 0 -0.2378434694439332 0.28391349183279069 0 -0.23885305679183191 0.2684477152547543 0 -0.22396762922540969 0.27514125130055722 0 -0.22811192938500721 0.25829645972706228 0 -0.22371849106378741 0.2462845034026982 0 -0.23951274761537589 0.2474853768326048 0 -0.22396762922540969 0.27514125130055722 0 -0.22811192938500721 0.25829645972706228 0 -0.21408768962570049 0.25938306782852782 0 -0.22811192938500721 0.25829645972706228 0 -0.21408768962570049 0.25938306782852782 0 -0.22371849106378741 0.2462845034026982 0 -0.21408768962570049 0.25938306782852782 0 -0.19928355658839081 0.25766712263582692 0 -0.2066863838603582 0.24242880758937649 0 -0.21408768962570049 0.25938306782852782 0 -0.20163280817849061 0.26608937016207479 0 -0.19928355658839081 0.25766712263582692 0 -0.20734776279292019 0.28350900377750898 0 -0.21408768962570049 0.25938306782852782 0 -0.20734776279292019 0.28350900377750898 0 -0.22396762922540969 0.27514125130055722 0 -0.21408768962570049 0.25938306782852782 0 -0.20734776279292019 0.28350900377750898 0 -0.21408768962570049 0.25938306782852782 0 -0.20163280817849061 0.26608937016207479 0 -0.20734776279292019 0.28350900377750898 0 -0.20163280817849061 0.26608937016207479 0 -0.19375927737912041 0.2730469699042487 0 -0.20163280817849061 0.26608937016207479 0 -0.19375927737912041 0.2730469699042487 0 -0.19160269433399771 0.26436194023610149 0 -0.19375927737912041 0.2730469699042487 0 -0.19160269433399771 0.26436194023610149 0 -0.17991988358848049 0.26483995741486333 0 -0.19928355658839081 0.25766712263582692 0 -0.18259587964237009 0.2606558300825601 0 -0.2066863838603582 0.24242880758937649 0 -0.18259587964237009 0.2606558300825601 0 -0.19333963139412971 0.24385714112684301 0 -0.19928355658839081 0.25766712263582692 0 -0.19160269433399771 0.26436194023610149 0 -0.18259587964237009 0.2606558300825601 0 -0.18259587964237009 0.2606558300825601 0 -0.2066863838603582 0.24242880758937649 0 -0.20163280817849061 0.26608937016207479 0 -0.19928355658839081 0.25766712263582692 0 -0.19160269433399771 0.26436194023610149 0 -0.17991988358848049 0.26483995741486333 0 -0.17951502337729761 0.2392424245160312 0 -0.17991988358848049 0.26483995741486333 0 -0.17042143569771079 0.26099360542817968 0 -0.17951502337729761 0.2392424245160312 0 -0.18259587964237009 0.2606558300825601 0 -0.17991988358848049 0.26483995741486333 0 -0.17951502337729761 0.2392424245160312 0 -0.19160269433399771 0.26436194023610149 0 -0.18259587964237009 0.2606558300825601 0 -0.17991988358848049 0.26483995741486333 0 -0.18259587964237009 0.2606558300825601 0 -0.17991988358848049 0.26483995741486333 0 -0.17991988358848049 0.26483995741486333 0 -0.17042143569771079 0.26099360542817968 0 -0.17716480609589361 0.26914773470870201 0 -0.17042143569771079 0.26099360542817968 0 -0.1627301728603629 0.26968240911070368 0 -0.1532221513837192 0.25419418888983192 0 -0.17042143569771079 0.26099360542817968 0 -0.1532221513837192 0.25419418888983192 0 -0.17951502337729761 0.2392424245160312 0 -0.1627301728603629 0.26968240911070368 0 -0.1620479085915319 0.28265904931380531 0 -0.15271877240598841 0.27446820953958367 0 -0.17042143569771079 0.26099360542817968 0 -0.1627301728603629 0.26968240911070368 0 -0.1699765768805111 0.26885491792894611 0 -0.1627301728603629 0.26968240911070368 0 -0.1699765768805111 0.26885491792894611 0 -0.16860704672851359 0.27535934789532951 0 -0.1627301728603629 0.26968240911070368 0 -0.16860704672851359 0.27535934789532951 0 -0.1620479085915319 0.28265904931380531 0 -0.16860704672851359 0.27535934789532951 0 -0.17077339862397739 0.28423195702734899 0 -0.1620479085915319 0.28265904931380531 0 -0.17991988358848049 0.26483995741486333 0 -0.18034630435624241 0.29180066960649809 0 -0.17991988358848049 0.26483995741486333 0 -0.17716480609589361 0.26914773470870201 0 -0.18034630435624241 0.29180066960649809 0 -0.16860704672851359 0.27535934789532951 0 -0.17716480609589361 0.26914773470870201 0 -0.17077339862397739 0.28423195702734899 0 -0.19375927737912041 0.2730469699042487 0 -0.17991988358848049 0.26483995741486333 0 -0.18034630435624241 0.29180066960649809 0 -0.17042143569771079 0.26099360542817968 0 -0.1699765768805111 0.26885491792894611 0 -0.17716480609589361 0.26914773470870201 0 -0.1699765768805111 0.26885491792894611 0 -0.16860704672851359 0.27535934789532951 0 -0.17716480609589361 0.26914773470870201 0 -0.17991988358848049 0.26483995741486333 0 -0.17716480609589361 0.26914773470870201 0 -0.17716480609589361 0.26914773470870201 0 -0.18034630435624241 0.29180066960649809 0 -0.17077339862397739 0.28423195702734899 0 -0.18034630435624241 0.29180066960649809 0 -0.16501618616712291 0.29775164083812761 0 -0.17077339862397739 0.28423195702734899 0 -0.18077272512400111 0.31876138179813301 0 -0.18034630435624241 0.29180066960649809 0 -0.18077272512400111 0.31876138179813301 0 -0.18034630435624241 0.29180066960649809 0 -0.17285953122972289 0.31090601179704258 0 -0.18034630435624241 0.29180066960649809 0 -0.17285953122972289 0.31090601179704258 0 -0.16501618616712291 0.29775164083812761 0 -0.18077272512400111 0.31876138179813301 0 -0.20060783596013981 0.3076349397264902 0 -0.18034630435624241 0.29180066960649809 0 -0.16501618616712291 0.29775164083812761 0 -0.15329008091572741 0.28945008379417048 0 -0.1547819877644892 0.3091453549012102 0 -0.17285953122972289 0.31090601179704258 0 -0.16501618616712291 0.29775164083812761 0 -0.1638395481514221 0.30983277085387728 0 -0.16501618616712291 0.29775164083812761 0 -0.1638395481514221 0.30983277085387728 0 -0.1547819877644892 0.3091453549012102 0 -0.15943794807189979 0.31595908059817063 0 -0.1638395481514221 0.30983277085387728 0 -0.1547819877644892 0.3091453549012102 0 -0.16501618616712291 0.29775164083812761 0 -0.17077339862397739 0.28423195702734899 0 -0.1620479085915319 0.28265904931380531 0 -0.16501618616712291 0.29775164083812761 0 -0.1620479085915319 0.28265904931380531 0 -0.15329008091572741 0.28945008379417048 0 -0.1464174014568787 0.29836992735667278 0 -0.13959432766143021 0.2740409068552887 0 -0.1620479085915319 0.28265904931380531 0 -0.15329008091572741 0.28945008379417048 0 -0.15271877240598841 0.27446820953958367 0 -0.15329008091572741 0.28945008379417048 0 -0.1464174014568787 0.29836992735667278 0 -0.13959432766143021 0.2740409068552887 0 -0.15329008091572741 0.28945008379417048 0 -0.1464174014568787 0.29836992735667278 0 -0.1547819877644892 0.3091453549012102 0 -0.1532404752523272 0.32269894785805692 0 -0.1464174014568787 0.29836992735667278 0 -0.1360408951285694 0.3130357752318072 0 -0.14290423209994971 0.32095809222069871 0 -0.1464174014568787 0.29836992735667278 0 -0.1532404752523272 0.32269894785805692 0 -0.1464174014568787 0.29836992735667278 0 -0.1547819877644892 0.3091453549012102 0 -0.1360408951285694 0.3130357752318072 0 -0.1264253840414637 0.29528772621663357 0 -0.12136448477009221 0.30951812845445109 0 -0.1360408951285694 0.3130357752318072 0 -0.1464174014568787 0.29836992735667278 0 -0.1264253840414637 0.29528772621663357 0 -0.1464174014568787 0.29836992735667278 0 -0.1264253840414637 0.29528772621663357 0 -0.13959432766143021 0.2740409068552887 0 -0.1264253840414637 0.29528772621663357 0 -0.13959432766143021 0.2740409068552887 0 -0.1185373796182298 0.27837978510360878 0 -0.13959432766143021 0.2740409068552887 0 -0.1327712538659816 0.24971188635390451 0 -0.13959432766143021 0.2740409068552887 0 -0.116744543106582 0.25728181003509248 0 -0.1327712538659816 0.24971188635390451 0 -0.13959432766143021 0.2740409068552887 0 -0.1532221513837192 0.25419418888983192 0 -0.1327712538659816 0.24971188635390451 0 -0.1627301728603629 0.26968240911070368 0 -0.1532221513837192 0.25419418888983192 0 -0.15271877240598841 0.27446820953958367 0 -0.13959432766143021 0.2740409068552887 0 -0.1532221513837192 0.25419418888983192 0 -0.15271877240598841 0.27446820953958367 0 -0.15329008091572741 0.28945008379417048 0 -0.13959432766143021 0.2740409068552887 0 -0.15271877240598841 0.27446820953958367 0 -0.1061606963602142 0.26761343855331338 0 -0.1001789302111205 0.27974269320078388 0 -0.1185373796182298 0.27837978510360878 0 -0.1061606963602142 0.26761343855331338 0 -0.1001789302111205 0.27974269320078388 0 -0.092613028744971265 0.26767711662392979 0 -0.1061606963602142 0.26761343855331338 0 -0.10005120432924321 0.25626016583208688 0 -0.116744543106582 0.25728181003509248 0 -0.1061606963602142 0.26761343855331338 0 -0.10005120432924321 0.25626016583208688 0 -0.092613028744971265 0.26767711662392979 0 -0.10005120432924321 0.25626016583208688 0 -0.116744543106582 0.25728181003509248 0 -0.1045487088169635 0.24438495162540061 0 -0.13959432766143021 0.2740409068552887 0 -0.116744543106582 0.25728181003509248 0 -0.1185373796182298 0.27837978510360878 0 -0.1061606963602142 0.26761343855331338 0 -0.116744543106582 0.25728181003509248 0 -0.1185373796182298 0.27837978510360878 0 -0.1264253840414637 0.29528772621663357 0 -0.1127724140037699 0.30190213115774378 0 -0.1091517300735869 0.29135078386346752 0 -0.1264253840414637 0.29528772621663357 0 -0.1185373796182298 0.27837978510360878 0 -0.1091517300735869 0.29135078386346752 0 -0.1264253840414637 0.29528772621663357 0 -0.12136448477009221 0.30951812845445109 0 -0.1127724140037699 0.30190213115774378 0 -0.12136448477009221 0.30951812845445109 0 -0.1127724140037699 0.30190213115774378 0 -0.1061991548417472 0.31213959050036899 0 -0.1127724140037699 0.30190213115774378 0 -0.1061991548417472 0.31213959050036899 0 -0.1005146973405663 0.30141191014932889 0 -0.1127724140037699 0.30190213115774378 0 -0.1005146973405663 0.30141191014932889 0 -0.1091517300735869 0.29135078386346752 0 -0.1005146973405663 0.30141191014932889 0 -0.094430836728355921 0.29177030977787999 0 -0.089068024122243669 0.30112896568664949 0 -0.1061991548417472 0.31213959050036899 0 -0.1005146973405663 0.30141191014932889 0 -0.090928135519314904 0.31087631578889069 0 -0.1001789302111205 0.27974269320078388 0 -0.1185373796182298 0.27837978510360878 0 -0.1091517300735869 0.29135078386346752 0 -0.1005146973405663 0.30141191014932889 0 -0.1091517300735869 0.29135078386346752 0 -0.094430836728355921 0.29177030977787999 0 -0.1001789302111205 0.27974269320078388 0 -0.1091517300735869 0.29135078386346752 0 -0.094430836728355921 0.29177030977787999 0 -0.1001789302111205 0.27974269320078388 0 -0.094430836728355921 0.29177030977787999 0 -0.086145563619835275 0.2816538088019015 0 -0.094430836728355921 0.29177030977787999 0 -0.086145563619835275 0.2816538088019015 0 -0.081526075002782958 0.29533369696514911 0 -0.094430836728355921 0.29177030977787999 0 -0.081526075002782958 0.29533369696514911 0 -0.089068024122243669 0.30112896568664949 0 -0.086145563619835275 0.2816538088019015 0 -0.081526075002782958 0.29533369696514911 0 -0.070830210313899522 0.29195808219782299 0 -0.090928135519314904 0.31087631578889069 0 -0.079482369404140468 0.30560554845979909 0 -0.074915307566508993 0.31649039264194578 0 -0.090928135519314904 0.31087631578889069 0 -0.089068024122243669 0.30112896568664949 0 -0.079482369404140468 0.30560554845979909 0 -0.1005146973405663 0.30141191014932889 0 -0.090928135519314904 0.31087631578889069 0 -0.089068024122243669 0.30112896568664949 0 -0.081526075002782958 0.29533369696514911 0 -0.089068024122243669 0.30112896568664949 0 -0.079482369404140468 0.30560554845979909 0 -0.054647974243728172 0.30430181459310768 0 -0.074915307566508993 0.31649039264194578 0 -0.079482369404140468 0.30560554845979909 0 -0.068661557073843291 0.3005821027458685 0 -0.074915307566508993 0.31649039264194578 0 -0.068661557073843291 0.3005821027458685 0 -0.054647974243728172 0.30430181459310768 0 -0.074915307566508993 0.31649039264194578 0 -0.081526075002782958 0.29533369696514911 0 -0.079482369404140468 0.30560554845979909 0 -0.068661557073843291 0.3005821027458685 0 -0.070830210313899522 0.29195808219782299 0 -0.067453711470644842 0.27023673344429472 0 -0.052574645638654917 0.28480468584225688 0 -0.081526075002782958 0.29533369696514911 0 -0.068661557073843291 0.3005821027458685 0 -0.070830210313899522 0.29195808219782299 0 -0.068661557073843291 0.3005821027458685 0 -0.070830210313899522 0.29195808219782299 0 -0.068661557073843291 0.3005821027458685 0 -0.070830210313899522 0.29195808219782299 0 -0.059610011597539182 0.29372125904316332 0 -0.086145563619835275 0.2816538088019015 0 -0.070830210313899522 0.29195808219782299 0 -0.077256670317037021 0.26667642926106078 0 -0.070830210313899522 0.29195808219782299 0 -0.067453711470644842 0.27023673344429472 0 -0.070830210313899522 0.29195808219782299 0 -0.077256670317037021 0.26667642926106078 0 -0.070830210313899522 0.29195808219782299 0 -0.067453711470644842 0.27023673344429472 0 -0.077256670317037021 0.26667642926106078 0 -0.086145563619835275 0.2816538088019015 0 -0.077256670317037021 0.26667642926106078 0 -0.092613028744971265 0.26767711662392979 0 -0.1001789302111205 0.27974269320078388 0 -0.086145563619835275 0.2816538088019015 0 -0.092613028744971265 0.26767711662392979 0 -0.077256670317037021 0.26667642926106078 0 -0.086302411784292182 0.25447467192259482 0 -0.083666647235009842 0.24139059785004849 0 -0.077256670317037021 0.26667642926106078 0 -0.083666647235009842 0.24139059785004849 0 -0.10005120432924321 0.25626016583208688 0 -0.086302411784292182 0.25447467192259482 0 -0.094679029848152713 0.24609146959404629 0 -0.10005120432924321 0.25626016583208688 0 -0.092613028744971265 0.26767711662392979 0 -0.086302411784292182 0.25447467192259482 0 -0.077256670317037021 0.26667642926106078 0 -0.092613028744971265 0.26767711662392979 0 -0.086302411784292182 0.25447467192259482 0 -0.077256670317037021 0.26667642926106078 0 -0.064077212627390134 0.24851538469076631 0 -0.083666647235009842 0.24139059785004849 0 -0.067453711470644842 0.27023673344429472 0 -0.077256670317037021 0.26667642926106078 0 -0.064077212627390134 0.24851538469076631 0 -0.067453711470644842 0.27023673344429472 0 -0.064077212627390134 0.24851538469076631 0 -0.067453711470644842 0.27023673344429472 0 -0.04634179854296408 0.26632715615711849 0 -0.064077212627390134 0.24851538469076631 0 -0.04634179854296408 0.26632715615711849 0 -0.064077212627390134 0.24851538469076631 0 -0.046578861792199937 0.24361118962503389 0 -0.067453711470644842 0.27023673344429472 0 -0.04634179854296408 0.26632715615711849 0 -0.052574645638654917 0.28480468584225688 0 -0.04634179854296408 0.26632715615711849 0 -0.034380640920947357 0.29211323654426968 0 -0.052574645638654917 0.28480468584225688 0 -0.04634179854296408 0.26632715615711849 0 -0.022607631921228569 0.27169805167723737 0 -0.034380640920947357 0.29211323654426968 0 -0.04634179854296408 0.26632715615711849 0 -0.03068766995985707 0.25286978792993342 0 -0.022607631921228569 0.27169805167723737 0 -0.04634179854296408 0.26632715615711849 0 -0.03068766995985707 0.25286978792993342 0 -0.046578861792199937 0.24361118962503389 0 -0.03068766995985707 0.25286978792993342 0 -0.022607631921228569 0.27169805167723737 0 -0.0098044441781452579 0.25473951632571468 0 -0.022607631921228569 0.27169805167723737 0 -0.015153941911089409 0.29208252597919021 0 3.3590645499582607e-05 0.27236849017123349 0 -0.022607631921228569 0.27169805167723737 0 -0.0098044441781452579 0.25473951632571468 0 3.3590645499582607e-05 0.27236849017123349 0 -0.0098044441781452579 0.25473951632571468 0 0.0073806355134042019 0.25529449578482938 0 3.3590645499582607e-05 0.27236849017123349 0 -0.0088759444352828343 0.31092800175718183 0 -0.015153941911089409 0.29208252597919021 0 0.0083336089875100904 0.29343585490586271 0 -0.015153941911089409 0.29208252597919021 0 0.0083336089875100904 0.29343585490586271 0 3.3590645499582607e-05 0.27236849017123349 0 -0.022607631921228569 0.27169805167723737 0 -0.015153941911089409 0.29208252597919021 0 -0.034380640920947357 0.29211323654426968 0 -0.0088759444352828343 0.31092800175718183 0 -0.015153941911089409 0.29208252597919021 0 -0.03508050583840458 0.3127012881250415 0 -0.015153941911089409 0.29208252597919021 0 -0.034380640920947357 0.29211323654426968 0 -0.03508050583840458 0.3127012881250415 0 -0.034380640920947357 0.29211323654426968 0 -0.054647974243728172 0.30430181459310768 0 -0.034380640920947357 0.29211323654426968 0 -0.054647974243728172 0.30430181459310768 0 -0.03508050583840458 0.3127012881250415 0 -0.034380640920947357 0.29211323654426968 0 -0.052574645638654917 0.28480468584225688 0 -0.054647974243728172 0.30430181459310768 0 -0.052574645638654917 0.28480468584225688 0 -0.059610011597539182 0.29372125904316332 0 -0.054647974243728172 0.30430181459310768 0 -0.070830210313899522 0.29195808219782299 0 -0.052574645638654917 0.28480468584225688 0 -0.059610011597539182 0.29372125904316332 0 -0.068661557073843291 0.3005821027458685 0 -0.059610011597539182 0.29372125904316332 0 -0.054647974243728172 0.30430181459310768 0 -0.058679851530075752 0.32054224196392622 0 -0.045885169747561752 0.33132665820789581 0 -0.073191842414501496 0.33174208285196288 0 -0.054647974243728172 0.30430181459310768 0 -0.058679851530075752 0.32054224196392622 0 -0.03508050583840458 0.3127012881250415 0 -0.045885169747561752 0.33132665820789581 0 -0.067541502003893042 0.3482616942848048 0 -0.073191842414501496 0.33174208285196288 0 -0.045885169747561752 0.33132665820789581 0 -0.073191842414501496 0.33174208285196288 0 -0.045885169747561752 0.33132665820789581 0 -0.018578497080621779 0.33091123356382868 0 -0.045885169747561752 0.33132665820789581 0 -0.03508050583840458 0.3127012881250415 0 -0.018578497080621779 0.33091123356382868 0 -0.058679851530075752 0.32054224196392622 0 -0.045885169747561752 0.33132665820789581 0 -0.03508050583840458 0.3127012881250415 0 -0.0088759444352828343 0.31092800175718183 0 -0.03508050583840458 0.3127012881250415 0 -0.018578497080621779 0.33091123356382868 0 -0.018578497080621779 0.33091123356382868 0 -0.0050552824635438226 0.34569829691311771 0 -0.02749858990914332 0.35301881799134821 0 -0.045885169747561752 0.33132665820789581 0 -0.018578497080621779 0.33091123356382868 0 -0.02749858990914332 0.35301881799134821 0 -0.018578497080621779 0.33091123356382868 0 -0.0050552824635438226 0.34569829691311771 0 0.0064742168078369342 0.3347740657525386 0 -0.018578497080621779 0.33091123356382868 0 0.0087281755863181168 0.33049580891976171 0 -0.018578497080621779 0.33091123356382868 0 0.0064742168078369342 0.3347740657525386 0 0.0087281755863181168 0.33049580891976171 0 -0.018578497080621779 0.33091123356382868 0 -0.003280447873963227 0.32161399115684158 0 0.0087281755863181168 0.33049580891976171 0 -0.0088759444352828343 0.31092800175718183 0 -0.018578497080621779 0.33091123356382868 0 -0.003280447873963227 0.32161399115684158 0 -0.0088759444352828343 0.31092800175718183 0 -0.003280447873963227 0.32161399115684158 0 0.0056044744337335906 0.31412092038659428 0 -0.0052616759920083916 0.36132776784546622 0 -0.0045342830833226501 0.3863935686212247 0 -0.0052616759920083916 0.36132776784546622 0 -0.024169526760701381 0.37267007813580277 0 -0.0045342830833226501 0.3863935686212247 0 -0.0052616759920083916 0.36132776784546622 0 -0.0045342830833226501 0.3863935686212247 0 0.0079023355216259559 0.37348921158265391 0 -0.0052616759920083916 0.36132776784546622 0 -0.0050552824635438226 0.34569829691311771 0 0.0061318462344260851 0.35417601161121459 0 -0.0052616759920083916 0.36132776784546622 0 -0.0050552824635438226 0.34569829691311771 0 -0.02749858990914332 0.35301881799134821 0 -0.02749858990914332 0.35301881799134821 0 -0.024169526760701381 0.37267007813580277 0 -0.04149310004589906 0.37124785083274592 0 -0.0052616759920083916 0.36132776784546622 0 -0.02749858990914332 0.35301881799134821 0 -0.024169526760701381 0.37267007813580277 0 -0.02749858990914332 0.35301881799134821 0 -0.04149310004589906 0.37124785083274592 0 -0.051818441616049399 0.35735321764765782 0 -0.045885169747561752 0.33132665820789581 0 -0.02749858990914332 0.35301881799134821 0 -0.051818441616049399 0.35735321764765782 0 -0.045885169747561752 0.33132665820789581 0 -0.051818441616049399 0.35735321764765782 0 -0.067541502003893042 0.3482616942848048 0 -0.04149310004589906 0.37124785083274592 0 -0.051818441616049399 0.35735321764765782 0 -0.056875823715872062 0.37631267096962301 0 -0.051818441616049399 0.35735321764765782 0 -0.069616273344600341 0.3650636543096733 0 -0.056875823715872062 0.37631267096962301 0 -0.069616273344600341 0.3650636543096733 0 -0.085055645225370236 0.37193713089684588 0 -0.071788917171084016 0.3809272333041443 0 -0.069616273344600341 0.3650636543096733 0 -0.071788917171084016 0.3809272333041443 0 -0.056875823715872062 0.37631267096962301 0 -0.069616273344600341 0.3650636543096733 0 -0.085055645225370236 0.37193713089684588 0 -0.084100884505446297 0.3554636863979832 0 -0.085055645225370236 0.37193713089684588 0 -0.084100884505446297 0.3554636863979832 0 -0.1008292236537022 0.36036332390371462 0 -0.084100884505446297 0.3554636863979832 0 -0.067541502003893042 0.3482616942848048 0 -0.085709514220790303 0.34113927750747819 0 -0.084100884505446297 0.3554636863979832 0 -0.085709514220790303 0.34113927750747819 0 -0.099722393067727538 0.34687368244968458 0 -0.069616273344600341 0.3650636543096733 0 -0.084100884505446297 0.3554636863979832 0 -0.067541502003893042 0.3482616942848048 0 -0.051818441616049399 0.35735321764765782 0 -0.069616273344600341 0.3650636543096733 0 -0.067541502003893042 0.3482616942848048 0 -0.067541502003893042 0.3482616942848048 0 -0.073191842414501496 0.33174208285196288 0 -0.085709514220790303 0.34113927750747819 0 -0.058679851530075752 0.32054224196392622 0 -0.073191842414501496 0.33174208285196288 0 -0.074915307566508993 0.31649039264194578 0 -0.054647974243728172 0.30430181459310768 0 -0.058679851530075752 0.32054224196392622 0 -0.074915307566508993 0.31649039264194578 0 -0.073191842414501496 0.33174208285196288 0 -0.074915307566508993 0.31649039264194578 0 -0.095182640889289766 0.32867897069078372 0 -0.090928135519314904 0.31087631578889069 0 -0.074915307566508993 0.31649039264194578 0 -0.095182640889289766 0.32867897069078372 0 -0.074915307566508993 0.31649039264194578 0 -0.095182640889289766 0.32867897069078372 0 -0.073191842414501496 0.33174208285196288 0 -0.085709514220790303 0.34113927750747819 0 -0.095182640889289766 0.32867897069078372 0 -0.085709514220790303 0.34113927750747819 0 -0.095182640889289766 0.32867897069078372 0 -0.099722393067727538 0.34687368244968458 0 -0.095182640889289766 0.32867897069078372 0 -0.1154499742120704 0.34086754873962172 0 -0.095182640889289766 0.32867897069078372 0 -0.1098512680755149 0.32470257897991811 0 -0.1154499742120704 0.34086754873962172 0 -0.095182640889289766 0.32867897069078372 0 -0.1154499742120704 0.34086754873962172 0 -0.099722393067727538 0.34687368244968458 0 -0.1061991548417472 0.31213959050036899 0 -0.090928135519314904 0.31087631578889069 0 -0.095182640889289766 0.32867897069078372 0 -0.1061991548417472 0.31213959050036899 0 -0.095182640889289766 0.32867897069078372 0 -0.1098512680755149 0.32470257897991811 0 -0.1061991548417472 0.31213959050036899 0 -0.115330384384618 0.31728312261503783 0 -0.1098512680755149 0.32470257897991811 0 -0.12136448477009221 0.30951812845445109 0 -0.1061991548417472 0.31213959050036899 0 -0.115330384384618 0.31728312261503783 0 -0.115330384384618 0.31728312261503783 0 -0.1098512680755149 0.32470257897991811 0 -0.12142985306419619 0.32461006626398298 0 -0.12722248981549561 0.3181430308760943 0 -0.115330384384618 0.31728312261503783 0 -0.12142985306419619 0.32461006626398298 0 -0.12722248981549561 0.3181430308760943 0 -0.12136448477009221 0.30951812845445109 0 -0.115330384384618 0.31728312261503783 0 -0.1098512680755149 0.32470257897991811 0 -0.12142985306419619 0.32461006626398298 0 -0.1154499742120704 0.34086754873962172 0 -0.13363790056006589 0.32585743918209531 0 -0.12142985306419619 0.32461006626398298 0 -0.1154499742120704 0.34086754873962172 0 -0.12523428666698541 0.37069662222368049 0 -0.1294360936135257 0.3482770307028879 0 -0.1154159689866658 0.35521970897278921 0 -0.1154499742120704 0.34086754873962172 0 -0.1154159689866658 0.35521970897278921 0 -0.099722393067727538 0.34687368244968458 0 -0.1294360936135257 0.3482770307028879 0 -0.1154499742120704 0.34086754873962172 0 -0.1154159689866658 0.35521970897278921 0 -0.12523428666698541 0.37069662222368049 0 -0.1154159689866658 0.35521970897278921 0 -0.11117961403065831 0.36839673047223442 0 -0.12523428666698541 0.37069662222368049 0 -0.11117961403065831 0.36839673047223442 0 -0.1123930043347208 0.38073562172137532 0 -0.11117961403065831 0.36839673047223442 0 -0.1008292236537022 0.36036332390371462 0 -0.09970079949094271 0.37763208900548878 0 -0.1154159689866658 0.35521970897278921 0 -0.11117961403065831 0.36839673047223442 0 -0.1008292236537022 0.36036332390371462 0 -0.085055645225370236 0.37193713089684588 0 -0.1008292236537022 0.36036332390371462 0 -0.09970079949094271 0.37763208900548878 0 -0.084100884505446297 0.3554636863979832 0 -0.1008292236537022 0.36036332390371462 0 -0.099722393067727538 0.34687368244968458 0 -0.1154159689866658 0.35521970897278921 0 -0.1008292236537022 0.36036332390371462 0 -0.099722393067727538 0.34687368244968458 0 -0.1036554482544351 0.39516830989393792 0 -0.1102807352191843 0.41378788895710661 0 -0.09259379641793411 0.40948313349934218 0 -0.1036554482544351 0.39516830989393792 0 -0.09970079949094271 0.37763208900548878 0 -0.1123930043347208 0.38073562172137532 0 -0.1036554482544351 0.39516830989393792 0 -0.09970079949094271 0.37763208900548878 0 -0.084297773186445962 0.39217279846007119 0 -0.11117961403065831 0.36839673047223442 0 -0.09970079949094271 0.37763208900548878 0 -0.1123930043347208 0.38073562172137532 0 -0.12523428666698541 0.37069662222368049 0 -0.1123930043347208 0.38073562172137532 0 -0.12103247972044499 0.39311621374447298 0 -0.1036554482544351 0.39516830989393792 0 -0.1123930043347208 0.38073562172137532 0 -0.12103247972044499 0.39311621374447298 0 -0.12523428666698541 0.37069662222368049 0 -0.12103247972044499 0.39311621374447298 0 -0.1036554482544351 0.39516830989393792 0 -0.12103247972044499 0.39311621374447298 0 -0.1102807352191843 0.41378788895710661 0 -0.12997925716256209 0.39431640422262348 0 -0.1102807352191843 0.41378788895710661 0 -0.12997925716256209 0.39431640422262348 0 -0.12103247972044499 0.39311621374447298 0 -0.1102807352191843 0.41378788895710661 0 -0.12623023605756489 0.41143854881348008 0 -0.1102807352191843 0.41378788895710661 0 -0.1242188050129694 0.42501783294758849 0 -0.12623023605756489 0.41143854881348008 0 -0.12997925716256209 0.39431640422262348 0 -0.1102807352191843 0.41378788895710661 0 -0.1102807352191843 0.41378788895710661 0 -0.1104760497445479 0.43296770510105842 0 -0.1242188050129694 0.42501783294758849 0 -0.1104760497445479 0.43296770510105842 0 -0.1242188050129694 0.42501783294758849 0 -0.1248743097581413 0.44162978393037222 0 -0.1102807352191843 0.41378788895710661 0 -0.090582213275806372 0.43325937369158968 0 -0.1102807352191843 0.41378788895710661 0 -0.1104760497445479 0.43296770510105842 0 -0.090582213275806372 0.43325937369158968 0 -0.1102807352191843 0.41378788895710661 0 -0.09259379641793411 0.40948313349934218 0 -0.090582213275806372 0.43325937369158968 0 -0.09259379641793411 0.40948313349934218 0 -0.090582213275806372 0.43325937369158968 0 -0.074152812153798875 0.41302729649400538 0 -0.090582213275806372 0.43325937369158968 0 -0.066022972602334681 0.42956105407568013 0 -0.074152812153798875 0.41302729649400538 0 -0.066022972602334681 0.42956105407568013 0 -0.074152812153798875 0.41302729649400538 0 -0.049329429094603867 0.41198700835812702 0 -0.074152812153798875 0.41302729649400538 0 -0.063154715464804681 0.39516467689365731 0 -0.084297773186445962 0.39217279846007119 0 -0.09259379641793411 0.40948313349934218 0 -0.074152812153798875 0.41302729649400538 0 -0.084297773186445962 0.39217279846007119 0 -0.1036554482544351 0.39516830989393792 0 -0.09259379641793411 0.40948313349934218 0 -0.084297773186445962 0.39217279846007119 0 -0.085055645225370236 0.37193713089684588 0 -0.09970079949094271 0.37763208900548878 0 -0.084297773186445962 0.39217279846007119 0 -0.085055645225370236 0.37193713089684588 0 -0.084297773186445962 0.39217279846007119 0 -0.071788917171084016 0.3809272333041443 0 -0.063154715464804681 0.39516467689365731 0 -0.084297773186445962 0.39217279846007119 0 -0.071788917171084016 0.3809272333041443 0 -0.063154715464804681 0.39516467689365731 0 -0.071788917171084016 0.3809272333041443 0 -0.056875823715872062 0.37631267096962301 0 -0.04149310004589906 0.37124785083274592 0 -0.056875823715872062 0.37631267096962301 0 -0.04338349465279491 0.38811939282985902 0 -0.063154715464804681 0.39516467689365731 0 -0.056875823715872062 0.37631267096962301 0 -0.04338349465279491 0.38811939282985902 0 -0.063154715464804681 0.39516467689365731 0 -0.04338349465279491 0.38811939282985902 0 -0.049329429094603867 0.41198700835812702 0 -0.04338349465279491 0.38811939282985902 0 -0.024844401122877391 0.39948633252540261 0 -0.049329429094603867 0.41198700835812702 0 -0.024169526760701381 0.37267007813580277 0 -0.04149310004589906 0.37124785083274592 0 -0.04338349465279491 0.38811939282985902 0 -0.024169526760701381 0.37267007813580277 0 -0.04338349465279491 0.38811939282985902 0 -0.024844401122877391 0.39948633252540261 0 -0.024169526760701381 0.37267007813580277 0 -0.024844401122877391 0.39948633252540261 0 -0.0045342830833226501 0.3863935686212247 0 -0.024844401122877391 0.39948633252540261 0 -0.0045342830833226501 0.3863935686212247 0 -0.0038092142255275289 0.41137928311071797 0 -0.0045342830833226501 0.3863935686212247 0 -0.0038092142255275289 0.41137928311071797 0 -0.024169526760701381 0.37267007813580277 0 -0.0045342830833226501 0.3863935686212247 0 -0.0030841453677343121 0.43636499760021141 0 -0.0038092142255275289 0.41137928311071797 0 -0.026324668085478481 0.42779129271708288 0 -0.0030841453677343121 0.43636499760021141 0 -0.0038092142255275289 0.41137928311071797 0 -0.024844401122877391 0.39948633252540261 0 -0.0038092142255275289 0.41137928311071797 0 -0.026324668085478481 0.42779129271708288 0 -0.026324668085478481 0.42779129271708288 0 -0.049329429094603867 0.41198700835812702 0 -0.049413859365407042 0.43472239834070731 0 -0.024844401122877391 0.39948633252540261 0 -0.026324668085478481 0.42779129271708288 0 -0.049329429094603867 0.41198700835812702 0 -0.074152812153798875 0.41302729649400538 0 -0.063154715464804681 0.39516467689365731 0 -0.049329429094603867 0.41198700835812702 0 -0.066022972602334681 0.42956105407568013 0 -0.049329429094603867 0.41198700835812702 0 -0.049413859365407042 0.43472239834070731 0 -0.066022972602334681 0.42956105407568013 0 -0.049413859365407042 0.43472239834070731 0 -0.0708836913324285 0.45273085842607269 0 -0.0393713920190637 0.45112048084748302 0 -0.052402143273794041 0.47435943831340011 0 -0.0708836913324285 0.45273085842607269 0 -0.049413859365407042 0.43472239834070731 0 -0.0393713920190637 0.45112048084748302 0 -0.0708836913324285 0.45273085842607269 0 -0.0393713920190637 0.45112048084748302 0 -0.02876560419008364 0.47203163756026523 0 -0.052402143273794041 0.47435943831340011 0 -0.026324668085478481 0.42779129271708288 0 -0.049413859365407042 0.43472239834070731 0 -0.0393713920190637 0.45112048084748302 0 -0.0030841453677343121 0.43636499760021141 0 -0.026324668085478481 0.42779129271708288 0 -0.01888650882967766 0.45329231687868837 0 -0.026324668085478481 0.42779129271708288 0 -0.0393713920190637 0.45112048084748302 0 -0.01888650882967766 0.45329231687868837 0 -0.0393713920190637 0.45112048084748302 0 -0.01888650882967766 0.45329231687868837 0 -0.02876560419008364 0.47203163756026523 0 -0.01888650882967766 0.45329231687868837 0 -0.01341416680576474 0.47109478045738301 0 -0.02876560419008364 0.47203163756026523 0 -0.01888650882967766 0.45329231687868837 0 -0.002359076509941094 0.46135071208970457 0 -0.01341416680576474 0.47109478045738301 0 -0.0030841453677343121 0.43636499760021141 0 -0.01888650882967766 0.45329231687868837 0 -0.002359076509941094 0.46135071208970457 0 -0.0030841453677343121 0.43636499760021141 0 -0.002359076509941094 0.46135071208970457 0 -0.0090346539348886701 0.5 0 -0.0016340076521478781 0.48633642657919801 0 -0.017460482120078509 0.48648722646036041 0 -0.0016340076521478781 0.48633642657919801 0 -0.01341416680576474 0.47109478045738301 0 -0.017460482120078509 0.48648722646036041 0 -0.002359076509941094 0.46135071208970457 0 -0.0016340076521478781 0.48633642657919801 0 -0.01341416680576474 0.47109478045738301 0 -0.002359076509941094 0.46135071208970457 0 -0.0016340076521478781 0.48633642657919801 0 -0.002359076509941094 0.46135071208970457 0 -0.0016340076521478781 0.48633642657919801 0 0.0036787250480955699 0.47408322248379448 0 -0.01341416680576474 0.47109478045738301 0 -0.02876560419008364 0.47203163756026523 0 -0.017460482120078509 0.48648722646036041 0 -0.02876560419008364 0.47203163756026523 0 -0.017460482120078509 0.48648722646036041 0 -0.038135422162237087 0.5 0 -0.0090346539348886701 0.5 0 -0.017460482120078509 0.48648722646036041 0 -0.038135422162237087 0.5 0 -0.02876560419008364 0.47203163756026523 0 -0.038135422162237087 0.5 0 -0.052402143273794041 0.47435943831340011 0 -0.038135422162237087 0.5 0 -0.052402143273794041 0.47435943831340011 0 -0.067236190389585393 0.5 0 -0.052402143273794041 0.47435943831340011 0 -0.067236190389585393 0.5 0 -0.073349005429332273 0.47921852398434828 0 -0.067236190389585393 0.5 0 -0.073349005429332273 0.47921852398434828 0 -0.096336958616933588 0.5 0 -0.073349005429332273 0.47921852398434828 0 -0.096336958616933588 0.5 0 -0.093805091172543903 0.47224368257650851 0 -0.052402143273794041 0.47435943831340011 0 -0.073349005429332273 0.47921852398434828 0 -0.0708836913324285 0.45273085842607269 0 -0.0708836913324285 0.45273085842607269 0 -0.1043361340672995 0.45358667135048331 0 -0.093805091172543903 0.47224368257650851 0 -0.090582213275806372 0.43325937369158968 0 -0.0708836913324285 0.45273085842607269 0 -0.1043361340672995 0.45358667135048331 0 -0.090582213275806372 0.43325937369158968 0 -0.066022972602334681 0.42956105407568013 0 -0.0708836913324285 0.45273085842607269 0 -0.090582213275806372 0.43325937369158968 0 -0.0708836913324285 0.45273085842607269 0 -0.073349005429332273 0.47921852398434828 0 -0.0708836913324285 0.45273085842607269 0 -0.093805091172543903 0.47224368257650851 0 -0.1043361340672995 0.45358667135048331 0 -0.12052644250191399 0.4682622397032008 0 -0.093805091172543903 0.47224368257650851 0 -0.1104760497445479 0.43296770510105842 0 -0.090582213275806372 0.43325937369158968 0 -0.1043361340672995 0.45358667135048331 0 -0.12618187852634369 0.45882241462805679 0 -0.1043361340672995 0.45358667135048331 0 -0.1248743097581413 0.44162978393037222 0 -0.1104760497445479 0.43296770510105842 0 -0.1043361340672995 0.45358667135048331 0 -0.1248743097581413 0.44162978393037222 0 -0.12618187852634369 0.45882241462805679 0 -0.1043361340672995 0.45358667135048331 0 -0.12052644250191399 0.4682622397032008 0 -0.1317912103042716 0.47600940211286807 0 -0.12052644250191399 0.4682622397032008 0 -0.11642361318749669 0.48420448820259387 0 -0.12052644250191399 0.4682622397032008 0 -0.11642361318749669 0.48420448820259387 0 -0.093805091172543903 0.47224368257650851 0 -0.12543772684428189 0.5 0 -0.11642361318749669 0.48420448820259387 0 -0.096336958616933588 0.5 0 -0.12543772684428189 0.5 0 -0.13178312884530541 0.48627570230508688 0 -0.11642361318749669 0.48420448820259387 0 -0.11642361318749669 0.48420448820259387 0 -0.096336958616933588 0.5 0 -0.093805091172543903 0.47224368257650851 0 -0.1693268494853358 0.079538523923443544 0 -0.16945340910355561 0.089496265134995978 0 -0.1618062267740645 0.07958177760614682 0 -0.16945340910355561 0.089496265134995978 0 -0.1618062267740645 0.07958177760614682 0 -0.1616157516695074 0.095139316102685473 0 -0.1618062267740645 0.07958177760614682 0 -0.1616157516695074 0.095139316102685473 0 -0.14767322655010931 0.084806545451415583 0 -0.1618062267740645 0.07958177760614682 0 -0.16640070467345031 0.07104807823334372 0 -0.15517576509654349 0.068304766057398533 0 -0.16640070467345031 0.07104807823334372 0 -0.15517576509654349 0.068304766057398533 0 -0.16451238623864939 0.061110077383343737 0 -0.16640070467345031 0.07104807823334372 0 -0.17354141001077031 0.063798093567348918 0 -0.16451238623864939 0.061110077383343737 0 -0.17157411485926041 0.074087910936242465 0 -0.16640070467345031 0.07104807823334372 0 -0.17354141001077031 0.063798093567348918 0 -0.1693268494853358 0.079538523923443544 0 -0.17157411485926041 0.074087910936242465 0 -0.16640070467345031 0.07104807823334372 0 -0.1693268494853358 0.079538523923443544 0 -0.1618062267740645 0.07958177760614682 0 -0.16640070467345031 0.07104807823334372 0 -0.17354141001077031 0.063798093567348918 0 -0.17702749526748529 0.081966948020833708 0 -0.17656426821359539 0.052679136019797047 0 -0.18185637422210199 0.067243003367259677 0 -0.17702749526748529 0.081966948020833708 0 -0.17656426821359539 0.052679136019797047 0 -0.17702749526748529 0.081966948020833708 0 -0.17656426821359539 0.052679136019797047 0 -0.17157411485926041 0.074087910936242465 0 -0.17354141001077031 0.063798093567348918 0 -0.17702749526748529 0.081966948020833708 0 -0.18185637422210199 0.067243003367259677 0 -0.1853153676200878 0.058850167416455039 0 -0.18892740292417859 0.064703221589215376 0 -0.18185637422210199 0.067243003367259677 0 -0.19050021368002351 0.072419239531055349 0 -0.18892740292417859 0.064703221589215376 0 -0.18185637422210199 0.067243003367259677 0 -0.18141962227324601 0.075216957450553817 0 -0.17702749526748529 0.081966948020833708 0 -0.18185637422210199 0.067243003367259677 0 -0.18141962227324601 0.075216957450553817 0 -0.19050021368002351 0.072419239531055349 0 -0.18141962227324601 0.075216957450553817 0 -0.1867192510276118 0.077748512173410014 0 -0.19050021368002351 0.072419239531055349 0 -0.18141962227324601 0.075216957450553817 0 -0.1867192510276118 0.077748512173410014 0 -0.1819129998543452 0.079414551687582866 0 -0.18248563084903771 0.082725789105533951 0 -0.17702749526748529 0.081966948020833708 0 -0.17749072232138041 0.1112547600218704 0 -0.1867192510276118 0.077748512173410014 0 -0.18248563084903771 0.082725789105533951 0 -0.1819129998543452 0.079414551687582866 0 -0.18141962227324601 0.075216957450553817 0 -0.1819129998543452 0.079414551687582866 0 -0.17702749526748529 0.081966948020833708 0 -0.18248563084903771 0.082725789105533951 0 -0.1819129998543452 0.079414551687582866 0 -0.17702749526748529 0.081966948020833708 0 -0.1693268494853358 0.079538523923443544 0 -0.16945340910355561 0.089496265134995978 0 -0.17702749526748529 0.081966948020833708 0 -0.1693268494853358 0.079538523923443544 0 -0.17157411485926041 0.074087910936242465 0 -0.17702749526748529 0.081966948020833708 0 -0.17702749526748529 0.081966948020833708 0 -0.17749072232138041 0.1112547600218704 0 -0.16945340910355561 0.089496265134995978 0 -0.17702749526748529 0.081966948020833708 0 -0.17749072232138041 0.1112547600218704 0 -0.17749072232138041 0.1112547600218704 0 -0.1951643137470572 0.093770439387570487 0 -0.18248563084903771 0.082725789105533951 0 -0.17749072232138041 0.1112547600218704 0 -0.1951643137470572 0.093770439387570487 0 -0.17749072232138041 0.1112547600218704 0 -0.19150979458678249 0.1243728737611647 0 -0.17789558253256721 0.1368522929207025 0 -0.17749072232138041 0.1112547600218704 0 -0.17789558253256721 0.1368522929207025 0 -0.17749072232138041 0.1112547600218704 0 -0.16113979031376621 0.12743058591966341 0 -0.17749072232138041 0.1112547600218704 0 -0.15084139672814201 0.110160429760413 0 -0.16113979031376621 0.12743058591966341 0 -0.17749072232138041 0.1112547600218704 0 -0.1616157516695074 0.095139316102685473 0 -0.15084139672814201 0.110160429760413 0 -0.16945340910355561 0.089496265134995978 0 -0.17749072232138041 0.1112547600218704 0 -0.1616157516695074 0.095139316102685473 0 -0.1616157516695074 0.095139316102685473 0 -0.15084139672814201 0.110160429760413 0 -0.14767322655010931 0.084806545451415583 0 -0.15084139672814201 0.110160429760413 0 -0.1348328660863515 0.097215266237156234 0 -0.14767322655010931 0.084806545451415583 0 -0.15084139672814201 0.110160429760413 0 -0.13137241316615089 0.11357835761918721 0 -0.14300315410871919 0.1253406317882016 0 -0.15084139672814201 0.110160429760413 0 -0.16113979031376621 0.12743058591966341 0 -0.14300315410871919 0.1253406317882016 0 -0.13137241316615089 0.11357835761918721 0 -0.14300315410871919 0.1253406317882016 0 -0.12687331202938101 0.13192737382428379 0 -0.13137241316615089 0.11357835761918721 0 -0.1348328660863515 0.097215266237156234 0 -0.1198812247159142 0.095002477965890675 0 -0.15084139672814201 0.110160429760413 0 -0.13137241316615089 0.11357835761918721 0 -0.1348328660863515 0.097215266237156234 0 -0.1348328660863515 0.097215266237156234 0 -0.12533951967512769 0.078274991835817334 0 -0.1198812247159142 0.095002477965890675 0 -0.1348328660863515 0.097215266237156234 0 -0.12533951967512769 0.078274991835817334 0 -0.14767322655010931 0.084806545451415583 0 -0.1618062267740645 0.07958177760614682 0 -0.14767322655010931 0.084806545451415583 0 -0.15517576509654349 0.068304766057398533 0 -0.14767322655010931 0.084806545451415583 0 -0.15517576509654349 0.068304766057398533 0 -0.14001017723872511 0.063978020277280875 0 -0.12533951967512769 0.078274991835817334 0 -0.14767322655010931 0.084806545451415583 0 -0.14001017723872511 0.063978020277280875 0 -0.12533951967512769 0.078274991835817334 0 -0.14001017723872511 0.063978020277280875 0 -0.1248745965026067 0.059896082918310993 0 -0.14001017723872511 0.063978020277280875 0 -0.13626681081840961 0.042829268155062397 0 -0.1248745965026067 0.059896082918310993 0 -0.13626681081840961 0.042829268155062397 0 -0.1339340902388827 0.022300844741854581 0 -0.1180188049733784 0.030804183747700629 0 -0.13626681081840961 0.042829268155062397 0 -0.1339340902388827 0.022300844741854581 0 -0.15968783393996419 0.037567277286728401 0 -0.13626681081840961 0.042829268155062397 0 -0.15351002702878311 0.053877414325468623 0 -0.15968783393996419 0.037567277286728401 0 -0.13626681081840961 0.042829268155062397 0 -0.15968783393996419 0.037567277286728401 0 -0.14001017723872511 0.063978020277280875 0 -0.13626681081840961 0.042829268155062397 0 -0.15351002702878311 0.053877414325468623 0 -0.15517576509654349 0.068304766057398533 0 -0.14001017723872511 0.063978020277280875 0 -0.15351002702878311 0.053877414325468623 0 -0.12735709500343681 0.004015926865657337 0 -0.15177498865293759 0.016606981474429749 0 -0.12735709500343681 0.004015926865657337 0 -0.1339340902388827 0.022300844741854581 0 -0.15177498865293759 0.016606981474429749 0 -0.12735709500343681 0.004015926865657337 0 -0.1339340902388827 0.022300844741854581 0 -0.11835839359799651 0.016938700943610479 0 -0.1339340902388827 0.022300844741854581 0 -0.15177498865293759 0.016606981474429749 0 -0.15968783393996419 0.037567277286728401 0 -0.1339340902388827 0.022300844741854581 0 -0.15968783393996419 0.037567277286728401 0 -0.12735709500343681 0.004015926865657337 0 -0.15177498865293759 0.016606981474429749 0 -0.14801408494475049 0.0031182785745780331 0 -0.15177498865293759 0.016606981474429749 0 -0.14801408494475049 0.0031182785745780331 0 -0.1619193683370386 0.0066468078375689294 0 -0.15773416148281841 -0.0035868741371463562 0 -0.14801408494475049 0.0031182785745780331 0 -0.1619193683370386 0.0066468078375689294 0 -0.15177498865293759 0.016606981474429749 0 -0.1619193683370386 0.0066468078375689294 0 -0.16760309597538539 0.015861310899326669 0 -0.16716832075785379 -0.0032078365625175 0 -0.1619193683370386 0.0066468078375689294 0 -0.17584419881677341 0.0071523107965592754 0 -0.1619193683370386 0.0066468078375689294 0 -0.16760309597538539 0.015861310899326669 0 -0.17584419881677341 0.0071523107965592754 0 -0.15177498865293759 0.016606981474429749 0 -0.17619288230243149 0.029198036083215671 0 -0.15177498865293759 0.016606981474429749 0 -0.17619288230243149 0.029198036083215671 0 -0.15968783393996419 0.037567277286728401 0 -0.15177498865293759 0.016606981474429749 0 -0.16760309597538539 0.015861310899326669 0 -0.17619288230243149 0.029198036083215671 0 -0.17619288230243149 0.029198036083215671 0 -0.1852069371874478 0.015311100034367831 0 -0.17584419881677341 0.0071523107965592754 0 -0.17619288230243149 0.029198036083215671 0 -0.17584419881677341 0.0071523107965592754 0 -0.16760309597538539 0.015861310899326669 0 -0.17619288230243149 0.029198036083215671 0 -0.17584419881677341 0.0071523107965592754 0 -0.17619288230243149 0.029198036083215671 0 -0.19572946351785711 0.039272048382664133 0 -0.19029700863621521 0.024089069561314659 0 -0.17619288230243149 0.029198036083215671 0 -0.1852069371874478 0.015311100034367831 0 -0.19029700863621521 0.024089069561314659 0 -0.1852069371874478 0.015311100034367831 0 -0.18717715497560061 0.0062623078557712403 0 -0.17584419881677341 0.0071523107965592754 0 -0.18154179604087481 -0.0036104187285780349 0 -0.18717715497560061 0.0062623078557712403 0 -0.17584419881677341 0.0071523107965592754 0 -0.15351002702878311 0.053877414325468623 0 -0.1659033968134131 0.050269055427132232 0 -0.15968783393996419 0.037567277286728401 0 -0.1659033968134131 0.050269055427132232 0 -0.16451238623864939 0.061110077383343737 0 -0.17656426821359539 0.052679136019797047 0 -0.17354141001077031 0.063798093567348918 0 -0.16451238623864939 0.061110077383343737 0 -0.17656426821359539 0.052679136019797047 0 -0.16451238623864939 0.061110077383343737 0 -0.17656426821359539 0.052679136019797047 0 -0.15351002702878311 0.053877414325468623 0 -0.1659033968134131 0.050269055427132232 0 -0.16451238623864939 0.061110077383343737 0 -0.15517576509654349 0.068304766057398533 0 -0.15351002702878311 0.053877414325468623 0 -0.16451238623864939 0.061110077383343737 0 -0.15968783393996419 0.037567277286728401 0 -0.1762663423330757 0.033842591165095401 0 -0.1659033968134131 0.050269055427132232 0 -0.15968783393996419 0.037567277286728401 0 -0.1764827173319595 0.047523031967639129 0 -0.17619288230243149 0.029198036083215671 0 -0.15968783393996419 0.037567277286728401 0 -0.1762663423330757 0.033842591165095401 0 -0.15968783393996419 0.037567277286728401 0 -0.1764827173319595 0.047523031967639129 0 -0.15968783393996419 0.037567277286728401 0 -0.1762663423330757 0.033842591165095401 0 -0.1764827173319595 0.047523031967639129 0 -0.17619288230243149 0.029198036083215671 0 -0.19572946351785711 0.039272048382664133 0 -0.181281627628781 0.040827380692469641 0 -0.18051660755046151 0.049914261515807259 0 -0.1764827173319595 0.047523031967639129 0 -0.17619288230243149 0.029198036083215671 0 -0.1762663423330757 0.033842591165095401 0 -0.19572946351785711 0.039272048382664133 0 -0.1762663423330757 0.033842591165095401 0 -0.181281627628781 0.040827380692469641 0 -0.19572946351785711 0.039272048382664133 0 -0.1762663423330757 0.033842591165095401 0 -0.181281627628781 0.040827380692469641 0 -0.1764827173319595 0.047523031967639129 0 -0.1762663423330757 0.033842591165095401 0 -0.1764827173319595 0.047523031967639129 0 -0.17619288230243149 0.029198036083215671 0 -0.1762663423330757 0.033842591165095401 0 -0.181281627628781 0.040827380692469641 0 -0.18051660755046151 0.049914261515807259 0 -0.19572946351785711 0.039272048382664133 0 -0.18051660755046151 0.049914261515807259 0 -0.17656426821359539 0.052679136019797047 0 -0.1853153676200878 0.058850167416455039 0 -0.18051660755046151 0.049914261515807259 0 -0.1764827173319595 0.047523031967639129 0 -0.1764827173319595 0.047523031967639129 0 -0.17656426821359539 0.052679136019797047 0 -0.1659033968134131 0.050269055427132232 0 -0.1764827173319595 0.047523031967639129 0 -0.17656426821359539 0.052679136019797047 0 -0.18051660755046151 0.049914261515807259 0 -0.1764827173319595 0.047523031967639129 0 -0.17656426821359539 0.052679136019797047 0 -0.18051660755046151 0.049914261515807259 0 -0.17656426821359539 0.052679136019797047 0 -0.18185637422210199 0.067243003367259677 0 -0.17656426821359539 0.052679136019797047 0 -0.1853153676200878 0.058850167416455039 0 -0.1853153676200878 0.058850167416455039 0 -0.19803765617450109 0.060300476042091433 0 -0.18892740292417859 0.064703221589215376 0 -0.18051660755046151 0.049914261515807259 0 -0.19803765617450109 0.060300476042091433 0 -0.1977866825790292 0.05007637869738242 0 -0.18051660755046151 0.049914261515807259 0 -0.1853153676200878 0.058850167416455039 0 -0.19803765617450109 0.060300476042091433 0 -0.18051660755046151 0.049914261515807259 0 -0.19803765617450109 0.060300476042091433 0 -0.19803765617450109 0.060300476042091433 0 -0.1977866825790292 0.05007637869738242 0 -0.2066297839190599 0.054855205218219752 0 -0.18051660755046151 0.049914261515807259 0 -0.1977866825790292 0.05007637869738242 0 -0.19572946351785711 0.039272048382664133 0 -0.18051660755046151 0.049914261515807259 0 -0.19572946351785711 0.039272048382664133 0 -0.19572946351785711 0.039272048382664133 0 -0.2098237389609823 0.029412342647955388 0 -0.1977866825790292 0.05007637869738242 0 -0.19572946351785711 0.039272048382664133 0 -0.2073344650466164 0.045256152092875389 0 -0.19572946351785711 0.039272048382664133 0 -0.2073344650466164 0.045256152092875389 0 -0.2073344650466164 0.045256152092875389 0 -0.21702036639386221 0.038769314305699548 0 -0.2098237389609823 0.029412342647955388 0 -0.19572946351785711 0.039272048382664133 0 -0.2073344650466164 0.045256152092875389 0 -0.2098237389609823 0.029412342647955388 0 -0.21702036639386221 0.038769314305699548 0 -0.2098237389609823 0.029412342647955388 0 -0.2284051488343061 0.035137669629428533 0 -0.2073344650466164 0.045256152092875389 0 -0.21702036639386221 0.038769314305699548 0 -0.22251811273354419 0.045271092852538893 0 -0.2073344650466164 0.045256152092875389 0 -0.21769334509658461 0.055951218203848879 0 -0.22251811273354419 0.045271092852538893 0 -0.21769334509658461 0.055951218203848879 0 -0.20947987249717179 0.060448397508133619 0 -0.2066297839190599 0.054855205218219752 0 -0.21769334509658461 0.055951218203848879 0 -0.20947987249717179 0.060448397508133619 0 -0.2155587047985415 0.070686690568374386 0 -0.19803765617450109 0.060300476042091433 0 -0.20947987249717179 0.060448397508133619 0 -0.2066297839190599 0.054855205218219752 0 -0.1977866825790292 0.05007637869738242 0 -0.2073344650466164 0.045256152092875389 0 -0.2066297839190599 0.054855205218219752 0 -0.2073344650466164 0.045256152092875389 0 -0.21769334509658461 0.055951218203848879 0 -0.2066297839190599 0.054855205218219752 0 -0.1989264366345522 -0.0080023544535597537 0 -0.1965234412062255 0.0098537758749781944 0 -0.20713549204565579 6.5395444916274768e-05 0 -0.19066530249761049 -0.0041303576494283751 0 -0.18717715497560061 0.0062623078557712403 0 -0.1965234412062255 0.0098537758749781944 0 -0.1852069371874478 0.015311100034367831 0 -0.18717715497560061 0.0062623078557712403 0 -0.1965234412062255 0.0098537758749781944 0 -0.1965234412062255 0.0098537758749781944 0 -0.20113962024173071 0.02227838771243261 0 -0.2107847094499361 0.011405203725301251 0 -0.19572946351785711 0.039272048382664133 0 -0.20113962024173071 0.02227838771243261 0 -0.2098237389609823 0.029412342647955388 0 -0.19572946351785711 0.039272048382664133 0 -0.20113962024173071 0.02227838771243261 0 -0.19029700863621521 0.024089069561314659 0 -0.1965234412062255 0.0098537758749781944 0 -0.20113962024173071 0.02227838771243261 0 -0.19029700863621521 0.024089069561314659 0 -0.1852069371874478 0.015311100034367831 0 -0.1965234412062255 0.0098537758749781944 0 -0.19029700863621521 0.024089069561314659 0 -0.2098237389609823 0.029412342647955388 0 -0.2107847094499361 0.011405203725301251 0 -0.22391801440410891 0.019552636913248388 0 -0.20113962024173071 0.02227838771243261 0 -0.2098237389609823 0.029412342647955388 0 -0.2107847094499361 0.011405203725301251 0 -0.2098237389609823 0.029412342647955388 0 -0.22391801440410891 0.019552636913248388 0 -0.21702438745170211 -0.0043907958627755336 0 -0.2107847094499361 0.011405203725301251 0 -0.20713549204565579 6.5395444916274768e-05 0 -0.21702438745170211 -0.0043907958627755336 0 -0.2107847094499361 0.011405203725301251 0 -0.22391801440410891 0.019552636913248388 0 -0.1965234412062255 0.0098537758749781944 0 -0.2107847094499361 0.011405203725301251 0 -0.20713549204565579 6.5395444916274768e-05 0 -0.22867745033346079 0.0038692188645070222 0 -0.22391801440410891 0.019552636913248388 0 -0.2344599051246074 0.012178015861532989 0 -0.21702438745170211 -0.0043907958627755336 0 -0.22391801440410891 0.019552636913248388 0 -0.21702438745170211 -0.0043907958627755336 0 -0.22867745033346079 0.0038692188645070222 0 -0.22391801440410891 0.019552636913248388 0 -0.22391801440410891 0.019552636913248388 0 -0.2403792472176362 0.02548084658656756 0 -0.2344599051246074 0.012178015861532989 0 -0.2098237389609823 0.029412342647955388 0 -0.22391801440410891 0.019552636913248388 0 -0.2284051488343061 0.035137669629428533 0 -0.22391801440410891 0.019552636913248388 0 -0.2403792472176362 0.02548084658656756 0 -0.2284051488343061 0.035137669629428533 0 -0.22391801440410891 0.019552636913248388 0 -0.2344599051246074 0.012178015861532989 0 -0.22391801440410891 0.019552636913248388 0 -0.2284051488343061 0.035137669629428533 0 -0.2522816967992324 0.037264740289820159 0 -0.25157722050270093 0.012682655753942951 0 -0.2403792472176362 0.02548084658656756 0 -0.25157722050270093 0.012682655753942951 0 -0.2403792472176362 0.02548084658656756 0 -0.2344599051246074 0.012178015861532989 0 -0.25267499080189931 -0.0034516002120552492 0 -0.25157722050270093 0.012682655753942951 0 -0.2401015516947359 0.00075261550232862703 0 -0.25157722050270093 0.012682655753942951 0 -0.2344599051246074 0.012178015861532989 0 -0.2401015516947359 0.00075261550232862703 0 -0.22867745033346079 0.0038692188645070222 0 -0.2344599051246074 0.012178015861532989 0 -0.2401015516947359 0.00075261550232862703 0 -0.21769334509658461 0.055951218203848879 0 -0.23255980098598539 0.056775429521547523 0 -0.2155587047985415 0.070686690568374386 0 -0.23289228326450309 0.050722702345608793 0 -0.22641588552015429 0.052180110730886013 0 -0.22251811273354419 0.045271092852538893 0 -0.23289228326450309 0.050722702345608793 0 -0.23255980098598539 0.056775429521547523 0 -0.22641588552015429 0.052180110730886013 0 -0.21769334509658461 0.055951218203848879 0 -0.23255980098598539 0.056775429521547523 0 -0.22641588552015429 0.052180110730886013 0 -0.21769334509658461 0.055951218203848879 0 -0.22641588552015429 0.052180110730886013 0 -0.22251811273354419 0.045271092852538893 0 -0.21702036639386221 0.038769314305699548 0 -0.22251811273354419 0.045271092852538893 0 -0.2284051488343061 0.035137669629428533 0 -0.23289228326450309 0.050722702345608793 0 -0.22251811273354419 0.045271092852538893 0 -0.2284051488343061 0.035137669629428533 0 -0.23289228326450309 0.050722702345608793 0 -0.2284051488343061 0.035137669629428533 0 -0.2522816967992324 0.037264740289820159 0 -0.2403792472176362 0.02548084658656756 0 -0.2284051488343061 0.035137669629428533 0 -0.2522816967992324 0.037264740289820159 0 -0.23289228326450309 0.050722702345608793 0 -0.2284051488343061 0.035137669629428533 0 -0.2522816967992324 0.037264740289820159 0 -0.23289228326450309 0.050722702345608793 0 -0.23255980098598539 0.056775429521547523 0 -0.2522816967992324 0.037264740289820159 0 -0.23255980098598539 0.056775429521547523 0 -0.2522816967992324 0.037264740289820159 0 -0.23255980098598539 0.056775429521547523 0 -0.24906194248509719 0.058488871325365822 0 -0.23255980098598539 0.056775429521547523 0 -0.24906194248509719 0.058488871325365822 0 -0.23770452364983391 0.071010308971772351 0 -0.26257114212692878 0.06573449919026883 0 -0.24906194248509719 0.058488871325365822 0 -0.23770452364983391 0.071010308971772351 0 -0.25261226255175379 0.080423606239198905 0 -0.23770452364983391 0.071010308971772351 0 -0.23158356521460469 0.085326977986282804 0 -0.25261226255175379 0.080423606239198905 0 -0.23158356521460469 0.085326977986282804 0 -0.24377998071086901 0.096378574065869249 0 -0.23158356521460469 0.085326977986282804 0 -0.21283790517273879 0.076286118753275345 0 -0.22135706029896429 0.097751395037259853 0 -0.23158356521460469 0.085326977986282804 0 -0.22135706029896429 0.097751395037259853 0 -0.24377998071086901 0.096378574065869249 0 -0.23255980098598539 0.056775429521547523 0 -0.21283790517273879 0.076286118753275345 0 -0.23770452364983391 0.071010308971772351 0 -0.23158356521460469 0.085326977986282804 0 -0.21283790517273879 0.076286118753275345 0 -0.23255980098598539 0.056775429521547523 0 -0.23770452364983391 0.071010308971772351 0 -0.21283790517273879 0.076286118753275345 0 -0.23255980098598539 0.056775429521547523 0 -0.21283790517273879 0.076286118753275345 0 -0.2155587047985415 0.070686690568374386 0 -0.23770452364983391 0.071010308971772351 0 -0.21283790517273879 0.076286118753275345 0 -0.19803765617450109 0.060300476042091433 0 -0.20947987249717179 0.060448397508133619 0 -0.2155587047985415 0.070686690568374386 0 -0.19803765617450109 0.060300476042091433 0 -0.20333782300263301 0.070680183335342567 0 -0.2155587047985415 0.070686690568374386 0 -0.19803765617450109 0.060300476042091433 0 -0.2155587047985415 0.070686690568374386 0 -0.21283790517273879 0.076286118753275345 0 -0.19766176801088831 0.079505953929404904 0 -0.20333782300263301 0.070680183335342567 0 -0.21283790517273879 0.076286118753275345 0 -0.19766176801088831 0.079505953929404904 0 -0.20333782300263301 0.070680183335342567 0 -0.21283790517273879 0.076286118753275345 0 -0.2155587047985415 0.070686690568374386 0 -0.21283790517273879 0.076286118753275345 0 -0.1951643137470572 0.093770439387570487 0 -0.22135706029896429 0.097751395037259853 0 -0.21283790517273879 0.076286118753275345 0 -0.1951643137470572 0.093770439387570487 0 -0.21283790517273879 0.076286118753275345 0 -0.19766176801088831 0.079505953929404904 0 -0.1951643137470572 0.093770439387570487 0 -0.18248563084903771 0.082725789105533951 0 -0.19766176801088831 0.079505953929404904 0 -0.1951643137470572 0.093770439387570487 0 -0.1867192510276118 0.077748512173410014 0 -0.18248563084903771 0.082725789105533951 0 -0.19766176801088831 0.079505953929404904 0 -0.18248563084903771 0.082725789105533951 0 -0.19766176801088831 0.079505953929404904 0 -0.1867192510276118 0.077748512173410014 0 -0.19766176801088831 0.079505953929404904 0 -0.19050021368002351 0.072419239531055349 0 -0.19803765617450109 0.060300476042091433 0 -0.19050021368002351 0.072419239531055349 0 -0.18892740292417859 0.064703221589215376 0 -0.19803765617450109 0.060300476042091433 0 -0.20333782300263301 0.070680183335342567 0 -0.19050021368002351 0.072419239531055349 0 -0.20333782300263301 0.070680183335342567 0 -0.19766176801088831 0.079505953929404904 0 -0.19050021368002351 0.072419239531055349 0 -0.17749072232138041 0.1112547600218704 0 -0.19150979458678249 0.1243728737611647 0 -0.1951643137470572 0.093770439387570487 0 -0.19150979458678249 0.1243728737611647 0 -0.1951643137470572 0.093770439387570487 0 -0.20994497012605751 0.11823125198409511 0 -0.1951643137470572 0.093770439387570487 0 -0.20994497012605751 0.11823125198409511 0 -0.22135706029896429 0.097751395037259853 0 -0.20994497012605751 0.11823125198409511 0 -0.2348316268224595 0.11651500804646669 0 -0.2235388627286797 0.12965651036182041 0 -0.20994497012605751 0.11823125198409511 0 -0.22135706029896429 0.097751395037259853 0 -0.2348316268224595 0.11651500804646669 0 -0.22135706029896429 0.097751395037259853 0 -0.24377998071086901 0.096378574065869249 0 -0.2348316268224595 0.11651500804646669 0 -0.25136603029008331 0.1103208693098497 0 -0.24377998071086901 0.096378574065869249 0 -0.2348316268224595 0.11651500804646669 0 -0.25922316449870308 0.12628093809151891 0 -0.25136603029008331 0.1103208693098497 0 -0.2348316268224595 0.11651500804646669 0 -0.25922316449870308 0.12628093809151891 0 -0.2348316268224595 0.11651500804646669 0 -0.2369615480924761 0.1404602413506009 0 -0.2369615480924761 0.1404602413506009 0 -0.2235388627286797 0.12965651036182041 0 -0.2124173058737257 0.14341954006611901 0 -0.2348316268224595 0.11651500804646669 0 -0.2369615480924761 0.1404602413506009 0 -0.2235388627286797 0.12965651036182041 0 -0.2369615480924761 0.1404602413506009 0 -0.22679867445049531 0.16064067306310431 0 -0.2124173058737257 0.14341954006611901 0 -0.2369615480924761 0.1404602413506009 0 -0.247018622616726 0.15992587597476091 0 -0.22679867445049531 0.16064067306310431 0 -0.25846103874104392 0.14702121199507179 0 -0.2369615480924761 0.1404602413506009 0 -0.247018622616726 0.15992587597476091 0 -0.247018622616726 0.15992587597476091 0 -0.23359887481107691 0.1809086922627815 0 -0.247018622616726 0.15992587597476091 0 -0.23359887481107691 0.1809086922627815 0 -0.22679867445049531 0.16064067306310431 0 -0.26439180367967152 0.18225540552070321 0 -0.247018622616726 0.15992587597476091 0 -0.23359887481107691 0.1809086922627815 0 -0.23359887481107691 0.1809086922627815 0 -0.20517995294037331 0.17379218369948349 0 -0.2201791270054278 0.2018915085508021 0 -0.23359887481107691 0.1809086922627815 0 -0.22679867445049531 0.16064067306310431 0 -0.20517995294037331 0.17379218369948349 0 -0.22679867445049531 0.16064067306310431 0 -0.20517995294037331 0.17379218369948349 0 -0.2124173058737257 0.14341954006611901 0 -0.20517995294037331 0.17379218369948349 0 -0.19274338499996449 0.14807478539393409 0 -0.17830044274374979 0.16244982581953471 0 -0.19150979458678249 0.1243728737611647 0 -0.19274338499996449 0.14807478539393409 0 -0.2124173058737257 0.14341954006611901 0 -0.20994497012605751 0.11823125198409511 0 -0.2235388627286797 0.12965651036182041 0 -0.2124173058737257 0.14341954006611901 0 -0.19150979458678249 0.1243728737611647 0 -0.20994497012605751 0.11823125198409511 0 -0.2124173058737257 0.14341954006611901 0 -0.20517995294037331 0.17379218369948349 0 -0.19274338499996449 0.14807478539393409 0 -0.2124173058737257 0.14341954006611901 0 -0.22371849106378741 0.2462845034026982 0 -0.23019370483249479 0.22382880503591951 0 -0.2066863838603582 0.24242880758937649 0 -0.22371849106378741 0.2462845034026982 0 -0.23951274761537589 0.2474853768326048 0 -0.23019370483249479 0.22382880503591951 0 -0.25272375818517617 0.22994970808158929 0 -0.25621817608628389 0.2460965770837312 0 -0.23951274761537589 0.2474853768326048 0 -0.25370102580463139 0.2052288024824625 0 -0.25272375818517617 0.22994970808158929 0 -0.23019370483249479 0.22382880503591951 0 -0.25272375818517617 0.22994970808158929 0 -0.23951274761537589 0.2474853768326048 0 -0.23019370483249479 0.22382880503591951 0 -0.25370102580463139 0.2052288024824625 0 -0.23359887481107691 0.1809086922627815 0 -0.2201791270054278 0.2018915085508021 0 -0.25370102580463139 0.2052288024824625 0 -0.23019370483249479 0.22382880503591951 0 -0.2201791270054278 0.2018915085508021 0 -0.23019370483249479 0.22382880503591951 0 -0.2201791270054278 0.2018915085508021 0 -0.20675937919977869 0.22287432483882261 0 -0.25370102580463139 0.2052288024824625 0 -0.23019370483249479 0.22382880503591951 0 -0.23359887481107691 0.1809086922627815 0 -0.2201791270054278 0.2018915085508021 0 -0.20517995294037331 0.17379218369948349 0 -0.2201791270054278 0.2018915085508021 0 -0.19686056424972551 0.20437535499954981 0 -0.20517995294037331 0.17379218369948349 0 -0.19686056424972551 0.20437535499954981 0 -0.17870530295493239 0.18804735871836689 0 -0.19686056424972551 0.20437535499954981 0 -0.20675937919977869 0.22287432483882261 0 -0.19122946023172571 0.22600186257262461 0 -0.19686056424972551 0.20437535499954981 0 -0.19122946023172571 0.22600186257262461 0 -0.179110163166115 0.21364489161719899 0 -0.2201791270054278 0.2018915085508021 0 -0.19686056424972551 0.20437535499954981 0 -0.20675937919977869 0.22287432483882261 0 -0.2201791270054278 0.2018915085508021 0 -0.20675937919977869 0.22287432483882261 0 -0.23019370483249479 0.22382880503591951 0 -0.2066863838603582 0.24242880758937649 0 -0.23019370483249479 0.22382880503591951 0 -0.20675937919977869 0.22287432483882261 0 -0.2066863838603582 0.24242880758937649 0 -0.20675937919977869 0.22287432483882261 0 -0.19333963139412971 0.24385714112684301 0 -0.20675937919977869 0.22287432483882261 0 -0.19122946023172571 0.22600186257262461 0 -0.19333963139412971 0.24385714112684301 0 -0.19122946023172571 0.22600186257262461 0 -0.19333963139412971 0.24385714112684301 0 -0.17951502337729761 0.2392424245160312 0 -0.20675937919977869 0.22287432483882261 0 -0.19333963139412971 0.24385714112684301 0 -0.2066863838603582 0.24242880758937649 0 -0.18259587964237009 0.2606558300825601 0 -0.19333963139412971 0.24385714112684301 0 -0.2066863838603582 0.24242880758937649 0 -0.21408768962570049 0.25938306782852782 0 -0.22371849106378741 0.2462845034026982 0 -0.2066863838603582 0.24242880758937649 0 -0.1532221513837192 0.25419418888983192 0 -0.17951502337729761 0.2392424245160312 0 -0.15110003921584569 0.22881829817408891 0 -0.18259587964237009 0.2606558300825601 0 -0.19333963139412971 0.24385714112684301 0 -0.17951502337729761 0.2392424245160312 0 -0.17951502337729761 0.2392424245160312 0 -0.1619547442009632 0.2162214427956837 0 -0.179110163166115 0.21364489161719899 0 -0.19122946023172571 0.22600186257262461 0 -0.17951502337729761 0.2392424245160312 0 -0.179110163166115 0.21364489161719899 0 -0.17951502337729761 0.2392424245160312 0 -0.179110163166115 0.21364489161719899 0 -0.17951502337729761 0.2392424245160312 0 -0.1619547442009632 0.2162214427956837 0 -0.15110003921584569 0.22881829817408891 0 -0.1619547442009632 0.2162214427956837 0 -0.179110163166115 0.21364489161719899 0 -0.17870530295493239 0.18804735871836689 0 -0.19686056424972551 0.20437535499954981 0 -0.179110163166115 0.21364489161719899 0 -0.17870530295493239 0.18804735871836689 0 -0.179110163166115 0.21364489161719899 0 -0.17870530295493239 0.18804735871836689 0 -0.1619547442009632 0.2162214427956837 0 -0.17870530295493239 0.18804735871836689 0 -0.15775407484820861 0.18727827749961631 0 -0.14804225966403101 0.20585853828705919 0 -0.15775407484820861 0.18727827749961631 0 -0.13876353146598761 0.18223131465273959 0 -0.1619547442009632 0.2162214427956837 0 -0.14804225966403101 0.20585853828705919 0 -0.15775407484820861 0.18727827749961631 0 -0.13876353146598761 0.18223131465273959 0 -0.1245765098090509 0.17966052017845999 0 -0.1190175871807343 0.20067046473278771 0 -0.14804225966403101 0.20585853828705919 0 -0.13876353146598761 0.18223131465273959 0 -0.1190175871807343 0.20067046473278771 0 -0.14804225966403101 0.20585853828705919 0 -0.13479108425045189 0.2189379304695287 0 -0.1190175871807343 0.20067046473278771 0 -0.13479108425045189 0.2189379304695287 0 -0.12594818007053379 0.2253828658525201 0 -0.1190175871807343 0.20067046473278771 0 -0.1619547442009632 0.2162214427956837 0 -0.14804225966403101 0.20585853828705919 0 -0.15110003921584569 0.22881829817408891 0 -0.14804225966403101 0.20585853828705919 0 -0.15110003921584569 0.22881829817408891 0 -0.13479108425045189 0.2189379304695287 0 -0.15110003921584569 0.22881829817408891 0 -0.13479108425045189 0.2189379304695287 0 -0.1378537507735782 0.22769286600650679 0 -0.15110003921584569 0.22881829817408891 0 -0.1378537507735782 0.22769286600650679 0 -0.13827307027013019 0.2362506378269415 0 -0.13479108425045189 0.2189379304695287 0 -0.12594818007053379 0.2253828658525201 0 -0.1378537507735782 0.22769286600650679 0 -0.12594818007053379 0.2253828658525201 0 -0.1378537507735782 0.22769286600650679 0 -0.13827307027013019 0.2362506378269415 0 -0.12594818007053379 0.2253828658525201 0 -0.13827307027013019 0.2362506378269415 0 -0.1327712538659816 0.24971188635390451 0 -0.12594818007053379 0.2253828658525201 0 -0.1327712538659816 0.24971188635390451 0 -0.1532221513837192 0.25419418888983192 0 -0.15110003921584569 0.22881829817408891 0 -0.13827307027013019 0.2362506378269415 0 -0.1532221513837192 0.25419418888983192 0 -0.13827307027013019 0.2362506378269415 0 -0.1327712538659816 0.24971188635390451 0 -0.16317411874061041 0.14897554401654969 0 -0.16113979031376621 0.12743058591966341 0 -0.1447888583061562 0.1436064118174607 0 -0.16317411874061041 0.14897554401654969 0 -0.16113979031376621 0.12743058591966341 0 -0.17789558253256721 0.1368522929207025 0 -0.17749072232138041 0.1112547600218704 0 -0.16113979031376621 0.12743058591966341 0 -0.17789558253256721 0.1368522929207025 0 -0.19150979458678249 0.1243728737611647 0 -0.19274338499996449 0.14807478539393409 0 -0.17789558253256721 0.1368522929207025 0 -0.16317411874061041 0.14897554401654969 0 -0.17789558253256721 0.1368522929207025 0 -0.17830044274374979 0.16244982581953471 0 -0.17789558253256721 0.1368522929207025 0 -0.17830044274374979 0.16244982581953471 0 -0.19274338499996449 0.14807478539393409 0 -0.17789558253256721 0.1368522929207025 0 -0.17830044274374979 0.16244982581953471 0 -0.20517995294037331 0.17379218369948349 0 -0.17870530295493239 0.18804735871836689 0 -0.17830044274374979 0.16244982581953471 0 -0.17870530295493239 0.18804735871836689 0 -0.17830044274374979 0.16244982581953471 0 -0.17870530295493239 0.18804735871836689 0 -0.17830044274374979 0.16244982581953471 0 -0.15775407484820861 0.18727827749961631 0 -0.17830044274374979 0.16244982581953471 0 -0.15775407484820861 0.18727827749961631 0 -0.15245232938168229 0.1648839185887534 0 -0.16317411874061041 0.14897554401654969 0 -0.17830044274374979 0.16244982581953471 0 -0.15245232938168229 0.1648839185887534 0 -0.15775407484820861 0.18727827749961631 0 -0.15245232938168229 0.1648839185887534 0 -0.13876353146598761 0.18223131465273959 0 -0.13876353146598761 0.18223131465273959 0 -0.12843792629854631 0.15978223771525801 0 -0.1245765098090509 0.17966052017845999 0 -0.15245232938168229 0.1648839185887534 0 -0.13876353146598761 0.18223131465273959 0 -0.12843792629854631 0.15978223771525801 0 -0.12843792629854631 0.15978223771525801 0 -0.1447888583061562 0.1436064118174607 0 -0.12843792629854631 0.15978223771525801 0 -0.1447888583061562 0.1436064118174607 0 -0.1204435081575875 0.14623213693654391 0 -0.16317411874061041 0.14897554401654969 0 -0.15245232938168229 0.1648839185887534 0 -0.1447888583061562 0.1436064118174607 0 -0.15245232938168229 0.1648839185887534 0 -0.12843792629854631 0.15978223771525801 0 -0.1447888583061562 0.1436064118174607 0 -0.16113979031376621 0.12743058591966341 0 -0.1447888583061562 0.1436064118174607 0 -0.14300315410871919 0.1253406317882016 0 -0.16113979031376621 0.12743058591966341 0 -0.1447888583061562 0.1436064118174607 0 -0.1447888583061562 0.1436064118174607 0 -0.12687331202938101 0.13192737382428379 0 -0.1204435081575875 0.14623213693654391 0 -0.1447888583061562 0.1436064118174607 0 -0.14300315410871919 0.1253406317882016 0 -0.12687331202938101 0.13192737382428379 0 -0.12687331202938101 0.13192737382428379 0 -0.1130049083687871 0.13722853083192951 0 -0.10667563132183119 0.1260080396076822 0 -0.12687331202938101 0.13192737382428379 0 -0.1130049083687871 0.13722853083192951 0 -0.1204435081575875 0.14623213693654391 0 -0.10667563132183119 0.1260080396076822 0 -0.081978849477511453 0.1384377215961772 0 -0.096577670607123245 0.1239972751083621 0 -0.10667563132183119 0.1260080396076822 0 -0.1008242758955458 0.1385116675773613 0 -0.081978849477511453 0.1384377215961772 0 -0.10667563132183119 0.1260080396076822 0 -0.081978849477511453 0.1384377215961772 0 -0.1130049083687871 0.13722853083192951 0 -0.10667563132183119 0.1260080396076822 0 -0.1008242758955458 0.1385116675773613 0 -0.1130049083687871 0.13722853083192951 0 -0.1008242758955458 0.1385116675773613 0 -0.1078791741402548 0.14587794917826699 0 -0.094422293866394627 0.1556947047027778 0 -0.094582816169344081 0.14500609667275041 0 -0.1078791741402548 0.14587794917826699 0 -0.1008242758955458 0.1385116675773613 0 -0.094582816169344081 0.14500609667275041 0 -0.1078791741402548 0.14587794917826699 0 -0.12843792629854631 0.15978223771525801 0 -0.1204435081575875 0.14623213693654391 0 -0.1073217141416921 0.15896651377475199 0 -0.1078791741402548 0.14587794917826699 0 -0.1204435081575875 0.14623213693654391 0 -0.1073217141416921 0.15896651377475199 0 -0.1130049083687871 0.13722853083192951 0 -0.1078791741402548 0.14587794917826699 0 -0.1204435081575875 0.14623213693654391 0 -0.12843792629854631 0.15978223771525801 0 -0.1245765098090509 0.17966052017845999 0 -0.1120869942909358 0.17595806361305491 0 -0.1120869942909358 0.17595806361305491 0 -0.1073217141416921 0.15896651377475199 0 -0.12843792629854631 0.15978223771525801 0 -0.1120869942909358 0.17595806361305491 0 -0.12843792629854631 0.15978223771525801 0 -0.1120869942909358 0.17595806361305491 0 -0.1073217141416921 0.15896651377475199 0 -0.1245765098090509 0.17966052017845999 0 -0.1120869942909358 0.17595806361305491 0 -0.1190175871807343 0.20067046473278771 0 -0.1120869942909358 0.17595806361305491 0 -0.1020860412129876 0.1687304780430319 0 -0.095149617161195271 0.19271405424946009 0 -0.1020860412129876 0.1687304780430319 0 -0.095149617161195271 0.19271405424946009 0 -0.1120869942909358 0.17595806361305491 0 -0.095149617161195271 0.19271405424946009 0 -0.1020860412129876 0.1687304780430319 0 -0.093279947424905002 0.17994671451597891 0 -0.095149617161195271 0.19271405424946009 0 -0.1020860412129876 0.1687304780430319 0 -0.089956478385260899 0.16811851343374709 0 -0.093279947424905002 0.17994671451597891 0 -0.094422293866394627 0.1556947047027778 0 -0.1078791741402548 0.14587794917826699 0 -0.1020860412129876 0.1687304780430319 0 -0.1078791741402548 0.14587794917826699 0 -0.1073217141416921 0.15896651377475199 0 -0.1020860412129876 0.1687304780430319 0 -0.1120869942909358 0.17595806361305491 0 -0.1073217141416921 0.15896651377475199 0 -0.1020860412129876 0.1687304780430319 0 -0.1078791741402548 0.14587794917826699 0 -0.1020860412129876 0.1687304780430319 0 -0.094422293866394627 0.1556947047027778 0 -0.1020860412129876 0.1687304780430319 0 -0.089956478385260899 0.16811851343374709 0 -0.094422293866394627 0.1556947047027778 0 -0.089956478385260899 0.16811851343374709 0 -0.084742563178951485 0.15922574422532609 0 -0.089956478385260899 0.16811851343374709 0 -0.080023232193096983 0.1657260639694961 0 -0.084742563178951485 0.15922574422532609 0 -0.089956478385260899 0.16811851343374709 0 -0.080023232193096983 0.1657260639694961 0 -0.081293191825158789 0.17801619480298669 0 -0.080023232193096983 0.1657260639694961 0 -0.084742563178951485 0.15922574422532609 0 -0.074930767296401246 0.15918989644816289 0 -0.081293191825158789 0.17801619480298669 0 -0.095149617161195271 0.19271405424946009 0 -0.073474196407973841 0.19079473501472519 0 -0.081293191825158789 0.17801619480298669 0 -0.095149617161195271 0.19271405424946009 0 -0.093279947424905002 0.17994671451597891 0 -0.081293191825158789 0.17801619480298669 0 -0.095149617161195271 0.19271405424946009 0 -0.089956478385260899 0.16811851343374709 0 -0.093279947424905002 0.17994671451597891 0 -0.081293191825158789 0.17801619480298669 0 -0.064604308801312821 0.18244611143699499 0 -0.069549912031587807 0.17131438064227461 0 -0.073474196407973841 0.19079473501472519 0 -0.081293191825158789 0.17801619480298669 0 -0.069549912031587807 0.17131438064227461 0 -0.073474196407973841 0.19079473501472519 0 -0.069549912031587807 0.17131438064227461 0 -0.073474196407973841 0.19079473501472519 0 -0.064604308801312821 0.18244611143699499 0 -0.069549912031587807 0.17131438064227461 0 -0.062041409668937363 0.1723934095439342 0 -0.084742563178951485 0.15922574422532609 0 -0.074930767296401246 0.15918989644816289 0 -0.074588176879671189 0.15080810715310269 0 -0.080023232193096983 0.1657260639694961 0 -0.074930767296401246 0.15918989644816289 0 -0.06743676648912228 0.16331833535651319 0 -0.081293191825158789 0.17801619480298669 0 -0.069549912031587807 0.17131438064227461 0 -0.06743676648912228 0.16331833535651319 0 -0.080023232193096983 0.1657260639694961 0 -0.081293191825158789 0.17801619480298669 0 -0.06743676648912228 0.16331833535651319 0 -0.081293191825158789 0.17801619480298669 0 -0.06743676648912228 0.16331833535651319 0 -0.069549912031587807 0.17131438064227461 0 -0.062031688412593149 0.16441565219234799 0 -0.062041409668937363 0.1723934095439342 0 -0.069549912031587807 0.17131438064227461 0 -0.06743676648912228 0.16331833535651319 0 -0.062031688412593149 0.16441565219234799 0 -0.06743676648912228 0.16331833535651319 0 -0.06725389334219653 0.15771987894696021 0 -0.062031688412593149 0.16441565219234799 0 -0.074930767296401246 0.15918989644816289 0 -0.06743676648912228 0.16331833535651319 0 -0.06725389334219653 0.15771987894696021 0 -0.081978849477511453 0.1384377215961772 0 -0.05728206763319247 0.1508674035846734 0 -0.06725389334219653 0.15771987894696021 0 -0.074588176879671189 0.15080810715310269 0 -0.05728206763319247 0.1508674035846734 0 -0.074588176879671189 0.15080810715310269 0 -0.081978849477511453 0.1384377215961772 0 -0.05728206763319247 0.1508674035846734 0 -0.081978849477511453 0.1384377215961772 0 -0.06070043620975589 0.134524720015781 0 -0.05728206763319247 0.1508674035846734 0 -0.074930767296401246 0.15918989644816289 0 -0.06725389334219653 0.15771987894696021 0 -0.074588176879671189 0.15080810715310269 0 -0.071786582042575819 0.1280585334591178 0 -0.081978849477511453 0.1384377215961772 0 -0.08034823769671974 0.121089655777625 0 -0.071786582042575819 0.1280585334591178 0 -0.081978849477511453 0.1384377215961772 0 -0.06070043620975589 0.134524720015781 0 -0.071786582042575819 0.1280585334591178 0 -0.06070043620975589 0.134524720015781 0 -0.06411880478631618 0.11818203644688791 0 -0.081978849477511453 0.1384377215961772 0 -0.08034823769671974 0.121089655777625 0 -0.096577670607123245 0.1239972751083621 0 -0.1008242758955458 0.1385116675773613 0 -0.094582816169344081 0.14500609667275041 0 -0.081978849477511453 0.1384377215961772 0 -0.094582816169344081 0.14500609667275041 0 -0.081978849477511453 0.1384377215961772 0 -0.0854808471676783 0.14892295327365951 0 -0.094422293866394627 0.1556947047027778 0 -0.084742563178951485 0.15922574422532609 0 -0.0854808471676783 0.14892295327365951 0 -0.094422293866394627 0.1556947047027778 0 -0.094582816169344081 0.14500609667275041 0 -0.0854808471676783 0.14892295327365951 0 -0.084742563178951485 0.15922574422532609 0 -0.074588176879671189 0.15080810715310269 0 -0.0854808471676783 0.14892295327365951 0 -0.074588176879671189 0.15080810715310269 0 -0.081978849477511453 0.1384377215961772 0 -0.0854808471676783 0.14892295327365951 0 -0.1045487088169635 0.24438495162540061 0 -0.11455994162881621 0.23631135170566109 0 -0.098826177075254387 0.23394696074010041 0 -0.10005120432924321 0.25626016583208688 0 -0.094679029848152713 0.24609146959404629 0 -0.1045487088169635 0.24438495162540061 0 -0.094679029848152713 0.24609146959404629 0 -0.1045487088169635 0.24438495162540061 0 -0.098826177075254387 0.23394696074010041 0 -0.116744543106582 0.25728181003509248 0 -0.1045487088169635 0.24438495162540061 0 -0.11455994162881621 0.23631135170566109 0 -0.116744543106582 0.25728181003509248 0 -0.1327712538659816 0.24971188635390451 0 -0.11455994162881621 0.23631135170566109 0 -0.12594818007053379 0.2253828658525201 0 -0.1327712538659816 0.24971188635390451 0 -0.11455994162881621 0.23631135170566109 0 -0.11455994162881621 0.23631135170566109 0 -0.1144435087069731 0.2232582902708152 0 -0.1063794885369051 0.22193246116811141 0 -0.12594818007053379 0.2253828658525201 0 -0.1144435087069731 0.2232582902708152 0 -0.1108864245916369 0.20940648235696879 0 -0.12594818007053379 0.2253828658525201 0 -0.11455994162881621 0.23631135170566109 0 -0.1144435087069731 0.2232582902708152 0 -0.11455994162881621 0.23631135170566109 0 -0.1063794885369051 0.22193246116811141 0 -0.098826177075254387 0.23394696074010041 0 -0.1063794885369051 0.22193246116811141 0 -0.098826177075254387 0.23394696074010041 0 -0.089950704149474564 0.21660149084549701 0 -0.1063794885369051 0.22193246116811141 0 -0.089950704149474564 0.21660149084549701 0 -0.10053720550511509 0.21148400771379949 0 -0.095149617161195271 0.19271405424946009 0 -0.089950704149474564 0.21660149084549701 0 -0.1063794885369051 0.22193246116811141 0 -0.10053720550511509 0.21148400771379949 0 -0.089950704149474564 0.21660149084549701 0 -0.10053720550511509 0.21148400771379949 0 -0.1108864245916369 0.20940648235696879 0 -0.095149617161195271 0.19271405424946009 0 -0.1063794885369051 0.22193246116811141 0 -0.10053720550511509 0.21148400771379949 0 -0.1108864245916369 0.20940648235696879 0 -0.12594818007053379 0.2253828658525201 0 -0.1190175871807343 0.20067046473278771 0 -0.12594818007053379 0.2253828658525201 0 -0.1108864245916369 0.20940648235696879 0 -0.1190175871807343 0.20067046473278771 0 -0.12594818007053379 0.2253828658525201 0 -0.1108864245916369 0.20940648235696879 0 -0.1144435087069731 0.2232582902708152 0 -0.1063794885369051 0.22193246116811141 0 -0.1108864245916369 0.20940648235696879 0 -0.1120869942909358 0.17595806361305491 0 -0.1190175871807343 0.20067046473278771 0 -0.1108864245916369 0.20940648235696879 0 -0.1190175871807343 0.20067046473278771 0 -0.10682171669235439 0.1942096232944058 0 -0.1120869942909358 0.17595806361305491 0 -0.1190175871807343 0.20067046473278771 0 -0.10682171669235439 0.1942096232944058 0 -0.1108864245916369 0.20940648235696879 0 -0.095149617161195271 0.19271405424946009 0 -0.1108864245916369 0.20940648235696879 0 -0.10682171669235439 0.1942096232944058 0 -0.095149617161195271 0.19271405424946009 0 -0.1120869942909358 0.17595806361305491 0 -0.10682171669235439 0.1942096232944058 0 -0.095149617161195271 0.19271405424946009 0 -0.095149617161195271 0.19271405424946009 0 -0.077398480784349299 0.2102750893871779 0 -0.095149617161195271 0.19271405424946009 0 -0.073474196407973841 0.19079473501472519 0 -0.077398480784349299 0.2102750893871779 0 -0.095149617161195271 0.19271405424946009 0 -0.077398480784349299 0.2102750893871779 0 -0.087241526055590657 0.20514135106535239 0 -0.073474196407973841 0.19079473501472519 0 -0.077398480784349299 0.2102750893871779 0 -0.073474196407973841 0.19079473501472519 0 -0.077398480784349299 0.2102750893871779 0 -0.068984895145132993 0.20348567813270921 0 -0.064604308801312821 0.18244611143699499 0 -0.073474196407973841 0.19079473501472519 0 -0.062951628171730722 0.19451437844324071 0 -0.073474196407973841 0.19079473501472519 0 -0.062951628171730722 0.19451437844324071 0 -0.068984895145132993 0.20348567813270921 0 -0.062951628171730722 0.19451437844324071 0 -0.068984895145132993 0.20348567813270921 0 -0.057478398324341332 0.20606456403591589 0 -0.068984895145132993 0.20348567813270921 0 -0.075683327299925024 0.21197187487555791 0 -0.057478398324341332 0.20606456403591589 0 -0.075683327299925024 0.21197187487555791 0 -0.060700713784132942 0.2267940359372384 0 -0.057478398324341332 0.20606456403591589 0 -0.075683327299925024 0.21197187487555791 0 -0.057478398324341332 0.20606456403591589 0 -0.077398480784349299 0.2102750893871779 0 -0.068984895145132993 0.20348567813270921 0 -0.075683327299925024 0.21197187487555791 0 -0.075683327299925024 0.21197187487555791 0 -0.077884159070199604 0.2126860219832131 0 -0.060700713784132942 0.2267940359372384 0 -0.075683327299925024 0.21197187487555791 0 -0.077884159070199604 0.2126860219832131 0 -0.077398480784349299 0.2102750893871779 0 -0.075683327299925024 0.21197187487555791 0 -0.077884159070199604 0.2126860219832131 0 -0.077398480784349299 0.2102750893871779 0 -0.077884159070199604 0.2126860219832131 0 -0.077398480784349299 0.2102750893871779 0 -0.075683327299925024 0.21197187487555791 0 -0.077884159070199604 0.2126860219832131 0 -0.089950704149474564 0.21660149084549701 0 -0.077884159070199604 0.2126860219832131 0 -0.087241526055590657 0.20514135106535239 0 -0.089950704149474564 0.21660149084549701 0 -0.095149617161195271 0.19271405424946009 0 -0.087241526055590657 0.20514135106535239 0 -0.089950704149474564 0.21660149084549701 0 -0.095149617161195271 0.19271405424946009 0 -0.089950704149474564 0.21660149084549701 0 -0.077398480784349299 0.2102750893871779 0 -0.077884159070199604 0.2126860219832131 0 -0.087241526055590657 0.20514135106535239 0 -0.077884159070199604 0.2126860219832131 0 -0.083666647235009842 0.24139059785004849 0 -0.089950704149474564 0.21660149084549701 0 -0.083666647235009842 0.24139059785004849 0 -0.077884159070199604 0.2126860219832131 0 -0.089950704149474564 0.21660149084549701 0 -0.083666647235009842 0.24139059785004849 0 -0.098826177075254387 0.23394696074010041 0 -0.089950704149474564 0.21660149084549701 0 -0.083666647235009842 0.24139059785004849 0 -0.077884159070199604 0.2126860219832131 0 -0.083666647235009842 0.24139059785004849 0 -0.060700713784132942 0.2267940359372384 0 -0.075683327299925024 0.21197187487555791 0 -0.060700713784132942 0.2267940359372384 0 -0.064077212627390134 0.24851538469076631 0 -0.083666647235009842 0.24139059785004849 0 -0.060700713784132942 0.2267940359372384 0 -0.086302411784292182 0.25447467192259482 0 -0.083666647235009842 0.24139059785004849 0 -0.094679029848152713 0.24609146959404629 0 -0.098826177075254387 0.23394696074010041 0 -0.083666647235009842 0.24139059785004849 0 -0.086302411784292182 0.25447467192259482 0 -0.094679029848152713 0.24609146959404629 0 -0.083666647235009842 0.24139059785004849 0 -0.03068766995985707 0.25286978792993342 0 -0.034335222642673788 0.23481172099035691 0 -0.046578861792199937 0.24361118962503389 0 -0.034335222642673788 0.23481172099035691 0 -0.046578861792199937 0.24361118962503389 0 -0.045510089746351297 0.2289623102588538 0 -0.064077212627390134 0.24851538469076631 0 -0.046578861792199937 0.24361118962503389 0 -0.055802081643016588 0.23164020743468811 0 -0.064077212627390134 0.24851538469076631 0 -0.055802081643016588 0.23164020743468811 0 -0.060700713784132942 0.2267940359372384 0 -0.064077212627390134 0.24851538469076631 0 -0.060700713784132942 0.2267940359372384 0 -0.046578861792199937 0.24361118962503389 0 -0.055802081643016588 0.23164020743468811 0 -0.045510089746351297 0.2289623102588538 0 -0.055802081643016588 0.23164020743468811 0 -0.053252725762674542 0.2222055350902031 0 -0.045510089746351297 0.2289623102588538 0 -0.055802081643016588 0.23164020743468811 0 -0.060700713784132942 0.2267940359372384 0 -0.053252725762674542 0.2222055350902031 0 -0.055802081643016588 0.23164020743468811 0 -0.060700713784132942 0.2267940359372384 0 -0.053252725762674542 0.2222055350902031 0 -0.045510089746351297 0.2289623102588538 0 -0.046772345315528908 0.21756655778431969 0 -0.045510089746351297 0.2289623102588538 0 -0.036443083940353373 0.22210497005765251 0 -0.046772345315528908 0.21756655778431969 0 -0.034335222642673788 0.23481172099035691 0 -0.045510089746351297 0.2289623102588538 0 -0.036443083940353373 0.22210497005765251 0 -0.034335222642673788 0.23481172099035691 0 -0.036443083940353373 0.22210497005765251 0 -0.024866254401544021 0.22078734426404351 0 -0.036443083940353373 0.22210497005765251 0 -0.046772345315528908 0.21756655778431969 0 -0.031637039445344017 0.19767931081015269 0 -0.046772345315528908 0.21756655778431969 0 -0.057478398324341332 0.20606456403591589 0 -0.031637039445344017 0.19767931081015269 0 -0.060700713784132942 0.2267940359372384 0 -0.053252725762674542 0.2222055350902031 0 -0.057478398324341332 0.20606456403591589 0 -0.060700713784132942 0.2267940359372384 0 -0.057478398324341332 0.20606456403591589 0 -0.053252725762674542 0.2222055350902031 0 -0.046772345315528908 0.21756655778431969 0 -0.057478398324341332 0.20606456403591589 0 -0.062951628171730722 0.19451437844324071 0 -0.057478398324341332 0.20606456403591589 0 -0.054948738746262903 0.1897910154656581 0 -0.057478398324341332 0.20606456403591589 0 -0.054948738746262903 0.1897910154656581 0 -0.031637039445344017 0.19767931081015269 0 -0.057478398324341332 0.20606456403591589 0 -0.054948738746262903 0.1897910154656581 0 -0.054948738746262903 0.1897910154656581 0 -0.031637039445344017 0.19767931081015269 0 -0.039999697082172873 0.18418677263352329 0 -0.057478398324341332 0.20606456403591589 0 -0.031637039445344017 0.19767931081015269 0 -0.031637039445344017 0.19767931081015269 0 -0.0057956805663459468 0.1892940575843915 0 -0.031637039445344017 0.19767931081015269 0 -0.0057956805663459468 0.1892940575843915 0 -0.024775833668462071 0.17590936267321361 0 -0.031637039445344017 0.19767931081015269 0 -0.0057956805663459468 0.1892940575843915 0 -0.01019634689217482 0.20814994011246479 0 -0.0057956805663459468 0.1892940575843915 0 -0.01019634689217482 0.20814994011246479 0 0.0090806704795409685 0.20996839310177981 0 -0.01019634689217482 0.20814994011246479 0 0.00014186162909880781 0.2338185852574263 0 0.0090806704795409685 0.20996839310177981 0 -0.036443083940353373 0.22210497005765251 0 -0.031637039445344017 0.19767931081015269 0 -0.024866254401544021 0.22078734426404351 0 -0.031637039445344017 0.19767931081015269 0 -0.01019634689217482 0.20814994011246479 0 -0.024866254401544021 0.22078734426404351 0 -0.034335222642673788 0.23481172099035691 0 -0.024866254401544021 0.22078734426404351 0 -0.01991034591062427 0.239405390953495 0 -0.024866254401544021 0.22078734426404351 0 0.00014186162909880781 0.2338185852574263 0 -0.024866254401544021 0.22078734426404351 0 -0.01991034591062427 0.239405390953495 0 0.00014186162909880781 0.2338185852574263 0 -0.01019634689217482 0.20814994011246479 0 -0.024866254401544021 0.22078734426404351 0 0.00014186162909880781 0.2338185852574263 0 -0.0098044441781452579 0.25473951632571468 0 0.00014186162909880781 0.2338185852574263 0 0.0073806355134042019 0.25529449578482938 0 -0.0098044441781452579 0.25473951632571468 0 -0.01991034591062427 0.239405390953495 0 0.00014186162909880781 0.2338185852574263 0 -0.03068766995985707 0.25286978792993342 0 -0.034335222642673788 0.23481172099035691 0 -0.01991034591062427 0.239405390953495 0 -0.03068766995985707 0.25286978792993342 0 -0.0098044441781452579 0.25473951632571468 0 -0.01991034591062427 0.239405390953495 0 -0.045513089216113363 0.1481501368583191 0 -0.039963318838929777 0.1583549670989208 0 -0.028048700007850699 0.14601834090005769 0 -0.045513089216113363 0.1481501368583191 0 -0.037584816749385713 0.12707105787504261 0 -0.028048700007850699 0.14601834090005769 0 -0.037584816749385713 0.12707105787504261 0 -0.028048700007850699 0.14601834090005769 0 -0.045513089216113363 0.1481501368583191 0 -0.037584816749385713 0.12707105787504261 0 -0.045513089216113363 0.1481501368583191 0 -0.037584816749385713 0.12707105787504261 0 -0.049753839012929922 0.13582205838018921 0 -0.037584816749385713 0.12707105787504261 0 -0.049753839012929922 0.13582205838018921 0 -0.051208231868337763 0.1260313133231428 0 -0.049753839012929922 0.13582205838018921 0 -0.06070043620975589 0.134524720015781 0 -0.052276118599972977 0.1457036522838337 0 -0.051208231868337763 0.1260313133231428 0 -0.06070043620975589 0.134524720015781 0 -0.06411880478631618 0.11818203644688791 0 -0.06070043620975589 0.134524720015781 0 -0.06411880478631618 0.11818203644688791 0 -0.049753839012929922 0.13582205838018921 0 -0.051208231868337763 0.1260313133231428 0 -0.06070043620975589 0.134524720015781 0 -0.06070043620975589 0.134524720015781 0 -0.052276118599972977 0.1457036522838337 0 -0.05728206763319247 0.1508674035846734 0 -0.06070043620975589 0.134524720015781 0 -0.05728206763319247 0.1508674035846734 0 -0.045513089216113363 0.1481501368583191 0 -0.049753839012929922 0.13582205838018921 0 -0.052276118599972977 0.1457036522838337 0 -0.045513089216113363 0.1481501368583191 0 -0.052276118599972977 0.1457036522838337 0 -0.053440893212920608 0.15280063427064891 0 -0.052276118599972977 0.1457036522838337 0 -0.053440893212920608 0.15280063427064891 0 -0.05728206763319247 0.1508674035846734 0 -0.053440893212920608 0.15280063427064891 0 -0.05728206763319247 0.1508674035846734 0 -0.05728206763319247 0.1508674035846734 0 -0.062031688412593149 0.16441565219234799 0 -0.053441361682841117 0.16922921584159559 0 -0.053440893212920608 0.15280063427064891 0 -0.05728206763319247 0.1508674035846734 0 -0.053441361682841117 0.16922921584159559 0 -0.045513089216113363 0.1481501368583191 0 -0.053440893212920608 0.15280063427064891 0 -0.053441361682841117 0.16922921584159559 0 -0.045513089216113363 0.1481501368583191 0 -0.053441361682841117 0.16922921584159559 0 -0.05728206763319247 0.1508674035846734 0 -0.053441361682841117 0.16922921584159559 0 -0.06725389334219653 0.15771987894696021 0 -0.05728206763319247 0.1508674035846734 0 -0.062031688412593149 0.16441565219234799 0 -0.062031688412593149 0.16441565219234799 0 -0.053441361682841117 0.16922921584159559 0 -0.062041409668937363 0.1723934095439342 0 -0.053441361682841117 0.16922921584159559 0 -0.047633738945979477 0.17108968717192211 0 -0.039963318838929777 0.1583549670989208 0 -0.052991971448818453 0.17137768000779441 0 -0.053441361682841117 0.16922921584159559 0 -0.047633738945979477 0.17108968717192211 0 -0.052991971448818453 0.17137768000779441 0 -0.053441361682841117 0.16922921584159559 0 -0.054948738746262903 0.1897910154656581 0 -0.052419079168185397 0.17351746689540021 0 -0.046888846475854867 0.17837904804597579 0 -0.062951628171730722 0.19451437844324071 0 -0.054948738746262903 0.1897910154656581 0 -0.052419079168185397 0.17351746689540021 0 -0.062951628171730722 0.19451437844324071 0 -0.052991971448818453 0.17137768000779441 0 -0.052419079168185397 0.17351746689540021 0 -0.064604308801312821 0.18244611143699499 0 -0.062951628171730722 0.19451437844324071 0 -0.053441361682841117 0.16922921584159559 0 -0.062951628171730722 0.19451437844324071 0 -0.052991971448818453 0.17137768000779441 0 -0.053441361682841117 0.16922921584159559 0 -0.054948738746262903 0.1897910154656581 0 -0.052419079168185397 0.17351746689540021 0 -0.062951628171730722 0.19451437844324071 0 -0.053441361682841117 0.16922921584159559 0 -0.064604308801312821 0.18244611143699499 0 -0.053441361682841117 0.16922921584159559 0 -0.062041409668937363 0.1723934095439342 0 -0.052991971448818453 0.17137768000779441 0 -0.047633738945979477 0.17108968717192211 0 -0.052419079168185397 0.17351746689540021 0 -0.047633738945979477 0.17108968717192211 0 -0.052419079168185397 0.17351746689540021 0 -0.046888846475854867 0.17837904804597579 0 -0.054948738746262903 0.1897910154656581 0 -0.046888846475854867 0.17837904804597579 0 -0.039999697082172873 0.18418677263352329 0 -0.031637039445344017 0.19767931081015269 0 -0.039999697082172873 0.18418677263352329 0 -0.024775833668462071 0.17590936267321361 0 -0.046888846475854867 0.17837904804597579 0 -0.039999697082172873 0.18418677263352329 0 -0.039442978436673673 0.17331029806337539 0 -0.047633738945979477 0.17108968717192211 0 -0.046888846475854867 0.17837904804597579 0 -0.039442978436673673 0.17331029806337539 0 -0.039442978436673673 0.17331029806337539 0 -0.032139483942643897 0.16694135859911591 0 -0.024775833668462071 0.17590936267321361 0 -0.039999697082172873 0.18418677263352329 0 -0.039442978436673673 0.17331029806337539 0 -0.024775833668462071 0.17590936267321361 0 -0.045513089216113363 0.1481501368583191 0 -0.053441361682841117 0.16922921584159559 0 -0.039963318838929777 0.1583549670989208 0 -0.039963318838929777 0.1583549670989208 0 -0.032139483942643897 0.16694135859911591 0 -0.02343924065842673 0.15869802647678349 0 -0.047633738945979477 0.17108968717192211 0 -0.039442978436673673 0.17331029806337539 0 -0.039963318838929777 0.1583549670989208 0 -0.039442978436673673 0.17331029806337539 0 -0.039963318838929777 0.1583549670989208 0 -0.032139483942643897 0.16694135859911591 0 -0.032139483942643897 0.16694135859911591 0 -0.02343924065842673 0.15869802647678349 0 -0.024775833668462071 0.17590936267321361 0 -0.02343924065842673 0.15869802647678349 0 -0.024775833668462071 0.17590936267321361 0 -0.0048034666842798916 0.1614245706846468 0 -0.0057956805663459468 0.1892940575843915 0 -0.024775833668462071 0.17590936267321361 0 -0.0048034666842798916 0.1614245706846468 0 -0.0048034666842798916 0.1614245706846468 0 -0.01090464080839405 0.14353955890474629 0 0.011098566836083609 0.13484946890849181 0 -0.02343924065842673 0.15869802647678349 0 -0.0048034666842798916 0.1614245706846468 0 -0.01090464080839405 0.14353955890474629 0 -0.039963318838929777 0.1583549670989208 0 -0.02343924065842673 0.15869802647678349 0 -0.028048700007850699 0.14601834090005769 0 -0.02343924065842673 0.15869802647678349 0 -0.01090464080839405 0.14353955890474629 0 -0.028048700007850699 0.14601834090005769 0 -0.037584816749385713 0.12707105787504261 0 -0.0187932077553963 0.1304023687453105 0 -0.02482114599867602 0.1199028763409456 0 -0.01090464080839405 0.14353955890474629 0 -0.028048700007850699 0.14601834090005769 0 -0.0187932077553963 0.1304023687453105 0 -0.037584816749385713 0.12707105787504261 0 -0.028048700007850699 0.14601834090005769 0 -0.0187932077553963 0.1304023687453105 0 -0.0064436606074630637 0.13109611639504981 0 -0.007175360702145514 0.1155930690216506 0 0.011098566836083609 0.13484946890849181 0 -0.01090464080839405 0.14353955890474629 0 -0.0064436606074630637 0.13109611639504981 0 0.011098566836083609 0.13484946890849181 0 -0.0187932077553963 0.1304023687453105 0 -0.0064436606074630637 0.13109611639504981 0 -0.007175360702145514 0.1155930690216506 0 -0.01090464080839405 0.14353955890474629 0 -0.0187932077553963 0.1304023687453105 0 -0.0064436606074630637 0.13109611639504981 0 -0.007175360702145514 0.1155930690216506 0 -0.0040088977147468936 0.097024336429998151 0 -0.013655752966245171 0.094180689311720855 0 -0.007175360702145514 0.1155930690216506 0 -0.0040088977147468936 0.097024336429998151 0 0.0025937760044158291 0.1064596481343341 0 -0.007175360702145514 0.1155930690216506 0 -0.013655752966245171 0.094180689311720855 0 -0.02544928824037461 0.096336669134809427 0 -0.029459919491476121 0.1011230655410132 0 -0.021580178673492881 0.1105609364200745 0 -0.037915498494119543 0.10215930426450601 0 -0.007175360702145514 0.1155930690216506 0 -0.02544928824037461 0.096336669134809427 0 -0.007175360702145514 0.1155930690216506 0 -0.02544928824037461 0.096336669134809427 0 -0.0241566231860777 0.1021061234229471 0 -0.02544928824037461 0.096336669134809427 0 -0.029459919491476121 0.1011230655410132 0 -0.035034026511796899 0.0954599165668297 0 -0.02544928824037461 0.096336669134809427 0 -0.029459919491476121 0.1011230655410132 0 -0.0241566231860777 0.1021061234229471 0 -0.02544928824037461 0.096336669134809427 0 -0.0241566231860777 0.1021061234229471 0 -0.029459919491476121 0.1011230655410132 0 -0.0241566231860777 0.1021061234229471 0 -0.021580178673492881 0.1105609364200745 0 -0.02482114599867602 0.1199028763409456 0 -0.021580178673492881 0.1105609364200745 0 -0.032585978911933711 0.11378053360982859 0 -0.007175360702145514 0.1155930690216506 0 -0.0241566231860777 0.1021061234229471 0 -0.021580178673492881 0.1105609364200745 0 -0.0187932077553963 0.1304023687453105 0 -0.007175360702145514 0.1155930690216506 0 -0.02482114599867602 0.1199028763409456 0 -0.007175360702145514 0.1155930690216506 0 -0.02482114599867602 0.1199028763409456 0 -0.021580178673492881 0.1105609364200745 0 -0.01109578586274463 0.07592966442077155 0 -0.01963881101933795 0.057650575484614511 0 -0.0089029190745683329 0.062319161291970238 0 -0.0031702267477386531 0.067180855403790804 0 -0.01109578586274463 0.07592966442077155 0 0.0065236609159091173 0.071671444604676282 0 -0.0031702267477386531 0.067180855403790804 0 -0.0089029190745683329 0.062319161291970238 0 0.00079413703044923156 0.058803151297745167 0 -0.0031702267477386531 0.067180855403790804 0 -0.01109578586274463 0.07592966442077155 0 -0.0089029190745683329 0.062319161291970238 0 -0.0040088977147468936 0.097024336429998151 0 -0.01109578586274463 0.07592966442077155 0 0.011643404763696401 0.092949868607662828 0 -0.0040088977147468936 0.097024336429998151 0 -0.013655752966245171 0.094180689311720855 0 -0.01109578586274463 0.07592966442077155 0 -0.013655752966245171 0.094180689311720855 0 -0.01109578586274463 0.07592966442077155 0 -0.02054943231121421 0.086019707551374502 0 -0.02544928824037461 0.096336669134809427 0 -0.02054943231121421 0.086019707551374502 0 -0.029642132364781061 0.077623064684345475 0 -0.02544928824037461 0.096336669134809427 0 -0.029642132364781061 0.077623064684345475 0 -0.036673455980692451 0.084509049595857907 0 -0.01109578586274463 0.07592966442077155 0 -0.02054943231121421 0.086019707551374502 0 -0.029642132364781061 0.077623064684345475 0 -0.02544928824037461 0.096336669134809427 0 -0.029642132364781061 0.077623064684345475 0 -0.013655752966245171 0.094180689311720855 0 -0.02544928824037461 0.096336669134809427 0 -0.02054943231121421 0.086019707551374502 0 -0.02544928824037461 0.096336669134809427 0 -0.036673455980692451 0.084509049595857907 0 -0.01109578586274463 0.07592966442077155 0 -0.033834976489186493 0.058909460233881362 0 -0.01109578586274463 0.07592966442077155 0 -0.029642132364781061 0.077623064684345475 0 -0.033834976489186493 0.058909460233881362 0 -0.01109578586274463 0.07592966442077155 0 -0.033834976489186493 0.058909460233881362 0 -0.01963881101933795 0.057650575484614511 0 -0.029642132364781061 0.077623064684345475 0 -0.033834976489186493 0.058909460233881362 0 -0.029642132364781061 0.077623064684345475 0 -0.036732086871232597 0.066761861307427367 0 -0.033834976489186493 0.058909460233881362 0 -0.042969512877196837 0.063698159366550891 0 -0.036732086871232597 0.066761861307427367 0 -0.038306240480512441 0.072768089837317376 0 -0.042969512877196837 0.063698159366550891 0 -0.038306240480512441 0.072768089837317376 0 -0.046136221960229658 0.070392563092827029 0 -0.042969512877196837 0.063698159366550891 0 -0.036732086871232597 0.066761861307427367 0 -0.038907572144486188 0.060810532415041758 0 -0.029642132364781061 0.077623064684345475 0 -0.036732086871232597 0.066761861307427367 0 -0.038306240480512441 0.072768089837317376 0 -0.038306240480512441 0.072768089837317376 0 -0.046136221960229658 0.070392563092827029 0 -0.043586306971417507 0.077534071189344175 0 -0.038306240480512441 0.072768089837317376 0 -0.043586306971417507 0.077534071189344175 0 -0.036673455980692451 0.084509049595857907 0 -0.043586306971417507 0.077534071189344175 0 -0.036673455980692451 0.084509049595857907 0 -0.046978765451358998 0.084182386091036676 0 -0.029642132364781061 0.077623064684345475 0 -0.038306240480512441 0.072768089837317376 0 -0.036673455980692451 0.084509049595857907 0 -0.02544928824037461 0.096336669134809427 0 -0.036673455980692451 0.084509049595857907 0 -0.035034026511796899 0.0954599165668297 0 -0.036673455980692451 0.084509049595857907 0 -0.044089979176562301 0.093675305350012283 0 -0.035034026511796899 0.0954599165668297 0 -0.036673455980692451 0.084509049595857907 0 -0.044089979176562301 0.093675305350012283 0 -0.046978765451358998 0.084182386091036676 0 -0.044089979176562301 0.093675305350012283 0 -0.057144835734191893 0.088207312209507505 0 -0.046978765451358998 0.084182386091036676 0 -0.057144835734191893 0.088207312209507505 0 -0.046978765451358998 0.084182386091036676 0 -0.053399249393930842 0.076986192110461482 0 -0.043586306971417507 0.077534071189344175 0 -0.046978765451358998 0.084182386091036676 0 -0.053399249393930842 0.076986192110461482 0 -0.053399249393930842 0.076986192110461482 0 -0.070406408885084593 0.061857930521202607 0 -0.059815066152941319 0.061788281472960463 0 -0.057144835734191893 0.088207312209507505 0 -0.053399249393930842 0.076986192110461482 0 -0.070406408885084593 0.061857930521202607 0 -0.046136221960229658 0.070392563092827029 0 -0.043586306971417507 0.077534071189344175 0 -0.053399249393930842 0.076986192110461482 0 -0.046136221960229658 0.070392563092827029 0 -0.053399249393930842 0.076986192110461482 0 -0.05257832837313995 0.068950164376806455 0 -0.053399249393930842 0.076986192110461482 0 -0.05257832837313995 0.068950164376806455 0 -0.059815066152941319 0.061788281472960463 0 -0.05257832837313995 0.068950164376806455 0 -0.052166049838275927 0.062310195238599278 0 -0.059815066152941319 0.061788281472960463 0 -0.046136221960229658 0.070392563092827029 0 -0.05257832837313995 0.068950164376806455 0 -0.052166049838275927 0.062310195238599278 0 -0.042969512877196837 0.063698159366550891 0 -0.046136221960229658 0.070392563092827029 0 -0.052166049838275927 0.062310195238599278 0 -0.021580178673492881 0.1105609364200745 0 -0.043883262583300407 0.11455669389781301 0 -0.021580178673492881 0.1105609364200745 0 -0.043883262583300407 0.11455669389781301 0 -0.032585978911933711 0.11378053360982859 0 -0.037584816749385713 0.12707105787504261 0 -0.051208231868337763 0.1260313133231428 0 -0.043883262583300407 0.11455669389781301 0 -0.037584816749385713 0.12707105787504261 0 -0.043883262583300407 0.11455669389781301 0 -0.037584816749385713 0.12707105787504261 0 -0.032585978911933711 0.11378053360982859 0 -0.037584816749385713 0.12707105787504261 0 -0.043883262583300407 0.11455669389781301 0 -0.032585978911933711 0.11378053360982859 0 -0.037584816749385713 0.12707105787504261 0 -0.02482114599867602 0.1199028763409456 0 -0.032585978911933711 0.11378053360982859 0 -0.021580178673492881 0.1105609364200745 0 -0.043883262583300407 0.11455669389781301 0 -0.037915498494119543 0.10215930426450601 0 -0.044089979176562301 0.093675305350012283 0 -0.043883262583300407 0.11455669389781301 0 -0.037915498494119543 0.10215930426450601 0 -0.044089979176562301 0.093675305350012283 0 -0.037915498494119543 0.10215930426450601 0 -0.035034026511796899 0.0954599165668297 0 -0.029459919491476121 0.1011230655410132 0 -0.037915498494119543 0.10215930426450601 0 -0.035034026511796899 0.0954599165668297 0 -0.044089979176562301 0.093675305350012283 0 -0.057144835734191893 0.088207312209507505 0 -0.043883262583300407 0.11455669389781301 0 -0.057144835734191893 0.088207312209507505 0 -0.043883262583300407 0.11455669389781301 0 -0.057144835734191893 0.088207312209507505 0 -0.043883262583300407 0.11455669389781301 0 -0.056175626513735713 0.104231459755559 0 -0.056175626513735713 0.104231459755559 0 -0.061770267295803899 0.1005995653590098 0 -0.06411880478631618 0.11818203644688791 0 -0.057144835734191893 0.088207312209507505 0 -0.056175626513735713 0.104231459755559 0 -0.061770267295803899 0.1005995653590098 0 -0.043883262583300407 0.11455669389781301 0 -0.06411880478631618 0.11818203644688791 0 -0.051208231868337763 0.1260313133231428 0 -0.043883262583300407 0.11455669389781301 0 -0.06411880478631618 0.11818203644688791 0 -0.043883262583300407 0.11455669389781301 0 -0.056175626513735713 0.104231459755559 0 -0.06411880478631618 0.11818203644688791 0 -0.071786582042575819 0.1280585334591178 0 -0.06411880478631618 0.11818203644688791 0 -0.08034823769671974 0.121089655777625 0 -0.06411880478631618 0.11818203644688791 0 -0.08034823769671974 0.121089655777625 0 -0.075381325115152609 0.106019298300689 0 -0.06411880478631618 0.11818203644688791 0 -0.08034823769671974 0.121089655777625 0 -0.08034823769671974 0.121089655777625 0 -0.096577670607123245 0.1239972751083621 0 -0.08034823769671974 0.121089655777625 0 -0.092569001324263961 0.1124699312803344 0 -0.096577670607123245 0.1239972751083621 0 -0.08034823769671974 0.121089655777625 0 -0.083967771981719092 0.1102844810624737 0 -0.092569001324263961 0.1124699312803344 0 -0.08034823769671974 0.121089655777625 0 -0.083967771981719092 0.1102844810624737 0 -0.075381325115152609 0.106019298300689 0 -0.087572523790740042 0.10155903889124659 0 -0.082071947835387321 0.094412947715560025 0 -0.09233625647768956 0.091651488650119919 0 -0.083967771981719092 0.1102844810624737 0 -0.092569001324263961 0.1124699312803344 0 -0.087572523790740042 0.10155903889124659 0 -0.083967771981719092 0.1102844810624737 0 -0.087572523790740042 0.10155903889124659 0 -0.075381325115152609 0.106019298300689 0 -0.087572523790740042 0.10155903889124659 0 -0.082071947835387321 0.094412947715560025 0 -0.075381325115152609 0.106019298300689 0 -0.06411880478631618 0.11818203644688791 0 -0.06964180214897181 0.091777453024084701 0 -0.082071947835387321 0.094412947715560025 0 -0.075381325115152609 0.106019298300689 0 -0.06964180214897181 0.091777453024084701 0 -0.06411880478631618 0.11818203644688791 0 -0.075381325115152609 0.106019298300689 0 -0.06964180214897181 0.091777453024084701 0 -0.061770267295803899 0.1005995653590098 0 -0.06411880478631618 0.11818203644688791 0 -0.06964180214897181 0.091777453024084701 0 -0.057144835734191893 0.088207312209507505 0 -0.061770267295803899 0.1005995653590098 0 -0.06964180214897181 0.091777453024084701 0 -0.06964180214897181 0.091777453024084701 0 -0.075164799511626648 0.065372869601281192 0 -0.057144835734191893 0.088207312209507505 0 -0.06964180214897181 0.091777453024084701 0 -0.068089461569968729 0.076803891339018993 0 -0.06964180214897181 0.091777453024084701 0 -0.068089461569968729 0.076803891339018993 0 -0.075164799511626648 0.065372869601281192 0 -0.057144835734191893 0.088207312209507505 0 -0.068089461569968729 0.076803891339018993 0 -0.070406408885084593 0.061857930521202607 0 -0.06964180214897181 0.091777453024084701 0 -0.075164799511626648 0.065372869601281192 0 -0.08073347634316104 0.073575546631144614 0 -0.057144835734191893 0.088207312209507505 0 -0.070406408885084593 0.061857930521202607 0 -0.068089461569968729 0.076803891339018993 0 -0.075164799511626648 0.065372869601281192 0 -0.070406408885084593 0.061857930521202607 0 -0.089923560922876636 0.068178037636278263 0 -0.08578586832533959 0.082170087930996366 0 -0.103675070998617 0.083967309240415983 0 -0.08073347634316104 0.073575546631144614 0 -0.089923560922876636 0.068178037636278263 0 -0.083186879645449088 0.059889597987781727 0 -0.075164799511626648 0.065372869601281192 0 -0.08073347634316104 0.073575546631144614 0 -0.083186879645449088 0.059889597987781727 0 -0.08073347634316104 0.073575546631144614 0 -0.089923560922876636 0.068178037636278263 0 -0.08578586832533959 0.082170087930996366 0 -0.06964180214897181 0.091777453024084701 0 -0.08073347634316104 0.073575546631144614 0 -0.08578586832533959 0.082170087930996366 0 -0.082071947835387321 0.094412947715560025 0 -0.06964180214897181 0.091777453024084701 0 -0.08578586832533959 0.082170087930996366 0 -0.082071947835387321 0.094412947715560025 0 -0.08578586832533959 0.082170087930996366 0 -0.09233625647768956 0.091651488650119919 0 -0.09233625647768956 0.091651488650119919 0 -0.103675070998617 0.083967309240415983 0 -0.10429444750695741 0.1014886749251958 0 -0.08578586832533959 0.082170087930996366 0 -0.09233625647768956 0.091651488650119919 0 -0.103675070998617 0.083967309240415983 0 -0.103675070998617 0.083967309240415983 0 -0.1198812247159142 0.095002477965890675 0 -0.10429444750695741 0.1014886749251958 0 -0.089923560922876636 0.068178037636278263 0 -0.103675070998617 0.083967309240415983 0 -0.10785209906359081 0.065371441260914459 0 -0.12533951967512769 0.078274991835817334 0 -0.103675070998617 0.083967309240415983 0 -0.10785209906359081 0.065371441260914459 0 -0.12533951967512769 0.078274991835817334 0 -0.10785209906359081 0.065371441260914459 0 -0.1248745965026067 0.059896082918310993 0 -0.12533951967512769 0.078274991835817334 0 -0.103675070998617 0.083967309240415983 0 -0.1198812247159142 0.095002477965890675 0 -0.13137241316615089 0.11357835761918721 0 -0.1198812247159142 0.095002477965890675 0 -0.10429444750695741 0.1014886749251958 0 -0.13137241316615089 0.11357835761918721 0 -0.12687331202938101 0.13192737382428379 0 -0.10667563132183119 0.1260080396076822 0 -0.13137241316615089 0.11357835761918721 0 -0.10667563132183119 0.1260080396076822 0 -0.1062978327852654 0.11550845570815239 0 -0.13137241316615089 0.11357835761918721 0 -0.1062978327852654 0.11550845570815239 0 -0.10429444750695741 0.1014886749251958 0 -0.13137241316615089 0.11357835761918721 0 -0.10667563132183119 0.1260080396076822 0 -0.10667563132183119 0.1260080396076822 0 -0.1062978327852654 0.11550845570815239 0 -0.096577670607123245 0.1239972751083621 0 -0.092569001324263961 0.1124699312803344 0 -0.1062978327852654 0.11550845570815239 0 -0.096577670607123245 0.1239972751083621 0 -0.092569001324263961 0.1124699312803344 0 -0.1062978327852654 0.11550845570815239 0 -0.10429444750695741 0.1014886749251958 0 -0.092569001324263961 0.1124699312803344 0 -0.087572523790740042 0.10155903889124659 0 -0.10429444750695741 0.1014886749251958 0 -0.087572523790740042 0.10155903889124659 0 -0.09233625647768956 0.091651488650119919 0 -0.10429444750695741 0.1014886749251958 0 -0.10370969952600501 0.019997694726909911 0 -0.098524362227562057 0.035744340183224317 0 -0.08645931971955316 0.02325136753113614 0 -0.10370969952600501 0.019997694726909911 0 -0.08645931971955316 0.02325136753113614 0 -0.091682611010439896 0.0063963380850077774 0 -0.10370969952600501 0.019997694726909911 0 -0.1180188049733784 0.030804183747700629 0 -0.098524362227562057 0.035744340183224317 0 -0.10370969952600501 0.019997694726909911 0 -0.10877227824827949 0.0075748546359299482 0 -0.091682611010439896 0.0063963380850077774 0 -0.1029392013539359 -0.0085751277431150782 0 -0.10877227824827949 0.0075748546359299482 0 -0.091682611010439896 0.0063963380850077774 0 -0.10370969952600501 0.019997694726909911 0 -0.10877227824827949 0.0075748546359299482 0 -0.11835839359799651 0.016938700943610479 0 -0.1029392013539359 -0.0085751277431150782 0 -0.12735709500343681 0.004015926865657337 0 -0.10877227824827949 0.0075748546359299482 0 -0.12735709500343681 0.004015926865657337 0 -0.10877227824827949 0.0075748546359299482 0 -0.11835839359799651 0.016938700943610479 0 -0.1339340902388827 0.022300844741854581 0 -0.11835839359799651 0.016938700943610479 0 -0.1180188049733784 0.030804183747700629 0 -0.10370969952600501 0.019997694726909911 0 -0.11835839359799651 0.016938700943610479 0 -0.1180188049733784 0.030804183747700629 0 -0.1180188049733784 0.030804183747700629 0 -0.1128457876968547 0.048091259023394652 0 -0.098524362227562057 0.035744340183224317 0 -0.13626681081840961 0.042829268155062397 0 -0.1128457876968547 0.048091259023394652 0 -0.13626681081840961 0.042829268155062397 0 -0.1180188049733784 0.030804183747700629 0 -0.1128457876968547 0.048091259023394652 0 -0.13626681081840961 0.042829268155062397 0 -0.1128457876968547 0.048091259023394652 0 -0.1248745965026067 0.059896082918310993 0 -0.10785209906359081 0.065371441260914459 0 -0.1128457876968547 0.048091259023394652 0 -0.1248745965026067 0.059896082918310993 0 -0.1128457876968547 0.048091259023394652 0 -0.089424764575299687 0.053353249891726941 0 -0.089923560922876636 0.068178037636278263 0 -0.10785209906359081 0.065371441260914459 0 -0.089424764575299687 0.053353249891726941 0 -0.10785209906359081 0.065371441260914459 0 -0.1128457876968547 0.048091259023394652 0 -0.089424764575299687 0.053353249891726941 0 -0.1128457876968547 0.048091259023394652 0 -0.098524362227562057 0.035744340183224317 0 -0.089424764575299687 0.053353249891726941 0 -0.098524362227562057 0.035744340183224317 0 -0.080687796874281473 0.038968286178477703 0 -0.08645931971955316 0.02325136753113614 0 -0.098524362227562057 0.035744340183224317 0 -0.080687796874281473 0.038968286178477703 0 -0.089424764575299687 0.053353249891726941 0 -0.080687796874281473 0.038968286178477703 0 -0.089424764575299687 0.053353249891726941 0 -0.083186879645449088 0.059889597987781727 0 -0.075164799511626648 0.065372869601281192 0 -0.080687796874281473 0.038968286178477703 0 -0.083186879645449088 0.059889597987781727 0 -0.089923560922876636 0.068178037636278263 0 -0.089424764575299687 0.053353249891726941 0 -0.083186879645449088 0.059889597987781727 0 -0.075164799511626648 0.065372869601281192 0 -0.080687796874281473 0.038968286178477703 0 -0.071303082845968715 0.053347503409362687 0 -0.075164799511626648 0.065372869601281192 0 -0.080687796874281473 0.038968286178477703 0 -0.075164799511626648 0.065372869601281192 0 -0.070406408885084593 0.061857930521202607 0 -0.071303082845968715 0.053347503409362687 0 -0.071303082845968715 0.053347503409362687 0 -0.064856269609628314 0.055117702274744398 0 -0.065400139349222536 0.045420728471107522 0 -0.070406408885084593 0.061857930521202607 0 -0.071303082845968715 0.053347503409362687 0 -0.064856269609628314 0.055117702274744398 0 -0.070406408885084593 0.061857930521202607 0 -0.064856269609628314 0.055117702274744398 0 -0.059815066152941319 0.061788281472960463 0 -0.080687796874281473 0.038968286178477703 0 -0.065400139349222536 0.045420728471107522 0 -0.063264057366842208 0.031259222641012697 0 -0.080687796874281473 0.038968286178477703 0 -0.063264057366842208 0.031259222641012697 0 -0.073460039823911166 0.024685388153665749 0 -0.080687796874281473 0.038968286178477703 0 -0.071303082845968715 0.053347503409362687 0 -0.065400139349222536 0.045420728471107522 0 -0.063264057366842208 0.031259222641012697 0 -0.073460039823911166 0.024685388153665749 0 -0.061440697951084179 0.017621877449499421 0 -0.073460039823911166 0.024685388153665749 0 -0.076769634387976737 0.01135693610240161 0 -0.061440697951084179 0.017621877449499421 0 -0.080687796874281473 0.038968286178477703 0 -0.073460039823911166 0.024685388153665749 0 -0.08645931971955316 0.02325136753113614 0 -0.073460039823911166 0.024685388153665749 0 -0.08645931971955316 0.02325136753113614 0 -0.076769634387976737 0.01135693610240161 0 -0.08645931971955316 0.02325136753113614 0 -0.091682611010439896 0.0063963380850077774 0 -0.076769634387976737 0.01135693610240161 0 -0.091682611010439896 0.0063963380850077774 0 -0.078933949510919491 0.00072378658541613432 0 -0.076769634387976737 0.01135693610240161 0 -0.086097875964997059 -0.0058870606910941042 0 -0.091682611010439896 0.0063963380850077774 0 -0.078933949510919491 0.00072378658541613432 0 -0.078933949510919491 0.00072378658541613432 0 -0.076769634387976737 0.01135693610240161 0 -0.068462160169621672 0.0025537029525893409 0 -0.068462160169621672 0.0025537029525893409 0 -0.057836245250817257 0.0062936453779614283 0 -0.061440697951084179 0.017621877449499421 0 -0.076769634387976737 0.01135693610240161 0 -0.068462160169621672 0.0025537029525893409 0 -0.061440697951084179 0.017621877449499421 0 -0.057836245250817257 0.0062936453779614283 0 -0.061440697951084179 0.017621877449499421 0 -0.042678209040760022 0.019440128409622049 0 -0.057836245250817257 0.0062936453779614283 0 -0.042678209040760022 0.019440128409622049 0 -0.044352522143416888 0.0050416822031405977 0 -0.063264057366842208 0.031259222641012697 0 -0.042678209040760022 0.019440128409622049 0 -0.05195897498334151 0.039592758420259042 0 -0.063264057366842208 0.031259222641012697 0 -0.061440697951084179 0.017621877449499421 0 -0.042678209040760022 0.019440128409622049 0 -0.042678209040760022 0.019440128409622049 0 -0.038256592764973757 0.039174794321751791 0 -0.042678209040760022 0.019440128409622049 0 -0.038256592764973757 0.039174794321751791 0 -0.027511467414372541 0.03001296694831072 0 -0.042678209040760022 0.019440128409622049 0 -0.028180513839983729 0.018098474401369 0 -0.027511467414372541 0.03001296694831072 0 -0.042678209040760022 0.019440128409622049 0 -0.032770024037711037 0.0084985419153508525 0 -0.028180513839983729 0.018098474401369 0 -0.032770024037711037 0.0084985419153508525 0 -0.03614709390981162 0.0015378833132510439 0 -0.044352522143416888 0.0050416822031405977 0 -0.029539197120254941 -0.00051038393964639519 0 -0.032770024037711037 0.0084985419153508525 0 -0.03614709390981162 0.0015378833132510439 0 -0.042678209040760022 0.019440128409622049 0 -0.032770024037711037 0.0084985419153508525 0 -0.044352522143416888 0.0050416822031405977 0 -0.042969512877196837 0.063698159366550891 0 -0.047980875447113908 0.056604040506729722 0 -0.052166049838275927 0.062310195238599278 0 -0.047980875447113908 0.056604040506729722 0 -0.052166049838275927 0.062310195238599278 0 -0.055804220694704088 0.051985500715961808 0 -0.064856269609628314 0.055117702274744398 0 -0.059815066152941319 0.061788281472960463 0 -0.055804220694704088 0.051985500715961808 0 -0.052166049838275927 0.062310195238599278 0 -0.059815066152941319 0.061788281472960463 0 -0.055804220694704088 0.051985500715961808 0 -0.064856269609628314 0.055117702274744398 0 -0.065400139349222536 0.045420728471107522 0 -0.055804220694704088 0.051985500715961808 0 -0.047980875447113908 0.056604040506729722 0 -0.055804220694704088 0.051985500715961808 0 -0.046350630683546529 0.050276175962098407 0 -0.055804220694704088 0.051985500715961808 0 -0.05195897498334151 0.039592758420259042 0 -0.046350630683546529 0.050276175962098407 0 -0.065400139349222536 0.045420728471107522 0 -0.055804220694704088 0.051985500715961808 0 -0.05195897498334151 0.039592758420259042 0 -0.065400139349222536 0.045420728471107522 0 -0.063264057366842208 0.031259222641012697 0 -0.05195897498334151 0.039592758420259042 0 -0.042678209040760022 0.019440128409622049 0 -0.05195897498334151 0.039592758420259042 0 -0.038256592764973757 0.039174794321751791 0 -0.05195897498334151 0.039592758420259042 0 -0.038256592764973757 0.039174794321751791 0 -0.046350630683546529 0.050276175962098407 0 -0.038256592764973757 0.039174794321751791 0 -0.033834976489186493 0.058909460233881362 0 -0.038256592764973757 0.039174794321751791 0 -0.038513274033404883 0.055407770980391423 0 -0.033834976489186493 0.058909460233881362 0 -0.038256592764973757 0.039174794321751791 0 -0.046350630683546529 0.050276175962098407 0 -0.038513274033404883 0.055407770980391423 0 -0.038256592764973757 0.039174794321751791 0 -0.033834976489186493 0.058909460233881362 0 -0.02879531395286377 0.050132256585483953 0 -0.046350630683546529 0.050276175962098407 0 -0.038513274033404883 0.055407770980391423 0 -0.042914570065583427 0.057802329486214707 0 -0.036732086871232597 0.066761861307427367 0 -0.033834976489186493 0.058909460233881362 0 -0.038907572144486188 0.060810532415041758 0 -0.038513274033404883 0.055407770980391423 0 -0.033834976489186493 0.058909460233881362 0 -0.038513274033404883 0.055407770980391423 0 -0.033834976489186493 0.058909460233881362 0 -0.038907572144486188 0.060810532415041758 0 -0.042969512877196837 0.063698159366550891 0 -0.038907572144486188 0.060810532415041758 0 -0.042914570065583427 0.057802329486214707 0 -0.038513274033404883 0.055407770980391423 0 -0.038907572144486188 0.060810532415041758 0 -0.042914570065583427 0.057802329486214707 0 -0.047980875447113908 0.056604040506729722 0 -0.046350630683546529 0.050276175962098407 0 -0.042914570065583427 0.057802329486214707 0 -0.042969512877196837 0.063698159366550891 0 -0.047980875447113908 0.056604040506729722 0 -0.042914570065583427 0.057802329486214707 0 -0.033834976489186493 0.058909460233881362 0 -0.01963881101933795 0.057650575484614511 0 -0.02879531395286377 0.050132256585483953 0 -0.01963881101933795 0.057650575484614511 0 -0.02879531395286377 0.050132256585483953 0 -0.02345087553795689 0.044794196301688183 0 -0.01963881101933795 0.057650575484614511 0 -0.02345087553795689 0.044794196301688183 0 -0.012175026131353321 0.050402421608982242 0 -0.02345087553795689 0.044794196301688183 0 -0.014695186475719159 0.0359408453649432 0 -0.012175026131353321 0.050402421608982242 0 -0.038256592764973757 0.039174794321751791 0 -0.02879531395286377 0.050132256585483953 0 -0.02345087553795689 0.044794196301688183 0 -0.038256592764973757 0.039174794321751791 0 -0.02345087553795689 0.044794196301688183 0 -0.027511467414372541 0.03001296694831072 0 -0.02345087553795689 0.044794196301688183 0 -0.014695186475719159 0.0359408453649432 0 -0.027511467414372541 0.03001296694831072 0 -0.014695186475719159 0.0359408453649432 0 -0.0023331541944977092 0.045311556235899067 0 0.00074240361007229996 0.028778475488121531 0 -0.014695186475719159 0.0359408453649432 0 -0.0023331541944977092 0.045311556235899067 0 -0.012175026131353321 0.050402421608982242 0 -0.0023331541944977092 0.045311556235899067 0 -0.012175026131353321 0.050402421608982242 0 0.00079413703044923156 0.058803151297745167 0 -0.012175026131353321 0.050402421608982242 0 -0.0089029190745683329 0.062319161291970238 0 0.00079413703044923156 0.058803151297745167 0 -0.01963881101933795 0.057650575484614511 0 -0.012175026131353321 0.050402421608982242 0 -0.0089029190745683329 0.062319161291970238 0 -0.021996997598287969 0.010981086364913869 0 -0.02112675760807068 0.0030512678310729521 0 -0.0083058662928979787 0.012079608812324741 0 -0.021996997598287969 0.010981086364913869 0 -0.01661374249992489 0.02103319015209278 0 -0.0083058662928979787 0.012079608812324741 0 -0.021996997598287969 0.010981086364913869 0 -0.02112675760807068 0.0030512678310729521 0 -0.02631380729169577 0.0053104208567875946 0 -0.029539197120254941 -0.00051038393964639519 0 -0.02112675760807068 0.0030512678310729521 0 -0.02631380729169577 0.0053104208567875946 0 -0.029539197120254941 -0.00051038393964639519 0 -0.032770024037711037 0.0084985419153508525 0 -0.02631380729169577 0.0053104208567875946 0 -0.032770024037711037 0.0084985419153508525 0 -0.021996997598287969 0.010981086364913869 0 -0.02631380729169577 0.0053104208567875946 0 -0.032770024037711037 0.0084985419153508525 0 -0.021996997598287969 0.010981086364913869 0 -0.028180513839983729 0.018098474401369 0 -0.028180513839983729 0.018098474401369 0 -0.027511467414372541 0.03001296694831072 0 -0.01661374249992489 0.02103319015209278 0 -0.014695186475719159 0.0359408453649432 0 -0.027511467414372541 0.03001296694831072 0 -0.01661374249992489 0.02103319015209278 0 -0.021996997598287969 0.010981086364913869 0 -0.028180513839983729 0.018098474401369 0 -0.01661374249992489 0.02103319015209278 0 -0.01661374249992489 0.02103319015209278 0 0.00074240361007229996 0.028778475488121531 0 -0.0083058662928979787 0.012079608812324741 0 0.0060294939382754481 0.01286563290641534 0 0.00074240361007229996 0.028778475488121531 0 -0.014695186475719159 0.0359408453649432 0 -0.01661374249992489 0.02103319015209278 0 0.00074240361007229996 0.028778475488121531 0 -0.0083058662928979787 0.012079608812324741 0 0.00074240361007229996 0.028778475488121531 0 -0.01661374249992489 0.02103319015209278 0 -0.0083058662928979787 0.012079608812324741 0 0.00074240361007229996 0.028778475488121531 0 -0.0072764121498596901 -0.0036325873431357339 0 -0.0083058662928979787 0.012079608812324741 0 0.0012074066645448821 -0.00065723147797176382 0 -0.0072764121498596901 -0.0036325873431357339 0 -0.013607688627124061 -0.00178224205395049 0 -0.0083058662928979787 0.012079608812324741 0 -0.017354136195868258 -0.0046192578634720229 0 -0.0083058662928979787 0.012079608812324741 0 -0.017354136195868258 -0.0046192578634720229 0 -0.013607688627124061 -0.00178224205395049 0 -0.0083058662928979787 0.012079608812324741 0 -0.0083058662928979787 0.012079608812324741 0 0.0060294939382754481 0.01286563290641534 0 0.0012074066645448821 -0.00065723147797176382 0 -0.017354136195868258 -0.0046192578634720229 0 -0.02112675760807068 0.0030512678310729521 0 -0.0083058662928979787 0.012079608812324741 0 0.0060294939382754481 0.01286563290641534 0 0.0012074066645448821 -0.00065723147797176382 0 0.01265631079038235 -0.01012693536007268 0 0.0060294939382754481 0.01286563290641534 0 0.020311547060899309 0.014329649790385431 0 0.01265631079038235 -0.01012693536007268 0 0.00074240361007229996 0.028778475488121531 0 0.015746539320639769 0.024046632949657649 0 0.022626785018342459 0.038544513255683338 0 0.0060294939382754481 0.01286563290641534 0 0.00074240361007229996 0.028778475488121531 0 0.015746539320639769 0.024046632949657649 0 0.0060294939382754481 0.01286563290641534 0 0.015746539320639769 0.024046632949657649 0 0.020311547060899309 0.014329649790385431 0 0.015746539320639769 0.024046632949657649 0 0.029022466975609298 0.02571489330768258 0 0.020311547060899309 0.014329649790385431 0 0.015746539320639769 0.024046632949657649 0 0.029022466975609298 0.02571489330768258 0 0.022626785018342459 0.038544513255683338 0 0.020311547060899309 0.014329649790385431 0 0.034885408484197772 0.0062912350017927032 0 0.01265631079038235 -0.01012693536007268 0 0.029022466975609298 0.02571489330768258 0 0.020311547060899309 0.014329649790385431 0 0.034885408484197772 0.0062912350017927032 0 0.00079413703044923156 0.058803151297745167 0 0.01366790099406239 0.052632887419703241 0 0.0065236609159091173 0.071671444604676282 0 -0.0023331541944977092 0.045311556235899067 0 0.00079413703044923156 0.058803151297745167 0 0.01366790099406239 0.052632887419703241 0 0.00074240361007229996 0.028778475488121531 0 0.01366790099406239 0.052632887419703241 0 0.022626785018342459 0.038544513255683338 0 0.00074240361007229996 0.028778475488121531 0 0.022626785018342459 0.038544513255683338 0 -0.0023331541944977092 0.045311556235899067 0 0.00074240361007229996 0.028778475488121531 0 0.01366790099406239 0.052632887419703241 0 0.00074240361007229996 0.028778475488121531 0 0.01366790099406239 0.052632887419703241 0 0.029022466975609298 0.02571489330768258 0 0.022626785018342459 0.038544513255683338 0 0.037630953216902623 0.033668105561091018 0 0.01366790099406239 0.052632887419703241 0 0.022626785018342459 0.038544513255683338 0 0.025434983742737761 0.055249644843112657 0 0.022626785018342459 0.038544513255683338 0 0.025434983742737761 0.055249644843112657 0 0.034616451435572633 0.051242168749322393 0 0.025434983742737761 0.055249644843112657 0 0.034062632092931817 0.061255223706808547 0 0.02703491536905472 0.067401080742933134 0 0.01366790099406239 0.052632887419703241 0 0.025434983742737761 0.055249644843112657 0 0.02703491536905472 0.067401080742933134 0 0.034616451435572633 0.051242168749322393 0 0.044511166426612833 0.04831055102324476 0 0.060132464308973767 0.062986029428160187 0 0.034616451435572633 0.051242168749322393 0 0.060132464308973767 0.062986029428160187 0 0.044258496001147778 0.063884183083345675 0 0.034062632092931817 0.061255223706808547 0 0.034616451435572633 0.051242168749322393 0 0.044258496001147778 0.063884183083345675 0 0.025434983742737761 0.055249644843112657 0 0.034062632092931817 0.061255223706808547 0 0.034616451435572633 0.051242168749322393 0 0.022626785018342459 0.038544513255683338 0 0.044511166426612833 0.04831055102324476 0 0.022626785018342459 0.038544513255683338 0 0.034616451435572633 0.051242168749322393 0 0.044511166426612833 0.04831055102324476 0 0.022626785018342459 0.038544513255683338 0 0.044511166426612833 0.04831055102324476 0 0.037630953216902623 0.033668105561091018 0 0.044511166426612833 0.04831055102324476 0 0.037630953216902623 0.033668105561091018 0 0.0484135161167236 0.034205204957136963 0 0.0484135161167236 0.034205204957136963 0 0.060669767880595721 0.038134724015348051 0 0.0518117103670514 0.042737821036878322 0 0.0484135161167236 0.034205204957136963 0 0.060669767880595721 0.038134724015348051 0 0.057623658326613529 0.02352368721002385 0 0.060669767880595721 0.038134724015348051 0 0.0518117103670514 0.042737821036878322 0 0.059559274975242667 0.047504887075434543 0 0.044511166426612833 0.04831055102324476 0 0.0518117103670514 0.042737821036878322 0 0.059559274975242667 0.047504887075434543 0 0.044511166426612833 0.04831055102324476 0 0.0484135161167236 0.034205204957136963 0 0.0518117103670514 0.042737821036878322 0 0.044511166426612833 0.04831055102324476 0 0.066395547834883203 0.05807658879080619 0 0.060132464308973767 0.062986029428160187 0 0.034616451435572633 0.051242168749322393 0 0.060132464308973767 0.062986029428160187 0 0.044511166426612833 0.04831055102324476 0 0.066395547834883203 0.05807658879080619 0 0.044511166426612833 0.04831055102324476 0 0.059559274975242667 0.047504887075434543 0 0.066395547834883203 0.05807658879080619 0 0.034885408484197772 0.0062912350017927032 0 0.052968053050369737 0.0090809173488315582 0 0.042517259973231587 -0.011683923625132649 0 0.034885408484197772 0.0062912350017927032 0 0.043580831547224863 0.021565365261707499 0 0.052968053050369737 0.0090809173488315582 0 0.029022466975609298 0.02571489330768258 0 0.034885408484197772 0.0062912350017927032 0 0.043580831547224863 0.021565365261707499 0 0.029022466975609298 0.02571489330768258 0 0.037630953216902623 0.033668105561091018 0 0.043580831547224863 0.021565365261707499 0 0.037630953216902623 0.033668105561091018 0 0.0484135161167236 0.034205204957136963 0 0.043580831547224863 0.021565365261707499 0 0.057623658326613529 0.02352368721002385 0 0.052968053050369737 0.0090809173488315582 0 0.071708216805815503 0.016768608491387289 0 0.043580831547224863 0.021565365261707499 0 0.057623658326613529 0.02352368721002385 0 0.052968053050369737 0.0090809173488315582 0 0.0484135161167236 0.034205204957136963 0 0.043580831547224863 0.021565365261707499 0 0.057623658326613529 0.02352368721002385 0 0.052968053050369737 0.0090809173488315582 0 0.071708216805815503 0.016768608491387289 0 0.067492943165135169 -0.0019794682467893379 0 0.083930998993742512 0.0059737405228527038 0 0.071708216805815503 0.016768608491387289 0 0.067492943165135169 -0.0019794682467893379 0 0.083930998993742512 0.0059737405228527038 0 0.098495163759696414 0.0029673617968291321 0 0.094917995650245529 0.021722354499223519 0 0.083930998993742512 0.0059737405228527038 0 0.071708216805815503 0.016768608491387289 0 0.094917995650245529 0.021722354499223519 0 0.071708216805815503 0.016768608491387289 0 0.07449934060461412 0.03258063005354956 0 0.094917995650245529 0.021722354499223519 0 0.07449934060461412 0.03258063005354956 0 0.087237150257314613 0.037926204838731957 0 0.094917995650245529 0.021722354499223519 0 0.057623658326613529 0.02352368721002385 0 0.071708216805815503 0.016768608491387289 0 0.07449934060461412 0.03258063005354956 0 0.060669767880595721 0.038134724015348051 0 0.057623658326613529 0.02352368721002385 0 0.07449934060461412 0.03258063005354956 0 0.060669767880595721 0.038134724015348051 0 0.069155187538762042 0.045022305850501279 0 0.07449934060461412 0.03258063005354956 0 0.060669767880595721 0.038134724015348051 0 0.059559274975242667 0.047504887075434543 0 0.069155187538762042 0.045022305850501279 0 0.069155187538762042 0.045022305850501279 0 0.07449934060461412 0.03258063005354956 0 0.079692196512252927 0.044953406994506007 0 0.059559274975242667 0.047504887075434543 0 0.069155187538762042 0.045022305850501279 0 0.067326156772233525 0.050603546620565112 0 0.059559274975242667 0.047504887075434543 0 0.066395547834883203 0.05807658879080619 0 0.067326156772233525 0.050603546620565112 0 0.066395547834883203 0.05807658879080619 0 0.067326156772233525 0.050603546620565112 0 0.074194616740046182 0.051810404765518438 0 0.069155187538762042 0.045022305850501279 0 0.067326156772233525 0.050603546620565112 0 0.074194616740046182 0.051810404765518438 0 0.069155187538762042 0.045022305850501279 0 0.074194616740046182 0.051810404765518438 0 0.079692196512252927 0.044953406994506007 0 0.066395547834883203 0.05807658879080619 0 0.074194616740046182 0.051810404765518438 0 0.080343143758095259 0.058335218209008277 0 0.066395547834883203 0.05807658879080619 0 0.080343143758095259 0.058335218209008277 0 0.08827992924315356 0.067842626558367619 0 0.080343143758095259 0.058335218209008277 0 0.083306510346727383 0.05351440315152866 0 0.090416084875221875 0.058235299142909973 0 0.074194616740046182 0.051810404765518438 0 0.083306510346727383 0.05351440315152866 0 0.079692196512252927 0.044953406994506007 0 0.083306510346727383 0.05351440315152866 0 0.089760373586053266 0.048866493307206167 0 0.079692196512252927 0.044953406994506007 0 0.074194616740046182 0.051810404765518438 0 0.080343143758095259 0.058335218209008277 0 0.083306510346727383 0.05351440315152866 0 0.083306510346727383 0.05351440315152866 0 0.089760373586053266 0.048866493307206167 0 0.090416084875221875 0.058235299142909973 0 0.089760373586053266 0.048866493307206167 0 0.090416084875221875 0.058235299142909973 0 0.099395501669828634 0.055681054702382278 0 0.080343143758095259 0.058335218209008277 0 0.090416084875221875 0.058235299142909973 0 0.08827992924315356 0.067842626558367619 0 0.087237150257314613 0.037926204838731957 0 0.098930039005792711 0.04227996871225087 0 0.094917995650245529 0.021722354499223519 0 0.07449934060461412 0.03258063005354956 0 0.079692196512252927 0.044953406994506007 0 0.087237150257314613 0.037926204838731957 0 0.089760373586053266 0.048866493307206167 0 0.079692196512252927 0.044953406994506007 0 0.087237150257314613 0.037926204838731957 0 0.089760373586053266 0.048866493307206167 0 0.087237150257314613 0.037926204838731957 0 0.098930039005792711 0.04227996871225087 0 0.10894092886672049 0.033503019923715648 0 0.098930039005792711 0.04227996871225087 0 0.11550376979223601 0.054551475820320147 0 0.10894092886672049 0.033503019923715648 0 0.098930039005792711 0.04227996871225087 0 0.094917995650245529 0.021722354499223519 0 0.098930039005792711 0.04227996871225087 0 0.099395501669828634 0.055681054702382278 0 0.11550376979223601 0.054551475820320147 0 0.099395501669828634 0.055681054702382278 0 0.11550376979223601 0.054551475820320147 0 0.10561354398445311 0.069921878226714862 0 0.090416084875221875 0.058235299142909973 0 0.099395501669828634 0.055681054702382278 0 0.095618088847860577 0.065038419849084594 0 0.089760373586053266 0.048866493307206167 0 0.098930039005792711 0.04227996871225087 0 0.099395501669828634 0.055681054702382278 0 0.10894092886672049 0.033503019923715648 0 0.11961069471150609 0.02296590295220987 0 0.12977361784467401 0.039215218793308727 0 0.10894092886672049 0.033503019923715648 0 0.11550376979223601 0.054551475820320147 0 0.12977361784467401 0.039215218793308727 0 0.11961069471150609 0.02296590295220987 0 0.1158546052028349 0.0064685721448778594 0 0.094917995650245529 0.021722354499223519 0 0.11961069471150609 0.02296590295220987 0 0.1158546052028349 0.0064685721448778594 0 0.13894824890776639 0.02136224913872127 0 0.1158546052028349 0.0064685721448778594 0 0.098495163759696414 0.0029673617968291321 0 0.094917995650245529 0.021722354499223519 0 0.10894092886672049 0.033503019923715648 0 0.11961069471150609 0.02296590295220987 0 0.094917995650245529 0.021722354499223519 0 0.097728221435088053 0.099184528615223033 0 0.110275064223293 0.10236359857942121 0 0.11116449005577619 0.086473750785835857 0 0.099894961061174667 0.1104201015940532 0 0.11150799601301251 0.1117412241471519 0 0.110275064223293 0.10236359857942121 0 0.097728221435088053 0.099184528615223033 0 0.099894961061174667 0.1104201015940532 0 0.110275064223293 0.10236359857942121 0 0.097728221435088053 0.099184528615223033 0 0.099894961061174667 0.1104201015940532 0 0.084925795867796111 0.1103515185161017 0 0.099894961061174667 0.1104201015940532 0 0.096984900528893664 0.1212489081817222 0 0.084925795867796111 0.1103515185161017 0 0.099894961061174667 0.1104201015940532 0 0.096984900528893664 0.1212489081817222 0 0.10712684862241641 0.1210429748963526 0 0.096984900528893664 0.1212489081817222 0 0.10712684862241641 0.1210429748963526 0 0.10589272808503949 0.13156516273042271 0 0.099894961061174667 0.1104201015940532 0 0.10712684862241641 0.1210429748963526 0 0.11150799601301251 0.1117412241471519 0 0.10712684862241641 0.1210429748963526 0 0.11150799601301251 0.1117412241471519 0 0.1187293914863337 0.1182846474287873 0 0.11150799601301251 0.1117412241471519 0 0.1187293914863337 0.1182846474287873 0 0.1197878353292403 0.1092484053650479 0 0.10712684862241641 0.1210429748963526 0 0.1187293914863337 0.1182846474287873 0 0.114987521205969 0.1268010028982309 0 0.1187293914863337 0.1182846474287873 0 0.12813823657366311 0.12049833089676459 0 0.12624189261331301 0.1140678077034443 0 0.1187293914863337 0.1182846474287873 0 0.12212988809696081 0.1249307776834532 0 0.12813823657366311 0.12049833089676459 0 0.1187293914863337 0.1182846474287873 0 0.12212988809696081 0.1249307776834532 0 0.114987521205969 0.1268010028982309 0 0.1187293914863337 0.1182846474287873 0 0.1197878353292403 0.1092484053650479 0 0.12624189261331301 0.1140678077034443 0 0.1216961693062274 0.1020981758197984 0 0.110275064223293 0.10236359857942121 0 0.11116449005577619 0.086473750785835857 0 0.1197878353292403 0.1092484053650479 0 0.1216961693062274 0.1020981758197984 0 0.1302764983332621 0.10693497851168419 0 0.1216961693062274 0.1020981758197984 0 0.11116449005577619 0.086473750785835857 0 0.13668050292917741 0.098217611464673699 0 0.1197878353292403 0.1092484053650479 0 0.1216961693062274 0.1020981758197984 0 0.110275064223293 0.10236359857942121 0 0.11150799601301251 0.1117412241471519 0 0.1197878353292403 0.1092484053650479 0 0.110275064223293 0.10236359857942121 0 0.11116449005577619 0.086473750785835857 0 0.1207366242219714 0.074251990558816788 0 0.1300820653953097 0.084166932106396392 0 0.11116449005577619 0.086473750785835857 0 0.13668050292917741 0.098217611464673699 0 0.11116449005577619 0.086473750785835857 0 0.1207366242219714 0.074251990558816788 0 0.10561354398445311 0.069921878226714862 0 0.11550376979223601 0.054551475820320147 0 0.1207366242219714 0.074251990558816788 0 0.13255022158949201 0.068763676371196639 0 0.11550376979223601 0.054551475820320147 0 0.1207366242219714 0.074251990558816788 0 0.10561354398445311 0.069921878226714862 0 0.11116449005577619 0.086473750785835857 0 0.10561354398445311 0.069921878226714862 0 0.085648477182374977 0.074729890106998029 0 0.10561354398445311 0.069921878226714862 0 0.095618088847860577 0.065038419849084594 0 0.085648477182374977 0.074729890106998029 0 0.099395501669828634 0.055681054702382278 0 0.10561354398445311 0.069921878226714862 0 0.095618088847860577 0.065038419849084594 0 0.11116449005577619 0.086473750785835857 0 0.085648477182374977 0.074729890106998029 0 0.11116449005577619 0.086473750785835857 0 0.090808031879269946 0.087622927320568048 0 0.085648477182374977 0.074729890106998029 0 0.097728221435088053 0.099184528615223033 0 0.11116449005577619 0.086473750785835857 0 0.090808031879269946 0.087622927320568048 0 0.097728221435088053 0.099184528615223033 0 0.090808031879269946 0.087622927320568048 0 0.080235742217082393 0.093435287859391092 0 0.090808031879269946 0.087622927320568048 0 0.078675001300488379 0.083882301042573534 0 0.085648477182374977 0.074729890106998029 0 0.090808031879269946 0.087622927320568048 0 0.078675001300488379 0.083882301042573534 0 0.080235742217082393 0.093435287859391092 0 0.066395547834883203 0.05807658879080619 0 0.08827992924315356 0.067842626558367619 0 0.085648477182374977 0.074729890106998029 0 0.095618088847860577 0.065038419849084594 0 0.08827992924315356 0.067842626558367619 0 0.085648477182374977 0.074729890106998029 0 0.090416084875221875 0.058235299142909973 0 0.095618088847860577 0.065038419849084594 0 0.08827992924315356 0.067842626558367619 0 0.066395547834883203 0.05807658879080619 0 0.085648477182374977 0.074729890106998029 0 0.060132464308973767 0.062986029428160187 0 0.066395547834883203 0.05807658879080619 0 0.08827992924315356 0.067842626558367619 0 0.085648477182374977 0.074729890106998029 0 0.068637102026180674 0.07792917868559901 0 0.060132464308973767 0.062986029428160187 0 0.085648477182374977 0.074729890106998029 0 0.060132464308973767 0.062986029428160187 0 0.078675001300488379 0.083882301042573534 0 0.085648477182374977 0.074729890106998029 0 0.068637102026180674 0.07792917868559901 0 0.080235742217082393 0.093435287859391092 0 0.069503799956795384 0.087722797055870286 0 0.068523875558259784 0.095111972458496966 0 0.078675001300488379 0.083882301042573534 0 0.080235742217082393 0.093435287859391092 0 0.069503799956795384 0.087722797055870286 0 0.078675001300488379 0.083882301042573534 0 0.068637102026180674 0.07792917868559901 0 0.069503799956795384 0.087722797055870286 0 0.068637102026180674 0.07792917868559901 0 0.069503799956795384 0.087722797055870286 0 0.060111091978902922 0.083782113849914977 0 0.069503799956795384 0.087722797055870286 0 0.06135777996986308 0.093915161513068182 0 0.060111091978902922 0.083782113849914977 0 0.069503799956795384 0.087722797055870286 0 0.068523875558259784 0.095111972458496966 0 0.06135777996986308 0.093915161513068182 0 0.068523875558259784 0.095111972458496966 0 0.071520258741129425 0.10189571548122769 0 0.062413973273008162 0.1018934272394761 0 0.068523875558259784 0.095111972458496966 0 0.062413973273008162 0.1018934272394761 0 0.06135777996986308 0.093915161513068182 0 0.071520258741129425 0.10189571548122769 0 0.072821304814728441 0.1108529925529516 0 0.063718101814298073 0.11016590081819259 0 0.071520258741129425 0.10189571548122769 0 0.063718101814298073 0.11016590081819259 0 0.062413973273008162 0.1018934272394761 0 0.071520258741129425 0.10189571548122769 0 0.084925795867796111 0.1103515185161017 0 0.072821304814728441 0.1108529925529516 0 0.080235742217082393 0.093435287859391092 0 0.068523875558259784 0.095111972458496966 0 0.071520258741129425 0.10189571548122769 0 0.097728221435088053 0.099184528615223033 0 0.080235742217082393 0.093435287859391092 0 0.084925795867796111 0.1103515185161017 0 0.080235742217082393 0.093435287859391092 0 0.071520258741129425 0.10189571548122769 0 0.084925795867796111 0.1103515185161017 0 0.084925795867796111 0.1103515185161017 0 0.074154959480044275 0.1204842858357125 0 0.087075880893963842 0.12621803440601359 0 0.096984900528893664 0.1212489081817222 0 0.084925795867796111 0.1103515185161017 0 0.087075880893963842 0.12621803440601359 0 0.084925795867796111 0.1103515185161017 0 0.074154959480044275 0.1204842858357125 0 0.072821304814728441 0.1108529925529516 0 0.074154959480044275 0.1204842858357125 0 0.072821304814728441 0.1108529925529516 0 0.063718101814298073 0.11016590081819259 0 0.074154959480044275 0.1204842858357125 0 0.063718101814298073 0.11016590081819259 0 0.060124536552058239 0.11864948812996751 0 0.074154959480044275 0.1204842858357125 0 0.060124536552058239 0.11864948812996751 0 0.061109117960118017 0.12720913792676911 0 0.060124536552058239 0.11864948812996751 0 0.052595679859244633 0.1236025024456274 0 0.054913207086597561 0.11271600588853189 0 0.060124536552058239 0.11864948812996751 0 0.052595679859244633 0.1236025024456274 0 0.061109117960118017 0.12720913792676911 0 0.052595679859244633 0.1236025024456274 0 0.054913207086597561 0.11271600588853189 0 0.046771683079868627 0.1089772416004138 0 0.063718101814298073 0.11016590081819259 0 0.060124536552058239 0.11864948812996751 0 0.054913207086597561 0.11271600588853189 0 0.063718101814298073 0.11016590081819259 0 0.062413973273008162 0.1018934272394761 0 0.053620768430252298 0.1031656988462608 0 0.063718101814298073 0.11016590081819259 0 0.054913207086597561 0.11271600588853189 0 0.053620768430252298 0.1031656988462608 0 0.06135777996986308 0.093915161513068182 0 0.053620768430252298 0.1031656988462608 0 0.051535176025136201 0.090416251810209708 0 0.062413973273008162 0.1018934272394761 0 0.06135777996986308 0.093915161513068182 0 0.053620768430252298 0.1031656988462608 0 0.053620768430252298 0.1031656988462608 0 0.042875633238578528 0.09739353282270094 0 0.051535176025136201 0.090416251810209708 0 0.053620768430252298 0.1031656988462608 0 0.046771683079868627 0.1089772416004138 0 0.042875633238578528 0.09739353282270094 0 0.054913207086597561 0.11271600588853189 0 0.053620768430252298 0.1031656988462608 0 0.046771683079868627 0.1089772416004138 0 0.046771683079868627 0.1089772416004138 0 0.042875633238578528 0.09739353282270094 0 0.034382595390138257 0.1099700727945534 0 0.042875633238578528 0.09739353282270094 0 0.034382595390138257 0.1099700727945534 0 0.030708755379597181 0.088685576768743155 0 0.034382595390138257 0.1099700727945534 0 0.030708755379597181 0.088685576768743155 0 0.052595679859244633 0.1236025024456274 0 0.046771683079868627 0.1089772416004138 0 0.034382595390138257 0.1099700727945534 0 0.034382595390138257 0.1099700727945534 0 0.02520709702204247 0.1232263280856261 0 0.037354296692750887 0.12718670835402709 0 0.052595679859244633 0.1236025024456274 0 0.034382595390138257 0.1099700727945534 0 0.037354296692750887 0.12718670835402709 0 0.034382595390138257 0.1099700727945534 0 0.037354296692750887 0.12718670835402709 0 0.052595679859244633 0.1236025024456274 0 0.034382595390138257 0.1099700727945534 0 0.060132464308973767 0.062986029428160187 0 0.051537231586459821 0.0703604747810012 0 0.044258496001147778 0.063884183083345675 0 0.051537231586459821 0.0703604747810012 0 0.045053238281461433 0.071665999821029613 0 0.044258496001147778 0.063884183083345675 0 0.060132464308973767 0.062986029428160187 0 0.058160070023191839 0.074213970699792686 0 0.051537231586459821 0.0703604747810012 0 0.068637102026180674 0.07792917868559901 0 0.060132464308973767 0.062986029428160187 0 0.058160070023191839 0.074213970699792686 0 0.051537231586459821 0.0703604747810012 0 0.049495561811348857 0.078896267932753172 0 0.045053238281461433 0.071665999821029613 0 0.058160070023191839 0.074213970699792686 0 0.051537231586459821 0.0703604747810012 0 0.049495561811348857 0.078896267932753172 0 0.049495561811348857 0.078896267932753172 0 0.051535176025136201 0.090416251810209708 0 0.041750220721871581 0.085344735896560275 0 0.049495561811348857 0.078896267932753172 0 0.060111091978902922 0.083782113849914977 0 0.051535176025136201 0.090416251810209708 0 0.068637102026180674 0.07792917868559901 0 0.058160070023191839 0.074213970699792686 0 0.060111091978902922 0.083782113849914977 0 0.058160070023191839 0.074213970699792686 0 0.049495561811348857 0.078896267932753172 0 0.060111091978902922 0.083782113849914977 0 0.06135777996986308 0.093915161513068182 0 0.060111091978902922 0.083782113849914977 0 0.051535176025136201 0.090416251810209708 0 0.042875633238578528 0.09739353282270094 0 0.051535176025136201 0.090416251810209708 0 0.041750220721871581 0.085344735896560275 0 0.042875633238578528 0.09739353282270094 0 0.041750220721871581 0.085344735896560275 0 0.030708755379597181 0.088685576768743155 0 0.041750220721871581 0.085344735896560275 0 0.037489048909448763 0.07466528487264068 0 0.030708755379597181 0.088685576768743155 0 0.049495561811348857 0.078896267932753172 0 0.041750220721871581 0.085344735896560275 0 0.037489048909448763 0.07466528487264068 0 0.037489048909448763 0.07466528487264068 0 0.02703491536905472 0.067401080742933134 0 0.030708755379597181 0.088685576768743155 0 0.049495561811348857 0.078896267932753172 0 0.045053238281461433 0.071665999821029613 0 0.037489048909448763 0.07466528487264068 0 0.045053238281461433 0.071665999821029613 0 0.037489048909448763 0.07466528487264068 0 0.037579666130808903 0.067774354445351542 0 0.034062632092931817 0.061255223706808547 0 0.037579666130808903 0.067774354445351542 0 0.02703491536905472 0.067401080742933134 0 0.037489048909448763 0.07466528487264068 0 0.037579666130808903 0.067774354445351542 0 0.02703491536905472 0.067401080742933134 0 0.034062632092931817 0.061255223706808547 0 0.037579666130808903 0.067774354445351542 0 0.044258496001147778 0.063884183083345675 0 0.045053238281461433 0.071665999821029613 0 0.037579666130808903 0.067774354445351542 0 0.044258496001147778 0.063884183083345675 0 0.02703491536905472 0.067401080742933134 0 0.030708755379597181 0.088685576768743155 0 0.01366790099406239 0.052632887419703241 0 0.026593398378051959 0.076487299351285121 0 0.01366790099406239 0.052632887419703241 0 0.02703491536905472 0.067401080742933134 0 0.026593398378051959 0.076487299351285121 0 0.02703491536905472 0.067401080742933134 0 0.026593398378051959 0.076487299351285121 0 0.030708755379597181 0.088685576768743155 0 0.01366790099406239 0.052632887419703241 0 0.026593398378051959 0.076487299351285121 0 0.01611389888654503 0.070322973248010373 0 0.026593398378051959 0.076487299351285121 0 0.01611389888654503 0.070322973248010373 0 0.01767063525815666 0.080500261616376856 0 0.01767063525815666 0.080500261616376856 0 0.030708755379597181 0.088685576768743155 0 0.011643404763696401 0.092949868607662828 0 0.026593398378051959 0.076487299351285121 0 0.01767063525815666 0.080500261616376856 0 0.030708755379597181 0.088685576768743155 0 0.01767063525815666 0.080500261616376856 0 0.011643404763696401 0.092949868607662828 0 0.0065236609159091173 0.071671444604676282 0 -0.01109578586274463 0.07592966442077155 0 0.011643404763696401 0.092949868607662828 0 0.0065236609159091173 0.071671444604676282 0 -0.01109578586274463 0.07592966442077155 0 0.011643404763696401 0.092949868607662828 0 0.01366790099406239 0.052632887419703241 0 0.01611389888654503 0.070322973248010373 0 0.0065236609159091173 0.071671444604676282 0 0.01611389888654503 0.070322973248010373 0 0.01767063525815666 0.080500261616376856 0 0.0065236609159091173 0.071671444604676282 0 -0.0031702267477386531 0.067180855403790804 0 0.00079413703044923156 0.058803151297745167 0 0.0065236609159091173 0.071671444604676282 0 0.034382595390138257 0.1099700727945534 0 0.02520709702204247 0.1232263280856261 0 0.01356063639681436 0.11371506303709419 0 0.02520709702204247 0.1232263280856261 0 0.01356063639681436 0.11371506303709419 0 0.011098566836083609 0.13484946890849181 0 0.034382595390138257 0.1099700727945534 0 0.011643404763696401 0.092949868607662828 0 0.01356063639681436 0.11371506303709419 0 0.034382595390138257 0.1099700727945534 0 0.011643404763696401 0.092949868607662828 0 0.034382595390138257 0.1099700727945534 0 0.030708755379597181 0.088685576768743155 0 0.011643404763696401 0.092949868607662828 0 -0.0040088977147468936 0.097024336429998151 0 0.011643404763696401 0.092949868607662828 0 0.0025937760044158291 0.1064596481343341 0 0.011643404763696401 0.092949868607662828 0 0.0025937760044158291 0.1064596481343341 0 0.01356063639681436 0.11371506303709419 0 -0.007175360702145514 0.1155930690216506 0 0.0025937760044158291 0.1064596481343341 0 0.01356063639681436 0.11371506303709419 0 -0.007175360702145514 0.1155930690216506 0 0.01356063639681436 0.11371506303709419 0 0.011098566836083609 0.13484946890849181 0 -0.007175360702145514 0.1155930690216506 0 0.011098566836083609 0.13484946890849181 0 0.02520709702204247 0.1232263280856261 0 0.011098566836083609 0.13484946890849181 0 0.028759663239593541 0.13617761485890201 0 0.02520709702204247 0.1232263280856261 0 0.028759663239593541 0.13617761485890201 0 0.037354296692750887 0.12718670835402709 0 0.011098566836083609 0.13484946890849181 0 0.029372494374312729 0.15410586879533311 0 0.013538337341477229 0.1636201682865295 0 0.011098566836083609 0.13484946890849181 0 0.028759663239593541 0.13617761485890201 0 0.029372494374312729 0.15410586879533311 0 0.011098566836083609 0.13484946890849181 0 0.029372494374312729 0.15410586879533311 0 -0.0048034666842798916 0.1614245706846468 0 0.011098566836083609 0.13484946890849181 0 0.013538337341477229 0.1636201682865295 0 -0.0057956805663459468 0.1892940575843915 0 -0.0048034666842798916 0.1614245706846468 0 0.013538337341477229 0.1636201682865295 0 -0.0057956805663459468 0.1892940575843915 0 0.013538337341477229 0.1636201682865295 0 0.020045678312652242 0.18090880435863019 0 -0.0057956805663459468 0.1892940575843915 0 0.020045678312652242 0.18090880435863019 0 0.029372494374312729 0.15410586879533311 0 0.013538337341477229 0.1636201682865295 0 0.020045678312652242 0.18090880435863019 0 0.029372494374312729 0.15410586879533311 0 0.045887037191650451 0.17252355113286891 0 0.04813315871709322 0.1541455757588851 0 0.029372494374312729 0.15410586879533311 0 0.020045678312652242 0.18090880435863019 0 0.045887037191650451 0.17252355113286891 0 0.020045678312652242 0.18090880435863019 0 0.045887037191650451 0.17252355113286891 0 0.020045678312652242 0.18090880435863019 0 0.045887037191650451 0.17252355113286891 0 0.041991232206495782 0.1919910870650737 0 0.045887037191650451 0.17252355113286891 0 0.060802696405823108 0.1787365445376432 0 0.041991232206495782 0.1919910870650737 0 0.045887037191650451 0.17252355113286891 0 0.071728396070648653 0.1641382979071076 0 0.045887037191650451 0.17252355113286891 0 0.060802696405823108 0.1787365445376432 0 0.071728396070648653 0.1641382979071076 0 0.045887037191650451 0.17252355113286891 0 0.059657673584757237 0.15824269734654939 0 0.04813315871709322 0.1541455757588851 0 0.045887037191650451 0.17252355113286891 0 0.059657673584757237 0.15824269734654939 0 0.071728396070648653 0.1641382979071076 0 0.059657673584757237 0.15824269734654939 0 0.04813315871709322 0.1541455757588851 0 0.060329678829100349 0.1474246815113264 0 0.04813315871709322 0.1541455757588851 0 0.050215372913412007 0.1458935282758238 0 0.060329678829100349 0.1474246815113264 0 0.050215372913412007 0.1458935282758238 0 0.060329678829100349 0.1474246815113264 0 0.052072656112092337 0.13760051191958289 0 0.050215372913412007 0.1458935282758238 0 0.052072656112092337 0.13760051191958289 0 0.040325997995362128 0.14440334391350099 0 0.060329678829100349 0.1474246815113264 0 0.062159468211553673 0.13737243366585769 0 0.052072656112092337 0.13760051191958289 0 0.062159468211553673 0.13737243366585769 0 0.054733357378362921 0.13083888414419281 0 0.052072656112092337 0.13760051191958289 0 0.052595679859244633 0.1236025024456274 0 0.054733357378362921 0.13083888414419281 0 0.061109117960118017 0.12720913792676911 0 0.062159468211553673 0.13737243366585769 0 0.054733357378362921 0.13083888414419281 0 0.061109117960118017 0.12720913792676911 0 0.052595679859244633 0.1236025024456274 0 0.054733357378362921 0.13083888414419281 0 0.046346625143134958 0.1312929959830558 0 0.054733357378362921 0.13083888414419281 0 0.052072656112092337 0.13760051191958289 0 0.046346625143134958 0.1312929959830558 0 0.037354296692750887 0.12718670835402709 0 0.040325997995362128 0.14440334391350099 0 0.046346625143134958 0.1312929959830558 0 0.037354296692750887 0.12718670835402709 0 0.040325997995362128 0.14440334391350099 0 0.028759663239593541 0.13617761485890201 0 0.037354296692750887 0.12718670835402709 0 0.040325997995362128 0.14440334391350099 0 0.052072656112092337 0.13760051191958289 0 0.046346625143134958 0.1312929959830558 0 0.040325997995362128 0.14440334391350099 0 0.052595679859244633 0.1236025024456274 0 0.046346625143134958 0.1312929959830558 0 0.037354296692750887 0.12718670835402709 0 0.028759663239593541 0.13617761485890201 0 0.029372494374312729 0.15410586879533311 0 0.040325997995362128 0.14440334391350099 0 0.029372494374312729 0.15410586879533311 0 0.04813315871709322 0.1541455757588851 0 0.040325997995362128 0.14440334391350099 0 0.04813315871709322 0.1541455757588851 0 0.050215372913412007 0.1458935282758238 0 0.040325997995362128 0.14440334391350099 0 0.025149977659741599 0.24684982625080901 0 0.00014186162909880781 0.2338185852574263 0 0.02177620002751179 0.22559840920251981 0 0.025149977659741599 0.24684982625080901 0 0.00014186162909880781 0.2338185852574263 0 0.025149977659741599 0.24684982625080901 0 0.00014186162909880781 0.2338185852574263 0 0.0073806355134042019 0.25529449578482938 0 0.00014186162909880781 0.2338185852574263 0 0.02177620002751179 0.22559840920251981 0 0.0090806704795409685 0.20996839310177981 0 0.025149977659741599 0.24684982625080901 0 0.02177620002751179 0.22559840920251981 0 0.039960986899899173 0.22780444499479169 0 0.02177620002751179 0.22559840920251981 0 0.0090806704795409685 0.20996839310177981 0 0.034547503469278373 0.20955079640779209 0 0.0090806704795409685 0.20996839310177981 0 0.02162293693503077 0.1981024475624624 0 0.034547503469278373 0.20955079640779209 0 -0.0057956805663459468 0.1892940575843915 0 0.0090806704795409685 0.20996839310177981 0 0.02162293693503077 0.1981024475624624 0 -0.0057956805663459468 0.1892940575843915 0 0.020045678312652242 0.18090880435863019 0 0.02162293693503077 0.1981024475624624 0 0.020045678312652242 0.18090880435863019 0 0.02162293693503077 0.1981024475624624 0 0.041991232206495782 0.1919910870650737 0 0.02162293693503077 0.1981024475624624 0 0.041991232206495782 0.1919910870650737 0 0.034547503469278373 0.20955079640779209 0 0.041991232206495782 0.1919910870650737 0 0.05849467095877426 0.1965416733816682 0 0.050764695011206777 0.20916964222725651 0 0.060802696405823108 0.1787365445376432 0 0.041991232206495782 0.1919910870650737 0 0.05849467095877426 0.1965416733816682 0 0.050764695011206777 0.20916964222725651 0 0.066981886553135278 0.20878848804672309 0 0.05849467095877426 0.1965416733816682 0 0.050764695011206777 0.20916964222725651 0 0.066981886553135278 0.20878848804672309 0 0.050764695011206777 0.20916964222725651 0 0.061514006406540499 0.23071042489022231 0 0.066981886553135278 0.20878848804672309 0 0.050764695011206777 0.20916964222725651 0 0.034547503469278373 0.20955079640779209 0 0.039960986899899173 0.22780444499479169 0 0.050764695011206777 0.20916964222725651 0 0.034547503469278373 0.20955079640779209 0 0.041991232206495782 0.1919910870650737 0 0.050764695011206777 0.20916964222725651 0 0.034547503469278373 0.20955079640779209 0 0.02177620002751179 0.22559840920251981 0 0.034547503469278373 0.20955079640779209 0 0.039960986899899173 0.22780444499479169 0 0.039960986899899173 0.22780444499479169 0 0.061514006406540499 0.23071042489022231 0 0.045472231705318063 0.24424317023843681 0 0.050764695011206777 0.20916964222725651 0 0.039960986899899173 0.22780444499479169 0 0.061514006406540499 0.23071042489022231 0 0.061514006406540499 0.23071042489022231 0 0.056046126259945157 0.25263236173372139 0 0.061514006406540499 0.23071042489022231 0 0.056046126259945157 0.25263236173372139 0 0.067905867336300579 0.25358800162702 0 0.061514006406540499 0.23071042489022231 0 0.045472231705318063 0.24424317023843681 0 0.056046126259945157 0.25263236173372139 0 0.025149977659741599 0.24684982625080901 0 0.039960986899899173 0.22780444499479169 0 0.045472231705318063 0.24424317023843681 0 0.092857250133516089 0.24175825718487831 0 0.078525547080241467 0.2465942846531784 0 0.093798877441032588 0.2579700649065903 0 0.092857250133516089 0.24175825718487831 0 0.078525547080241467 0.2465942846531784 0 0.081986142109724491 0.22560265144644431 0 0.061514006406540499 0.23071042489022231 0 0.078525547080241467 0.2465942846531784 0 0.067905867336300579 0.25358800162702 0 0.061514006406540499 0.23071042489022231 0 0.078525547080241467 0.2465942846531784 0 0.081986142109724491 0.22560265144644431 0 0.061514006406540499 0.23071042489022231 0 0.081986142109724491 0.22560265144644431 0 0.066981886553135278 0.20878848804672309 0 0.061514006406540499 0.23071042489022231 0 0.066981886553135278 0.20878848804672309 0 0.081986142109724491 0.22560265144644431 0 0.09236794217301933 0.20819183719001669 0 0.066981886553135278 0.20878848804672309 0 0.09236794217301933 0.20819183719001669 0 0.066981886553135278 0.20878848804672309 0 0.09236794217301933 0.20819183719001669 0 0.066981886553135278 0.20878848804672309 0 0.071445073857882777 0.19089458628000441 0 0.060802696405823108 0.1787365445376432 0 0.05849467095877426 0.1965416733816682 0 0.071445073857882777 0.19089458628000441 0 0.066981886553135278 0.20878848804672309 0 0.071445073857882777 0.19089458628000441 0 0.05849467095877426 0.1965416733816682 0 0.066981886553135278 0.20878848804672309 0 0.071445073857882777 0.19089458628000441 0 0.09236794217301933 0.20819183719001669 0 0.071445073857882777 0.19089458628000441 0 0.086464584236575506 0.1862285865309723 0 0.09236794217301933 0.20819183719001669 0 0.086464584236575506 0.1862285865309723 0 0.1023855527362314 0.18749689463882899 0 0.09236794217301933 0.20819183719001669 0 0.11775399779290339 0.20759518633331239 0 0.1023855527362314 0.18749689463882899 0 0.11775399779290339 0.20759518633331239 0 0.1023855527362314 0.18749689463882899 0 0.12550986450034471 0.186594373040398 0 0.09236794217301933 0.20819183719001669 0 0.11775399779290339 0.20759518633331239 0 0.09236794217301933 0.20819183719001669 0 0.11775399779290339 0.20759518633331239 0 0.10906069526472741 0.22998953009969161 0 0.092857250133516089 0.24175825718487831 0 0.081986142109724491 0.22560265144644431 0 0.10906069526472741 0.22998953009969161 0 0.081986142109724491 0.22560265144644431 0 0.09236794217301933 0.20819183719001669 0 0.10906069526472741 0.22998953009969161 0 0.11775399779290339 0.20759518633331239 0 0.10906069526472741 0.22998953009969161 0 0.1382648444377183 0.22719855966067881 0 0.10906069526472741 0.22998953009969161 0 0.12787711237058769 0.24521089126939841 0 0.1100607559553454 0.25396994184181759 0 0.092857250133516089 0.24175825718487831 0 0.10906069526472741 0.22998953009969161 0 0.1100607559553454 0.25396994184181759 0 0.081151633673542972 0.15313158297098389 0 0.083920606388658545 0.14050817004821939 0 0.0975697549496468 0.15575304468134629 0 0.081151633673542972 0.15313158297098389 0 0.083920606388658545 0.14050817004821939 0 0.071387777285217918 0.15212681924726251 0 0.074154959480044275 0.1204842858357125 0 0.087075880893963842 0.12621803440601359 0 0.083920606388658545 0.14050817004821939 0 0.087075880893963842 0.12621803440601359 0 0.083920606388658545 0.14050817004821939 0 0.097906888154765004 0.1362305538396491 0 0.062159468211553673 0.13737243366585769 0 0.061109117960118017 0.12720913792676911 0 0.083920606388658545 0.14050817004821939 0 0.074154959480044275 0.1204842858357125 0 0.061109117960118017 0.12720913792676911 0 0.083920606388658545 0.14050817004821939 0 0.061109117960118017 0.12720913792676911 0 0.083920606388658545 0.14050817004821939 0 0.062159468211553673 0.13737243366585769 0 0.083920606388658545 0.14050817004821939 0 0.069449382678632612 0.1443580261181665 0 0.060329678829100349 0.1474246815113264 0 0.062159468211553673 0.13737243366585769 0 0.069449382678632612 0.1443580261181665 0 0.060329678829100349 0.1474246815113264 0 0.069449382678632612 0.1443580261181665 0 0.071387777285217918 0.15212681924726251 0 0.083920606388658545 0.14050817004821939 0 0.069449382678632612 0.1443580261181665 0 0.071387777285217918 0.15212681924726251 0 0.059657673584757237 0.15824269734654939 0 0.060329678829100349 0.1474246815113264 0 0.071387777285217918 0.15212681924726251 0 0.059657673584757237 0.15824269734654939 0 0.071387777285217918 0.15212681924726251 0 0.071728396070648653 0.1641382979071076 0 0.081151633673542972 0.15313158297098389 0 0.071387777285217918 0.15212681924726251 0 0.071728396070648653 0.1641382979071076 0 0.071445073857882777 0.19089458628000441 0 0.075908261162629706 0.17300068451328551 0 0.086464584236575506 0.1862285865309723 0 0.060802696405823108 0.1787365445376432 0 0.071445073857882777 0.19089458628000441 0 0.075908261162629706 0.17300068451328551 0 0.071445073857882777 0.19089458628000441 0 0.075908261162629706 0.17300068451328551 0 0.060802696405823108 0.1787365445376432 0 0.071728396070648653 0.1641382979071076 0 0.075908261162629706 0.17300068451328551 0 0.086464584236575506 0.1862285865309723 0 0.090216091253114361 0.17155893003272579 0 0.1023855527362314 0.18749689463882899 0 0.075908261162629706 0.17300068451328551 0 0.086464584236575506 0.1862285865309723 0 0.090216091253114361 0.17155893003272579 0 0.081151633673542972 0.15313158297098389 0 0.071728396070648653 0.1641382979071076 0 0.0975697549496468 0.15575304468134629 0 0.071728396070648653 0.1641382979071076 0 0.090216091253114361 0.17155893003272579 0 0.0975697549496468 0.15575304468134629 0 0.071728396070648653 0.1641382979071076 0 0.075908261162629706 0.17300068451328551 0 0.090216091253114361 0.17155893003272579 0 0.071728396070648653 0.1641382979071076 0 0.0975697549496468 0.15575304468134629 0 0.090216091253114361 0.17155893003272579 0 0.1064810698159025 0.16893633516972181 0 0.0975697549496468 0.15575304468134629 0 0.1064810698159025 0.16893633516972181 0 0.1067320948171991 0.1538072021696697 0 0.0975697549496468 0.15575304468134629 0 0.090216091253114361 0.17155893003272579 0 0.1064810698159025 0.16893633516972181 0 0.1023855527362314 0.18749689463882899 0 0.1064810698159025 0.16893633516972181 0 0.12954358324573961 0.16710623429112001 0 0.12550986450034471 0.186594373040398 0 0.1064810698159025 0.16893633516972181 0 0.1023855527362314 0.18749689463882899 0 0.12550986450034471 0.186594373040398 0 0.1064810698159025 0.16893633516972181 0 0.1067320948171991 0.1538072021696697 0 0.12954358324573961 0.16710623429112001 0 0.1067320948171991 0.1538072021696697 0 0.1262856736452258 0.1537478882528979 0 0.12954358324573961 0.16710623429112001 0 0.1067320948171991 0.1538072021696697 0 0.12954358324573961 0.16710623429112001 0 0.1148569119608701 0.14824987142416859 0 0.1067320948171991 0.1538072021696697 0 0.1262856736452258 0.1537478882528979 0 0.118317888191051 0.14254191757659121 0 0.1148569119608701 0.14824987142416859 0 0.1262856736452258 0.1537478882528979 0 0.118317888191051 0.14254191757659121 0 0.12756241452120801 0.13893694775055651 0 0.1262856736452258 0.1537478882528979 0 0.1148569119608701 0.14824987142416859 0 0.1067320948171991 0.1538072021696697 0 0.1080919911900045 0.14290247769751591 0 0.118317888191051 0.14254191757659121 0 0.1148569119608701 0.14824987142416859 0 0.1080919911900045 0.14290247769751591 0 0.083920606388658545 0.14050817004821939 0 0.1067320948171991 0.1538072021696697 0 0.1067320948171991 0.1538072021696697 0 0.1080919911900045 0.14290247769751591 0 0.097906888154765004 0.1362305538396491 0 0.083920606388658545 0.14050817004821939 0 0.1067320948171991 0.1538072021696697 0 0.097906888154765004 0.1362305538396491 0 0.083920606388658545 0.14050817004821939 0 0.1067320948171991 0.1538072021696697 0 0.0975697549496468 0.15575304468134629 0 0.096984900528893664 0.1212489081817222 0 0.097906888154765004 0.1362305538396491 0 0.10589272808503949 0.13156516273042271 0 0.096984900528893664 0.1212489081817222 0 0.087075880893963842 0.12621803440601359 0 0.097906888154765004 0.1362305538396491 0 0.1080919911900045 0.14290247769751591 0 0.097906888154765004 0.1362305538396491 0 0.10589272808503949 0.13156516273042271 0 0.1080919911900045 0.14290247769751591 0 0.10589272808503949 0.13156516273042271 0 0.11327312463209829 0.13597294690712769 0 0.10712684862241641 0.1210429748963526 0 0.10589272808503949 0.13156516273042271 0 0.114987521205969 0.1268010028982309 0 0.10589272808503949 0.13156516273042271 0 0.114987521205969 0.1268010028982309 0 0.11327312463209829 0.13597294690712769 0 0.114987521205969 0.1268010028982309 0 0.11327312463209829 0.13597294690712769 0 0.1203000125167645 0.13336293759413789 0 0.118317888191051 0.14254191757659121 0 0.1080919911900045 0.14290247769751591 0 0.11327312463209829 0.13597294690712769 0 0.118317888191051 0.14254191757659121 0 0.1203000125167645 0.13336293759413789 0 0.12756241452120801 0.13893694775055651 0 0.118317888191051 0.14254191757659121 0 0.11327312463209829 0.13597294690712769 0 0.1203000125167645 0.13336293759413789 0 0.12212988809696081 0.1249307776834532 0 0.114987521205969 0.1268010028982309 0 0.1203000125167645 0.13336293759413789 0 0.12212988809696081 0.1249307776834532 0 0.1203000125167645 0.13336293759413789 0 0.12788127083107459 0.1291064789800366 0 0.12788127083107459 0.1291064789800366 0 0.13409394305489639 0.1257339851238449 0 0.12813823657366311 0.12049833089676459 0 0.12788127083107459 0.1291064789800366 0 0.13410827310584911 0.13282331674432049 0 0.13409394305489639 0.1257339851238449 0 0.12788127083107459 0.1291064789800366 0 0.12756241452120801 0.13893694775055651 0 0.13410827310584911 0.13282331674432049 0 0.1203000125167645 0.13336293759413789 0 0.12788127083107459 0.1291064789800366 0 0.12756241452120801 0.13893694775055651 0 0.13410827310584911 0.13282331674432049 0 0.14295710802469111 0.12768772724150559 0 0.13848136883728299 0.14203914735535511 0 0.12756241452120801 0.13893694775055651 0 0.13410827310584911 0.13282331674432049 0 0.13848136883728299 0.14203914735535511 0 0.13410827310584911 0.13282331674432049 0 0.13409394305489639 0.1257339851238449 0 0.14295710802469111 0.12768772724150559 0 0.14295710802469111 0.12768772724150559 0 0.15698787762036359 0.14007723406829989 0 0.15364605026385231 0.1227496740475859 0 0.14295710802469111 0.12768772724150559 0 0.13848136883728299 0.14203914735535511 0 0.15698787762036359 0.14007723406829989 0 0.13848136883728299 0.14203914735535511 0 0.1441447949138806 0.1573716891147208 0 0.15698787762036359 0.14007723406829989 0 0.1441447949138806 0.1573716891147208 0 0.1598153361361678 0.15982657838785511 0 0.15698787762036359 0.14007723406829989 0 0.13848136883728299 0.14203914735535511 0 0.1262856736452258 0.1537478882528979 0 0.1441447949138806 0.1573716891147208 0 0.12756241452120801 0.13893694775055651 0 0.13848136883728299 0.14203914735535511 0 0.1262856736452258 0.1537478882528979 0 0.1262856736452258 0.1537478882528979 0 0.12954358324573961 0.16710623429112001 0 0.1441447949138806 0.1573716891147208 0 0.12954358324573961 0.16710623429112001 0 0.12550986450034471 0.186594373040398 0 0.15375492999850379 0.1814330523327968 0 0.12954358324573961 0.16710623429112001 0 0.15375492999850379 0.1814330523327968 0 0.1441447949138806 0.1573716891147208 0 0.15375492999850379 0.1814330523327968 0 0.1441447949138806 0.1573716891147208 0 0.1598153361361678 0.15982657838785511 0 0.1598153361361678 0.15982657838785511 0 0.17205847002769489 0.1711246398383999 0 0.17247097746626519 0.1464629757798975 0 0.15375492999850379 0.1814330523327968 0 0.1598153361361678 0.15982657838785511 0 0.17205847002769489 0.1711246398383999 0 0.15375492999850379 0.1814330523327968 0 0.17205847002769489 0.1711246398383999 0 0.18411838942066619 0.18828130780555291 0 0.17205847002769489 0.1711246398383999 0 0.18411838942066619 0.18828130780555291 0 0.19050902449260759 0.164433536692701 0 0.17205847002769489 0.1711246398383999 0 0.17247097746626519 0.1464629757798975 0 0.19050902449260759 0.164433536692701 0 0.17247097746626519 0.1464629757798975 0 0.1903693880120208 0.14015559280000461 0 0.19050902449260759 0.164433536692701 0 0.17247097746626519 0.1464629757798975 0 0.18002451345814399 0.12716596121819479 0 0.1903693880120208 0.14015559280000461 0 0.17247097746626519 0.1464629757798975 0 0.18002451345814399 0.12716596121819479 0 0.16417220099380411 0.12505127510387981 0 0.15698787762036359 0.14007723406829989 0 0.16417220099380411 0.12505127510387981 0 0.15364605026385231 0.1227496740475859 0 0.17247097746626519 0.1464629757798975 0 0.15698787762036359 0.14007723406829989 0 0.16417220099380411 0.12505127510387981 0 0.1598153361361678 0.15982657838785511 0 0.17247097746626519 0.1464629757798975 0 0.15698787762036359 0.14007723406829989 0 0.14702044576598061 0.2478904659134552 0 0.1382648444377183 0.22719855966067881 0 0.15828943790025421 0.22969507774947781 0 0.14702044576598061 0.2478904659134552 0 0.12787711237058769 0.24521089126939841 0 0.1382648444377183 0.22719855966067881 0 0.10906069526472741 0.22998953009969161 0 0.12787711237058769 0.24521089126939841 0 0.1382648444377183 0.22719855966067881 0 0.1382648444377183 0.22719855966067881 0 0.14314005341278749 0.20699853547660821 0 0.15828943790025421 0.22969507774947781 0 0.14314005341278749 0.20699853547660821 0 0.16852610903267151 0.206401884619904 0 0.11775399779290339 0.20759518633331239 0 0.1382648444377183 0.22719855966067881 0 0.14314005341278749 0.20699853547660821 0 0.11775399779290339 0.20759518633331239 0 0.14314005341278749 0.20699853547660821 0 0.11775399779290339 0.20759518633331239 0 0.12550986450034471 0.186594373040398 0 0.14314005341278749 0.20699853547660821 0 0.15375492999850379 0.1814330523327968 0 0.14314005341278749 0.20699853547660821 0 0.16852610903267151 0.206401884619904 0 0.12550986450034471 0.186594373040398 0 0.15375492999850379 0.1814330523327968 0 0.14314005341278749 0.20699853547660821 0 0.15375492999850379 0.1814330523327968 0 0.18411838942066619 0.18828130780555291 0 0.16852610903267151 0.206401884619904 0 0.18411838942066619 0.18828130780555291 0 0.16852610903267151 0.206401884619904 0 0.1878214256448299 0.20672411698152671 0 0.16852610903267151 0.206401884619904 0 0.17766068788986381 0.23020170431202469 0 0.1878214256448299 0.20672411698152671 0 0.14314005341278749 0.20699853547660821 0 0.16852610903267151 0.206401884619904 0 0.15828943790025421 0.22969507774947781 0 0.16852610903267151 0.206401884619904 0 0.15828943790025421 0.22969507774947781 0 0.17766068788986381 0.23020170431202469 0 0.17766068788986381 0.23020170431202469 0 0.19353513124668931 0.22246748781277501 0 0.1878214256448299 0.20672411698152671 0 0.17766068788986381 0.23020170431202469 0 0.18692125413578081 0.24552837502103991 0 0.19379669244916639 0.23440003217329089 0 0.17766068788986381 0.23020170431202469 0 0.18692125413578081 0.24552837502103991 0 0.16774616909827719 0.2460930353984315 0 0.15828943790025421 0.22969507774947781 0 0.17766068788986381 0.23020170431202469 0 0.16774616909827719 0.2460930353984315 0 0.14702044576598061 0.2478904659134552 0 0.15828943790025421 0.22969507774947781 0 0.16774616909827719 0.2460930353984315 0 0.21557305570370441 0.24515722135805329 0 0.2029257889591993 0.24295866219667439 0 0.23007231546290949 0.2334513308517342 0 0.2029257889591993 0.24295866219667439 0 0.23007231546290949 0.2334513308517342 0 0.21557305570370441 0.24515722135805329 0 0.2029257889591993 0.24295866219667439 0 0.20107379594449931 0.25686311186437227 0 0.18692125413578081 0.24552837502103991 0 0.2029257889591993 0.24295866219667439 0 0.20107379594449931 0.25686311186437227 0 0.18692125413578081 0.24552837502103991 0 0.19379669244916639 0.23440003217329089 0 0.2029257889591993 0.24295866219667439 0 0.17766068788986381 0.23020170431202469 0 0.19379669244916639 0.23440003217329089 0 0.19353513124668931 0.22246748781277501 0 0.19379669244916639 0.23440003217329089 0 0.2029257889591993 0.24295866219667439 0 0.20920449219815451 0.22515354045629349 0 0.19379669244916639 0.23440003217329089 0 0.19353513124668931 0.22246748781277501 0 0.20920449219815451 0.22515354045629349 0 0.2029257889591993 0.24295866219667439 0 0.20920449219815451 0.22515354045629349 0 0.23007231546290949 0.2334513308517342 0 0.19353513124668931 0.22246748781277501 0 0.20920449219815451 0.22515354045629349 0 0.20732414099141369 0.20672295990195361 0 0.20920449219815451 0.22515354045629349 0 0.20732414099141369 0.20672295990195361 0 0.22783619495118521 0.20973527166224001 0 0.19353513124668931 0.22246748781277501 0 0.20732414099141369 0.20672295990195361 0 0.1878214256448299 0.20672411698152671 0 0.18411838942066619 0.18828130780555291 0 0.1878214256448299 0.20672411698152671 0 0.20343121377691101 0.18825927067945539 0 0.20732414099141369 0.20672295990195361 0 0.1878214256448299 0.20672411698152671 0 0.20343121377691101 0.18825927067945539 0 0.20732414099141369 0.20672295990195361 0 0.20343121377691101 0.18825927067945539 0 0.2219787971027708 0.18678942035429349 0 0.20732414099141369 0.20672295990195361 0 0.22783619495118521 0.20973527166224001 0 0.2219787971027708 0.18678942035429349 0 0.24528107816237801 0.1907036486386274 0 0.22783619495118521 0.20973527166224001 0 0.2219787971027708 0.18678942035429349 0 0.24528107816237801 0.1907036486386274 0 0.25242827713160498 0.21540237912569379 0 0.24528107816237801 0.1907036486386274 0 0.22783619495118521 0.20973527166224001 0 0.25242827713160498 0.21540237912569379 0 0.20920449219815451 0.22515354045629349 0 0.22783619495118521 0.20973527166224001 0 0.23007231546290949 0.2334513308517342 0 0.23007231546290949 0.2334513308517342 0 0.25242827713160498 0.21540237912569379 0 0.23007231546290949 0.2334513308517342 0 0.25511338863332461 0.22468137717712711 0 0.25242827713160498 0.21540237912569379 0 0.23007231546290949 0.2334513308517342 0 0.25511338863332461 0.22468137717712711 0 0.23007231546290949 0.2334513308517342 0 0.2457442494512444 0.24022391879071339 0 0.25511338863332461 0.22468137717712711 0 0.22783619495118521 0.20973527166224001 0 0.23007231546290949 0.2334513308517342 0 0.25242827713160498 0.21540237912569379 0 0.2457442494512444 0.24022391879071339 0 0.23628031136540401 0.25597328662156199 0 0.26221447651104962 0.2479993693513689 0 0.23007231546290949 0.2334513308517342 0 0.2457442494512444 0.24022391879071339 0 0.23628031136540401 0.25597328662156199 0 0.21557305570370441 0.24515722135805329 0 0.23007231546290949 0.2334513308517342 0 0.23628031136540401 0.25597328662156199 0 0.21557305570370441 0.24515722135805329 0 0.23007231546290949 0.2334513308517342 0 0.21023583046185859 0.14706018503428281 0 0.22521494488481819 0.12557893006429149 0 0.2001236667938262 0.1180422718546187 0 0.18002451345814399 0.12716596121819479 0 0.1903693880120208 0.14015559280000461 0 0.2001236667938262 0.1180422718546187 0 0.21023583046185859 0.14706018503428281 0 0.1903693880120208 0.14015559280000461 0 0.2001236667938262 0.1180422718546187 0 0.21023583046185859 0.14706018503428281 0 0.1903693880120208 0.14015559280000461 0 0.19050902449260759 0.164433536692701 0 0.18411838942066619 0.18828130780555291 0 0.20343121377691101 0.18825927067945539 0 0.19050902449260759 0.164433536692701 0 0.20343121377691101 0.18825927067945539 0 0.19050902449260759 0.164433536692701 0 0.20962662881846919 0.1707346457134423 0 0.20343121377691101 0.18825927067945539 0 0.20962662881846919 0.1707346457134423 0 0.2219787971027708 0.18678942035429349 0 0.21023583046185859 0.14706018503428281 0 0.20962662881846919 0.1707346457134423 0 0.2254160648188453 0.164078398330023 0 0.21023583046185859 0.14706018503428281 0 0.19050902449260759 0.164433536692701 0 0.20962662881846919 0.1707346457134423 0 0.20962662881846919 0.1707346457134423 0 0.2254160648188453 0.164078398330023 0 0.2219787971027708 0.18678942035429349 0 0.2254160648188453 0.164078398330023 0 0.2219787971027708 0.18678942035429349 0 0.23714843650665229 0.1758398884969993 0 0.24528107816237801 0.1907036486386274 0 0.2219787971027708 0.18678942035429349 0 0.23714843650665229 0.1758398884969993 0 0.24528107816237801 0.1907036486386274 0 0.23714843650665229 0.1758398884969993 0 0.25292738168467233 0.17649485219682931 0 0.2254160648188453 0.164078398330023 0 0.24653130607993951 0.16237692388552691 0 0.23688534306575301 0.1458043597726891 0 0.23714843650665229 0.1758398884969993 0 0.24653130607993951 0.16237692388552691 0 0.25292738168467233 0.17649485219682931 0 0.2254160648188453 0.164078398330023 0 0.23714843650665229 0.1758398884969993 0 0.24653130607993951 0.16237692388552691 0 0.24653130607993951 0.16237692388552691 0 0.2496536413094039 0.15044712256699261 0 0.23688534306575301 0.1458043597726891 0 0.2496536413094039 0.15044712256699261 0 0.23688534306575301 0.1458043597726891 0 0.25004344172447263 0.14019424959050239 0 0.21023583046185859 0.14706018503428281 0 0.2254160648188453 0.164078398330023 0 0.23688534306575301 0.1458043597726891 0 0.21023583046185859 0.14706018503428281 0 0.23688534306575301 0.1458043597726891 0 0.22521494488481819 0.12557893006429149 0 0.22521494488481819 0.12557893006429149 0 0.25030622297580962 0.13311558827396619 0 0.23688534306575301 0.1458043597726891 0 0.22521494488481819 0.12557893006429149 0 0.25030622297580962 0.13311558827396619 0 0.23688534306575301 0.1458043597726891 0 0.25004344172447263 0.14019424959050239 0 0.25030622297580962 0.13311558827396619 0 0.22521494488481819 0.12557893006429149 0 0.2369469616243938 0.1144798656387125 0 0.25030622297580962 0.13311558827396619 0 0.2369469616243938 0.1144798656387125 0 0.25094552198087999 0.11589449234768209 0 0.25030622297580962 0.13311558827396619 0 0.2369469616243938 0.1144798656387125 0 0.25158482098595109 0.098673396421397969 0 0.25094552198087999 0.11589449234768209 0 0.2369469616243938 0.1144798656387125 0 0.2308580048349978 0.09939168424622695 0 0.25158482098595109 0.098673396421397969 0 0.2308580048349978 0.09939168424622695 0 0.2177667053289645 0.10879872465146249 0 0.21723881235993189 0.092441087960636145 0 0.2369469616243938 0.1144798656387125 0 0.2308580048349978 0.09939168424622695 0 0.2177667053289645 0.10879872465146249 0 0.22521494488481819 0.12557893006429149 0 0.2369469616243938 0.1144798656387125 0 0.2177667053289645 0.10879872465146249 0 0.2177667053289645 0.10879872465146249 0 0.1970849337058638 0.1019164286603922 0 0.2001236667938262 0.1180422718546187 0 0.22521494488481819 0.12557893006429149 0 0.2177667053289645 0.10879872465146249 0 0.2001236667938262 0.1180422718546187 0 0.22521494488481819 0.12557893006429149 0 0.2001236667938262 0.1180422718546187 0 0.1970849337058638 0.1019164286603922 0 0.20420713705815571 0.090978010823124941 0 0.21723881235993189 0.092441087960636145 0 0.1970849337058638 0.1019164286603922 0 0.21723881235993189 0.092441087960636145 0 0.2177667053289645 0.10879872465146249 0 0.1970849337058638 0.1019164286603922 0 0.21723881235993189 0.092441087960636145 0 0.1970849337058638 0.1019164286603922 0 0.1916307843626972 0.08827444688259839 0 0.17503238870283441 0.11050561364494491 0 0.2001236667938262 0.1180422718546187 0 0.17503238870283441 0.11050561364494491 0 0.1970849337058638 0.1019164286603922 0 0.2001236667938262 0.1180422718546187 0 0.17503238870283441 0.11050561364494491 0 0.1916307843626972 0.08827444688259839 0 0.2082291800225603 0.066043280120252124 0 0.19067723801237901 0.065525043857756982 0 0.1916307843626972 0.08827444688259839 0 0.2082291800225603 0.066043280120252124 0 0.1916307843626972 0.08827444688259839 0 0.21087401780412959 0.081280079788873041 0 0.20420713705815571 0.090978010823124941 0 0.1970849337058638 0.1019164286603922 0 0.1916307843626972 0.08827444688259839 0 0.20420713705815571 0.090978010823124941 0 0.1916307843626972 0.08827444688259839 0 0.21087401780412959 0.081280079788873041 0 0.2082291800225603 0.066043280120252124 0 0.21087401780412959 0.081280079788873041 0 0.20420713705815571 0.090978010823124941 0 0.21723881235993189 0.092441087960636145 0 0.21087401780412959 0.081280079788873041 0 0.21723881235993189 0.092441087960636145 0 0.22613356481757629 0.0775902723280468 0 0.21087401780412959 0.081280079788873041 0 0.2082291800225603 0.066043280120252124 0 0.22613356481757629 0.0775902723280468 0 0.2082291800225603 0.066043280120252124 0 0.22613356481757629 0.0775902723280468 0 0.2082291800225603 0.066043280120252124 0 0.2259496113806885 0.070300708218039992 0 0.21450653174737461 0.057635669175196122 0 0.2259496113806885 0.070300708218039992 0 0.21450653174737461 0.057635669175196122 0 0.2082291800225603 0.066043280120252124 0 0.2259496113806885 0.070300708218039992 0 0.22613356481757629 0.0775902723280468 0 0.2259496113806885 0.070300708218039992 0 0.2248665156508784 0.061611733455129589 0 0.21450653174737461 0.057635669175196122 0 0.2259496113806885 0.070300708218039992 0 0.22613356481757629 0.0775902723280468 0 0.23739269101400209 0.082965747260884265 0 0.2259496113806885 0.070300708218039992 0 0.23739269101400209 0.082965747260884265 0 0.237967452106535 0.070105640596903412 0 0.2259496113806885 0.070300708218039992 0 0.23739269101400209 0.082965747260884265 0 0.2259496113806885 0.070300708218039992 0 0.2330718446673557 0.064441819436705627 0 0.2248665156508784 0.061611733455129589 0 0.2259496113806885 0.070300708218039992 0 0.2330718446673557 0.064441819436705627 0 0.237967452106535 0.070105640596903412 0 0.2308580048349978 0.09939168424622695 0 0.21723881235993189 0.092441087960636145 0 0.23739269101400209 0.082965747260884265 0 0.21723881235993189 0.092441087960636145 0 0.22613356481757629 0.0775902723280468 0 0.23739269101400209 0.082965747260884265 0 0.21723881235993189 0.092441087960636145 0 0.23739269101400209 0.082965747260884265 0 0.23739269101400209 0.082965747260884265 0 0.25158482098595109 0.098673396421397969 0 0.23739269101400209 0.082965747260884265 0 0.25243039498113262 0.075895774732197205 0 0.25158482098595109 0.098673396421397969 0 0.2308580048349978 0.09939168424622695 0 0.23739269101400209 0.082965747260884265 0 0.25158482098595109 0.098673396421397969 0 0.23739269101400209 0.082965747260884265 0 0.25243039498113262 0.075895774732197205 0 0.23934469018649959 0.064583282500140851 0 0.237967452106535 0.070105640596903412 0 0.24496427956833819 0.066036472520138348 0 0.2330718446673557 0.064441819436705627 0 0.23934469018649959 0.064583282500140851 0 0.2376257901407148 0.059976102198904507 0 0.2330718446673557 0.064441819436705627 0 0.23934469018649959 0.064583282500140851 0 0.237967452106535 0.070105640596903412 0 0.23739269101400209 0.082965747260884265 0 0.237967452106535 0.070105640596903412 0 0.24429048066179679 0.072622021298478806 0 0.24429048066179679 0.072622021298478806 0 0.24842415088314279 0.069033451464499671 0 0.25243039498113262 0.075895774732197205 0 0.23739269101400209 0.082965747260884265 0 0.24429048066179679 0.072622021298478806 0 0.25243039498113262 0.075895774732197205 0 0.24842415088314279 0.069033451464499671 0 0.24853219730195361 0.063845178725116872 0 0.25274476311700622 0.067427493409812952 0 0.237967452106535 0.070105640596903412 0 0.24429048066179679 0.072622021298478806 0 0.24496427956833819 0.066036472520138348 0 0.24429048066179679 0.072622021298478806 0 0.24842415088314279 0.069033451464499671 0 0.24496427956833819 0.066036472520138348 0 0.23934469018649959 0.064583282500140851 0 0.24496427956833819 0.066036472520138348 0 0.24309408444955441 0.062356377748052388 0 0.24496427956833819 0.066036472520138348 0 0.24602681454492631 0.062964227281045088 0 0.24309408444955441 0.062356377748052388 0 0.24496427956833819 0.066036472520138348 0 0.24602681454492631 0.062964227281045088 0 0.24853219730195361 0.063845178725116872 0 0.24842415088314279 0.069033451464499671 0 0.24496427956833819 0.066036472520138348 0 0.24853219730195361 0.063845178725116872 0 0.24751669685985911 0.059618880130872708 0 0.24309408444955441 0.062356377748052388 0 0.2376257901407148 0.059976102198904507 0 0.24751669685985911 0.059618880130872708 0 0.24426241142214139 0.049994713685017962 0 0.2310385276818335 0.053106641608170198 0 0.24751669685985911 0.059618880130872708 0 0.2376257901407148 0.059976102198904507 0 0.2310385276818335 0.053106641608170198 0 0.24751669685985911 0.059618880130872708 0 0.2310385276818335 0.053106641608170198 0 0.24853219730195361 0.063845178725116872 0 0.24751669685985911 0.059618880130872708 0 0.2530174900015254 0.0600809219264858 0 0.24602681454492631 0.062964227281045088 0 0.24853219730195361 0.063845178725116872 0 0.24751669685985911 0.059618880130872708 0 0.24602681454492631 0.062964227281045088 0 0.24751669685985911 0.059618880130872708 0 0.24309408444955441 0.062356377748052388 0 0.23934469018649959 0.064583282500140851 0 0.24309408444955441 0.062356377748052388 0 0.2376257901407148 0.059976102198904507 0 0.24426241142214139 0.049994713685017962 0 0.23928634064401511 0.040096757013566242 0 0.2310385276818335 0.053106641608170198 0 0.24751669685985911 0.059618880130872708 0 0.24426241142214139 0.049994713685017962 0 0.25102243244437311 0.053297338652025752 0 0.24426241142214139 0.049994713685017962 0 0.25174039047255609 0.044464402284776217 0 0.25102243244437311 0.053297338652025752 0 0.23928634064401511 0.040096757013566242 0 0.2320502206633881 0.021165953515508481 0 0.25044211127373811 0.032849993626191502 0 0.23928634064401511 0.040096757013566242 0 0.25044211127373811 0.032849993626191502 0 0.25174039047255609 0.044464402284776217 0 0.24426241142214139 0.049994713685017962 0 0.23928634064401511 0.040096757013566242 0 0.25174039047255609 0.044464402284776217 0 0.22618438235043381 0.038998837361733103 0 0.2320502206633881 0.021165953515508481 0 0.20963369093729961 0.03941564640516447 0 0.23928634064401511 0.040096757013566242 0 0.22618438235043381 0.038998837361733103 0 0.2320502206633881 0.021165953515508481 0 0.22618438235043381 0.038998837361733103 0 0.2310385276818335 0.053106641608170198 0 0.21456035850380811 0.046594403085467223 0 0.23928634064401511 0.040096757013566242 0 0.22618438235043381 0.038998837361733103 0 0.2310385276818335 0.053106641608170198 0 0.2310385276818335 0.053106641608170198 0 0.21456035850380811 0.046594403085467223 0 0.2248665156508784 0.061611733455129589 0 0.2310385276818335 0.053106641608170198 0 0.21456035850380811 0.046594403085467223 0 0.2248665156508784 0.061611733455129589 0 0.21456035850380811 0.046594403085467223 0 0.2330718446673557 0.064441819436705627 0 0.2248665156508784 0.061611733455129589 0 0.23150027442910881 0.059501590197602497 0 0.2248665156508784 0.061611733455129589 0 0.23150027442910881 0.059501590197602497 0 0.2310385276818335 0.053106641608170198 0 0.2330718446673557 0.064441819436705627 0 0.2376257901407148 0.059976102198904507 0 0.23150027442910881 0.059501590197602497 0 0.2376257901407148 0.059976102198904507 0 0.23150027442910881 0.059501590197602497 0 0.2310385276818335 0.053106641608170198 0 0.2320502206633881 0.021165953515508481 0 0.22999165343287109 0.0038227322559807589 0 0.25446675038947358 0.0029162606258486688 0 0.2320502206633881 0.021165953515508481 0 0.2600935707136679 0.019574361616358959 0 0.25446675038947358 0.0029162606258486688 0 0.22999165343287109 0.0038227322559807589 0 0.25446675038947358 0.0029162606258486688 0 0.24138147174972829 -0.0061427828714447699 0 0.2320502206633881 0.021165953515508481 0 0.25446675038947358 0.0029162606258486688 0 0.2320502206633881 0.021165953515508481 0 0.2600935707136679 0.019574361616358959 0 0.25044211127373811 0.032849993626191502 0 0.2320502206633881 0.021165953515508481 0 0.20963369093729961 0.03941564640516447 0 0.22999165343287109 0.0038227322559807589 0 0.21340461703840111 0.0096506044731711187 0 0.21351355446813719 -0.0021103410187178909 0 0.2320502206633881 0.021165953515508481 0 0.22999165343287109 0.0038227322559807589 0 0.21340461703840111 0.0096506044731711187 0 0.21340461703840111 0.0096506044731711187 0 0.1998105265397013 0.00335350757378736 0 0.21351355446813719 -0.0021103410187178909 0 0.21340461703840111 0.0096506044731711187 0 0.20371525389429951 0.01279949030761077 0 0.2082588668535221 0.02245160931237615 0 0.21340461703840111 0.0096506044731711187 0 0.20371525389429951 0.01279949030761077 0 0.1998105265397013 0.00335350757378736 0 0.2320502206633881 0.021165953515508481 0 0.2082588668535221 0.02245160931237615 0 0.20963369093729961 0.03941564640516447 0 0.2320502206633881 0.021165953515508481 0 0.21340461703840111 0.0096506044731711187 0 0.2082588668535221 0.02245160931237615 0 0.2082588668535221 0.02245160931237615 0 0.19338700514557339 0.015742239871108451 0 0.20963369093729961 0.03941564640516447 0 0.19338700514557339 0.015742239871108451 0 0.1989601287501698 0.040429129743079398 0 0.18048502430789731 0.01998114488410483 0 0.1989601287501698 0.040429129743079398 0 0.18048502430789731 0.01998114488410483 0 0.19338700514557339 0.015742239871108451 0 0.20963369093729961 0.03941564640516447 0 0.20371525389429951 0.01279949030761077 0 0.2082588668535221 0.02245160931237615 0 0.19338700514557339 0.015742239871108451 0 0.19338700514557339 0.015742239871108451 0 0.1998105265397013 0.00335350757378736 0 0.17714031935384769 -0.0079311666629475405 0 0.20371525389429951 0.01279949030761077 0 0.19338700514557339 0.015742239871108451 0 0.1998105265397013 0.00335350757378736 0 0.21450653174737461 0.057635669175196122 0 0.2029561920580818 0.044851916216142339 0 0.21450653174737461 0.057635669175196122 0 0.2029561920580818 0.044851916216142339 0 0.2021088015620611 0.053433964061651712 0 0.21450653174737461 0.057635669175196122 0 0.21456035850380811 0.046594403085467223 0 0.2029561920580818 0.044851916216142339 0 0.2082291800225603 0.066043280120252124 0 0.21450653174737461 0.057635669175196122 0 0.2021088015620611 0.053433964061651712 0 0.2248665156508784 0.061611733455129589 0 0.21450653174737461 0.057635669175196122 0 0.21456035850380811 0.046594403085467223 0 0.2082291800225603 0.066043280120252124 0 0.21450653174737461 0.057635669175196122 0 0.22618438235043381 0.038998837361733103 0 0.21456035850380811 0.046594403085467223 0 0.20963369093729961 0.03941564640516447 0 0.21456035850380811 0.046594403085467223 0 0.20963369093729961 0.03941564640516447 0 0.21456035850380811 0.046594403085467223 0 0.20530753189452691 0.042937648913457381 0 0.2029561920580818 0.044851916216142339 0 0.20963369093729961 0.03941564640516447 0 0.20530753189452691 0.042937648913457381 0 0.1989601287501698 0.040429129743079398 0 0.21456035850380811 0.046594403085467223 0 0.20530753189452691 0.042937648913457381 0 0.21456035850380811 0.046594403085467223 0 0.20963369093729961 0.03941564640516447 0 0.20530753189452691 0.042937648913457381 0 0.20963369093729961 0.03941564640516447 0 0.20530753189452691 0.042937648913457381 0 0.20530753189452691 0.042937648913457381 0 0.2029561920580818 0.044851916216142339 0 0.1989601287501698 0.040429129743079398 0 0.1774654858828027 0.031934360706524292 0 0.2029561920580818 0.044851916216142339 0 0.1989601287501698 0.040429129743079398 0 0.19971656766465989 0.047489351670260083 0 0.1989601287501698 0.040429129743079398 0 0.19133087755196571 0.045131483978966998 0 0.19971656766465989 0.047489351670260083 0 0.2029561920580818 0.044851916216142339 0 0.19971656766465989 0.047489351670260083 0 0.19338700514557339 0.015742239871108451 0 0.20963369093729961 0.03941564640516447 0 0.1989601287501698 0.040429129743079398 0 0.1989601287501698 0.040429129743079398 0 0.19133087755196571 0.045131483978966998 0 0.18298678422305309 0.040980100737508622 0 0.20530753189452691 0.042937648913457381 0 0.2029561920580818 0.044851916216142339 0 0.1989601287501698 0.040429129743079398 0 0.20530753189452691 0.042937648913457381 0 0.1989601287501698 0.040429129743079398 0 0.2029561920580818 0.044851916216142339 0 0.1989601287501698 0.040429129743079398 0 0.2082291800225603 0.066043280120252124 0 0.18513553631762919 0.051149603126408108 0 0.2021088015620611 0.053433964061651712 0 0.19971656766465989 0.047489351670260083 0 0.18513553631762919 0.051149603126408108 0 0.2082291800225603 0.066043280120252124 0 0.2021088015620611 0.053433964061651712 0 0.18513553631762919 0.051149603126408108 0 0.19067723801237901 0.065525043857756982 0 0.2082291800225603 0.066043280120252124 0 0.18513553631762919 0.051149603126408108 0 0.19133087755196571 0.045131483978966998 0 0.19971656766465989 0.047489351670260083 0 0.18513553631762919 0.051149603126408108 0 0.2029561920580818 0.044851916216142339 0 0.2021088015620611 0.053433964061651712 0 0.19971656766465989 0.047489351670260083 0 0.17734631865053521 0.060730067185729229 0 0.18513553631762919 0.051149603126408108 0 0.16725106424272049 0.052894846580172288 0 0.19067723801237901 0.065525043857756982 0 0.17734631865053521 0.060730067185729229 0 0.18513553631762919 0.051149603126408108 0 0.18298678422305309 0.040980100737508622 0 0.1774654858828027 0.031934360706524292 0 0.1620418926126978 0.036255926132564682 0 0.19133087755196571 0.045131483978966998 0 0.18513553631762919 0.051149603126408108 0 0.18298678422305309 0.040980100737508622 0 0.18513553631762919 0.051149603126408108 0 0.18298678422305309 0.040980100737508622 0 0.1620418926126978 0.036255926132564682 0 0.1989601287501698 0.040429129743079398 0 0.18298678422305309 0.040980100737508622 0 0.1774654858828027 0.031934360706524292 0 0.18513553631762919 0.051149603126408108 0 0.1620418926126978 0.036255926132564682 0 0.1620418926126978 0.036255926132564682 0 0.16725106424272049 0.052894846580172288 0 0.15541952745182569 0.04677658384696623 0 0.18513553631762919 0.051149603126408108 0 0.1620418926126978 0.036255926132564682 0 0.16725106424272049 0.052894846580172288 0 0.16725106424272049 0.052894846580172288 0 0.15507694825043991 0.057889849327421902 0 0.15541952745182569 0.04677658384696623 0 0.16725106424272049 0.052894846580172288 0 0.15507694825043991 0.057889849327421902 0 0.1653937448538241 0.067538194789913991 0 0.17734631865053521 0.060730067185729229 0 0.16725106424272049 0.052894846580172288 0 0.1653937448538241 0.067538194789913991 0 0.18048502430789731 0.01998114488410483 0 0.1657030786406338 0.0084270166623369204 0 0.17714031935384769 -0.0079311666629475405 0 0.19338700514557339 0.015742239871108451 0 0.17714031935384769 -0.0079311666629475405 0 0.19338700514557339 0.015742239871108451 0 0.18048502430789731 0.01998114488410483 0 0.17714031935384769 -0.0079311666629475405 0 0.1989601287501698 0.040429129743079398 0 0.1774654858828027 0.031934360706524292 0 0.18048502430789731 0.01998114488410483 0 0.1774654858828027 0.031934360706524292 0 0.18048502430789731 0.01998114488410483 0 0.16935520337559401 0.020657770454092759 0 0.1774654858828027 0.031934360706524292 0 0.15597084301543529 0.02343959166996953 0 0.1774654858828027 0.031934360706524292 0 0.1620418926126978 0.036255926132564682 0 0.15597084301543529 0.02343959166996953 0 0.1774654858828027 0.031934360706524292 0 0.16935520337559401 0.020657770454092759 0 0.15597084301543529 0.02343959166996953 0 0.16935520337559401 0.020657770454092759 0 0.1657030786406338 0.0084270166623369204 0 0.15597084301543529 0.02343959166996953 0 0.18048502430789731 0.01998114488410483 0 0.16935520337559401 0.020657770454092759 0 0.1657030786406338 0.0084270166623369204 0 0.1657030786406338 0.0084270166623369204 0 0.14883794818754281 0.01110572894874149 0 0.15480995508657039 -0.001084596553268768 0 0.1657030786406338 0.0084270166623369204 0 0.14883794818754281 0.01110572894874149 0 0.15597084301543529 0.02343959166996953 0 0.14883794818754281 0.01110572894874149 0 0.13464870039648349 0.00080453217212592717 0 0.15480995508657039 -0.001084596553268768 0 0.14883794818754281 0.01110572894874149 0 0.13894824890776639 0.02136224913872127 0 0.13464870039648349 0.00080453217212592717 0 0.1620418926126978 0.036255926132564682 0 0.13894824890776639 0.02136224913872127 0 0.14883794818754281 0.01110572894874149 0 0.15597084301543529 0.02343959166996953 0 0.13894824890776639 0.02136224913872127 0 0.1620418926126978 0.036255926132564682 0 0.15597084301543529 0.02343959166996953 0 0.13894824890776639 0.02136224913872127 0 0.11961069471150609 0.02296590295220987 0 0.13894824890776639 0.02136224913872127 0 0.12977361784467401 0.039215218793308727 0 0.1158546052028349 0.0064685721448778594 0 0.13894824890776639 0.02136224913872127 0 0.1158546052028349 0.0064685721448778594 0 0.13894824890776639 0.02136224913872127 0 0.13464870039648349 0.00080453217212592717 0 0.14278372382386809 0.048416123664777412 0 0.1428601767931531 0.062084067640591357 0 0.15507694825043991 0.057889849327421902 0 0.14278372382386809 0.048416123664777412 0 0.15507694825043991 0.057889849327421902 0 0.15541952745182569 0.04677658384696623 0 0.1620418926126978 0.036255926132564682 0 0.13894824890776639 0.02136224913872127 0 0.14579340212816641 0.038405220315267663 0 0.1620418926126978 0.036255926132564682 0 0.15541952745182569 0.04677658384696623 0 0.14579340212816641 0.038405220315267663 0 0.14278372382386809 0.048416123664777412 0 0.15541952745182569 0.04677658384696623 0 0.14579340212816641 0.038405220315267663 0 0.14278372382386809 0.048416123664777412 0 0.14579340212816641 0.038405220315267663 0 0.12977361784467401 0.039215218793308727 0 0.13894824890776639 0.02136224913872127 0 0.14579340212816641 0.038405220315267663 0 0.12977361784467401 0.039215218793308727 0 0.11550376979223601 0.054551475820320147 0 0.12977361784467401 0.039215218793308727 0 0.1326943019686847 0.054606112458038862 0 0.11550376979223601 0.054551475820320147 0 0.1326943019686847 0.054606112458038862 0 0.13255022158949201 0.068763676371196639 0 0.14278372382386809 0.048416123664777412 0 0.12977361784467401 0.039215218793308727 0 0.1326943019686847 0.054606112458038862 0 0.14278372382386809 0.048416123664777412 0 0.1428601767931531 0.062084067640591357 0 0.1326943019686847 0.054606112458038862 0 0.1428601767931531 0.062084067640591357 0 0.1326943019686847 0.054606112458038862 0 0.13255022158949201 0.068763676371196639 0 0.1207366242219714 0.074251990558816788 0 0.13255022158949201 0.068763676371196639 0 0.13578085374332971 0.077614708003019631 0 0.13255022158949201 0.068763676371196639 0 0.13578085374332971 0.077614708003019631 0 0.1430759120552613 0.073085192731263071 0 0.1428601767931531 0.062084067640591357 0 0.13255022158949201 0.068763676371196639 0 0.1430759120552613 0.073085192731263071 0 0.1428601767931531 0.062084067640591357 0 0.1430759120552613 0.073085192731263071 0 0.15260580868734391 0.069203578475014266 0 0.1430759120552613 0.073085192731263071 0 0.14969883640752091 0.076610515579137797 0 0.14563192422462459 0.083183778073064013 0 0.13578085374332971 0.077614708003019631 0 0.1430759120552613 0.073085192731263071 0 0.14563192422462459 0.083183778073064013 0 0.1430759120552613 0.073085192731263071 0 0.14969883640752091 0.076610515579137797 0 0.15260580868734391 0.069203578475014266 0 0.14969883640752091 0.076610515579137797 0 0.15260580868734391 0.069203578475014266 0 0.15677919641446331 0.080277826610221981 0 0.1428601767931531 0.062084067640591357 0 0.15507694825043991 0.057889849327421902 0 0.15260580868734391 0.069203578475014266 0 0.1506819444987289 0.088437751930635633 0 0.14868901735932749 0.09586058707093438 0 0.157853861938485 0.092527754269896317 0 0.1506819444987289 0.088437751930635633 0 0.15677919641446331 0.080277826610221981 0 0.157853861938485 0.092527754269896317 0 0.14969883640752091 0.076610515579137797 0 0.14563192422462459 0.083183778073064013 0 0.15677919641446331 0.080277826610221981 0 0.1506819444987289 0.088437751930635633 0 0.14563192422462459 0.083183778073064013 0 0.15677919641446331 0.080277826610221981 0 0.14563192422462459 0.083183778073064013 0 0.1444557225567443 0.090338813629061501 0 0.13888671887288589 0.088270852986767859 0 0.1506819444987289 0.088437751930635633 0 0.14563192422462459 0.083183778073064013 0 0.1444557225567443 0.090338813629061501 0 0.1444557225567443 0.090338813629061501 0 0.14209274384079601 0.094639397504520467 0 0.14868901735932749 0.09586058707093438 0 0.1506819444987289 0.088437751930635633 0 0.1444557225567443 0.090338813629061501 0 0.14868901735932749 0.09586058707093438 0 0.1444557225567443 0.090338813629061501 0 0.13888671887288589 0.088270852986767859 0 0.14209274384079601 0.094639397504520467 0 0.13888671887288589 0.088270852986767859 0 0.13668050292917741 0.098217611464673699 0 0.14209274384079601 0.094639397504520467 0 0.13888671887288589 0.088270852986767859 0 0.1300820653953097 0.084166932106396392 0 0.13668050292917741 0.098217611464673699 0 0.11116449005577619 0.086473750785835857 0 0.1300820653953097 0.084166932106396392 0 0.13668050292917741 0.098217611464673699 0 0.13578085374332971 0.077614708003019631 0 0.13888671887288589 0.088270852986767859 0 0.1300820653953097 0.084166932106396392 0 0.13578085374332971 0.077614708003019631 0 0.14563192422462459 0.083183778073064013 0 0.13888671887288589 0.088270852986767859 0 0.1207366242219714 0.074251990558816788 0 0.13578085374332971 0.077614708003019631 0 0.1300820653953097 0.084166932106396392 0 0.1216961693062274 0.1020981758197984 0 0.1302764983332621 0.10693497851168419 0 0.13668050292917741 0.098217611464673699 0 0.1302764983332621 0.10693497851168419 0 0.13758713408363871 0.1043360441680015 0 0.13668050292917741 0.098217611464673699 0 0.1302764983332621 0.10693497851168419 0 0.1360833458267342 0.1084620534226548 0 0.13758713408363871 0.1043360441680015 0 0.1360833458267342 0.1084620534226548 0 0.13758713408363871 0.1043360441680015 0 0.14314356584317489 0.10755645506983 0 0.13758713408363871 0.1043360441680015 0 0.13668050292917741 0.098217611464673699 0 0.14175175748584509 0.1005091223711649 0 0.13668050292917741 0.098217611464673699 0 0.14209274384079601 0.094639397504520467 0 0.14175175748584509 0.1005091223711649 0 0.12813823657366311 0.12049833089676459 0 0.13246275659848361 0.1130811342378658 0 0.13708322035591489 0.118794437000363 0 0.12212988809696081 0.1249307776834532 0 0.12788127083107459 0.1291064789800366 0 0.12813823657366311 0.12049833089676459 0 0.1197878353292403 0.1092484053650479 0 0.1302764983332621 0.10693497851168419 0 0.12624189261331301 0.1140678077034443 0 0.12813823657366311 0.12049833089676459 0 0.12624189261331301 0.1140678077034443 0 0.13246275659848361 0.1130811342378658 0 0.1302764983332621 0.10693497851168419 0 0.12624189261331301 0.1140678077034443 0 0.13246275659848361 0.1130811342378658 0 0.138866780176991 0.11235807520418389 0 0.13708322035591489 0.118794437000363 0 0.14572099158606311 0.1154247658161887 0 0.1360833458267342 0.1084620534226548 0 0.13246275659848361 0.1130811342378658 0 0.138866780176991 0.11235807520418389 0 0.1302764983332621 0.10693497851168419 0 0.1360833458267342 0.1084620534226548 0 0.13246275659848361 0.1130811342378658 0 0.1360833458267342 0.1084620534226548 0 0.138866780176991 0.11235807520418389 0 0.14314356584317489 0.10755645506983 0 0.13246275659848361 0.1130811342378658 0 0.138866780176991 0.11235807520418389 0 0.13708322035591489 0.118794437000363 0 0.13409394305489639 0.1257339851238449 0 0.14295710802469111 0.12768772724150559 0 0.13708322035591489 0.118794437000363 0 0.13409394305489639 0.1257339851238449 0 0.12813823657366311 0.12049833089676459 0 0.13708322035591489 0.118794437000363 0 0.14572099158606311 0.1154247658161887 0 0.15364605026385231 0.1227496740475859 0 0.15839207309433961 0.10550736800805539 0 0.14295710802469111 0.12768772724150559 0 0.13708322035591489 0.118794437000363 0 0.14572099158606311 0.1154247658161887 0 0.14295710802469111 0.12768772724150559 0 0.14572099158606311 0.1154247658161887 0 0.15364605026385231 0.1227496740475859 0 0.138866780176991 0.11235807520418389 0 0.14572099158606311 0.1154247658161887 0 0.14314356584317489 0.10755645506983 0 0.14572099158606311 0.1154247658161887 0 0.14314356584317489 0.10755645506983 0 0.15839207309433961 0.10550736800805539 0 0.14175175748584509 0.1005091223711649 0 0.15839207309433961 0.10550736800805539 0 0.14175175748584509 0.1005091223711649 0 0.14314356584317489 0.10755645506983 0 0.15839207309433961 0.10550736800805539 0 0.14175175748584509 0.1005091223711649 0 0.14868901735932749 0.09586058707093438 0 0.15839207309433961 0.10550736800805539 0 0.14209274384079601 0.094639397504520467 0 0.14175175748584509 0.1005091223711649 0 0.14868901735932749 0.09586058707093438 0 0.13758713408363871 0.1043360441680015 0 0.14175175748584509 0.1005091223711649 0 0.14314356584317489 0.10755645506983 0 0.14868901735932749 0.09586058707093438 0 0.15839207309433961 0.10550736800805539 0 0.157853861938485 0.092527754269896317 0 0.15839207309433961 0.10550736800805539 0 0.17503238870283441 0.11050561364494491 0 0.15839207309433961 0.10550736800805539 0 0.1705578526620479 0.095927182961129481 0 0.157853861938485 0.092527754269896317 0 0.15839207309433961 0.10550736800805539 0 0.1705578526620479 0.095927182961129481 0 0.17503238870283441 0.11050561364494491 0 0.16417220099380411 0.12505127510387981 0 0.15839207309433961 0.10550736800805539 0 0.17503238870283441 0.11050561364494491 0 0.16417220099380411 0.12505127510387981 0 0.15364605026385231 0.1227496740475859 0 0.15839207309433961 0.10550736800805539 0 0.16417220099380411 0.12505127510387981 0 0.17503238870283441 0.11050561364494491 0 0.18002451345814399 0.12716596121819479 0 0.16417220099380411 0.12505127510387981 0 0.17503238870283441 0.11050561364494491 0 0.18002451345814399 0.12716596121819479 0 0.2001236667938262 0.1180422718546187 0 0.17503238870283441 0.11050561364494491 0 0.1916307843626972 0.08827444688259839 0 0.1705578526620479 0.095927182961129481 0 0.17503238870283441 0.11050561364494491 0 0.1916307843626972 0.08827444688259839 0 0.17503238870283441 0.11050561364494491 0 0.1916307843626972 0.08827444688259839 0 0.17935943521264269 0.07135827912697662 0 0.16988015521188329 0.08282073200015258 0 0.1916307843626972 0.08827444688259839 0 0.1705578526620479 0.095927182961129481 0 0.16988015521188329 0.08282073200015258 0 0.19067723801237901 0.065525043857756982 0 0.1916307843626972 0.08827444688259839 0 0.17935943521264269 0.07135827912697662 0 0.19067723801237901 0.065525043857756982 0 0.17734631865053521 0.060730067185729229 0 0.17935943521264269 0.07135827912697662 0 0.17734631865053521 0.060730067185729229 0 0.17935943521264269 0.07135827912697662 0 0.1653937448538241 0.067538194789913991 0 0.17935943521264269 0.07135827912697662 0 0.1653937448538241 0.067538194789913991 0 0.16988015521188329 0.08282073200015258 0 0.15507694825043991 0.057889849327421902 0 0.15260580868734391 0.069203578475014266 0 0.1653937448538241 0.067538194789913991 0 0.15260580868734391 0.069203578475014266 0 0.1653937448538241 0.067538194789913991 0 0.15677919641446331 0.080277826610221981 0 0.1653937448538241 0.067538194789913991 0 0.15677919641446331 0.080277826610221981 0 0.16988015521188329 0.08282073200015258 0 0.15677919641446331 0.080277826610221981 0 0.157853861938485 0.092527754269896317 0 0.16988015521188329 0.08282073200015258 0 0.1705578526620479 0.095927182961129481 0 0.157853861938485 0.092527754269896317 0 0.16988015521188329 0.08282073200015258 0 0.099456207782380623 0.4822659283708195 0 0.1141892196830592 0.48396198267476093 0 0.11304725129434449 0.46767028325629811 0 0.099456207782380623 0.4822659283708195 0 0.11304725129434449 0.46767028325629811 0 0.096803680563272876 0.46646214520586099 0 0.099456207782380623 0.4822659283708195 0 0.10782601469385079 0.5 0 0.078267650747156567 0.50000000000000133 0 0.099456207782380623 0.4822659283708195 0 0.10782601469385079 0.5 0 0.1141892196830592 0.48396198267476093 0 0.10782601469385079 0.5 0 0.1249193769550877 0.49369376296818718 0 0.1141892196830592 0.48396198267476093 0 0.1249193769550877 0.49369376296818718 0 0.1141892196830592 0.48396198267476093 0 0.12569724768963239 0.47617993877849962 0 0.10782601469385079 0.5 0 0.1249193769550877 0.49369376296818718 0 0.13738437864054501 0.5 0 0.1141892196830592 0.48396198267476093 0 0.11304725129434449 0.46767028325629811 0 0.12569724768963239 0.47617993877849962 0 0.11304725129434449 0.46767028325629811 0 0.1267882431275838 0.46370707134437261 0 0.12569724768963239 0.47617993877849962 0 0.11304725129434449 0.46767028325629811 0 0.1221607865463437 0.4507156547582637 0 0.1004821270038239 0.44949914822431608 0 0.11304725129434449 0.46767028325629811 0 0.1221607865463437 0.4507156547582637 0 0.1267882431275838 0.46370707134437261 0 0.1221607865463437 0.4507156547582637 0 0.1004821270038239 0.44949914822431608 0 0.12259086230274099 0.42947812748907283 0 0.1004821270038239 0.44949914822431608 0 0.096803680563272876 0.46646214520586099 0 0.084307548883437972 0.45862843933572522 0 0.11304725129434449 0.46767028325629811 0 0.1004821270038239 0.44949914822431608 0 0.096803680563272876 0.46646214520586099 0 0.084307548883437972 0.45862843933572522 0 0.070120974899159305 0.46867166915081548 0 0.08254081050968877 0.47642281665818748 0 0.096803680563272876 0.46646214520586099 0 0.084307548883437972 0.45862843933572522 0 0.08254081050968877 0.47642281665818748 0 0.084307548883437972 0.45862843933572522 0 0.083205653112744402 0.44008551456546158 0 0.070599818540594342 0.45171728711773013 0 0.1004821270038239 0.44949914822431608 0 0.084307548883437972 0.45862843933572522 0 0.083205653112744402 0.44008551456546158 0 0.1004821270038239 0.44949914822431608 0 0.083205653112744402 0.44008551456546158 0 0.095892719888732866 0.42453745382262881 0 0.070599818540594342 0.45171728711773013 0 0.057347956450285731 0.44480695268810438 0 0.068330088192809502 0.43602814955066621 0 0.083205653112744402 0.44008551456546158 0 0.070599818540594342 0.45171728711773013 0 0.068330088192809502 0.43602814955066621 0 0.070599818540594342 0.45171728711773013 0 0.070120974899159305 0.46867166915081548 0 0.05832870883015126 0.45973880463956351 0 0.084307548883437972 0.45862843933572522 0 0.070599818540594342 0.45171728711773013 0 0.070120974899159305 0.46867166915081548 0 0.070120974899159305 0.46867166915081548 0 0.08254081050968877 0.47642281665818748 0 0.061557047466102868 0.48310025102256282 0 0.070120974899159305 0.46867166915081548 0 0.061557047466102868 0.48310025102256282 0 0.05832870883015126 0.45973880463956351 0 0.099456207782380623 0.4822659283708195 0 0.096803680563272876 0.46646214520586099 0 0.08254081050968877 0.47642281665818748 0 0.099456207782380623 0.4822659283708195 0 0.08254081050968877 0.47642281665818748 0 0.078267650747156567 0.50000000000000133 0 0.078267650747156567 0.50000000000000133 0 0.049166882519808157 0.5 0 0.061557047466102868 0.48310025102256282 0 0.08254081050968877 0.47642281665818748 0 0.078267650747156567 0.50000000000000133 0 0.061557047466102868 0.48310025102256282 0 0.078267650747156567 0.50000000000000133 0 0.061557047466102868 0.48310025102256282 0 0.049166882519808157 0.5 0 0.061557047466102868 0.48310025102256282 0 0.038208171894904559 0.48286056860770488 0 0.061557047466102868 0.48310025102256282 0 0.044846444185049857 0.46620050204512359 0 0.05832870883015126 0.45973880463956351 0 0.061557047466102868 0.48310025102256282 0 0.044846444185049857 0.46620050204512359 0 0.061557047466102868 0.48310025102256282 0 0.038208171894904559 0.48286056860770488 0 0.044846444185049857 0.46620050204512359 0 0.038208171894904559 0.48286056860770488 0 0.029572045059576241 0.469060477695939 0 0.044846444185049857 0.46620050204512359 0 0.049166882519808157 0.5 0 0.038208171894904559 0.48286056860770488 0 0.020066114292459799 0.5 0 0.038208171894904559 0.48286056860770488 0 0.020066114292459799 0.5 0 0.021055159894441029 0.48095839664786189 0 0.038208171894904559 0.48286056860770488 0 0.029572045059576241 0.469060477695939 0 0.021055159894441029 0.48095839664786189 0 0.029572045059576241 0.469060477695939 0 0.021055159894441029 0.48095839664786189 0 0.01561460841948897 0.46598216811131982 0 0.021055159894441029 0.48095839664786189 0 0.0030933759349822849 0.48266358315495572 0 0.01561460841948897 0.46598216811131982 0 0.0030933759349822849 0.48266358315495572 0 0.01561460841948897 0.46598216811131982 0 0.0036787250480955699 0.47408322248379448 0 0.0030933759349822849 0.48266358315495572 0 0.01561460841948897 0.46598216811131982 0 -0.0016340076521478781 0.48633642657919801 0 0.0036787250480955699 0.47408322248379448 0 0.0030933759349822849 0.48266358315495572 0 0.020066114292459799 0.5 0 0.021055159894441029 0.48095839664786189 0 0.0030933759349822849 0.48266358315495572 0 -0.0090346539348886701 0.5 0 -0.0016340076521478781 0.48633642657919801 0 0.020066114292459799 0.5 0 -0.0016340076521478781 0.48633642657919801 0 0.020066114292459799 0.5 0 0.0030933759349822849 0.48266358315495572 0 -0.0030841453677343121 0.43636499760021141 0 -0.002359076509941094 0.46135071208970457 0 0.010470448459028871 0.45111158928184719 0 -0.0030841453677343121 0.43636499760021141 0 0.010470448459028871 0.45111158928184719 0 0.017893296784651399 0.43894227458572882 0 -0.002359076509941094 0.46135071208970457 0 0.010470448459028871 0.45111158928184719 0 0.01561460841948897 0.46598216811131982 0 -0.002359076509941094 0.46135071208970457 0 0.0036787250480955699 0.47408322248379448 0 0.01561460841948897 0.46598216811131982 0 0.010470448459028871 0.45111158928184719 0 0.01561460841948897 0.46598216811131982 0 0.0281358409039968 0.44930075306768458 0 0.029572045059576241 0.469060477695939 0 0.01561460841948897 0.46598216811131982 0 0.0281358409039968 0.44930075306768458 0 0.01561460841948897 0.46598216811131982 0 0.0281358409039968 0.44930075306768458 0 0.010470448459028871 0.45111158928184719 0 0.0281358409039968 0.44930075306768458 0 0.017893296784651399 0.43894227458572882 0 0.0281358409039968 0.44930075306768458 0 0.017893296784651399 0.43894227458572882 0 0.03800042812263172 0.43615865433005307 0 0.0281358409039968 0.44930075306768458 0 0.017893296784651399 0.43894227458572882 0 0.0281358409039968 0.44930075306768458 0 0.04587361322417214 0.448769157871174 0 0.03800042812263172 0.43615865433005307 0 0.0281358409039968 0.44930075306768458 0 0.03800042812263172 0.43615865433005307 0 0.04587361322417214 0.448769157871174 0 0.049411209704934803 0.43621283219101809 0 0.03800042812263172 0.43615865433005307 0 0.029572045059576241 0.469060477695939 0 0.0281358409039968 0.44930075306768458 0 0.044846444185049857 0.46620050204512359 0 0.0281358409039968 0.44930075306768458 0 0.04587361322417214 0.448769157871174 0 0.044846444185049857 0.46620050204512359 0 0.0281358409039968 0.44930075306768458 0 0.044846444185049857 0.46620050204512359 0 0.04587361322417214 0.448769157871174 0 0.044846444185049857 0.46620050204512359 0 0.05832870883015126 0.45973880463956351 0 0.04587361322417214 0.448769157871174 0 0.057347956450285731 0.44480695268810438 0 0.049411209704934803 0.43621283219101809 0 0.04587361322417214 0.448769157871174 0 0.05832870883015126 0.45973880463956351 0 0.057347956450285731 0.44480695268810438 0 0.070599818540594342 0.45171728711773013 0 0.05832870883015126 0.45973880463956351 0 0.057347956450285731 0.44480695268810438 0 0.057347956450285731 0.44480695268810438 0 0.058238482531349368 0.43512174465279091 0 0.068330088192809502 0.43602814955066621 0 0.057347956450285731 0.44480695268810438 0 0.058238482531349368 0.43512174465279091 0 0.049411209704934803 0.43621283219101809 0 0.058238482531349368 0.43512174465279091 0 0.05412352915042095 0.42739076434297479 0 0.063786863135573219 0.4234822836218442 0 0.05412352915042095 0.42739076434297479 0 0.047865015341267358 0.42301655559242213 0 0.049411209704934803 0.43621283219101809 0 0.05412352915042095 0.42739076434297479 0 0.047865015341267358 0.42301655559242213 0 0.058238482531349368 0.43512174465279091 0 0.05412352915042095 0.42739076434297479 0 0.049411209704934803 0.43621283219101809 0 0.047865015341267358 0.42301655559242213 0 0.055388731832649349 0.41299308245440008 0 0.044385004541519633 0.40583709082877739 0 0.055388731832649349 0.41299308245440008 0 0.057103340742871267 0.4006394318358022 0 0.0691327228978319 0.40699071288372829 0 0.05412352915042095 0.42739076434297479 0 0.055388731832649349 0.41299308245440008 0 0.063786863135573219 0.4234822836218442 0 0.047865015341267358 0.42301655559242213 0 0.055388731832649349 0.41299308245440008 0 0.05412352915042095 0.42739076434297479 0 0.047865015341267358 0.42301655559242213 0 0.055388731832649349 0.41299308245440008 0 0.055388731832649349 0.41299308245440008 0 0.044385004541519633 0.40583709082877739 0 0.057103340742871267 0.4006394318358022 0 0.047865015341267358 0.42301655559242213 0 0.030398582533070099 0.41080889326869052 0 0.044385004541519633 0.40583709082877739 0 0.047865015341267358 0.42301655559242213 0 0.035686717363660143 0.42423985257235269 0 0.030398582533070099 0.41080889326869052 0 0.047865015341267358 0.42301655559242213 0 0.030398582533070099 0.41080889326869052 0 0.047865015341267358 0.42301655559242213 0 0.049411209704934803 0.43621283219101809 0 0.03800042812263172 0.43615865433005307 0 0.047865015341267358 0.42301655559242213 0 0.03800042812263172 0.43615865433005307 0 0.047865015341267358 0.42301655559242213 0 0.035686717363660143 0.42423985257235269 0 0.03800042812263172 0.43615865433005307 0 0.035686717363660143 0.42423985257235269 0 0.03800042812263172 0.43615865433005307 0 0.0264828434576714 0.42697530709824522 0 0.017893296784651399 0.43894227458572882 0 0.0264828434576714 0.42697530709824522 0 0.013451351612083251 0.42022136891186163 0 0.017893296784651399 0.43894227458572882 0 0.03800042812263172 0.43615865433005307 0 0.0264828434576714 0.42697530709824522 0 0.030398582533070099 0.41080889326869052 0 0.013451351612083251 0.42022136891186163 0 0.012932149724872831 0.39860123094495892 0 0.0264828434576714 0.42697530709824522 0 0.030398582533070099 0.41080889326869052 0 0.013451351612083251 0.42022136891186163 0 0.035686717363660143 0.42423985257235269 0 0.0264828434576714 0.42697530709824522 0 0.030398582533070099 0.41080889326869052 0 -0.0038092142255275289 0.41137928311071797 0 0.013451351612083251 0.42022136891186163 0 0.012932149724872831 0.39860123094495892 0 -0.0030841453677343121 0.43636499760021141 0 0.017893296784651399 0.43894227458572882 0 0.013451351612083251 0.42022136891186163 0 -0.0030841453677343121 0.43636499760021141 0 -0.0038092142255275289 0.41137928311071797 0 0.013451351612083251 0.42022136891186163 0 -0.0045342830833226501 0.3863935686212247 0 0.012932149724872831 0.39860123094495892 0 0.0079023355216259559 0.37348921158265391 0 0.012932149724872831 0.39860123094495892 0 0.025375843575522711 0.38021681034322929 0 0.0079023355216259559 0.37348921158265391 0 -0.0045342830833226501 0.3863935686212247 0 0.012932149724872831 0.39860123094495892 0 -0.0045342830833226501 0.3863935686212247 0 -0.0038092142255275289 0.41137928311071797 0 0.012932149724872831 0.39860123094495892 0 0.030398582533070099 0.41080889326869052 0 0.012932149724872831 0.39860123094495892 0 0.030398582533070099 0.41080889326869052 0 0.012932149724872831 0.39860123094495892 0 0.030218872497922818 0.39559608178221078 0 0.012932149724872831 0.39860123094495892 0 0.030218872497922818 0.39559608178221078 0 0.025375843575522711 0.38021681034322929 0 0.025375843575522711 0.38021681034322929 0 0.045236422390978262 0.39339421550307069 0 0.045418656597819553 0.37354288132317159 0 0.030218872497922818 0.39559608178221078 0 0.025375843575522711 0.38021681034322929 0 0.045236422390978262 0.39339421550307069 0 0.030398582533070099 0.41080889326869052 0 0.030218872497922818 0.39559608178221078 0 0.044385004541519633 0.40583709082877739 0 0.030218872497922818 0.39559608178221078 0 0.045236422390978262 0.39339421550307069 0 0.044385004541519633 0.40583709082877739 0 0.045236422390978262 0.39339421550307069 0 0.057103340742871267 0.4006394318358022 0 0.06607043693335328 0.38973814947632979 0 0.045236422390978262 0.39339421550307069 0 0.044385004541519633 0.40583709082877739 0 0.057103340742871267 0.4006394318358022 0 0.045236422390978262 0.39339421550307069 0 0.06607043693335328 0.38973814947632979 0 0.045418656597819553 0.37354288132317159 0 0.06607043693335328 0.38973814947632979 0 0.066778362586220691 0.36264744131756171 0 0.045418656597819553 0.37354288132317159 0 0.06607043693335328 0.38973814947632979 0 0.086713905658550791 0.37461406501925459 0 0.066778362586220691 0.36264744131756171 0 0.091303312773641829 0.3995757594209417 0 0.1025776524751303 0.38486691706586951 0 0.086713905658550791 0.37461406501925459 0 0.06607043693335328 0.38973814947632979 0 0.091303312773641829 0.3995757594209417 0 0.086713905658550791 0.37461406501925459 0 0.091303312773641829 0.3995757594209417 0 0.086713905658550791 0.37461406501925459 0 0.06607043693335328 0.38973814947632979 0 0.091303312773641829 0.3995757594209417 0 0.0691327228978319 0.40699071288372829 0 0.057103340742871267 0.4006394318358022 0 0.06607043693335328 0.38973814947632979 0 0.0691327228978319 0.40699071288372829 0 0.055388731832649349 0.41299308245440008 0 0.0691327228978319 0.40699071288372829 0 0.063786863135573219 0.4234822836218442 0 0.0691327228978319 0.40699071288372829 0 0.077714875811277062 0.4214876261871765 0 0.063786863135573219 0.4234822836218442 0 0.083205653112744402 0.44008551456546158 0 0.077714875811277062 0.4214876261871765 0 0.068330088192809502 0.43602814955066621 0 0.058238482531349368 0.43512174465279091 0 0.068330088192809502 0.43602814955066621 0 0.063786863135573219 0.4234822836218442 0 0.077714875811277062 0.4214876261871765 0 0.068330088192809502 0.43602814955066621 0 0.063786863135573219 0.4234822836218442 0 0.083205653112744402 0.44008551456546158 0 0.077714875811277062 0.4214876261871765 0 0.095892719888732866 0.42453745382262881 0 0.091303312773641829 0.3995757594209417 0 0.0691327228978319 0.40699071288372829 0 0.077714875811277062 0.4214876261871765 0 0.091303312773641829 0.3995757594209417 0 0.095892719888732866 0.42453745382262881 0 0.091303312773641829 0.3995757594209417 0 0.077714875811277062 0.4214876261871765 0 0.095892719888732866 0.42453745382262881 0 0.091303312773641829 0.3995757594209417 0 0.095892719888732866 0.42453745382262881 0 0.115428724103706 0.40267530492779557 0 0.1004821270038239 0.44949914822431608 0 0.095892719888732866 0.42453745382262881 0 0.12259086230274099 0.42947812748907283 0 0.1004821270038239 0.44949914822431608 0 0.095892719888732866 0.42453745382262881 0 0.095892719888732866 0.42453745382262881 0 0.12259086230274099 0.42947812748907283 0 0.115428724103706 0.40267530492779557 0 0.115428724103706 0.40267530492779557 0 0.119448870245615 0.38256434187866972 0 0.13692284990477191 0.38930777957628943 0 0.119448870245615 0.38256434187866972 0 0.1025776524751303 0.38486691706586951 0 0.1087205780393706 0.3656269003386084 0 0.115428724103706 0.40267530492779557 0 0.119448870245615 0.38256434187866972 0 0.1025776524751303 0.38486691706586951 0 0.1025776524751303 0.38486691706586951 0 0.1087205780393706 0.3656269003386084 0 0.086713905658550791 0.37461406501925459 0 0.091303312773641829 0.3995757594209417 0 0.115428724103706 0.40267530492779557 0 0.1025776524751303 0.38486691706586951 0 0.1087205780393706 0.3656269003386084 0 0.1202868522871179 0.34060046584014031 0 0.0915497208986496 0.34709204532757532 0 0.1087205780393706 0.3656269003386084 0 0.0915497208986496 0.34709204532757532 0 0.086713905658550791 0.37461406501925459 0 0.119448870245615 0.38256434187866972 0 0.1087205780393706 0.3656269003386084 0 0.13274728415341139 0.36410634055334368 0 0.1087205780393706 0.3656269003386084 0 0.1202868522871179 0.34060046584014031 0 0.13274728415341139 0.36410634055334368 0 0.1202868522871179 0.34060046584014031 0 0.1104734498024164 0.31171603628350752 0 0.14183880654046921 0.32250528078568202 0 0.1202868522871179 0.34060046584014031 0 0.1016552612267161 0.33013161519950079 0 0.1104734498024164 0.31171603628350752 0 0.1016552612267161 0.33013161519950079 0 0.081254576285268804 0.3210829637434266 0 0.1104734498024164 0.31171603628350752 0 0.1202868522871179 0.34060046584014031 0 0.1016552612267161 0.33013161519950079 0 0.0915497208986496 0.34709204532757532 0 0.081254576285268804 0.3210829637434266 0 0.072654821413094289 0.33942743407960763 0 0.0915497208986496 0.34709204532757532 0 0.1016552612267161 0.33013161519950079 0 0.081254576285268804 0.3210829637434266 0 0.0915497208986496 0.34709204532757532 0 0.081254576285268804 0.3210829637434266 0 0.06358813508901956 0.32234581427363851 0 0.071244474661197085 0.3036312559279935 0 0.081254576285268804 0.3210829637434266 0 0.06358813508901956 0.32234581427363851 0 0.072654821413094289 0.33942743407960763 0 0.06358813508901956 0.32234581427363851 0 0.072654821413094289 0.33942743407960763 0 0.055199983679349987 0.34246375673151652 0 0.072654821413094289 0.33942743407960763 0 0.066778362586220691 0.36264744131756171 0 0.055199983679349987 0.34246375673151652 0 0.072654821413094289 0.33942743407960763 0 0.0915497208986496 0.34709204532757532 0 0.066778362586220691 0.36264744131756171 0 0.0915497208986496 0.34709204532757532 0 0.086713905658550791 0.37461406501925459 0 0.066778362586220691 0.36264744131756171 0 0.066778362586220691 0.36264744131756171 0 0.044951457965310811 0.3555124197003488 0 0.045418656597819553 0.37354288132317159 0 0.066778362586220691 0.36264744131756171 0 0.044951457965310811 0.3555124197003488 0 0.055199983679349987 0.34246375673151652 0 0.044951457965310811 0.3555124197003488 0 0.021903196078839001 0.35746348141110651 0 0.035457090884324839 0.34144453771838768 0 0.044951457965310811 0.3555124197003488 0 0.035457090884324839 0.34144453771838768 0 0.055199983679349987 0.34246375673151652 0 0.044951457965310811 0.3555124197003488 0 0.045418656597819553 0.37354288132317159 0 0.021903196078839001 0.35746348141110651 0 0.025375843575522711 0.38021681034322929 0 0.021903196078839001 0.35746348141110651 0 0.0079023355216259559 0.37348921158265391 0 0.025375843575522711 0.38021681034322929 0 0.045418656597819553 0.37354288132317159 0 0.021903196078839001 0.35746348141110651 0 0.021903196078839001 0.35746348141110651 0 0.017151683724365509 0.3376665205351736 0 0.035457090884324839 0.34144453771838768 0 0.021903196078839001 0.35746348141110651 0 0.0095650341834115256 0.34490192427506011 0 0.017151683724365509 0.3376665205351736 0 0.021903196078839001 0.35746348141110651 0 0.0095650341834115256 0.34490192427506011 0 0.0061318462344260851 0.35417601161121459 0 -0.0050552824635438226 0.34569829691311771 0 0.0095650341834115256 0.34490192427506011 0 0.0061318462344260851 0.35417601161121459 0 0.021903196078839001 0.35746348141110651 0 0.0061318462344260851 0.35417601161121459 0 0.0079023355216259559 0.37348921158265391 0 -0.0052616759920083916 0.36132776784546622 0 0.0061318462344260851 0.35417601161121459 0 0.0079023355216259559 0.37348921158265391 0 0.0087281755863181168 0.33049580891976171 0 0.020410497070949891 0.30832150289807031 0 0.0056044744337335906 0.31412092038659428 0 0.0087281755863181168 0.33049580891976171 0 0.020410497070949891 0.30832150289807031 0 -0.003280447873963227 0.32161399115684158 0 0.0056044744337335906 0.31412092038659428 0 0.0087281755863181168 0.33049580891976171 0 0.0064742168078369342 0.3347740657525386 0 0.0087281755863181168 0.33049580891976171 0 -0.0050552824635438226 0.34569829691311771 0 0.0095650341834115256 0.34490192427506011 0 0.0064742168078369342 0.3347740657525386 0 0.0095650341834115256 0.34490192427506011 0 0.0064742168078369342 0.3347740657525386 0 0.017151683724365509 0.3376665205351736 0 0.0064742168078369342 0.3347740657525386 0 0.0087281755863181168 0.33049580891976171 0 0.017151683724365509 0.3376665205351736 0 0.0087281755863181168 0.33049580891976171 0 0.025353163704189718 0.33024288796319817 0 0.017151683724365509 0.3376665205351736 0 0.0087281755863181168 0.33049580891976171 0 0.025353163704189718 0.33024288796319817 0 0.025353163704189718 0.33024288796319817 0 0.017151683724365509 0.3376665205351736 0 0.035457090884324839 0.34144453771838768 0 0.0087281755863181168 0.33049580891976171 0 0.025353163704189718 0.33024288796319817 0 0.020410497070949891 0.30832150289807031 0 0.025353163704189718 0.33024288796319817 0 0.038017806832533571 0.30672300381527179 0 0.020410497070949891 0.30832150289807031 0 0.025353163704189718 0.33024288796319817 0 0.045812945845809312 0.32351293560108041 0 0.038017806832533571 0.30672300381527179 0 0.025353163704189718 0.33024288796319817 0 0.045812945845809312 0.32351293560108041 0 0.035457090884324839 0.34144453771838768 0 0.045812945845809312 0.32351293560108041 0 0.035457090884324839 0.34144453771838768 0 0.055199983679349987 0.34246375673151652 0 0.06358813508901956 0.32234581427363851 0 0.045812945845809312 0.32351293560108041 0 0.055199983679349987 0.34246375673151652 0 0.06358813508901956 0.32234581427363851 0 0.045812945845809312 0.32351293560108041 0 0.055148108477292443 0.3057593846019967 0 0.055148108477292443 0.3057593846019967 0 0.047586914097201803 0.29032131063477928 0 0.038017806832533571 0.30672300381527179 0 0.055148108477292443 0.3057593846019967 0 0.047586914097201803 0.29032131063477928 0 0.066935962560195753 0.28615893812798288 0 0.047586914097201803 0.29032131063477928 0 0.050578246113349837 0.27455429857722041 0 0.066935962560195753 0.28615893812798288 0 0.047586914097201803 0.29032131063477928 0 0.032092818555581597 0.28614719687637868 0 0.038017806832533571 0.30672300381527179 0 0.047586914097201803 0.29032131063477928 0 0.032092818555581597 0.28614719687637868 0 0.050578246113349837 0.27455429857722041 0 0.045812945845809312 0.32351293560108041 0 0.055148108477292443 0.3057593846019967 0 0.038017806832533571 0.30672300381527179 0 0.032092818555581597 0.28614719687637868 0 0.038017806832533571 0.30672300381527179 0 0.020410497070949891 0.30832150289807031 0 0.032092818555581597 0.28614719687637868 0 0.020410497070949891 0.30832150289807031 0 0.032092818555581597 0.28614719687637868 0 0.020410497070949891 0.30832150289807031 0 0.0083336089875100904 0.29343585490586271 0 0.032092818555581597 0.28614719687637868 0 0.0083336089875100904 0.29343585490586271 0 0.021382191810826279 0.2686960609189637 0 -0.0088759444352828343 0.31092800175718183 0 0.0056044744337335906 0.31412092038659428 0 0.0083336089875100904 0.29343585490586271 0 0.0056044744337335906 0.31412092038659428 0 0.020410497070949891 0.30832150289807031 0 0.0083336089875100904 0.29343585490586271 0 0.0073806355134042019 0.25529449578482938 0 3.3590645499582607e-05 0.27236849017123349 0 0.021382191810826279 0.2686960609189637 0 0.0083336089875100904 0.29343585490586271 0 3.3590645499582607e-05 0.27236849017123349 0 0.021382191810826279 0.2686960609189637 0 0.025149977659741599 0.24684982625080901 0 0.0073806355134042019 0.25529449578482938 0 0.021382191810826279 0.2686960609189637 0 0.025149977659741599 0.24684982625080901 0 0.021382191810826279 0.2686960609189637 0 0.043775140040213267 0.26397289085468728 0 0.025149977659741599 0.24684982625080901 0 0.045472231705318063 0.24424317023843681 0 0.050158093690384618 0.2598810672441918 0 0.025149977659741599 0.24684982625080901 0 0.050158093690384618 0.2598810672441918 0 0.025149977659741599 0.24684982625080901 0 0.043775140040213267 0.26397289085468728 0 0.050158093690384618 0.2598810672441918 0 0.032092818555581597 0.28614719687637868 0 0.043775140040213267 0.26397289085468728 0 0.032092818555581597 0.28614719687637868 0 0.021382191810826279 0.2686960609189637 0 0.043775140040213267 0.26397289085468728 0 0.032092818555581597 0.28614719687637868 0 0.043775140040213267 0.26397289085468728 0 0.050578246113349837 0.27455429857722041 0 0.050578246113349837 0.27455429857722041 0 0.063875668081316214 0.2678607518654692 0 0.066935962560195753 0.28615893812798288 0 0.043775140040213267 0.26397289085468728 0 0.050578246113349837 0.27455429857722041 0 0.050158093690384618 0.2598810672441918 0 0.050578246113349837 0.27455429857722041 0 0.056046126259945157 0.25263236173372139 0 0.063875668081316214 0.2678607518654692 0 0.050578246113349837 0.27455429857722041 0 0.050158093690384618 0.2598810672441918 0 0.056046126259945157 0.25263236173372139 0 0.045472231705318063 0.24424317023843681 0 0.050158093690384618 0.2598810672441918 0 0.056046126259945157 0.25263236173372139 0 0.050578246113349837 0.27455429857722041 0 0.056046126259945157 0.25263236173372139 0 0.078525547080241467 0.2465942846531784 0 0.067905867336300579 0.25358800162702 0 0.079567988853459573 0.27014218499250892 0 0.067905867336300579 0.25358800162702 0 0.079567988853459573 0.27014218499250892 0 0.063875668081316214 0.2678607518654692 0 0.056046126259945157 0.25263236173372139 0 0.067905867336300579 0.25358800162702 0 0.063875668081316214 0.2678607518654692 0 0.078525547080241467 0.2465942846531784 0 0.079567988853459573 0.27014218499250892 0 0.093798877441032588 0.2579700649065903 0 0.079567988853459573 0.27014218499250892 0 0.063875668081316214 0.2678607518654692 0 0.066935962560195753 0.28615893812798288 0 0.079567988853459573 0.27014218499250892 0 0.066935962560195753 0.28615893812798288 0 0.087430381393448858 0.29852998767476718 0 0.066935962560195753 0.28615893812798288 0 0.071244474661197085 0.3036312559279935 0 0.087430381393448858 0.29852998767476718 0 0.055148108477292443 0.3057593846019967 0 0.066935962560195753 0.28615893812798288 0 0.071244474661197085 0.3036312559279935 0 0.06358813508901956 0.32234581427363851 0 0.055148108477292443 0.3057593846019967 0 0.071244474661197085 0.3036312559279935 0 0.081254576285268804 0.3210829637434266 0 0.087430381393448858 0.29852998767476718 0 0.1104734498024164 0.31171603628350752 0 0.081254576285268804 0.3210829637434266 0 0.071244474661197085 0.3036312559279935 0 0.087430381393448858 0.29852998767476718 0 0.079567988853459573 0.27014218499250892 0 0.087430381393448858 0.29852998767476718 0 0.1079828451826004 0.27738565586056829 0 0.087430381393448858 0.29852998767476718 0 0.1104734498024164 0.31171603628350752 0 0.1079828451826004 0.27738565586056829 0 0.1104734498024164 0.31171603628350752 0 0.1079828451826004 0.27738565586056829 0 0.13401849175413849 0.29214957311260448 0 0.1079828451826004 0.27738565586056829 0 0.13401849175413849 0.29214957311260448 0 0.1100607559553454 0.25396994184181759 0 0.1079828451826004 0.27738565586056829 0 0.13366986361514199 0.26692500362740812 0 0.12787711237058769 0.24521089126939841 0 0.1100607559553454 0.25396994184181759 0 0.13366986361514199 0.26692500362740812 0 0.092857250133516089 0.24175825718487831 0 0.1100607559553454 0.25396994184181759 0 0.093798877441032588 0.2579700649065903 0 0.1100607559553454 0.25396994184181759 0 0.093798877441032588 0.2579700649065903 0 0.1079828451826004 0.27738565586056829 0 0.079567988853459573 0.27014218499250892 0 0.093798877441032588 0.2579700649065903 0 0.1079828451826004 0.27738565586056829 0 0.13366986361514199 0.26692500362740812 0 0.1558685034792309 0.28595093384994291 0 0.15959452244756481 0.26367036214955358 0 0.14702044576598061 0.2478904659134552 0 0.13366986361514199 0.26692500362740812 0 0.15959452244756481 0.26367036214955358 0 0.14702044576598061 0.2478904659134552 0 0.12787711237058769 0.24521089126939841 0 0.13366986361514199 0.26692500362740812 0 0.1079828451826004 0.27738565586056829 0 0.13366986361514199 0.26692500362740812 0 0.13401849175413849 0.29214957311260448 0 0.1104734498024164 0.31171603628350752 0 0.13401849175413849 0.29214957311260448 0 0.14183880654046921 0.32250528078568202 0 0.13401849175413849 0.29214957311260448 0 0.16005413832567669 0.30691349036464077 0 0.14183880654046921 0.32250528078568202 0 0.13401849175413849 0.29214957311260448 0 0.16005413832567669 0.30691349036464077 0 0.13401849175413849 0.29214957311260448 0 0.1558685034792309 0.28595093384994291 0 0.16005413832567669 0.30691349036464077 0 0.13366986361514199 0.26692500362740812 0 0.13401849175413849 0.29214957311260448 0 0.1558685034792309 0.28595093384994291 0 0.1558685034792309 0.28595093384994291 0 0.1700220001876428 0.28782965529906401 0 0.16005413832567669 0.30691349036464077 0 0.1558685034792309 0.28595093384994291 0 0.1700220001876428 0.28782965529906401 0 0.17370236977615991 0.27502287964280692 0 0.1700220001876428 0.28782965529906401 0 0.16005413832567669 0.30691349036464077 0 0.1764196225356903 0.29880027385689728 0 0.16005413832567669 0.30691349036464077 0 0.1764196225356903 0.29880027385689728 0 0.18686192329242929 0.31378732528256248 0 0.1764196225356903 0.29880027385689728 0 0.18674031124236579 0.30201460306836742 0 0.19086383386244751 0.2907864273273883 0 0.1764196225356903 0.29880027385689728 0 0.18674031124236579 0.30201460306836742 0 0.18686192329242929 0.31378732528256248 0 0.1700220001876428 0.28782965529906401 0 0.18013512871176271 0.28566990799825959 0 0.17370236977615991 0.27502287964280692 0 0.1700220001876428 0.28782965529906401 0 0.1764196225356903 0.29880027385689728 0 0.18013512871176271 0.28566990799825959 0 0.1764196225356903 0.29880027385689728 0 0.18013512871176271 0.28566990799825959 0 0.19086383386244751 0.2907864273273883 0 0.18013512871176271 0.28566990799825959 0 0.1896678171968729 0.27591030386514148 0 0.19086383386244751 0.2907864273273883 0 0.18251379545819379 0.26835647973838378 0 0.17370236977615991 0.27502287964280692 0 0.1896678171968729 0.27591030386514148 0 0.18013512871176271 0.28566990799825959 0 0.17370236977615991 0.27502287964280692 0 0.1896678171968729 0.27591030386514148 0 0.18251379545819379 0.26835647973838378 0 0.17370236977615991 0.27502287964280692 0 0.17699066645021869 0.2595722272450377 0 0.17370236977615991 0.27502287964280692 0 0.15959452244756481 0.26367036214955358 0 0.17699066645021869 0.2595722272450377 0 0.1558685034792309 0.28595093384994291 0 0.17370236977615991 0.27502287964280692 0 0.15959452244756481 0.26367036214955358 0 0.16774616909827719 0.2460930353984315 0 0.15959452244756481 0.26367036214955358 0 0.17699066645021869 0.2595722272450377 0 0.14702044576598061 0.2478904659134552 0 0.16774616909827719 0.2460930353984315 0 0.15959452244756481 0.26367036214955358 0 0.18692125413578081 0.24552837502103991 0 0.16774616909827719 0.2460930353984315 0 0.17699066645021869 0.2595722272450377 0 0.18692125413578081 0.24552837502103991 0 0.17699066645021869 0.2595722272450377 0 0.19242781921148469 0.26384338938458129 0 0.18251379545819379 0.26835647973838378 0 0.17699066645021869 0.2595722272450377 0 0.19242781921148469 0.26384338938458129 0 0.18692125413578081 0.24552837502103991 0 0.19242781921148469 0.26384338938458129 0 0.20107379594449931 0.25686311186437227 0 0.18692125413578081 0.24552837502103991 0 0.20107379594449931 0.25686311186437227 0 0.19242781921148469 0.26384338938458129 0 0.20107379594449931 0.25686311186437227 0 0.2008998280478862 0.26959186196165702 0 0.19242781921148469 0.26384338938458129 0 0.20107379594449931 0.25686311186437227 0 0.19242781921148469 0.26384338938458129 0 0.1896678171968729 0.27591030386514148 0 0.2008998280478862 0.26959186196165702 0 0.18251379545819379 0.26835647973838378 0 0.19242781921148469 0.26384338938458129 0 0.1896678171968729 0.27591030386514148 0 0.1896678171968729 0.27591030386514148 0 0.2008998280478862 0.26959186196165702 0 0.20354188417430641 0.281093168015905 0 0.2008998280478862 0.26959186196165702 0 0.2177878237122676 0.27024933667828532 0 0.20354188417430641 0.281093168015905 0 0.2177878237122676 0.27024933667828532 0 0.20354188417430641 0.281093168015905 0 0.2166033006779626 0.28924568688104418 0 0.21557305570370441 0.24515722135805329 0 0.20107379594449931 0.25686311186437227 0 0.2177878237122676 0.27024933667828532 0 0.20107379594449931 0.25686311186437227 0 0.2177878237122676 0.27024933667828532 0 0.20107379594449931 0.25686311186437227 0 0.2008998280478862 0.26959186196165702 0 0.2177878237122676 0.27024933667828532 0 0.21557305570370441 0.24515722135805329 0 0.20107379594449931 0.25686311186437227 0 0.21557305570370441 0.24515722135805329 0 0.2177878237122676 0.27024933667828532 0 0.23628031136540401 0.25597328662156199 0 0.2177878237122676 0.27024933667828532 0 0.23628031136540401 0.25597328662156199 0 0.23450185148003599 0.28363556149219821 0 0.2177878237122676 0.27024933667828532 0 0.23450185148003599 0.28363556149219821 0 0.2166033006779626 0.28924568688104418 0 0.2177878237122676 0.27024933667828532 0 0.23450185148003599 0.28363556149219821 0 0.23628031136540401 0.25597328662156199 0 0.23450185148003599 0.28363556149219821 0 0.25102838231212438 0.26850893423506528 0 0.23450185148003599 0.28363556149219821 0 0.25953152444998728 0.28294166139542631 0 0.25102838231212438 0.26850893423506528 0 0.23628031136540401 0.25597328662156199 0 0.25102838231212438 0.26850893423506528 0 0.26221447651104962 0.2479993693513689 0 0.2297645605960125 0.30261029929826411 0 0.25121587924780342 0.29702178630611242 0 0.2484846271056145 0.31037308609574782 0 0.2297645605960125 0.30261029929826411 0 0.23798581837376781 0.31938142953188831 0 0.2484846271056145 0.31037308609574782 0 0.2297645605960125 0.30261029929826411 0 0.25121587924780342 0.29702178630611242 0 0.23450185148003599 0.28363556149219821 0 0.2297645605960125 0.30261029929826411 0 0.25121587924780342 0.29702178630611242 0 0.23450185148003599 0.28363556149219821 0 0.25121587924780342 0.29702178630611242 0 0.23450185148003599 0.28363556149219821 0 0.25953152444998728 0.28294166139542631 0 0.25121587924780342 0.29702178630611242 0 0.23450185148003599 0.28363556149219821 0 0.2297645605960125 0.30261029929826411 0 0.2166033006779626 0.28924568688104418 0 0.2297645605960125 0.30261029929826411 0 0.20831324194422091 0.30819881229041318 0 0.2297645605960125 0.30261029929826411 0 0.20831324194422091 0.30819881229041318 0 0.21977364325038071 0.31928170538083578 0 0.20831324194422091 0.30819881229041318 0 0.2166033006779626 0.28924568688104418 0 0.20288664267638859 0.29424953150154581 0 0.2297645605960125 0.30261029929826411 0 0.20831324194422091 0.30819881229041318 0 0.2166033006779626 0.28924568688104418 0 0.20354188417430641 0.281093168015905 0 0.2166033006779626 0.28924568688104418 0 0.20288664267638859 0.29424953150154581 0 0.20354188417430641 0.281093168015905 0 0.20288664267638859 0.29424953150154581 0 0.19086383386244751 0.2907864273273883 0 0.20288664267638859 0.29424953150154581 0 0.19086383386244751 0.2907864273273883 0 0.19511095272300569 0.3019235629929784 0 0.1896678171968729 0.27591030386514148 0 0.20354188417430641 0.281093168015905 0 0.19086383386244751 0.2907864273273883 0 0.20831324194422091 0.30819881229041318 0 0.18686192329242929 0.31378732528256248 0 0.20831324194422091 0.30819881229041318 0 0.19511095272300569 0.3019235629929784 0 0.18686192329242929 0.31378732528256248 0 0.20831324194422091 0.30819881229041318 0 0.20288664267638859 0.29424953150154581 0 0.19511095272300569 0.3019235629929784 0 0.18674031124236579 0.30201460306836742 0 0.19086383386244751 0.2907864273273883 0 0.19511095272300569 0.3019235629929784 0 0.18674031124236579 0.30201460306836742 0 0.19511095272300569 0.3019235629929784 0 0.18686192329242929 0.31378732528256248 0 0.20141288137377081 0.31920030670374799 0 0.18686192329242929 0.31378732528256248 0 0.18608978489721489 0.32167740761667712 0 0.20831324194422091 0.30819881229041318 0 0.20141288137377081 0.31920030670374799 0 0.18686192329242929 0.31378732528256248 0 0.20141288137377081 0.31920030670374799 0 0.21212543146875301 0.33644132486871342 0 0.18608978489721489 0.32167740761667712 0 0.21212543146875301 0.33644132486871342 0 0.18608978489721489 0.32167740761667712 0 0.19231113454718349 0.34165597013868199 0 0.21212543146875301 0.33644132486871342 0 0.18608978489721489 0.32167740761667712 0 0.20831324194422091 0.30819881229041318 0 0.20141288137377081 0.31920030670374799 0 0.21977364325038071 0.31928170538083578 0 0.20141288137377081 0.31920030670374799 0 0.21212543146875301 0.33644132486871342 0 0.21977364325038071 0.31928170538083578 0 0.21977364325038071 0.31928170538083578 0 0.2290399257457596 0.32985805959198788 0 0.23798581837376781 0.31938142953188831 0 0.2297645605960125 0.30261029929826411 0 0.21977364325038071 0.31928170538083578 0 0.23798581837376781 0.31938142953188831 0 0.21212543146875301 0.33644132486871342 0 0.21977364325038071 0.31928170538083578 0 0.2290399257457596 0.32985805959198788 0 0.21212543146875301 0.33644132486871342 0 0.23060518033342339 0.33807106122714048 0 0.2290399257457596 0.32985805959198788 0 0.21212543146875301 0.33644132486871342 0 0.23060518033342339 0.33807106122714048 0 0.23816107804029091 0.35120524212074949 0 0.23060518033342339 0.33807106122714048 0 0.2290399257457596 0.32985805959198788 0 0.2430942860788903 0.33477961832711151 0 0.23060518033342339 0.33807106122714048 0 0.2430942860788903 0.33477961832711151 0 0.23816107804029091 0.35120524212074949 0 0.2484846271056145 0.31037308609574782 0 0.23798581837376781 0.31938142953188831 0 0.25508783524565293 0.32209220201309929 0 0.2430942860788903 0.33477961832711151 0 0.23798581837376781 0.31938142953188831 0 0.25508783524565293 0.32209220201309929 0 0.2290399257457596 0.32985805959198788 0 0.2430942860788903 0.33477961832711151 0 0.23798581837376781 0.31938142953188831 0 0.23439037865920059 0.35560025357312369 0 0.2386764282036242 0.37725286527910618 0 0.24311907173897271 0.36013203008567057 0 0.23439037865920059 0.35560025357312369 0 0.2386764282036242 0.37725286527910618 0 0.2492643002430574 0.365916522193315 0 0.24311907173897271 0.36013203008567057 0 0.2386764282036242 0.37725286527910618 0 0.2492643002430574 0.365916522193315 0 0.2386764282036242 0.37725286527910618 0 0.25383912625151372 0.37755129754335942 0 0.24311907173897271 0.36013203008567057 0 0.23816107804029091 0.35120524212074949 0 0.2641967246118288 0.36596915937278562 0 0.2430942860788903 0.33477961832711151 0 0.23816107804029091 0.35120524212074949 0 0.26173146881309822 0.35734024057335978 0 0.24311907173897271 0.36013203008567057 0 0.23816107804029091 0.35120524212074949 0 0.23439037865920059 0.35560025357312369 0 0.21212543146875301 0.33644132486871342 0 0.23816107804029091 0.35120524212074949 0 0.21848510057545151 0.35453686872473111 0 0.23816107804029091 0.35120524212074949 0 0.23439037865920059 0.35560025357312369 0 0.21848510057545151 0.35453686872473111 0 0.21212543146875301 0.33644132486871342 0 0.23816107804029091 0.35120524212074949 0 0.23439037865920059 0.35560025357312369 0 0.22513916990612379 0.36868200325308897 0 0.2386764282036242 0.37725286527910618 0 0.23439037865920059 0.35560025357312369 0 0.22513916990612379 0.36868200325308897 0 0.21848510057545151 0.35453686872473111 0 0.22513916990612379 0.36868200325308897 0 0.20931495008602691 0.36890180222237801 0 0.21961872799640589 0.38146559318592133 0 0.22513916990612379 0.36868200325308897 0 0.20931495008602691 0.36890180222237801 0 0.21848510057545151 0.35453686872473111 0 0.20931495008602691 0.36890180222237801 0 0.21848510057545151 0.35453686872473111 0 0.2018014651714847 0.35413555731190122 0 0.21212543146875301 0.33644132486871342 0 0.21848510057545151 0.35453686872473111 0 0.2018014651714847 0.35413555731190122 0 0.19231113454718349 0.34165597013868199 0 0.2018014651714847 0.35413555731190122 0 0.1832131523033072 0.3569188224833833 0 0.19231113454718349 0.34165597013868199 0 0.21212543146875301 0.33644132486871342 0 0.2018014651714847 0.35413555731190122 0 0.20931495008602691 0.36890180222237801 0 0.2018014651714847 0.35413555731190122 0 0.19217836357317111 0.36996972767433872 0 0.20931495008602691 0.36890180222237801 0 0.19217836357317111 0.36996972767433872 0 0.20289108470775991 0.38370682355227331 0 0.2018014651714847 0.35413555731190122 0 0.19217836357317111 0.36996972767433872 0 0.1832131523033072 0.3569188224833833 0 0.19217836357317111 0.36996972767433872 0 0.17197644233242751 0.37002706837148541 0 0.1832131523033072 0.3569188224833833 0 0.17197644233242751 0.37002706837148541 0 0.16866852787741549 0.35230522619665788 0 0.1832131523033072 0.3569188224833833 0 0.17197644233242751 0.37002706837148541 0 0.16866852787741549 0.35230522619665788 0 0.15186920095361911 0.35620033980905319 0 0.17197644233242751 0.37002706837148541 0 0.15186920095361911 0.35620033980905319 0 0.15185568245476189 0.37707061606136422 0 0.16866852787741549 0.35230522619665788 0 0.1579580049025659 0.33927316190663209 0 0.15186920095361911 0.35620033980905319 0 0.16866852787741549 0.35230522619665788 0 0.1832131523033072 0.3569188224833833 0 0.17832583889515771 0.33910673841273542 0 0.19231113454718349 0.34165597013868199 0 0.1832131523033072 0.3569188224833833 0 0.17832583889515771 0.33910673841273542 0 0.17832583889515771 0.33910673841273542 0 0.18608978489721489 0.32167740761667712 0 0.16647560889869609 0.32578562508456149 0 0.19231113454718349 0.34165597013868199 0 0.17832583889515771 0.33910673841273542 0 0.18608978489721489 0.32167740761667712 0 0.16005413832567669 0.30691349036464077 0 0.18608978489721489 0.32167740761667712 0 0.16005413832567669 0.30691349036464077 0 0.18686192329242929 0.31378732528256248 0 0.18608978489721489 0.32167740761667712 0 0.16005413832567669 0.30691349036464077 0 0.18608978489721489 0.32167740761667712 0 0.16647560889869609 0.32578562508456149 0 0.17832583889515771 0.33910673841273542 0 0.16647560889869609 0.32578562508456149 0 0.1579580049025659 0.33927316190663209 0 0.16866852787741549 0.35230522619665788 0 0.17832583889515771 0.33910673841273542 0 0.1579580049025659 0.33927316190663209 0 0.16647560889869609 0.32578562508456149 0 0.1579580049025659 0.33927316190663209 0 0.14183880654046921 0.32250528078568202 0 0.1579580049025659 0.33927316190663209 0 0.14183880654046921 0.32250528078568202 0 0.14054269679001921 0.34363296691054102 0 0.16005413832567669 0.30691349036464077 0 0.16647560889869609 0.32578562508456149 0 0.14183880654046921 0.32250528078568202 0 0.1202868522871179 0.34060046584014031 0 0.14183880654046921 0.32250528078568202 0 0.14054269679001921 0.34363296691054102 0 0.1202868522871179 0.34060046584014031 0 0.14054269679001921 0.34363296691054102 0 0.13274728415341139 0.36410634055334368 0 0.13274728415341139 0.36410634055334368 0 0.15186920095361911 0.35620033980905319 0 0.15185568245476189 0.37707061606136422 0 0.14054269679001921 0.34363296691054102 0 0.13274728415341139 0.36410634055334368 0 0.15186920095361911 0.35620033980905319 0 0.1579580049025659 0.33927316190663209 0 0.14054269679001921 0.34363296691054102 0 0.15186920095361911 0.35620033980905319 0 0.15352992747694119 0.40026604784697911 0 0.13692284990477191 0.38930777957628943 0 0.1397509022148696 0.40843688002483958 0 0.15352992747694119 0.40026604784697911 0 0.15185568245476189 0.37707061606136422 0 0.13692284990477191 0.38930777957628943 0 0.13274728415341139 0.36410634055334368 0 0.15185568245476189 0.37707061606136422 0 0.13692284990477191 0.38930777957628943 0 0.119448870245615 0.38256434187866972 0 0.13274728415341139 0.36410634055334368 0 0.13692284990477191 0.38930777957628943 0 0.115428724103706 0.40267530492779557 0 0.13692284990477191 0.38930777957628943 0 0.1397509022148696 0.40843688002483958 0 0.12259086230274099 0.42947812748907283 0 0.1397509022148696 0.40843688002483958 0 0.14363603346764281 0.42707530835579988 0 0.12259086230274099 0.42947812748907283 0 0.115428724103706 0.40267530492779557 0 0.1397509022148696 0.40843688002483958 0 0.12259086230274099 0.42947812748907283 0 0.14363603346764281 0.42707530835579988 0 0.13510526379757609 0.44116740875256688 0 0.14363603346764281 0.42707530835579988 0 0.16526304614212209 0.42908608809292892 0 0.1507341445198021 0.44370602134863157 0 0.14363603346764281 0.42707530835579988 0 0.15527295380072001 0.4153931176925994 0 0.16526304614212209 0.42908608809292892 0 0.14363603346764281 0.42707530835579988 0 0.1507341445198021 0.44370602134863157 0 0.13510526379757609 0.44116740875256688 0 0.1397509022148696 0.40843688002483958 0 0.14363603346764281 0.42707530835579988 0 0.15527295380072001 0.4153931176925994 0 0.15352992747694119 0.40026604784697911 0 0.1397509022148696 0.40843688002483958 0 0.15527295380072001 0.4153931176925994 0 0.15527295380072001 0.4153931176925994 0 0.1711416470664554 0.41062619466687539 0 0.16526304614212209 0.42908608809292892 0 0.15352992747694119 0.40026604784697911 0 0.15527295380072001 0.4153931176925994 0 0.1711416470664554 0.41062619466687539 0 0.16526304614212209 0.42908608809292892 0 0.1809560021812836 0.43814832633623357 0 0.16598328874466911 0.44273574664910909 0 0.16526304614212209 0.42908608809292892 0 0.18469425222239219 0.42125941149134333 0 0.1809560021812836 0.43814832633623357 0 0.1711416470664554 0.41062619466687539 0 0.16526304614212209 0.42908608809292892 0 0.18469425222239219 0.42125941149134333 0 0.1711416470664554 0.41062619466687539 0 0.18469425222239219 0.42125941149134333 0 0.1843100454414533 0.40126956181167389 0 0.1711416470664554 0.41062619466687539 0 0.1843100454414533 0.40126956181167389 0 0.16952276405911931 0.3912061138884545 0 0.1843100454414533 0.40126956181167389 0 0.16952276405911931 0.3912061138884545 0 0.18589276442329861 0.38606835492789338 0 0.15352992747694119 0.40026604784697911 0 0.1711416470664554 0.41062619466687539 0 0.16952276405911931 0.3912061138884545 0 0.15352992747694119 0.40026604784697911 0 0.15185568245476189 0.37707061606136422 0 0.16952276405911931 0.3912061138884545 0 0.17197644233242751 0.37002706837148541 0 0.15185568245476189 0.37707061606136422 0 0.16952276405911931 0.3912061138884545 0 0.17197644233242751 0.37002706837148541 0 0.16952276405911931 0.3912061138884545 0 0.18589276442329861 0.38606835492789338 0 0.19217836357317111 0.36996972767433872 0 0.17197644233242751 0.37002706837148541 0 0.18589276442329861 0.38606835492789338 0 0.18589276442329861 0.38606835492789338 0 0.20289108470775991 0.38370682355227331 0 0.19700705340585539 0.39579078134538831 0 0.19217836357317111 0.36996972767433872 0 0.18589276442329861 0.38606835492789338 0 0.20289108470775991 0.38370682355227331 0 0.19700705340585539 0.39579078134538831 0 0.21316338490038089 0.39704202397260657 0 0.19877798755638451 0.41086714246249401 0 0.1843100454414533 0.40126956181167389 0 0.19700705340585539 0.39579078134538831 0 0.19877798755638451 0.41086714246249401 0 0.1843100454414533 0.40126956181167389 0 0.18589276442329861 0.38606835492789338 0 0.19700705340585539 0.39579078134538831 0 0.20289108470775991 0.38370682355227331 0 0.19700705340585539 0.39579078134538831 0 0.21316338490038089 0.39704202397260657 0 0.20931495008602691 0.36890180222237801 0 0.20289108470775991 0.38370682355227331 0 0.21961872799640589 0.38146559318592133 0 0.20289108470775991 0.38370682355227331 0 0.21316338490038089 0.39704202397260657 0 0.21961872799640589 0.38146559318592133 0 0.22513916990612379 0.36868200325308897 0 0.21961872799640589 0.38146559318592133 0 0.2386764282036242 0.37725286527910618 0 0.21961872799640589 0.38146559318592133 0 0.22852735017452019 0.39320804083607441 0 0.2386764282036242 0.37725286527910618 0 0.21316338490038089 0.39704202397260657 0 0.21961872799640589 0.38146559318592133 0 0.22852735017452019 0.39320804083607441 0 0.21316338490038089 0.39704202397260657 0 0.22852735017452019 0.39320804083607441 0 0.22983145469658259 0.40925978250573319 0 0.21316338490038089 0.39704202397260657 0 0.22983145469658259 0.40925978250573319 0 0.22852735017452019 0.39320804083607441 0 0.2429624777480478 0.39890547698508871 0 0.22983145469658259 0.40925978250573319 0 0.2429624777480478 0.39890547698508871 0 0.2386764282036242 0.37725286527910618 0 0.22852735017452019 0.39320804083607441 0 0.2429624777480478 0.39890547698508871 0 0.2386764282036242 0.37725286527910618 0 0.2429624777480478 0.39890547698508871 0 0.2386764282036242 0.37725286527910618 0 0.25341304662754638 0.38974012394171498 0 0.2386764282036242 0.37725286527910618 0 0.25383912625151372 0.37755129754335942 0 0.25341304662754638 0.38974012394171498 0 0.24649952449278431 0.42147754103885982 0 0.22996656543308741 0.44177288309861867 0 0.24946733303660301 0.43176723098649622 0 0.24649952449278431 0.42147754103885982 0 0.22996656543308741 0.44177288309861867 0 0.24649952449278431 0.42147754103885982 0 0.22738899126970491 0.42458926785457718 0 0.22996656543308741 0.44177288309861867 0 0.24946733303660301 0.43176723098649622 0 0.24649952449278431 0.42147754103885982 0 0.2429624777480478 0.39890547698508871 0 0.24649952449278431 0.42147754103885982 0 0.24649952449278431 0.42147754103885982 0 0.22983145469658259 0.40925978250573319 0 0.22738899126970491 0.42458926785457718 0 0.24649952449278431 0.42147754103885982 0 0.22983145469658259 0.40925978250573319 0 0.2429624777480478 0.39890547698508871 0 0.24649952449278431 0.42147754103885982 0 0.22983145469658259 0.40925978250573319 0 0.21316338490038089 0.39704202397260657 0 0.22983145469658259 0.40925978250573319 0 0.21370806227123909 0.41789950377956148 0 0.22983145469658259 0.40925978250573319 0 0.22738899126970491 0.42458926785457718 0 0.21370806227123909 0.41789950377956148 0 0.22738899126970491 0.42458926785457718 0 0.21739304288862979 0.43200563017257382 0 0.22996656543308741 0.44177288309861867 0 0.22738899126970491 0.42458926785457718 0 0.21739304288862979 0.43200563017257382 0 0.21370806227123909 0.41789950377956148 0 0.21739304288862979 0.43200563017257382 0 0.1999317510848099 0.43097584272053618 0 0.2111195299095035 0.44359306409302351 0 0.21739304288862979 0.43200563017257382 0 0.21370806227123909 0.41789950377956148 0 0.1999317510848099 0.43097584272053618 0 0.21370806227123909 0.41789950377956148 0 0.19877798755638451 0.41086714246249401 0 0.1999317510848099 0.43097584272053618 0 0.21316338490038089 0.39704202397260657 0 0.21370806227123909 0.41789950377956148 0 0.19877798755638451 0.41086714246249401 0 0.18469425222239219 0.42125941149134333 0 0.19877798755638451 0.41086714246249401 0 0.1999317510848099 0.43097584272053618 0 0.18469425222239219 0.42125941149134333 0 0.1843100454414533 0.40126956181167389 0 0.19877798755638451 0.41086714246249401 0 0.18469425222239219 0.42125941149134333 0 0.1999317510848099 0.43097584272053618 0 0.1809560021812836 0.43814832633623357 0 0.1999317510848099 0.43097584272053618 0 0.19479511809318301 0.4526549487178691 0 0.2111195299095035 0.44359306409302351 0 0.1999317510848099 0.43097584272053618 0 0.19479511809318301 0.4526549487178691 0 0.1809560021812836 0.43814832633623357 0 0.19479511809318301 0.4526549487178691 0 0.213169792932182 0.46047172596691099 0 0.19211155850092579 0.47790980627879082 0 0.19479511809318301 0.4526549487178691 0 0.19211155850092579 0.47790980627879082 0 0.18348770279874721 0.46143911161818069 0 0.213169792932182 0.46047172596691099 0 0.2111195299095035 0.44359306409302351 0 0.22996656543308741 0.44177288309861867 0 0.19479511809318301 0.4526549487178691 0 0.213169792932182 0.46047172596691099 0 0.2111195299095035 0.44359306409302351 0 0.21739304288862979 0.43200563017257382 0 0.2111195299095035 0.44359306409302351 0 0.22996656543308741 0.44177288309861867 0 0.22996656543308741 0.44177288309861867 0 0.22854105436186559 0.46372788353366717 0 0.24141841662185301 0.45603819576859073 0 0.213169792932182 0.46047172596691099 0 0.22854105436186559 0.46372788353366717 0 0.221321310837439 0.47674074212904899 0 0.213169792932182 0.46047172596691099 0 0.22996656543308741 0.44177288309861867 0 0.22854105436186559 0.46372788353366717 0 0.24141841662185301 0.45603819576859073 0 0.23645949407781469 0.47608243786178739 0 0.25047151807745072 0.47036873115219768 0 0.22854105436186559 0.46372788353366717 0 0.24141841662185301 0.45603819576859073 0 0.23645949407781469 0.47608243786178739 0 0.24141841662185301 0.45603819576859073 0 0.25047151807745072 0.47036873115219768 0 0.25477099823403621 0.45804476415031298 0 0.24141841662185301 0.45603819576859073 0 0.25282491994113748 0.44831200937164878 0 0.25477099823403621 0.45804476415031298 0 0.22996656543308741 0.44177288309861867 0 0.24141841662185301 0.45603819576859073 0 0.24583280085865111 0.44361242472787987 0 0.24946733303660301 0.43176723098649622 0 0.22996656543308741 0.44177288309861867 0 0.24583280085865111 0.44361242472787987 0 0.24141841662185301 0.45603819576859073 0 0.24583280085865111 0.44361242472787987 0 0.25282491994113748 0.44831200937164878 0 0.24904418528453851 0.48634810883828161 0 0.23645949407781469 0.47608243786178739 0 0.23352830384551029 0.49999999999999978 0 0.24904418528453851 0.48634810883828161 0 0.23352830384551029 0.49999999999999978 0 0.25181722630913472 0.5 0 0.24904418528453851 0.48634810883828161 0 0.23645949407781469 0.47608243786178739 0 0.25047151807745072 0.47036873115219768 0 0.23645949407781469 0.47608243786178739 0 0.221321310837439 0.47674074212904899 0 0.23352830384551029 0.49999999999999978 0 0.22854105436186559 0.46372788353366717 0 0.23645949407781469 0.47608243786178739 0 0.221321310837439 0.47674074212904899 0 0.23352830384551029 0.49999999999999978 0 0.2128199311732181 0.48895490313939532 0 0.21702906166474581 0.5 0 0.23352830384551029 0.49999999999999978 0 0.2128199311732181 0.48895490313939532 0 0.221321310837439 0.47674074212904899 0 0.23352830384551029 0.49999999999999978 0 0.2128199311732181 0.48895490313939532 0 0.2128199311732181 0.48895490313939532 0 0.21702906166474581 0.5 0 0.20052981948398141 0.49999999999999989 0 0.213169792932182 0.46047172596691099 0 0.221321310837439 0.47674074212904899 0 0.19211155850092579 0.47790980627879082 0 0.221321310837439 0.47674074212904899 0 0.2128199311732181 0.48895490313939532 0 0.19211155850092579 0.47790980627879082 0 0.2128199311732181 0.48895490313939532 0 0.19211155850092579 0.47790980627879082 0 0.2128199311732181 0.48895490313939532 0 0.20052981948398141 0.49999999999999989 0 0.19295831529489699 0.4905304616351287 0 0.2128199311732181 0.48895490313939532 0 0.19211155850092579 0.47790980627879082 0 0.19295831529489699 0.4905304616351287 0 0.20052981948398141 0.49999999999999989 0 0.1839227339461352 0.49861489743603538 0 0.20052981948398141 0.49999999999999989 0 0.19295831529489699 0.4905304616351287 0 0.1839227339461352 0.49861489743603538 0 0.19211155850092579 0.47790980627879082 0 0.19295831529489699 0.4905304616351287 0 0.1809625144841838 0.48570342190566712 0 0.1839227339461352 0.49861489743603538 0 0.1809625144841838 0.48570342190566712 0 0.16731564840828889 0.49722979487207219 0 0.1839227339461352 0.49861489743603538 0 0.16731564840828889 0.49722979487207219 0 0.1839227339461352 0.49861489743603538 0 0.1669427425872391 0.49999999999999922 0 0.16731564840828889 0.49722979487207219 0 0.19295831529489699 0.4905304616351287 0 0.1839227339461352 0.49861489743603538 0 0.1809625144841838 0.48570342190566712 0 0.1809625144841838 0.48570342190566712 0 0.16731564840828889 0.49722979487207219 0 0.16935941711846161 0.48204725214512889 0 0.16731564840828889 0.49722979487207219 0 0.157708884996551 0.48584061526662409 0 0.14611751268168829 0.49546177892012921 0 0.16731564840828889 0.49722979487207219 0 0.14611751268168829 0.49546177892012921 0 0.1669427425872391 0.49999999999999922 0 0.16731564840828889 0.49722979487207219 0 0.14611751268168829 0.49546177892012921 0 0.1669427425872391 0.49999999999999922 0 0.16731564840828889 0.49722979487207219 0 0.16731564840828889 0.49722979487207219 0 0.16935941711846161 0.48204725214512889 0 0.16731564840828889 0.49722979487207219 0 0.157708884996551 0.48584061526662409 0 0.16935941711846161 0.48204725214512889 0 0.16382575626869561 0.4735735187060508 0 0.15802571703479451 0.46684670821381258 0 0.1531189490294651 0.47544631339495541 0 0.157708884996551 0.48584061526662409 0 0.16382575626869561 0.4735735187060508 0 0.1531189490294651 0.47544631339495541 0 0.157708884996551 0.48584061526662409 0 0.16382575626869561 0.4735735187060508 0 0.16935941711846161 0.48204725214512889 0 0.16935941711846161 0.48204725214512889 0 0.17140318582863401 0.46686470941818559 0 0.16382575626869561 0.4735735187060508 0 0.16935941711846161 0.48204725214512889 0 0.17140318582863401 0.46686470941818559 0 0.1809625144841838 0.48570342190566712 0 0.16935941711846161 0.48204725214512889 0 0.17140318582863401 0.46686470941818559 0 0.19211155850092579 0.47790980627879082 0 0.1809625144841838 0.48570342190566712 0 0.17140318582863401 0.46686470941818559 0 0.19211155850092579 0.47790980627879082 0 0.17140318582863401 0.46686470941818559 0 0.19479511809318301 0.4526549487178691 0 0.18348770279874721 0.46143911161818069 0 0.17341546959919829 0.45191605883299152 0 0.19211155850092579 0.47790980627879082 0 0.18348770279874721 0.46143911161818069 0 0.17140318582863401 0.46686470941818559 0 0.18348770279874721 0.46143911161818069 0 0.17341546959919829 0.45191605883299152 0 0.17140318582863401 0.46686470941818559 0 0.17341546959919829 0.45191605883299152 0 0.17140318582863401 0.46686470941818559 0 0.19479511809318301 0.4526549487178691 0 0.1809560021812836 0.43814832633623357 0 0.17341546959919829 0.45191605883299152 0 0.1809560021812836 0.43814832633623357 0 0.17341546959919829 0.45191605883299152 0 0.16598328874466911 0.44273574664910909 0 0.17341546959919829 0.45191605883299152 0 0.16598328874466911 0.44273574664910909 0 0.15954778128093949 0.4508222386347599 0 0.16598328874466911 0.44273574664910909 0 0.15954778128093949 0.4508222386347599 0 0.1507341445198021 0.44370602134863157 0 0.16526304614212209 0.42908608809292892 0 0.16598328874466911 0.44273574664910909 0 0.1507341445198021 0.44370602134863157 0 0.16382575626869561 0.4735735187060508 0 0.1651762257979181 0.46354347419730452 0 0.17140318582863401 0.46686470941818559 0 0.1651762257979181 0.46354347419730452 0 0.17140318582863401 0.46686470941818559 0 0.17341546959919829 0.45191605883299152 0 0.1651762257979181 0.46354347419730452 0 0.17140318582863401 0.46686470941818559 0 0.17341546959919829 0.45191605883299152 0 0.15954778128093949 0.4508222386347599 0 0.1651762257979181 0.46354347419730452 0 0.15954778128093949 0.4508222386347599 0 0.1651762257979181 0.46354347419730452 0 0.1582471669695637 0.45974252444074731 0 0.16382575626869561 0.4735735187060508 0 0.1651762257979181 0.46354347419730452 0 0.15802571703479451 0.46684670821381258 0 0.1651762257979181 0.46354347419730452 0 0.1582471669695637 0.45974252444074731 0 0.15802571703479451 0.46684670821381258 0 0.14976048710833001 0.46192771033000529 0 0.1507341445198021 0.44370602134863157 0 0.136404492151351 0.45486193181106682 0 0.1582471669695637 0.45974252444074731 0 0.15802571703479451 0.46684670821381258 0 0.14976048710833001 0.46192771033000529 0 0.15802571703479451 0.46684670821381258 0 0.14976048710833001 0.46192771033000529 0 0.1531189490294651 0.47544631339495541 0 0.15954778128093949 0.4508222386347599 0 0.1582471669695637 0.45974252444074731 0 0.14976048710833001 0.46192771033000529 0 0.14976048710833001 0.46192771033000529 0 0.136404492151351 0.45486193181106682 0 0.13663143795624749 0.46910754811773492 0 0.15954778128093949 0.4508222386347599 0 0.14976048710833001 0.46192771033000529 0 0.1507341445198021 0.44370602134863157 0 0.1507341445198021 0.44370602134863157 0 0.13510526379757609 0.44116740875256688 0 0.136404492151351 0.45486193181106682 0 0.1221607865463437 0.4507156547582637 0 0.12259086230274099 0.42947812748907283 0 0.13510526379757609 0.44116740875256688 0 0.1221607865463437 0.4507156547582637 0 0.13510526379757609 0.44116740875256688 0 0.136404492151351 0.45486193181106682 0 0.136404492151351 0.45486193181106682 0 0.1267882431275838 0.46370707134437261 0 0.13663143795624749 0.46910754811773492 0 0.1221607865463437 0.4507156547582637 0 0.136404492151351 0.45486193181106682 0 0.1267882431275838 0.46370707134437261 0 0.1267882431275838 0.46370707134437261 0 0.12569724768963239 0.47617993877849962 0 0.13663143795624749 0.46910754811773492 0 0.12569724768963239 0.47617993877849962 0 0.13663143795624749 0.46910754811773492 0 0.1364132019148096 0.48384982340983701 0 0.13663143795624749 0.46910754811773492 0 0.1364132019148096 0.48384982340983701 0 0.14361111091913481 0.47574478002545789 0 0.1249193769550877 0.49369376296818718 0 0.1364132019148096 0.48384982340983701 0 0.14611751268168829 0.49546177892012921 0 0.1249193769550877 0.49369376296818718 0 0.14611751268168829 0.49546177892012921 0 0.1249193769550877 0.49369376296818718 0 0.12569724768963239 0.47617993877849962 0 0.1364132019148096 0.48384982340983701 0 0.1249193769550877 0.49369376296818718 0 0.13738437864054501 0.5 0 0.14611751268168829 0.49546177892012921 0 0.1364132019148096 0.48384982340983701 0 0.14611751268168829 0.49546177892012921 0 0.14718343377546941 0.48347361591025501 0 0.1669427425872391 0.49999999999999922 0 0.13738437864054501 0.5 0 0.14611751268168829 0.49546177892012921 0 0.157708884996551 0.48584061526662409 0 0.14611751268168829 0.49546177892012921 0 0.14718343377546941 0.48347361591025501 0 0.157708884996551 0.48584061526662409 0 0.1531189490294651 0.47544631339495541 0 0.14718343377546941 0.48347361591025501 0 0.14976048710833001 0.46192771033000529 0 0.1531189490294651 0.47544631339495541 0 0.14361111091913481 0.47574478002545789 0 0.14976048710833001 0.46192771033000529 0 0.13663143795624749 0.46910754811773492 0 0.14361111091913481 0.47574478002545789 0 0.1364132019148096 0.48384982340983701 0 0.14361111091913481 0.47574478002545789 0 0.14718343377546941 0.48347361591025501 0 0.1531189490294651 0.47544631339495541 0 0.14361111091913481 0.47574478002545789 0 0.14718343377546941 0.48347361591025501 0 0.35832214194920592 0.47929915408112939 0 0.34611268429232461 0.46591887339206078 0 0.3375369348076922 0.4829399206954248 0 0.35832214194920592 0.47929915408112939 0 0.35850557312216419 0.5 0 0.3375369348076922 0.4829399206954248 0 0.35850557312216419 0.5 0 0.37801407526051067 0.48065415083330842 0 0.38797204790529932 0.5 0 0.35832214194920592 0.47929915408112939 0 0.35850557312216419 0.5 0 0.37801407526051067 0.48065415083330842 0 0.35832214194920592 0.47929915408112939 0 0.36980735363827261 0.46050290225189661 0 0.37801407526051067 0.48065415083330842 0 0.36980735363827261 0.46050290225189661 0 0.34502769605759259 0.44546544446971242 0 0.36959298495063608 0.43610817863788948 0 0.35832214194920592 0.47929915408112939 0 0.36980735363827261 0.46050290225189661 0 0.34611268429232461 0.46591887339206078 0 0.36980735363827261 0.46050290225189661 0 0.34502769605759259 0.44546544446971242 0 0.34611268429232461 0.46591887339206078 0 0.36980735363827261 0.46050290225189661 0 0.34611268429232461 0.46591887339206078 0 0.34611268429232461 0.46591887339206078 0 0.3317687487832644 0.45597005559148451 0 0.32241801494637662 0.47133484453222518 0 0.34502769605759259 0.44546544446971242 0 0.34611268429232461 0.46591887339206078 0 0.3317687487832644 0.45597005559148451 0 0.34611268429232461 0.46591887339206078 0 0.32241801494637662 0.47133484453222518 0 0.34502769605759259 0.44546544446971242 0 0.3317687487832644 0.45597005559148451 0 0.32480939915707069 0.44218818576869201 0 0.34502769605759259 0.44546544446971242 0 0.32480939915707069 0.44218818576869201 0 0.33523501366627878 0.43221560569608392 0 0.3107318966111981 0.4514989769174147 0 0.3227404476219688 0.42624713816244092 0 0.3317687487832644 0.45597005559148451 0 0.32480939915707069 0.44218818576869201 0 0.3107318966111981 0.4514989769174147 0 0.32480939915707069 0.44218818576869201 0 0.3107318966111981 0.4514989769174147 0 0.3227404476219688 0.42624713816244092 0 0.3317687487832644 0.45597005559148451 0 0.32241801494637662 0.47133484453222518 0 0.3107318966111981 0.4514989769174147 0 0.32241801494637662 0.47133484453222518 0 0.3375369348076922 0.4829399206954248 0 0.31372501333874958 0.48784291822244708 0 0.34611268429232461 0.46591887339206078 0 0.32241801494637662 0.47133484453222518 0 0.3375369348076922 0.4829399206954248 0 0.35850557312216419 0.5 0 0.3375369348076922 0.4829399206954248 0 0.32903909833902928 0.5 0 0.32903909833902928 0.5 0 0.31372501333874958 0.48784291822244708 0 0.29957262355589431 0.5 0 0.3375369348076922 0.4829399206954248 0 0.32903909833902928 0.5 0 0.31372501333874958 0.48784291822244708 0 0.31372501333874958 0.48784291822244708 0 0.30130976803097798 0.48891801032572652 0 0.29957262355589431 0.5 0 0.31372501333874958 0.48784291822244708 0 0.30130976803097798 0.48891801032572652 0 0.29872334560042851 0.47675081567238892 0 0.30130976803097798 0.48891801032572652 0 0.29957262355589431 0.5 0 0.28978827390519868 0.49553967616935518 0 0.32241801494637662 0.47133484453222518 0 0.29872334560042851 0.47675081567238892 0 0.32241801494637662 0.47133484453222518 0 0.31372501333874958 0.48784291822244708 0 0.29872334560042851 0.47675081567238892 0 0.29872334560042851 0.47675081567238892 0 0.28397488520641462 0.48012192141307769 0 0.28978827390519868 0.49553967616935518 0 0.29872334560042851 0.47675081567238892 0 0.28929399795500932 0.47058792179259418 0 0.29703527816799058 0.46117092995693892 0 0.29872334560042851 0.47675081567238892 0 0.28929399795500932 0.47058792179259418 0 0.28397488520641462 0.48012192141307769 0 0.29872334560042851 0.47675081567238892 0 0.28397488520641462 0.48012192141307769 0 0.28929399795500932 0.47058792179259418 0 0.28397488520641462 0.48012192141307769 0 0.27920072977811172 0.47805830749059319 0 0.28397488520641462 0.48012192141307769 0 0.28978827390519868 0.49553967616935518 0 0.27010614877275918 0.50000000000000067 0 0.29957262355589431 0.5 0 0.28978827390519868 0.49553967616935518 0 0.27010614877275918 0.50000000000000067 0 0.30130976803097798 0.48891801032572652 0 0.29872334560042851 0.47675081567238892 0 0.28978827390519868 0.49553967616935518 0 0.29872334560042851 0.47675081567238892 0 0.28978827390519868 0.49553967616935518 0 0.28397488520641462 0.48012192141307769 0 0.27010614877275918 0.50000000000000067 0 0.27920072977811172 0.47805830749059319 0 0.27010614877275918 0.50000000000000067 0 0.26909437115437917 0.48384867389528768 0 0.26130641782501518 0.49139676135406141 0 0.27010614877275918 0.50000000000000067 0 0.27920072977811172 0.47805830749059319 0 0.26909437115437917 0.48384867389528768 0 0.27010614877275918 0.50000000000000067 0 0.27920072977811172 0.47805830749059319 0 0.27920072977811172 0.47805830749059319 0 0.27306774476234302 0.47644699960251641 0 0.26909437115437917 0.48384867389528768 0 0.27920072977811172 0.47805830749059319 0 0.27306774476234302 0.47644699960251641 0 0.27643472525740193 0.46726539210963169 0 0.26824582816420722 0.47348896141386071 0 0.27306774476234302 0.47644699960251641 0 0.27643472525740193 0.46726539210963169 0 0.26824582816420722 0.47348896141386071 0 0.26909437115437917 0.48384867389528768 0 0.25993240985832161 0.47939275616227872 0 0.26824582816420722 0.47348896141386071 0 0.27306774476234302 0.47644699960251641 0 0.26909437115437917 0.48384867389528768 0 0.24904418528453851 0.48634810883828161 0 0.25993240985832161 0.47939275616227872 0 0.25047151807745072 0.47036873115219768 0 0.26824582816420722 0.47348896141386071 0 0.25993240985832161 0.47939275616227872 0 0.26165523792153211 0.46576309323832682 0 0.25993240985832161 0.47939275616227872 0 0.25047151807745072 0.47036873115219768 0 0.26165523792153211 0.46576309323832682 0 0.27010614877275918 0.50000000000000067 0 0.25181722630913472 0.5 0 0.26130641782501518 0.49139676135406141 0 0.24904418528453851 0.48634810883828161 0 0.25993240985832161 0.47939275616227872 0 0.26130641782501518 0.49139676135406141 0 0.24904418528453851 0.48634810883828161 0 0.25181722630913472 0.5 0 0.26130641782501518 0.49139676135406141 0 0.26909437115437917 0.48384867389528768 0 0.25993240985832161 0.47939275616227872 0 0.26130641782501518 0.49139676135406141 0 0.26490489917960358 0.45079530358348557 0 0.25548676926057468 0.44017180441404491 0 0.26331147225899149 0.43380076267102891 0 0.24946733303660301 0.43176723098649622 0 0.24583280085865111 0.44361242472787987 0 0.25548676926057468 0.44017180441404491 0 0.24583280085865111 0.44361242472787987 0 0.25548676926057468 0.44017180441404491 0 0.25282491994113748 0.44831200937164878 0 0.26490489917960358 0.45079530358348557 0 0.25548676926057468 0.44017180441404491 0 0.25282491994113748 0.44831200937164878 0 0.26490489917960358 0.45079530358348557 0 0.25282491994113748 0.44831200937164878 0 0.25477099823403621 0.45804476415031298 0 0.25047151807745072 0.47036873115219768 0 0.25477099823403621 0.45804476415031298 0 0.26165523792153211 0.46576309323832682 0 0.26490489917960358 0.45079530358348557 0 0.25477099823403621 0.45804476415031298 0 0.26165523792153211 0.46576309323832682 0 0.26490489917960358 0.45079530358348557 0 0.27160577401557351 0.46248804296782559 0 0.27679169795675967 0.45600994403837303 0 0.26490489917960358 0.45079530358348557 0 0.26165523792153211 0.46576309323832682 0 0.27160577401557351 0.46248804296782559 0 0.26824582816420722 0.47348896141386071 0 0.27160577401557351 0.46248804296782559 0 0.27643472525740193 0.46726539210963169 0 0.26824582816420722 0.47348896141386071 0 0.26165523792153211 0.46576309323832682 0 0.27160577401557351 0.46248804296782559 0 0.27160577401557351 0.46248804296782559 0 0.27643472525740193 0.46726539210963169 0 0.27679169795675967 0.45600994403837303 0 0.27643472525740193 0.46726539210963169 0 0.27679169795675967 0.45600994403837303 0 0.28829531078346382 0.45611661498118572 0 0.27903440424894049 0.4453257315987294 0 0.26331147225899149 0.43380076267102891 0 0.26490489917960358 0.45079530358348557 0 0.27903440424894049 0.4453257315987294 0 0.26331147225899149 0.43380076267102891 0 0.26490489917960358 0.45079530358348557 0 0.27679169795675967 0.45600994403837303 0 0.27903440424894049 0.4453257315987294 0 0.27903440424894049 0.4453257315987294 0 0.2917470315179379 0.44281751567604499 0 0.28179675760275558 0.42932557237874241 0 0.27679169795675967 0.45600994403837303 0 0.27903440424894049 0.4453257315987294 0 0.28829531078346382 0.45611661498118572 0 0.27903440424894049 0.4453257315987294 0 0.2917470315179379 0.44281751567604499 0 0.28829531078346382 0.45611661498118572 0 0.2917470315179379 0.44281751567604499 0 0.28829531078346382 0.45611661498118572 0 0.29813183988985342 0.45090032042111128 0 0.27920072977811172 0.47805830749059319 0 0.27643472525740193 0.46726539210963169 0 0.28829531078346382 0.45611661498118572 0 0.28929399795500932 0.47058792179259418 0 0.27920072977811172 0.47805830749059319 0 0.28829531078346382 0.45611661498118572 0 0.27920072977811172 0.47805830749059319 0 0.28829531078346382 0.45611661498118572 0 0.28829531078346382 0.45611661498118572 0 0.29703527816799058 0.46117092995693892 0 0.29813183988985342 0.45090032042111128 0 0.28929399795500932 0.47058792179259418 0 0.28829531078346382 0.45611661498118572 0 0.29703527816799058 0.46117092995693892 0 0.29872334560042851 0.47675081567238892 0 0.29703527816799058 0.46117092995693892 0 0.3107318966111981 0.4514989769174147 0 0.29872334560042851 0.47675081567238892 0 0.3107318966111981 0.4514989769174147 0 0.32241801494637662 0.47133484453222518 0 0.29872334560042851 0.47675081567238892 0 0.3107318966111981 0.4514989769174147 0 0.29703527816799058 0.46117092995693892 0 0.29813183988985342 0.45090032042111128 0 0.3107318966111981 0.4514989769174147 0 0.30159082278473881 0.44219288247638061 0 0.3107318966111981 0.4514989769174147 0 0.30884109342504262 0.43428586920116352 0 0.2917470315179379 0.44281751567604499 0 0.30159082278473881 0.44219288247638061 0 0.29850225247966211 0.43146173016616862 0 0.2917470315179379 0.44281751567604499 0 0.30159082278473881 0.44219288247638061 0 0.29813183988985342 0.45090032042111128 0 0.30159082278473881 0.44219288247638061 0 0.29813183988985342 0.45090032042111128 0 0.3107318966111981 0.4514989769174147 0 0.30884109342504262 0.43428586920116352 0 0.29850225247966211 0.43146173016616862 0 0.30862162828234507 0.42004495563460759 0 0.29850225247966211 0.43146173016616862 0 0.30862162828234507 0.42004495563460759 0 0.29547148538100448 0.41817397575591742 0 0.30159082278473881 0.44219288247638061 0 0.30884109342504262 0.43428586920116352 0 0.29850225247966211 0.43146173016616862 0 0.30862162828234507 0.42004495563460759 0 0.30304430461131138 0.40735012112542651 0 0.3196782615082488 0.40265332564926309 0 0.30862162828234507 0.42004495563460759 0 0.30304430461131138 0.40735012112542651 0 0.29547148538100448 0.41817397575591742 0 0.30304430461131138 0.40735012112542651 0 0.29062365375375682 0.40708788978866228 0 0.29547148538100448 0.41817397575591742 0 0.29062365375375682 0.40708788978866228 0 0.29547148538100448 0.41817397575591742 0 0.28288479604298378 0.41446876034122271 0 0.29547148538100448 0.41817397575591742 0 0.28288479604298378 0.41446876034122271 0 0.28179675760275558 0.42932557237874241 0 0.29062365375375682 0.40708788978866228 0 0.28288479604298378 0.41446876034122271 0 0.28001120465417539 0.40182109974822727 0 0.29850225247966211 0.43146173016616862 0 0.29547148538100448 0.41817397575591742 0 0.28179675760275558 0.42932557237874241 0 0.2917470315179379 0.44281751567604499 0 0.29850225247966211 0.43146173016616862 0 0.28179675760275558 0.42932557237874241 0 0.28179675760275558 0.42932557237874241 0 0.27042562322166658 0.41684269204638819 0 0.26331147225899149 0.43380076267102891 0 0.27903440424894049 0.4453257315987294 0 0.28179675760275558 0.42932557237874241 0 0.26331147225899149 0.43380076267102891 0 0.27042562322166658 0.41684269204638819 0 0.26380858941988822 0.4002294757553399 0 0.28001120465417539 0.40182109974822727 0 0.28288479604298378 0.41446876034122271 0 0.28179675760275558 0.42932557237874241 0 0.27042562322166658 0.41684269204638819 0 0.28288479604298378 0.41446876034122271 0 0.27042562322166658 0.41684269204638819 0 0.28001120465417539 0.40182109974822727 0 0.24649952449278431 0.42147754103885982 0 0.25492995388566009 0.41993008507457552 0 0.26380858941988822 0.4002294757553399 0 0.27042562322166658 0.41684269204638819 0 0.25492995388566009 0.41993008507457552 0 0.26380858941988822 0.4002294757553399 0 0.24649952449278431 0.42147754103885982 0 0.26380858941988822 0.4002294757553399 0 0.2429624777480478 0.39890547698508871 0 0.24649952449278431 0.42147754103885982 0 0.26380858941988822 0.4002294757553399 0 0.24946733303660301 0.43176723098649622 0 0.24649952449278431 0.42147754103885982 0 0.26331147225899149 0.43380076267102891 0 0.24649952449278431 0.42147754103885982 0 0.25492995388566009 0.41993008507457552 0 0.26331147225899149 0.43380076267102891 0 0.24649952449278431 0.42147754103885982 0 0.26331147225899149 0.43380076267102891 0 0.27042562322166658 0.41684269204638819 0 0.25492995388566009 0.41993008507457552 0 0.26331147225899149 0.43380076267102891 0 0.24946733303660301 0.43176723098649622 0 0.25548676926057468 0.44017180441404491 0 0.26331147225899149 0.43380076267102891 0 0.26350653962281989 0.38010735630523079 0 0.25341304662754638 0.38974012394171498 0 0.26380858941988822 0.4002294757553399 0 0.26350653962281989 0.38010735630523079 0 0.25383912625151372 0.37755129754335942 0 0.25710864090743918 0.37145542319719338 0 0.26350653962281989 0.38010735630523079 0 0.25383912625151372 0.37755129754335942 0 0.25341304662754638 0.38974012394171498 0 0.2429624777480478 0.39890547698508871 0 0.25341304662754638 0.38974012394171498 0 0.26380858941988822 0.4002294757553399 0 0.26380858941988822 0.4002294757553399 0 0.28001120465417539 0.40182109974822727 0 0.28036865154730628 0.37990086281960789 0 0.26350653962281989 0.38010735630523079 0 0.28036865154730628 0.37990086281960789 0 0.2641967246118288 0.36596915937278562 0 0.26380858941988822 0.4002294757553399 0 0.28036865154730628 0.37990086281960789 0 0.26350653962281989 0.38010735630523079 0 0.26380858941988822 0.4002294757553399 0 0.28036865154730628 0.37990086281960789 0 0.28036865154730628 0.37990086281960789 0 0.29170647807930872 0.39362549197251728 0 0.2987730087010142 0.37934426936791982 0 0.28036865154730628 0.37990086281960789 0 0.29170647807930872 0.39362549197251728 0 0.28001120465417539 0.40182109974822727 0 0.28036865154730628 0.37990086281960789 0 0.29170647807930872 0.39362549197251728 0 0.29062365375375682 0.40708788978866228 0 0.28001120465417539 0.40182109974822727 0 0.29170647807930872 0.39362549197251728 0 0.30304430461131138 0.40735012112542651 0 0.29062365375375682 0.40708788978866228 0 0.29170647807930872 0.39362549197251728 0 0.30304430461131138 0.40735012112542651 0 0.30637452063024528 0.39219955594670219 0 0.3196782615082488 0.40265332564926309 0 0.30304430461131138 0.40735012112542651 0 0.29170647807930872 0.39362549197251728 0 0.30304430461131138 0.40735012112542651 0 0.29170647807930872 0.39362549197251728 0 0.30637452063024528 0.39219955594670219 0 0.30637452063024528 0.39219955594670219 0 0.2987730087010142 0.37934426936791982 0 0.31661607539452802 0.37905951313608538 0 0.29170647807930872 0.39362549197251728 0 0.30637452063024528 0.39219955594670219 0 0.2987730087010142 0.37934426936791982 0 0.31661607539452802 0.37905951313608538 0 0.32905198958534931 0.38831461949406398 0 0.3196782615082488 0.40265332564926309 0 0.31661607539452802 0.37905951313608538 0 0.32905198958534931 0.38831461949406398 0 0.33389487655237682 0.3658352592629312 0 0.32905198958534931 0.38831461949406398 0 0.34270248502322931 0.38427053755298168 0 0.33389487655237682 0.3658352592629312 0 0.32905198958534931 0.38831461949406398 0 0.34270248502322931 0.38427053755298168 0 0.33272146632259869 0.40525883785771122 0 0.34270248502322931 0.38427053755298168 0 0.33272146632259869 0.40525883785771122 0 0.34270248502322931 0.38427053755298168 0 0.33272146632259869 0.40525883785771122 0 0.34670895149724801 0.40816004440777182 0 0.31661607539452802 0.37905951313608538 0 0.3196782615082488 0.40265332564926309 0 0.32905198958534931 0.38831461949406398 0 0.33272146632259869 0.40525883785771122 0 0.3196782615082488 0.40265332564926309 0 0.30637452063024528 0.39219955594670219 0 0.31661607539452802 0.37905951313608538 0 0.3196782615082488 0.40265332564926309 0 0.3196782615082488 0.40265332564926309 0 0.3227404476219688 0.42624713816244092 0 0.30862162828234507 0.42004495563460759 0 0.3196782615082488 0.40265332564926309 0 0.3227404476219688 0.42624713816244092 0 0.33272146632259869 0.40525883785771122 0 0.3196782615082488 0.40265332564926309 0 0.3227404476219688 0.42624713816244092 0 0.33272146632259869 0.40525883785771122 0 0.3227404476219688 0.42624713816244092 0 0.32480939915707069 0.44218818576869201 0 0.3227404476219688 0.42624713816244092 0 0.3107318966111981 0.4514989769174147 0 0.30884109342504262 0.43428586920116352 0 0.3227404476219688 0.42624713816244092 0 0.32480939915707069 0.44218818576869201 0 0.3227404476219688 0.42624713816244092 0 0.33523501366627878 0.43221560569608392 0 0.30884109342504262 0.43428586920116352 0 0.30862162828234507 0.42004495563460759 0 0.3227404476219688 0.42624713816244092 0 0.34502769605759259 0.44546544446971242 0 0.33523501366627878 0.43221560569608392 0 0.34795858503051302 0.425881111768525 0 0.3227404476219688 0.42624713816244092 0 0.33523501366627878 0.43221560569608392 0 0.33659904832278342 0.4201421825902541 0 0.33523501366627878 0.43221560569608392 0 0.33659904832278342 0.4201421825902541 0 0.34795858503051302 0.425881111768525 0 0.33272146632259869 0.40525883785771122 0 0.3227404476219688 0.42624713816244092 0 0.33659904832278342 0.4201421825902541 0 0.33272146632259869 0.40525883785771122 0 0.33659904832278342 0.4201421825902541 0 0.34670895149724801 0.40816004440777182 0 0.33659904832278342 0.4201421825902541 0 0.34670895149724801 0.40816004440777182 0 0.34795858503051302 0.425881111768525 0 0.34670895149724801 0.40816004440777182 0 0.34795858503051302 0.425881111768525 0 0.36336601300371613 0.41450991002864218 0 0.34670895149724801 0.40816004440777182 0 0.36336601300371613 0.41450991002864218 0 0.35690611128064731 0.3988976866485166 0 0.34502769605759259 0.44546544446971242 0 0.34795858503051302 0.425881111768525 0 0.36959298495063608 0.43610817863788948 0 0.34795858503051302 0.425881111768525 0 0.36959298495063608 0.43610817863788948 0 0.36336601300371613 0.41450991002864218 0 0.36959298495063608 0.43610817863788948 0 0.36336601300371613 0.41450991002864218 0 0.38530342098431941 0.41064856824057122 0 0.36336601300371613 0.41450991002864218 0 0.3736470799201031 0.39378130610698531 0 0.38530342098431941 0.41064856824057122 0 0.3736470799201031 0.39378130610698531 0 0.3601059063978746 0.38125551426405008 0 0.35690611128064731 0.3988976866485166 0 0.36336601300371613 0.41450991002864218 0 0.3736470799201031 0.39378130610698531 0 0.35690611128064731 0.3988976866485166 0 0.3736470799201031 0.39378130610698531 0 0.3601059063978746 0.38125551426405008 0 0.37414389550204002 0.36898578533419818 0 0.34270248502322931 0.38427053755298168 0 0.3601059063978746 0.38125551426405008 0 0.35690611128064731 0.3988976866485166 0 0.34270248502322931 0.38427053755298168 0 0.3601059063978746 0.38125551426405008 0 0.35268350372385993 0.36328223724825232 0 0.34270248502322931 0.38427053755298168 0 0.34670895149724801 0.40816004440777182 0 0.35690611128064731 0.3988976866485166 0 0.35268350372385993 0.36328223724825232 0 0.36266452242448938 0.34229393694352239 0 0.35030182712711511 0.35130594720886232 0 0.35268350372385993 0.36328223724825232 0 0.36266452242448938 0.34229393694352239 0 0.35030182712711511 0.35130594720886232 0 0.35146565257524442 0.34420791440797271 0 0.36266452242448938 0.34229393694352239 0 0.35030182712711511 0.35130594720886232 0 0.35146565257524442 0.34420791440797271 0 0.34269927497721508 0.34493512072036142 0 0.35030182712711511 0.35130594720886232 0 0.35268350372385993 0.36328223724825232 0 0.33389487655237682 0.3658352592629312 0 0.34270248502322931 0.38427053755298168 0 0.35268350372385993 0.36328223724825232 0 0.3601059063978746 0.38125551426405008 0 0.35268350372385993 0.36328223724825232 0 0.37414389550204002 0.36898578533419818 0 0.35268350372385993 0.36328223724825232 0 0.37414389550204002 0.36898578533419818 0 0.36300645299402812 0.35604351837507042 0 0.37414389550204002 0.36898578533419818 0 0.37228166628853332 0.35471301169251829 0 0.36300645299402812 0.35604351837507042 0 0.35268350372385993 0.36328223724825232 0 0.36300645299402812 0.35604351837507042 0 0.36266452242448938 0.34229393694352239 0 0.37228166628853332 0.35471301169251829 0 0.36300645299402812 0.35604351837507042 0 0.36840829020790361 0.34668560051738673 0 0.36300645299402812 0.35604351837507042 0 0.36840829020790361 0.34668560051738673 0 0.36266452242448938 0.34229393694352239 0 0.36840829020790361 0.34668560051738673 0 0.36266452242448938 0.34229393694352239 0 0.36587418437400321 0.34278907974668538 0 0.37228166628853332 0.35471301169251829 0 0.36840829020790361 0.34668560051738673 0 0.37486749369974542 0.34694596905823039 0 0.37486749369974542 0.34694596905823039 0 0.37256750073976291 0.34304532959464751 0 0.37670219357667811 0.34177383067972761 0 0.36840829020790361 0.34668560051738673 0 0.37486749369974542 0.34694596905823039 0 0.37256750073976291 0.34304532959464751 0 0.36124897776362869 0.33531944770056321 0 0.36266452242448938 0.34229393694352239 0 0.36411885078159001 0.32644375487552563 0 0.37256750073976291 0.34304532959464751 0 0.36916640720496519 0.34145859007673351 0 0.37369311900952262 0.33836265764115908 0 0.37256750073976291 0.34304532959464751 0 0.37369311900952262 0.33836265764115908 0 0.37670219357667811 0.34177383067972761 0 0.36266452242448938 0.34229393694352239 0 0.37014896644917339 0.316543878568457 0 0.36770298492566261 0.33637877995368609 0 0.36266452242448938 0.34229393694352239 0 0.37368960646642962 0.31911015363466272 0 0.36770298492566261 0.33637877995368609 0 0.36985494237623989 0.33311962493185521 0 0.37368960646642962 0.31911015363466272 0 0.36266452242448938 0.34229393694352239 0 0.37368960646642962 0.31911015363466272 0 0.36266452242448938 0.34229393694352239 0 0.37014896644917339 0.316543878568457 0 0.36411885078159001 0.32644375487552563 0 0.36840829020790361 0.34668560051738673 0 0.36916640720496519 0.34145859007673351 0 0.36587418437400321 0.34278907974668538 0 0.36840829020790361 0.34668560051738673 0 0.37256750073976291 0.34304532959464751 0 0.36916640720496519 0.34145859007673351 0 0.36916640720496519 0.34145859007673351 0 0.36587418437400321 0.34278907974668538 0 0.36708394454210669 0.33994961910346172 0 0.36916640720496519 0.34145859007673351 0 0.37010024416019238 0.33739894816112592 0 0.36708394454210669 0.33994961910346172 0 0.36916640720496519 0.34145859007673351 0 0.37010024416019238 0.33739894816112592 0 0.37369311900952262 0.33836265764115908 0 0.36770298492566261 0.33637877995368609 0 0.37010024416019238 0.33739894816112592 0 0.36708394454210669 0.33994961910346172 0 0.37010024416019238 0.33739894816112592 0 0.37369311900952262 0.33836265764115908 0 0.3722735272100694 0.33425106354392481 0 0.3722735272100694 0.33425106354392481 0 0.37245621682226088 0.32924087979990557 0 0.375263113682131 0.33313320718557798 0 0.37369311900952262 0.33836265764115908 0 0.3722735272100694 0.33425106354392481 0 0.375263113682131 0.33313320718557798 0 0.3722735272100694 0.33425106354392481 0 0.37245621682226088 0.32924087979990557 0 0.36985494237623989 0.33311962493185521 0 0.37245621682226088 0.32924087979990557 0 0.37577016905582622 0.32787937856968757 0 0.375263113682131 0.33313320718557798 0 0.37010024416019238 0.33739894816112592 0 0.3722735272100694 0.33425106354392481 0 0.36985494237623989 0.33311962493185521 0 0.36770298492566261 0.33637877995368609 0 0.37010024416019238 0.33739894816112592 0 0.36985494237623989 0.33311962493185521 0 0.36128237795215928 0.33126347269122047 0 0.36124897776362869 0.33531944770056321 0 0.36411885078159001 0.32644375487552563 0 0.36150631125237548 0.32912422255951068 0 0.36128237795215928 0.33126347269122047 0 0.36411885078159001 0.32644375487552563 0 0.36150631125237548 0.32912422255951068 0 0.35994194411877378 0.32646204206530971 0 0.35835984371964152 0.33045614064968309 0 0.36128237795215928 0.33126347269122047 0 0.35899626180536931 0.33430086833413269 0 0.35835984371964152 0.33045614064968309 0 0.36150631125237548 0.32912422255951068 0 0.36128237795215928 0.33126347269122047 0 0.35835984371964152 0.33045614064968309 0 0.36128237795215928 0.33126347269122047 0 0.36124897776362869 0.33531944770056321 0 0.35899626180536931 0.33430086833413269 0 0.36124897776362869 0.33531944770056321 0 0.36001134864139028 0.33778823672905661 0 0.35899626180536931 0.33430086833413269 0 0.36124897776362869 0.33531944770056321 0 0.36001134864139028 0.33778823672905661 0 0.36266452242448938 0.34229393694352239 0 0.36001134864139028 0.33778823672905661 0 0.36266452242448938 0.34229393694352239 0 0.3582225103283424 0.33883319475427592 0 0.36266452242448938 0.34229393694352239 0 0.36587418437400321 0.34278907974668538 0 0.36708394454210669 0.33994961910346172 0 0.36770298492566261 0.33637877995368609 0 0.36266452242448938 0.34229393694352239 0 0.36708394454210669 0.33994961910346172 0 0.36266452242448938 0.34229393694352239 0 0.37368960646642962 0.31911015363466272 0 0.37014896644917339 0.316543878568457 0 0.37014896644917339 0.316543878568457 0 0.36604953812300478 0.31497278055865852 0 0.36630954626425261 0.31087512405144152 0 0.37499251130121058 0.31593455150060828 0 0.37014896644917339 0.316543878568457 0 0.37695808612291098 0.31120865645681561 0 0.37499251130121058 0.31593455150060828 0 0.37368960646642962 0.31911015363466272 0 0.37014896644917339 0.316543878568457 0 0.37014896644917339 0.316543878568457 0 0.36646072203027302 0.32009490443849897 0 0.3659238024377004 0.31770243144255911 0 0.37014896644917339 0.316543878568457 0 0.3659238024377004 0.31770243144255911 0 0.36604953812300478 0.31497278055865852 0 0.37245621682226088 0.32924087979990557 0 0.36985494237623989 0.33311962493185521 0 0.37368960646642962 0.31911015363466272 0 0.37245621682226088 0.32924087979990557 0 0.37368960646642962 0.31911015363466272 0 0.37506056064123422 0.32471797871916308 0 0.37245621682226088 0.32924087979990557 0 0.37577016905582622 0.32787937856968757 0 0.37506056064123422 0.32471797871916308 0 0.37014896644917339 0.316543878568457 0 0.36411885078159001 0.32644375487552563 0 0.36646072203027302 0.32009490443849897 0 0.36411885078159001 0.32644375487552563 0 0.35994194411877378 0.32646204206530971 0 0.36132202517978662 0.32303080634539388 0 0.36150631125237548 0.32912422255951068 0 0.36411885078159001 0.32644375487552563 0 0.35994194411877378 0.32646204206530971 0 0.36132202517978662 0.32303080634539388 0 0.36348301458407639 0.32047903077872458 0 0.35962675317161102 0.31893041505789499 0 0.36411885078159001 0.32644375487552563 0 0.36132202517978662 0.32303080634539388 0 0.36348301458407639 0.32047903077872458 0 0.36411885078159001 0.32644375487552563 0 0.36348301458407639 0.32047903077872458 0 0.36646072203027302 0.32009490443849897 0 0.36348301458407639 0.32047903077872458 0 0.36646072203027302 0.32009490443849897 0 0.3659238024377004 0.31770243144255911 0 0.3659238024377004 0.31770243144255911 0 0.36344593390349789 0.31667187251247519 0 0.36604953812300478 0.31497278055865852 0 0.36348301458407639 0.32047903077872458 0 0.3659238024377004 0.31770243144255911 0 0.36344593390349789 0.31667187251247519 0 0.36348301458407639 0.32047903077872458 0 0.36344593390349789 0.31667187251247519 0 0.35962675317161102 0.31893041505789499 0 0.36344593390349789 0.31667187251247519 0 0.35962675317161102 0.31893041505789499 0 0.35878641637012221 0.31305233625990619 0 0.36344593390349789 0.31667187251247519 0 0.36331333565659901 0.31283202127524651 0 0.35878641637012221 0.31305233625990619 0 0.36331333565659901 0.31283202127524651 0 0.36604953812300478 0.31497278055865852 0 0.36630954626425261 0.31087512405144152 0 0.36344593390349789 0.31667187251247519 0 0.36331333565659901 0.31283202127524651 0 0.36604953812300478 0.31497278055865852 0 0.35878641637012221 0.31305233625990619 0 0.35512602374864599 0.31718053618965047 0 0.35090510471213721 0.31152713165908658 0 0.35512602374864599 0.31718053618965047 0 0.34983435518440159 0.31943204998396652 0 0.35090510471213721 0.31152713165908658 0 0.35962675317161102 0.31893041505789499 0 0.35878641637012221 0.31305233625990619 0 0.35512602374864599 0.31718053618965047 0 0.35962675317161102 0.31893041505789499 0 0.35512602374864599 0.31718053618965047 0 0.35673455485560862 0.32229528426682241 0 0.35512602374864599 0.31718053618965047 0 0.35673455485560862 0.32229528426682241 0 0.34983435518440159 0.31943204998396652 0 0.35673455485560862 0.32229528426682241 0 0.35060422568955008 0.32587015674736058 0 0.34983435518440159 0.31943204998396652 0 0.35994194411877378 0.32646204206530971 0 0.36132202517978662 0.32303080634539388 0 0.35673455485560862 0.32229528426682241 0 0.36132202517978662 0.32303080634539388 0 0.35962675317161102 0.31893041505789499 0 0.35673455485560862 0.32229528426682241 0 0.35994194411877378 0.32646204206530971 0 0.35673455485560862 0.32229528426682241 0 0.35627338036128769 0.32705738058013539 0 0.35994194411877378 0.32646204206530971 0 0.35627338036128769 0.32705738058013539 0 0.35835984371964152 0.33045614064968309 0 0.35627338036128769 0.32705738058013539 0 0.35060422568955008 0.32587015674736058 0 0.35398721241228231 0.33095327650953749 0 0.35673455485560862 0.32229528426682241 0 0.35627338036128769 0.32705738058013539 0 0.35060422568955008 0.32587015674736058 0 0.35060422568955008 0.32587015674736058 0 0.34514221143703899 0.32919058107390442 0 0.34284551192874652 0.32364904383841531 0 0.35060422568955008 0.32587015674736058 0 0.34983435518440159 0.31943204998396652 0 0.34284551192874652 0.32364904383841531 0 0.34983435518440159 0.31943204998396652 0 0.34480088275632298 0.31606258733578418 0 0.35090510471213721 0.31152713165908658 0 0.34983435518440159 0.31943204998396652 0 0.34480088275632298 0.31606258733578418 0 0.34284551192874652 0.32364904383841531 0 0.35146565257524442 0.34420791440797271 0 0.36266452242448938 0.34229393694352239 0 0.35562031764263757 0.34031424282986023 0 0.35302683950207769 0.33602013814058929 0 0.35562031764263757 0.34031424282986023 0 0.35672120529774148 0.33684362974708199 0 0.35202203774268331 0.33965573310897551 0 0.35302683950207769 0.33602013814058929 0 0.35562031764263757 0.34031424282986023 0 0.35146565257524442 0.34420791440797271 0 0.35202203774268331 0.33965573310897551 0 0.35562031764263757 0.34031424282986023 0 0.36266452242448938 0.34229393694352239 0 0.35562031764263757 0.34031424282986023 0 0.3582225103283424 0.33883319475427592 0 0.35562031764263757 0.34031424282986023 0 0.3582225103283424 0.33883319475427592 0 0.35672120529774148 0.33684362974708199 0 0.36001134864139028 0.33778823672905661 0 0.3582225103283424 0.33883319475427592 0 0.35672120529774148 0.33684362974708199 0 0.36001134864139028 0.33778823672905661 0 0.35672120529774148 0.33684362974708199 0 0.35899626180536931 0.33430086833413269 0 0.35899626180536931 0.33430086833413269 0 0.35641212776078268 0.33381706902087938 0 0.35835984371964152 0.33045614064968309 0 0.35672120529774148 0.33684362974708199 0 0.35899626180536931 0.33430086833413269 0 0.35641212776078268 0.33381706902087938 0 0.35627338036128769 0.32705738058013539 0 0.35835984371964152 0.33045614064968309 0 0.35398721241228231 0.33095327650953749 0 0.35641212776078268 0.33381706902087938 0 0.35835984371964152 0.33045614064968309 0 0.35398721241228231 0.33095327650953749 0 0.35302683950207769 0.33602013814058929 0 0.35641212776078268 0.33381706902087938 0 0.35398721241228231 0.33095327650953749 0 0.35302683950207769 0.33602013814058929 0 0.35398721241228231 0.33095327650953749 0 0.34924685744035389 0.33249877391857741 0 0.35302683950207769 0.33602013814058929 0 0.35672120529774148 0.33684362974708199 0 0.35641212776078268 0.33381706902087938 0 0.35302683950207769 0.33602013814058929 0 0.34924685744035389 0.33249877391857741 0 0.34788509595764172 0.33882226599831611 0 0.35060422568955008 0.32587015674736058 0 0.34924685744035389 0.33249877391857741 0 0.34514221143703899 0.32919058107390442 0 0.35060422568955008 0.32587015674736058 0 0.35398721241228231 0.33095327650953749 0 0.34924685744035389 0.33249877391857741 0 0.34924685744035389 0.33249877391857741 0 0.34514221143703899 0.32919058107390442 0 0.34474234507332802 0.33433591834825649 0 0.34924685744035389 0.33249877391857741 0 0.34474234507332802 0.33433591834825649 0 0.34788509595764172 0.33882226599831611 0 0.34474234507332802 0.33433591834825649 0 0.34788509595764172 0.33882226599831611 0 0.34057592936449049 0.33809639891542392 0 0.35146565257524442 0.34420791440797271 0 0.34788509595764172 0.33882226599831611 0 0.34269927497721508 0.34493512072036142 0 0.35202203774268331 0.33965573310897551 0 0.35302683950207769 0.33602013814058929 0 0.34788509595764172 0.33882226599831611 0 0.35146565257524442 0.34420791440797271 0 0.35202203774268331 0.33965573310897551 0 0.34788509595764172 0.33882226599831611 0 0.34057592936449049 0.33809639891542392 0 0.33318390910610529 0.34358855052096038 0 0.34269927497721508 0.34493512072036142 0 0.34788509595764172 0.33882226599831611 0 0.34057592936449049 0.33809639891542392 0 0.34269927497721508 0.34493512072036142 0 0.34474234507332802 0.33433591834825649 0 0.34057592936449049 0.33809639891542392 0 0.33946855119551672 0.33096103471374028 0 0.34514221143703899 0.32919058107390442 0 0.34474234507332802 0.33433591834825649 0 0.33946855119551672 0.33096103471374028 0 0.34057592936449049 0.33809639891542392 0 0.33946855119551672 0.33096103471374028 0 0.33283637980140879 0.33469331179832718 0 0.33946855119551672 0.33096103471374028 0 0.33283637980140879 0.33469331179832718 0 0.33464693517381472 0.32630086361949601 0 0.33283637980140879 0.33469331179832718 0 0.33464693517381472 0.32630086361949601 0 0.3250964778074269 0.32978689602061512 0 0.34057592936449049 0.33809639891542392 0 0.33283637980140879 0.33469331179832718 0 0.33318390910610529 0.34358855052096038 0 0.33283637980140879 0.33469331179832718 0 0.33318390910610529 0.34358855052096038 0 0.32611481079287369 0.33974729713420021 0 0.34480088275632298 0.31606258733578418 0 0.33769186663180051 0.31814262317354819 0 0.34192449374142192 0.30753297203612773 0 0.34480088275632298 0.31606258733578418 0 0.33769186663180051 0.31814262317354819 0 0.34284551192874652 0.32364904383841531 0 0.33946855119551672 0.33096103471374028 0 0.34284551192874652 0.32364904383841531 0 0.33464693517381472 0.32630086361949601 0 0.33769186663180051 0.31814262317354819 0 0.34284551192874652 0.32364904383841531 0 0.33464693517381472 0.32630086361949601 0 0.34514221143703899 0.32919058107390442 0 0.33946855119551672 0.33096103471374028 0 0.34284551192874652 0.32364904383841531 0 0.33769186663180051 0.31814262317354819 0 0.33464693517381472 0.32630086361949601 0 0.32994282367798861 0.32057227217232959 0 0.33464693517381472 0.32630086361949601 0 0.32994282367798861 0.32057227217232959 0 0.3250964778074269 0.32978689602061512 0 0.33769186663180051 0.31814262317354819 0 0.32994282367798861 0.32057227217232959 0 0.32867162081685902 0.31028670060733149 0 0.32176892132522322 0.32006025561378759 0 0.31440941436971798 0.31242774502049953 0 0.32867162081685902 0.31028670060733149 0 0.32994282367798861 0.32057227217232959 0 0.32176892132522322 0.32006025561378759 0 0.32867162081685902 0.31028670060733149 0 0.32176892132522322 0.32006025561378759 0 0.31484893044661 0.32778579360563193 0 0.3250964778074269 0.32978689602061512 0 0.32994282367798861 0.32057227217232959 0 0.32176892132522322 0.32006025561378759 0 0.3250964778074269 0.32978689602061512 0 0.32176892132522322 0.32006025561378759 0 0.31484893044661 0.32778579360563193 0 0.31440941436971798 0.31242774502049953 0 0.32611481079287369 0.33974729713420021 0 0.3250964778074269 0.32978689602061512 0 0.31767498628904178 0.33862919533695518 0 0.32611481079287369 0.33974729713420021 0 0.31767498628904178 0.33862919533695518 0 0.32336406622478242 0.34852958887145069 0 0.33283637980140879 0.33469331179832718 0 0.32611481079287369 0.33974729713420021 0 0.3250964778074269 0.32978689602061512 0 0.31484893044661 0.32778579360563193 0 0.31767498628904178 0.33862919533695518 0 0.30654896287530792 0.34033791233229299 0 0.31484893044661 0.32778579360563193 0 0.3250964778074269 0.32978689602061512 0 0.31767498628904178 0.33862919533695518 0 0.31767498628904178 0.33862919533695518 0 0.31315570067328902 0.3464643712977632 0 0.32336406622478242 0.34852958887145069 0 0.31315570067328902 0.3464643712977632 0 0.31355388928080707 0.35546570062290778 0 0.32336406622478242 0.34852958887145069 0 0.32336406622478242 0.34852958887145069 0 0.33442175170730049 0.35218858713626039 0 0.32437013183195901 0.3602157298059272 0 0.31355388928080707 0.35546570062290778 0 0.32336406622478242 0.34852958887145069 0 0.32437013183195901 0.3602157298059272 0 0.33318390910610529 0.34358855052096038 0 0.32611481079287369 0.33974729713420021 0 0.32336406622478242 0.34852958887145069 0 0.35030182712711511 0.35130594720886232 0 0.33442175170730049 0.35218858713626039 0 0.33389487655237682 0.3658352592629312 0 0.33318390910610529 0.34358855052096038 0 0.32336406622478242 0.34852958887145069 0 0.33442175170730049 0.35218858713626039 0 0.35030182712711511 0.35130594720886232 0 0.33442175170730049 0.35218858713626039 0 0.34269927497721508 0.34493512072036142 0 0.33318390910610529 0.34358855052096038 0 0.33442175170730049 0.35218858713626039 0 0.34269927497721508 0.34493512072036142 0 0.34270248502322931 0.38427053755298168 0 0.35268350372385993 0.36328223724825232 0 0.33389487655237682 0.3658352592629312 0 0.33442175170730049 0.35218858713626039 0 0.33389487655237682 0.3658352592629312 0 0.32437013183195901 0.3602157298059272 0 0.31661607539452802 0.37905951313608538 0 0.33389487655237682 0.3658352592629312 0 0.32437013183195901 0.3602157298059272 0 0.31661607539452802 0.37905951313608538 0 0.31355388928080707 0.35546570062290778 0 0.32437013183195901 0.3602157298059272 0 0.31661607539452802 0.37905951313608538 0 0.31355388928080707 0.35546570062290778 0 0.31661607539452802 0.37905951313608538 0 0.31355388928080707 0.35546570062290778 0 0.30541822204374358 0.36584678197342768 0 0.2987730087010142 0.37934426936791982 0 0.31661607539452802 0.37905951313608538 0 0.30541822204374358 0.36584678197342768 0 0.30541822204374358 0.36584678197342768 0 0.30393955747459928 0.35096595789874813 0 0.29215410451095353 0.36543341035917859 0 0.2987730087010142 0.37934426936791982 0 0.30541822204374358 0.36584678197342768 0 0.29215410451095353 0.36543341035917859 0 0.31315570067328902 0.3464643712977632 0 0.30393955747459928 0.35096595789874813 0 0.30654896287530792 0.34033791233229299 0 0.31315570067328902 0.3464643712977632 0 0.31355388928080707 0.35546570062290778 0 0.30393955747459928 0.35096595789874813 0 0.31355388928080707 0.35546570062290778 0 0.30541822204374358 0.36584678197342768 0 0.30393955747459928 0.35096595789874813 0 0.30393955747459928 0.35096595789874813 0 0.29215410451095353 0.36543341035917859 0 0.30393955747459928 0.35096595789874813 0 0.29720735802849829 0.34424744790442102 0 0.29027641861796738 0.35164951467646482 0 0.30393955747459928 0.35096595789874813 0 0.29720735802849829 0.34424744790442102 0 0.30654896287530792 0.34033791233229299 0 0.29720735802849829 0.34424744790442102 0 0.29027641861796738 0.35164951467646482 0 0.28998304713239348 0.34105976447064218 0 0.30393955747459928 0.35096595789874813 0 0.29027641861796738 0.35164951467646482 0 0.29215410451095353 0.36543341035917859 0 0.29027641861796738 0.35164951467646482 0 0.29215410451095353 0.36543341035917859 0 0.27920137084664282 0.3573603676334649 0 0.29027641861796738 0.35164951467646482 0 0.27920137084664282 0.3573603676334649 0 0.28068773357058369 0.34198453751068081 0 0.29027641861796738 0.35164951467646482 0 0.28068773357058369 0.34198453751068081 0 0.28998304713239348 0.34105976447064218 0 0.28036865154730628 0.37990086281960789 0 0.29215410451095353 0.36543341035917859 0 0.27920137084664282 0.3573603676334649 0 0.28036865154730628 0.37990086281960789 0 0.2987730087010142 0.37934426936791982 0 0.29215410451095353 0.36543341035917859 0 0.28036865154730628 0.37990086281960789 0 0.29215410451095353 0.36543341035917859 0 0.28036865154730628 0.37990086281960789 0 0.27920137084664282 0.3573603676334649 0 0.26173146881309822 0.35734024057335978 0 0.28036865154730628 0.37990086281960789 0 0.26173146881309822 0.35734024057335978 0 0.28036865154730628 0.37990086281960789 0 0.26173146881309822 0.35734024057335978 0 0.2641967246118288 0.36596915937278562 0 0.27920137084664282 0.3573603676334649 0 0.27030047393074008 0.3474963096498429 0 0.26173146881309822 0.35734024057335978 0 0.27920137084664282 0.3573603676334649 0 0.27030047393074008 0.3474963096498429 0 0.28068773357058369 0.34198453751068081 0 0.2430942860788903 0.33477961832711151 0 0.26173146881309822 0.35734024057335978 0 0.27030047393074008 0.3474963096498429 0 0.26173146881309822 0.35734024057335978 0 0.26240083601839698 0.33727672217147331 0 0.23816107804029091 0.35120524212074949 0 0.26173146881309822 0.35734024057335978 0 0.2641967246118288 0.36596915937278562 0 0.23816107804029091 0.35120524212074949 0 0.2641967246118288 0.36596915937278562 0 0.2492643002430574 0.365916522193315 0 0.24311907173897271 0.36013203008567057 0 0.2641967246118288 0.36596915937278562 0 0.2492643002430574 0.365916522193315 0 0.25710864090743918 0.37145542319719338 0 0.2641967246118288 0.36596915937278562 0 0.2492643002430574 0.365916522193315 0 0.25383912625151372 0.37755129754335942 0 0.25710864090743918 0.37145542319719338 0 0.26350653962281989 0.38010735630523079 0 0.25710864090743918 0.37145542319719338 0 0.2641967246118288 0.36596915937278562 0 0.2484846271056145 0.31037308609574782 0 0.25508783524565293 0.32209220201309929 0 0.26836904206483531 0.31075971332937607 0 0.25508783524565293 0.32209220201309929 0 0.26240083601839698 0.33727672217147331 0 0.26677092012209491 0.32204036282613252 0 0.25508783524565293 0.32209220201309929 0 0.26677092012209491 0.32204036282613252 0 0.26836904206483531 0.31075971332937607 0 0.2430942860788903 0.33477961832711151 0 0.25508783524565293 0.32209220201309929 0 0.26240083601839698 0.33727672217147331 0 0.2430942860788903 0.33477961832711151 0 0.26173146881309822 0.35734024057335978 0 0.26240083601839698 0.33727672217147331 0 0.26240083601839698 0.33727672217147331 0 0.27184092000699639 0.33891315949469752 0 0.27388917516664008 0.32964775149744319 0 0.26240083601839698 0.33727672217147331 0 0.27388917516664008 0.32964775149744319 0 0.26677092012209491 0.32204036282613252 0 0.27030047393074008 0.3474963096498429 0 0.26240083601839698 0.33727672217147331 0 0.27184092000699639 0.33891315949469752 0 0.27030047393074008 0.3474963096498429 0 0.27184092000699639 0.33891315949469752 0 0.28068773357058369 0.34198453751068081 0 0.27184092000699639 0.33891315949469752 0 0.28068773357058369 0.34198453751068081 0 0.27388917516664008 0.32964775149744319 0 0.28068773357058369 0.34198453751068081 0 0.27388917516664008 0.32964775149744319 0 0.28570907475377572 0.33188311037056872 0 0.27388917516664008 0.32964775149744319 0 0.26677092012209491 0.32204036282613252 0 0.28178409254690689 0.31684790712797722 0 0.27388917516664008 0.32964775149744319 0 0.28178409254690689 0.31684790712797722 0 0.28570907475377572 0.33188311037056872 0 0.26677092012209491 0.32204036282613252 0 0.28178409254690689 0.31684790712797722 0 0.26836904206483531 0.31075971332937607 0 0.28178409254690689 0.31684790712797722 0 0.29262159606390598 0.32453461147271162 0 0.29660332646403359 0.30785121346786842 0 0.28178409254690689 0.31684790712797722 0 0.29262159606390598 0.32453461147271162 0 0.28570907475377572 0.33188311037056872 0 0.28068773357058369 0.34198453751068081 0 0.28570907475377572 0.33188311037056872 0 0.28998304713239348 0.34105976447064218 0 0.29262159606390598 0.32453461147271162 0 0.28570907475377572 0.33188311037056872 0 0.29603465069114282 0.33553421189107618 0 0.29720735802849829 0.34424744790442102 0 0.29603465069114282 0.33553421189107618 0 0.28998304713239348 0.34105976447064218 0 0.28570907475377572 0.33188311037056872 0 0.29603465069114282 0.33553421189107618 0 0.28998304713239348 0.34105976447064218 0 0.29720735802849829 0.34424744790442102 0 0.29603465069114282 0.33553421189107618 0 0.30654896287530792 0.34033791233229299 0 0.29603465069114282 0.33553421189107618 0 0.30654896287530792 0.34033791233229299 0 0.30445412428221041 0.32558903425911379 0 0.29262159606390598 0.32453461147271162 0 0.29603465069114282 0.33553421189107618 0 0.30445412428221041 0.32558903425911379 0 0.31484893044661 0.32778579360563193 0 0.30654896287530792 0.34033791233229299 0 0.30445412428221041 0.32558903425911379 0 0.31767498628904178 0.33862919533695518 0 0.31315570067328902 0.3464643712977632 0 0.30654896287530792 0.34033791233229299 0 0.30445412428221041 0.32558903425911379 0 0.29660332646403359 0.30785121346786842 0 0.31440941436971798 0.31242774502049953 0 0.29262159606390598 0.32453461147271162 0 0.30445412428221041 0.32558903425911379 0 0.29660332646403359 0.30785121346786842 0 0.31484893044661 0.32778579360563193 0 0.30445412428221041 0.32558903425911379 0 0.31440941436971798 0.31242774502049953 0 0.30822946874662033 0.29998271616579031 0 0.29660332646403359 0.30785121346786842 0 0.31440941436971798 0.31242774502049953 0 0.30822946874662033 0.29998271616579031 0 0.30055108247350393 0.28416894361273021 0 0.29660332646403359 0.30785121346786842 0 0.30822946874662033 0.29998271616579031 0 0.30055108247350393 0.28416894361273021 0 0.32109763140443309 0.29547610107375327 0 0.30055108247350393 0.28416894361273021 0 0.29660332646403359 0.30785121346786842 0 0.27430616976337108 0.29100628718303567 0 0.30055108247350393 0.28416894361273021 0 0.27430616976337108 0.29100628718303567 0 0.28443506245096839 0.27205148705280008 0 0.30055108247350393 0.28416894361273021 0 0.27430616976337108 0.29100628718303567 0 0.28178409254690689 0.31684790712797722 0 0.29660332646403359 0.30785121346786842 0 0.27430616976337108 0.29100628718303567 0 0.28178409254690689 0.31684790712797722 0 0.26836904206483531 0.31075971332937607 0 0.27430616976337108 0.29100628718303567 0 0.28178409254690689 0.31684790712797722 0 0.27430616976337108 0.29100628718303567 0 0.27430616976337108 0.29100628718303567 0 0.25121587924780342 0.29702178630611242 0 0.27430616976337108 0.29100628718303567 0 0.25953152444998728 0.28294166139542631 0 0.25121587924780342 0.29702178630611242 0 0.26836904206483531 0.31075971332937607 0 0.27430616976337108 0.29100628718303567 0 0.25121587924780342 0.29702178630611242 0 0.26836904206483531 0.31075971332937607 0 0.25121587924780342 0.29702178630611242 0 0.2484846271056145 0.31037308609574782 0 0.26836904206483531 0.31075971332937607 0 0.25121587924780342 0.29702178630611242 0 0.25102838231212438 0.26850893423506528 0 0.26790857605335527 0.26889798384773289 0 0.26221447651104962 0.2479993693513689 0 0.26790857605335527 0.26889798384773289 0 0.26221447651104962 0.2479993693513689 0 0.25953152444998728 0.28294166139542631 0 0.25102838231212438 0.26850893423506528 0 0.26790857605335527 0.26889798384773289 0 0.27430616976337108 0.29100628718303567 0 0.26790857605335527 0.26889798384773289 0 0.28443506245096839 0.27205148705280008 0 0.27430616976337108 0.29100628718303567 0 0.25953152444998728 0.28294166139542631 0 0.26790857605335527 0.26889798384773289 0 0.27430616976337108 0.29100628718303567 0 0.26790857605335527 0.26889798384773289 0 0.26790857605335527 0.26889798384773289 0 0.28119448123381058 0.25405304303149878 0 0.26221447651104962 0.2479993693513689 0 0.26790857605335527 0.26889798384773289 0 0.28119448123381058 0.25405304303149878 0 0.28443506245096839 0.27205148705280008 0 0.28119448123381058 0.25405304303149878 0 0.28443506245096839 0.27205148705280008 0 0.2982150027308012 0.26213117758900317 0 0.28119448123381058 0.25405304303149878 0 0.2982150027308012 0.26213117758900317 0 0.30328699804120918 0.24394477185791469 0 0.30055108247350393 0.28416894361273021 0 0.28443506245096839 0.27205148705280008 0 0.2982150027308012 0.26213117758900317 0 0.30055108247350393 0.28416894361273021 0 0.2982150027308012 0.26213117758900317 0 0.31879452400631653 0.25919465198291952 0 0.2982150027308012 0.26213117758900317 0 0.31879452400631653 0.25919465198291952 0 0.30328699804120918 0.24394477185791469 0 0.31879452400631653 0.25919465198291952 0 0.33092809789354199 0.24744869965648561 0 0.31845456220733243 0.24449663650262579 0 0.31879452400631653 0.25919465198291952 0 0.33565265393095528 0.25675142138279861 0 0.33982225619875311 0.26765994074234428 0 0.31879452400631653 0.25919465198291952 0 0.33982225619875311 0.26765994074234428 0 0.31879452400631653 0.25919465198291952 0 0.33565265393095528 0.25675142138279861 0 0.33092809789354199 0.24744869965648561 0 0.33565265393095528 0.25675142138279861 0 0.33982225619875311 0.26765994074234428 0 0.34536281311255052 0.25941060478944128 0 0.33565265393095528 0.25675142138279861 0 0.3433555784436142 0.25004320974280247 0 0.33092809789354199 0.24744869965648561 0 0.33565265393095528 0.25675142138279861 0 0.3433555784436142 0.25004320974280247 0 0.34536281311255052 0.25941060478944128 0 0.31879452400631653 0.25919465198291952 0 0.33982225619875311 0.26765994074234428 0 0.32679599518363661 0.27733160004242491 0 0.33982225619875311 0.26765994074234428 0 0.32679599518363661 0.27733160004242491 0 0.34056182851336592 0.28206143899133118 0 0.30055108247350393 0.28416894361273021 0 0.32679599518363661 0.27733160004242491 0 0.30055108247350393 0.28416894361273021 0 0.31879452400631653 0.25919465198291952 0 0.32679599518363661 0.27733160004242491 0 0.32679599518363661 0.27733160004242491 0 0.32109763140443309 0.29547610107375327 0 0.33248404658197278 0.28876668272462419 0 0.30055108247350393 0.28416894361273021 0 0.32679599518363661 0.27733160004242491 0 0.32109763140443309 0.29547610107375327 0 0.32109763140443309 0.29547610107375327 0 0.31440941436971798 0.31242774502049953 0 0.32867162081685902 0.31028670060733149 0 0.30822946874662033 0.29998271616579031 0 0.32109763140443309 0.29547610107375327 0 0.31440941436971798 0.31242774502049953 0 0.32867162081685902 0.31028670060733149 0 0.33472549883669622 0.29791121211074773 0 0.34192449374142192 0.30753297203612773 0 0.32109763140443309 0.29547610107375327 0 0.32867162081685902 0.31028670060733149 0 0.33472549883669622 0.29791121211074773 0 0.33472549883669622 0.29791121211074773 0 0.34281583705185747 0.29966479619329672 0 0.34192449374142192 0.30753297203612773 0 0.33769186663180051 0.31814262317354819 0 0.32867162081685902 0.31028670060733149 0 0.34192449374142192 0.30753297203612773 0 0.32679599518363661 0.27733160004242491 0 0.33248404658197278 0.28876668272462419 0 0.34056182851336592 0.28206143899133118 0 0.32109763140443309 0.29547610107375327 0 0.33472549883669622 0.29791121211074773 0 0.33248404658197278 0.28876668272462419 0 0.33472549883669622 0.29791121211074773 0 0.33248404658197278 0.28876668272462419 0 0.34417327957572558 0.29277050597204329 0 0.33472549883669622 0.29791121211074773 0 0.34281583705185747 0.29966479619329672 0 0.34417327957572558 0.29277050597204329 0 0.33248404658197278 0.28876668272462419 0 0.34056182851336592 0.28206143899133118 0 0.34417327957572558 0.29277050597204329 0 0.34056182851336592 0.28206143899133118 0 0.34979868535227071 0.28728326233729501 0 0.34417327957572558 0.29277050597204329 0 0.34056182851336592 0.28206143899133118 0 0.34979868535227071 0.28728326233729501 0 0.35183199075491411 0.27966461044832719 0 0.34417327957572558 0.29277050597204329 0 0.35334053836337709 0.29410458558147129 0 0.34972900846361488 0.30172704795696642 0 0.34979868535227071 0.28728326233729501 0 0.34417327957572558 0.29277050597204329 0 0.35334053836337709 0.29410458558147129 0 0.34979868535227071 0.28728326233729501 0 0.35334053836337709 0.29410458558147129 0 0.35722235408413222 0.28831366276426512 0 0.35334053836337709 0.29410458558147129 0 0.35826071325737319 0.3003277240158499 0 0.36091512844171192 0.29433704443458902 0 0.35334053836337709 0.29410458558147129 0 0.35722235408413222 0.28831366276426512 0 0.36091512844171192 0.29433704443458902 0 0.34979868535227071 0.28728326233729501 0 0.35722235408413222 0.28831366276426512 0 0.35183199075491411 0.27966461044832719 0 0.35722235408413222 0.28831366276426512 0 0.36152496379752869 0.28359539021876212 0 0.35183199075491411 0.27966461044832719 0 0.34480088275632298 0.31606258733578418 0 0.34192449374142192 0.30753297203612773 0 0.35090510471213721 0.31152713165908658 0 0.34192449374142192 0.30753297203612773 0 0.35090510471213721 0.31152713165908658 0 0.34972900846361488 0.30172704795696642 0 0.34281583705185747 0.29966479619329672 0 0.34417327957572558 0.29277050597204329 0 0.34972900846361488 0.30172704795696642 0 0.34281583705185747 0.29966479619329672 0 0.34192449374142192 0.30753297203612773 0 0.34972900846361488 0.30172704795696642 0 0.34972900846361488 0.30172704795696642 0 0.35826071325737319 0.3003277240158499 0 0.35721607615581658 0.30656573559573969 0 0.35334053836337709 0.29410458558147129 0 0.34972900846361488 0.30172704795696642 0 0.35826071325737319 0.3003277240158499 0 0.35090510471213721 0.31152713165908658 0 0.34972900846361488 0.30172704795696642 0 0.35721607615581658 0.30656573559573969 0 0.35878641637012221 0.31305233625990619 0 0.35090510471213721 0.31152713165908658 0 0.35721607615581658 0.30656573559573969 0 0.37014896644917339 0.316543878568457 0 0.37763341047385651 0.29079382019339128 0 0.37014896644917339 0.316543878568457 0 0.37108481648816682 0.30013899891886681 0 0.36845835323010317 0.30596496181531441 0 0.37014896644917339 0.316543878568457 0 0.37763341047385651 0.29079382019339128 0 0.37695808612291098 0.31120865645681561 0 0.37014896644917339 0.316543878568457 0 0.37108481648816682 0.30013899891886681 0 0.37763341047385651 0.29079382019339128 0 0.36630954626425261 0.31087512405144152 0 0.36228941999803421 0.30896529616435242 0 0.36543096483439103 0.3064802843427199 0 0.36331333565659901 0.31283202127524651 0 0.36630954626425261 0.31087512405144152 0 0.36228941999803421 0.30896529616435242 0 0.36331333565659901 0.31283202127524651 0 0.35878641637012221 0.31305233625990619 0 0.36228941999803421 0.30896529616435242 0 0.35878641637012221 0.31305233625990619 0 0.35721607615581658 0.30656573559573969 0 0.36228941999803421 0.30896529616435242 0 0.35721607615581658 0.30656573559573969 0 0.36228941999803421 0.30896529616435242 0 0.36268018070702418 0.30398627546106088 0 0.36630954626425261 0.31087512405144152 0 0.36543096483439103 0.3064802843427199 0 0.36845835323010317 0.30596496181531441 0 0.36228941999803421 0.30896529616435242 0 0.36543096483439103 0.3064802843427199 0 0.36268018070702418 0.30398627546106088 0 0.36543096483439103 0.3064802843427199 0 0.36607900901995372 0.30349396637540749 0 0.36845835323010317 0.30596496181531441 0 0.36607900901995372 0.30349396637540749 0 0.36268018070702418 0.30398627546106088 0 0.36558719123160882 0.29969948119116269 0 0.36607900901995372 0.30349396637540749 0 0.36558719123160882 0.29969948119116269 0 0.36823835509664099 0.30133882906677939 0 0.36543096483439103 0.3064802843427199 0 0.36607900901995372 0.30349396637540749 0 0.36268018070702418 0.30398627546106088 0 0.35826071325737319 0.3003277240158499 0 0.35721607615581658 0.30656573559573969 0 0.36268018070702418 0.30398627546106088 0 0.35826071325737319 0.3003277240158499 0 0.36268018070702418 0.30398627546106088 0 0.36558719123160882 0.29969948119116269 0 0.35826071325737319 0.3003277240158499 0 0.36558719123160882 0.29969948119116269 0 0.36091512844171192 0.29433704443458902 0 0.36871223371641282 0.29817542324200702 0 0.37108481648816682 0.30013899891886681 0 0.37014933742706652 0.29575476169949788 0 0.36558719123160882 0.29969948119116269 0 0.36871223371641282 0.29817542324200702 0 0.36734652779664789 0.29411680932906442 0 0.36558719123160882 0.29969948119116269 0 0.36871223371641282 0.29817542324200702 0 0.36823835509664099 0.30133882906677939 0 0.36871223371641282 0.29817542324200702 0 0.37108481648816682 0.30013899891886681 0 0.36823835509664099 0.30133882906677939 0 0.37108481648816682 0.30013899891886681 0 0.36823835509664099 0.30133882906677939 0 0.36845835323010317 0.30596496181531441 0 0.36607900901995372 0.30349396637540749 0 0.36823835509664099 0.30133882906677939 0 0.36845835323010317 0.30596496181531441 0 0.37014896644917339 0.316543878568457 0 0.36630954626425261 0.31087512405144152 0 0.36845835323010317 0.30596496181531441 0 0.36812955944888692 0.28419813691800921 0 0.36084998839118931 0.2761252295017701 0 0.37969218042614078 0.28371066929036243 0 0.36152496379752869 0.28359539021876212 0 0.36812955944888692 0.28419813691800921 0 0.36084998839118931 0.2761252295017701 0 0.36414496955441777 0.28941104037434479 0 0.36911771796651938 0.28986917351547109 0 0.36812955944888692 0.28419813691800921 0 0.36152496379752869 0.28359539021876212 0 0.36414496955441777 0.28941104037434479 0 0.36812955944888692 0.28419813691800921 0 0.35722235408413222 0.28831366276426512 0 0.36152496379752869 0.28359539021876212 0 0.36414496955441777 0.28941104037434479 0 0.35722235408413222 0.28831366276426512 0 0.36091512844171192 0.29433704443458902 0 0.36414496955441777 0.28941104037434479 0 0.36558719123160882 0.29969948119116269 0 0.36091512844171192 0.29433704443458902 0 0.36734652779664789 0.29411680932906442 0 0.36091512844171192 0.29433704443458902 0 0.36414496955441777 0.28941104037434479 0 0.36734652779664789 0.29411680932906442 0 0.36414496955441777 0.28941104037434479 0 0.36911771796651938 0.28986917351547109 0 0.36734652779664789 0.29411680932906442 0 0.36911771796651938 0.28986917351547109 0 0.37026464520563152 0.29279186409727531 0 0.36734652779664789 0.29411680932906442 0 0.37108481648816682 0.30013899891886681 0 0.37306860395079622 0.29341917559567809 0 0.37763341047385651 0.29079382019339128 0 0.36911771796651938 0.28986917351547109 0 0.37026464520563152 0.29279186409727531 0 0.37237913536365119 0.29056320862162688 0 0.36871223371641282 0.29817542324200702 0 0.36734652779664789 0.29411680932906442 0 0.37014933742706652 0.29575476169949788 0 0.37026464520563152 0.29279186409727531 0 0.36734652779664789 0.29411680932906442 0 0.37014933742706652 0.29575476169949788 0 0.37108481648816682 0.30013899891886681 0 0.37014933742706652 0.29575476169949788 0 0.37306860395079622 0.29341917559567809 0 0.37026464520563152 0.29279186409727531 0 0.37014933742706652 0.29575476169949788 0 0.37306860395079622 0.29341917559567809 0 0.36911771796651938 0.28986917351547109 0 0.37237913536365119 0.29056320862162688 0 0.37333201972158658 0.2878654242033048 0 0.37306860395079622 0.29341917559567809 0 0.37237913536365119 0.29056320862162688 0 0.37763341047385651 0.29079382019339128 0 0.37237913536365119 0.29056320862162688 0 0.37333201972158658 0.2878654242033048 0 0.37763341047385651 0.29079382019339128 0 0.37026464520563152 0.29279186409727531 0 0.37306860395079622 0.29341917559567809 0 0.37237913536365119 0.29056320862162688 0 0.37333201972158658 0.2878654242033048 0 0.36812955944888692 0.28419813691800921 0 0.37969218042614078 0.28371066929036243 0 0.36911771796651938 0.28986917351547109 0 0.37333201972158658 0.2878654242033048 0 0.36812955944888692 0.28419813691800921 0 0.36084998839118931 0.2761252295017701 0 0.37969218042614078 0.28371066929036243 0 0.36084998839118931 0.2761252295017701 0 0.37017340450925651 0.266060206293324 0 0.3539366042426153 0.26554047293381039 0 0.36084998839118931 0.2761252295017701 0 0.38460708535355081 0.26680105137204091 0 0.36084998839118931 0.2761252295017701 0 0.37017340450925651 0.266060206293324 0 0.38460708535355081 0.26680105137204091 0 0.3539366042426153 0.26554047293381039 0 0.38129994004966872 0.25577407136566988 0 0.37169426656027921 0.24972740256563611 0 0.37017340450925651 0.266060206293324 0 0.3539366042426153 0.26554047293381039 0 0.38129994004966872 0.25577407136566988 0 0.3539366042426153 0.26554047293381039 0 0.37169426656027921 0.24972740256563611 0 0.36205361842742478 0.24882498742118489 0 0.3539366042426153 0.26554047293381039 0 0.38129994004966872 0.25577407136566988 0 0.3539366042426153 0.26554047293381039 0 0.35175757775775729 0.2532797976346674 0 0.36205361842742478 0.24882498742118489 0 0.3433555784436142 0.25004320974280247 0 0.35175757775775729 0.2532797976346674 0 0.34536281311255052 0.25941060478944128 0 0.33982225619875311 0.26765994074234428 0 0.3539366042426153 0.26554047293381039 0 0.34536281311255052 0.25941060478944128 0 0.3539366042426153 0.26554047293381039 0 0.35175757775775729 0.2532797976346674 0 0.34536281311255052 0.25941060478944128 0 0.33982225619875311 0.26765994074234428 0 0.36084998839118931 0.2761252295017701 0 0.33982225619875311 0.26765994074234428 0 0.36084998839118931 0.2761252295017701 0 0.3539366042426153 0.26554047293381039 0 0.33982225619875311 0.26765994074234428 0 0.36084998839118931 0.2761252295017701 0 0.35183199075491411 0.27966461044832719 0 0.33982225619875311 0.26765994074234428 0 0.34056182851336592 0.28206143899133118 0 0.35183199075491411 0.27966461044832719 0 0.36152496379752869 0.28359539021876212 0 0.36084998839118931 0.2761252295017701 0 0.35183199075491411 0.27966461044832719 0 0.36084998839118931 0.2761252295017701 0 0.35183199075491411 0.27966461044832719 0 0.39945440726228237 0.27350419034528239 0 0.38460708535355081 0.26680105137204091 0 0.40768566828284042 0.25774317622192677 0 0.39945440726228237 0.27350419034528239 0 0.4092682188351508 0.26816031590002881 0 0.40768566828284042 0.25774317622192677 0 0.39945440726228237 0.27350419034528239 0 0.38460708535355081 0.26680105137204091 0 0.3904751567012596 0.27530993325585928 0 0.39945440726228237 0.27350419034528239 0 0.3904751567012596 0.27530993325585928 0 0.39488150240831521 0.28173053148540511 0 0.39945440726228237 0.27350419034528239 0 0.40366985246608472 0.28285995447659418 0 0.40929088926209078 0.279020096056181 0 0.39945440726228237 0.27350419034528239 0 0.4092682188351508 0.26816031590002881 0 0.40929088926209078 0.279020096056181 0 0.39945440726228237 0.27350419034528239 0 0.39488150240831521 0.28173053148540511 0 0.40366985246608472 0.28285995447659418 0 0.38783836144724232 0.2556839199238965 0 0.38129994004966872 0.25577407136566988 0 0.40866327585672191 0.24600766979752939 0 0.38460708535355081 0.26680105137204091 0 0.40768566828284042 0.25774317622192677 0 0.38783836144724232 0.2556839199238965 0 0.40768566828284042 0.25774317622192677 0 0.40866327585672191 0.24600766979752939 0 0.38783836144724232 0.2556839199238965 0 0.38460708535355081 0.26680105137204091 0 0.40768566828284042 0.25774317622192677 0 0.38129994004966872 0.25577407136566988 0 0.40866327585672191 0.24600766979752939 0 0.38783836144724232 0.2556839199238965 0 0.38129994004966872 0.25577407136566988 0 0.38460708535355081 0.26680105137204091 0 0.38783836144724232 0.2556839199238965 0 0.38460708535355081 0.26680105137204091 0 0.38129994004966872 0.25577407136566988 0 0.37169426656027921 0.24972740256563611 0 0.38106847269238292 0.24536179082341181 0 0.37017340450925651 0.266060206293324 0 0.38129994004966872 0.25577407136566988 0 0.38460708535355081 0.26680105137204091 0 0.36084998839118931 0.2761252295017701 0 0.38460708535355081 0.26680105137204091 0 0.37969218042614078 0.28371066929036243 0 0.38460708535355081 0.26680105137204091 0 0.3904751567012596 0.27530993325585928 0 0.37969218042614078 0.28371066929036243 0 0.38460708535355081 0.26680105137204091 0 0.37969218042614078 0.28371066929036243 0 0.3904751567012596 0.27530993325585928 0 0.37969218042614078 0.28371066929036243 0 0.39488150240831521 0.28173053148540511 0 0.37969218042614078 0.28371066929036243 0 0.37763341047385651 0.29079382019339128 0 0.40259214502479168 0.29292967641552992 0 0.37763341047385651 0.29079382019339128 0 0.4027243230010164 0.30147339632314252 0 0.37969218042614078 0.28371066929036243 0 0.37763341047385651 0.29079382019339128 0 0.37333201972158658 0.2878654242033048 0 0.37969218042614078 0.28371066929036243 0 0.37763341047385651 0.29079382019339128 0 0.37763341047385651 0.29079382019339128 0 0.37695808612291098 0.31120865645681561 0 0.38599374742651271 0.30414296713942529 0 0.37763341047385651 0.29079382019339128 0 0.38599374742651271 0.30414296713942529 0 0.4027243230010164 0.30147339632314252 0 0.37695808612291098 0.31120865645681561 0 0.38599374742651271 0.30414296713942529 0 0.38754735899376969 0.31282171123814728 0 0.38599374742651271 0.30414296713942529 0 0.4027243230010164 0.30147339632314252 0 0.38754735899376969 0.31282171123814728 0 0.4027243230010164 0.30147339632314252 0 0.3956366020903157 0.32248231082130752 0 0.38754735899376969 0.31282171123814728 0 0.37969218042614078 0.28371066929036243 0 0.40259214502479168 0.29292967641552992 0 0.37969218042614078 0.28371066929036243 0 0.39488150240831521 0.28173053148540511 0 0.40259214502479168 0.29292967641552992 0 0.37763341047385651 0.29079382019339128 0 0.4027243230010164 0.30147339632314252 0 0.40259214502479168 0.29292967641552992 0 0.4027243230010164 0.30147339632314252 0 0.40259214502479168 0.29292967641552992 0 0.41139710839419091 0.29189735433941028 0 0.40259214502479168 0.29292967641552992 0 0.40366985246608472 0.28285995447659418 0 0.41139710839419091 0.29189735433941028 0 0.39488150240831521 0.28173053148540511 0 0.40259214502479168 0.29292967641552992 0 0.40366985246608472 0.28285995447659418 0 0.40366985246608472 0.28285995447659418 0 0.41139710839419091 0.29189735433941028 0 0.40929088926209078 0.279020096056181 0 0.41139710839419091 0.29189735433941028 0 0.42781523552817591 0.31215297245289481 0 0.42226183937510081 0.28327127115801121 0 0.41139710839419091 0.29189735433941028 0 0.42226183937510081 0.28327127115801121 0 0.40929088926209078 0.279020096056181 0 0.4027243230010164 0.30147339632314252 0 0.41139710839419091 0.29189735433941028 0 0.42781523552817591 0.31215297245289481 0 0.4027243230010164 0.30147339632314252 0 0.42781523552817591 0.31215297245289481 0 0.41357021602424721 0.32279281759874212 0 0.4027243230010164 0.30147339632314252 0 0.42781523552817591 0.31215297245289481 0 0.42781523552817591 0.31215297245289481 0 0.42226183937510081 0.28327127115801121 0 0.42781523552817591 0.31215297245289481 0 0.42226183937510081 0.28327127115801121 0 0.44120727567718632 0.28746005308771089 0 0.42226183937510081 0.28327127115801121 0 0.43023391716603732 0.27040224467912161 0 0.44120727567718632 0.28746005308771089 0 0.42226183937510081 0.28327127115801121 0 0.43023391716603732 0.27040224467912161 0 0.41664462513020523 0.25422696758609492 0 0.43023391716603732 0.27040224467912161 0 0.43692075095235122 0.26433370861442979 0 0.44373838257505849 0.27050131303512348 0 0.42226183937510081 0.28327127115801121 0 0.4092682188351508 0.26816031590002881 0 0.41664462513020523 0.25422696758609492 0 0.42226183937510081 0.28327127115801121 0 0.41664462513020523 0.25422696758609492 0 0.42226183937510081 0.28327127115801121 0 0.4092682188351508 0.26816031590002881 0 0.40929088926209078 0.279020096056181 0 0.40768566828284042 0.25774317622192677 0 0.41664462513020523 0.25422696758609492 0 0.40866327585672191 0.24600766979752939 0 0.40768566828284042 0.25774317622192677 0 0.41664462513020523 0.25422696758609492 0 0.4092682188351508 0.26816031590002881 0 0.40768566828284042 0.25774317622192677 0 0.41664462513020523 0.25422696758609492 0 0.42749544465446981 0.25699566217507153 0 0.45166362976964691 0.25106894999712381 0 0.43076425121212841 0.2486853010718087 0 0.41664462513020523 0.25422696758609492 0 0.42749544465446981 0.25699566217507153 0 0.43076425121212841 0.2486853010718087 0 0.43023391716603732 0.27040224467912161 0 0.41664462513020523 0.25422696758609492 0 0.42749544465446981 0.25699566217507153 0 0.41664462513020523 0.25422696758609492 0 0.43076425121212841 0.2486853010718087 0 0.42749544465446981 0.25699566217507153 0 0.43692075095235122 0.26433370861442979 0 0.44456450099631911 0.26043047377218492 0 0.43023391716603732 0.27040224467912161 0 0.42749544465446981 0.25699566217507153 0 0.43692075095235122 0.26433370861442979 0 0.42749544465446981 0.25699566217507153 0 0.45166362976964691 0.25106894999712381 0 0.42749544465446981 0.25699566217507153 0 0.44456450099631911 0.26043047377218492 0 0.45166362976964691 0.25106894999712381 0 0.43692075095235122 0.26433370861442979 0 0.44456450099631911 0.26043047377218492 0 0.44373838257505849 0.27050131303512348 0 0.44456450099631911 0.26043047377218492 0 0.44373838257505849 0.27050131303512348 0 0.45508065662597141 0.26402805921732958 0 0.44456450099631911 0.26043047377218492 0 0.45166362976964691 0.25106894999712381 0 0.45508065662597141 0.26402805921732958 0 0.44373838257505849 0.27050131303512348 0 0.45472874274978531 0.27586911806656422 0 0.44120727567718632 0.28746005308771089 0 0.43023391716603732 0.27040224467912161 0 0.44373838257505849 0.27050131303512348 0 0.44120727567718632 0.28746005308771089 0 0.44373838257505849 0.27050131303512348 0 0.45472874274978531 0.27586911806656422 0 0.45508065662597141 0.26402805921732958 0 0.45472874274978531 0.27586911806656422 0 0.46665275363318931 0.27127710252775639 0 0.46192346945889701 0.28817835066990299 0 0.45472874274978531 0.27586911806656422 0 0.46665275363318931 0.27127710252775639 0 0.45508065662597141 0.26402805921732958 0 0.45166362976964691 0.25106894999712381 0 0.46652816171208539 0.25830808769848879 0 0.47583181488482379 0.2451422378191761 0 0.45166362976964691 0.25106894999712381 0 0.45508065662597141 0.26402805921732958 0 0.46652816171208539 0.25830808769848879 0 0.46665275363318931 0.27127710252775639 0 0.45508065662597141 0.26402805921732958 0 0.46652816171208539 0.25830808769848879 0 0.46665275363318931 0.27127710252775639 0 0.46652816171208539 0.25830808769848879 0 0.48341195364679568 0.26002408893105827 0 0.46652816171208539 0.25830808769848879 0 0.48341195364679568 0.26002408893105827 0 0.47583181488482379 0.2451422378191761 0 0.46665275363318931 0.27127710252775639 0 0.48341195364679568 0.26002408893105827 0 0.48138518434246891 0.28130646820503019 0 0.46665275363318931 0.27127710252775639 0 0.48138518434246891 0.28130646820503019 0 0.46192346945889701 0.28817835066990299 0 0.5 0.26671351767664991 0 0.5 0.29421150971207138 0 0.48138518434246891 0.28130646820503019 0 0.48341195364679568 0.26002408893105827 0 0.5 0.26671351767664991 0 0.48138518434246891 0.28130646820503019 0 0.48341195364679568 0.26002408893105827 0 0.5 0.26671351767664991 0 0.50000000000000067 0.2392155256412283 0 0.5 0.29421150971207138 0 0.47556093647901088 0.30733800586058863 0 0.5 0.32170950174749302 0 0.5 0.29421150971207138 0 0.48138518434246891 0.28130646820503019 0 0.47556093647901088 0.30733800586058863 0 0.48138518434246891 0.28130646820503019 0 0.47556093647901088 0.30733800586058863 0 0.46192346945889701 0.28817835066990299 0 0.47556093647901088 0.30733800586058863 0 0.45214514511688908 0.30370412902975941 0 0.45421880844117613 0.32339126307769928 0 0.47556093647901088 0.30733800586058863 0 0.46192346945889701 0.28817835066990299 0 0.45214514511688908 0.30370412902975941 0 0.46192346945889701 0.28817835066990299 0 0.44120727567718632 0.28746005308771089 0 0.45214514511688908 0.30370412902975941 0 0.45472874274978531 0.27586911806656422 0 0.46192346945889701 0.28817835066990299 0 0.44120727567718632 0.28746005308771089 0 0.42781523552817591 0.31215297245289481 0 0.44120727567718632 0.28746005308771089 0 0.45214514511688908 0.30370412902975941 0 0.42781523552817591 0.31215297245289481 0 0.45421880844117613 0.32339126307769928 0 0.43298436918619881 0.33903622913929549 0 0.42781523552817591 0.31215297245289481 0 0.45214514511688908 0.30370412902975941 0 0.45421880844117613 0.32339126307769928 0 0.42781523552817591 0.31215297245289481 0 0.45421880844117613 0.32339126307769928 0 0.45421880844117613 0.32339126307769928 0 0.45970761232660212 0.34692044601787542 0 0.43298436918619881 0.33903622913929549 0 0.45421880844117613 0.32339126307769928 0 0.48062238135417568 0.33462955370250519 0 0.45421880844117613 0.32339126307769928 0 0.48062238135417568 0.33462955370250519 0 0.45970761232660212 0.34692044601787542 0 0.47556093647901088 0.30733800586058863 0 0.45421880844117613 0.32339126307769928 0 0.48062238135417568 0.33462955370250519 0 0.48062238135417568 0.33462955370250519 0 0.5 0.32170950174749302 0 0.5 0.34920749378291471 0 0.47556093647901088 0.30733800586058863 0 0.48062238135417568 0.33462955370250519 0 0.5 0.32170950174749302 0 0.5 0.34920749378291471 0 0.48254603458521478 0.3522402998402685 0 0.5 0.37670548581833618 0 0.48062238135417568 0.33462955370250519 0 0.5 0.34920749378291471 0 0.48254603458521478 0.3522402998402685 0 0.48254603458521478 0.3522402998402685 0 0.46972057754862501 0.36630584452178799 0 0.45970761232660212 0.34692044601787542 0 0.48062238135417568 0.33462955370250519 0 0.48254603458521478 0.3522402998402685 0 0.45970761232660212 0.34692044601787542 0 0.48254603458521478 0.3522402998402685 0 0.46972057754862501 0.36630584452178799 0 0.5 0.37670548581833618 0 0.46972057754862501 0.36630584452178799 0 0.43815350284422228 0.36591948582569622 0 0.45848938469160699 0.38276388730883248 0 0.46972057754862501 0.36630584452178799 0 0.45970761232660212 0.34692044601787542 0 0.43815350284422228 0.36591948582569622 0 0.45970761232660212 0.34692044601787542 0 0.43815350284422228 0.36591948582569622 0 0.43298436918619881 0.33903622913929549 0 0.43815350284422228 0.36591948582569622 0 0.4167242930516859 0.35972934744593471 0 0.42344095457037051 0.38268701701273461 0 0.4167242930516859 0.35972934744593471 0 0.40101385701800268 0.38518895784325291 0 0.4167242930516859 0.35972934744593471 0 0.40181680918128981 0.35947395412181382 0 0.40101385701800268 0.38518895784325291 0 0.4167242930516859 0.35972934744593471 0 0.40869055031553031 0.33881917925707022 0 0.40181680918128981 0.35947395412181382 0 0.4167242930516859 0.35972934744593471 0 0.43298436918619881 0.33903622913929549 0 0.40869055031553031 0.33881917925707022 0 0.43815350284422228 0.36591948582569622 0 0.4167242930516859 0.35972934744593471 0 0.43298436918619881 0.33903622913929549 0 0.43815350284422228 0.36591948582569622 0 0.43298436918619881 0.33903622913929549 0 0.42781523552817591 0.31215297245289481 0 0.43298436918619881 0.33903622913929549 0 0.42781523552817591 0.31215297245289481 0 0.43298436918619881 0.33903622913929549 0 0.41357021602424721 0.32279281759874212 0 0.43298436918619881 0.33903622913929549 0 0.41357021602424721 0.32279281759874212 0 0.40869055031553031 0.33881917925707022 0 0.40869055031553031 0.33881917925707022 0 0.39369601167170543 0.33564153172070438 0 0.39209274976778918 0.34814598654190299 0 0.40869055031553031 0.33881917925707022 0 0.39369601167170543 0.33564153172070438 0 0.3956366020903157 0.32248231082130752 0 0.39369601167170543 0.33564153172070438 0 0.3956366020903157 0.32248231082130752 0 0.38362385659697051 0.32926172455430031 0 0.39369601167170543 0.33564153172070438 0 0.38635485741833753 0.33883185827426582 0 0.39209274976778918 0.34814598654190299 0 0.41357021602424721 0.32279281759874212 0 0.40869055031553031 0.33881917925707022 0 0.3956366020903157 0.32248231082130752 0 0.4027243230010164 0.30147339632314252 0 0.41357021602424721 0.32279281759874212 0 0.3956366020903157 0.32248231082130752 0 0.3956366020903157 0.32248231082130752 0 0.38754735899376969 0.31282171123814728 0 0.38479800915553353 0.32074741934569512 0 0.38754735899376969 0.31282171123814728 0 0.38479800915553353 0.32074741934569512 0 0.37917338616632867 0.3168755173424983 0 0.3956366020903157 0.32248231082130752 0 0.38479800915553353 0.32074741934569512 0 0.38362385659697051 0.32926172455430031 0 0.38479800915553353 0.32074741934569512 0 0.37832625022041982 0.32264150287239662 0 0.38362385659697051 0.32926172455430031 0 0.37577016905582622 0.32787937856968757 0 0.37832625022041982 0.32264150287239662 0 0.38362385659697051 0.32926172455430031 0 0.37577016905582622 0.32787937856968757 0 0.37506056064123422 0.32471797871916308 0 0.37832625022041982 0.32264150287239662 0 0.37368960646642962 0.31911015363466272 0 0.37506056064123422 0.32471797871916308 0 0.37832625022041982 0.32264150287239662 0 0.37695808612291098 0.31120865645681561 0 0.38754735899376969 0.31282171123814728 0 0.37917338616632867 0.3168755173424983 0 0.38479800915553353 0.32074741934569512 0 0.37832625022041982 0.32264150287239662 0 0.37917338616632867 0.3168755173424983 0 0.37368960646642962 0.31911015363466272 0 0.37832625022041982 0.32264150287239662 0 0.37917338616632867 0.3168755173424983 0 0.37499251130121058 0.31593455150060828 0 0.37368960646642962 0.31911015363466272 0 0.37917338616632867 0.3168755173424983 0 0.37499251130121058 0.31593455150060828 0 0.37695808612291098 0.31120865645681561 0 0.37917338616632867 0.3168755173424983 0 0.38635485741833753 0.33883185827426582 0 0.3795813787571668 0.3363772241379393 0 0.38278029029805521 0.34473282441648212 0 0.39369601167170543 0.33564153172070438 0 0.38635485741833753 0.33883185827426582 0 0.38362385659697051 0.32926172455430031 0 0.38635485741833753 0.33883185827426582 0 0.38362385659697051 0.32926172455430031 0 0.3795813787571668 0.3363772241379393 0 0.37577016905582622 0.32787937856968757 0 0.38362385659697051 0.32926172455430031 0 0.37868435463470768 0.3315773541462857 0 0.38362385659697051 0.32926172455430031 0 0.37868435463470768 0.3315773541462857 0 0.3795813787571668 0.3363772241379393 0 0.37577016905582622 0.32787937856968757 0 0.37868435463470768 0.3315773541462857 0 0.375263113682131 0.33313320718557798 0 0.37868435463470768 0.3315773541462857 0 0.375263113682131 0.33313320718557798 0 0.3795813787571668 0.3363772241379393 0 0.37369311900952262 0.33836265764115908 0 0.3795813787571668 0.3363772241379393 0 0.37670219357667811 0.34177383067972761 0 0.3795813787571668 0.3363772241379393 0 0.37670219357667811 0.34177383067972761 0 0.38278029029805521 0.34473282441648212 0 0.37369311900952262 0.33836265764115908 0 0.375263113682131 0.33313320718557798 0 0.3795813787571668 0.3363772241379393 0 0.3809821990389497 0.35490418517770578 0 0.39056259575344082 0.36548629952090861 0 0.39209274976778918 0.34814598654190299 0 0.37486749369974542 0.34694596905823039 0 0.37670219357667811 0.34177383067972761 0 0.38278029029805521 0.34473282441648212 0 0.37486749369974542 0.34694596905823039 0 0.38278029029805521 0.34473282441648212 0 0.3809821990389497 0.35490418517770578 0 0.38278029029805521 0.34473282441648212 0 0.3809821990389497 0.35490418517770578 0 0.39209274976778918 0.34814598654190299 0 0.38635485741833753 0.33883185827426582 0 0.38278029029805521 0.34473282441648212 0 0.39209274976778918 0.34814598654190299 0 0.37228166628853332 0.35471301169251829 0 0.37486749369974542 0.34694596905823039 0 0.3809821990389497 0.35490418517770578 0 0.37414389550204002 0.36898578533419818 0 0.3809821990389497 0.35490418517770578 0 0.39056259575344082 0.36548629952090861 0 0.37414389550204002 0.36898578533419818 0 0.39056259575344082 0.36548629952090861 0 0.40101385701800268 0.38518895784325291 0 0.37414389550204002 0.36898578533419818 0 0.37228166628853332 0.35471301169251829 0 0.3809821990389497 0.35490418517770578 0 0.39056259575344082 0.36548629952090861 0 0.40181680918128981 0.35947395412181382 0 0.40101385701800268 0.38518895784325291 0 0.39056259575344082 0.36548629952090861 0 0.40181680918128981 0.35947395412181382 0 0.39209274976778918 0.34814598654190299 0 0.40869055031553031 0.33881917925707022 0 0.40181680918128981 0.35947395412181382 0 0.39209274976778918 0.34814598654190299 0 0.40101385701800268 0.38518895784325291 0 0.38530342098431941 0.41064856824057122 0 0.40101385701800268 0.38518895784325291 0 0.38530342098431941 0.41064856824057122 0 0.41521715527738928 0.40390661881175682 0 0.3736470799201031 0.39378130610698531 0 0.37414389550204002 0.36898578533419818 0 0.40101385701800268 0.38518895784325291 0 0.3736470799201031 0.39378130610698531 0 0.40101385701800268 0.38518895784325291 0 0.38530342098431941 0.41064856824057122 0 0.36959298495063608 0.43610817863788948 0 0.38530342098431941 0.41064856824057122 0 0.36959298495063608 0.43610817863788948 0 0.38530342098431941 0.41064856824057122 0 0.3889231515195431 0.43141286456833011 0 0.3889231515195431 0.43141286456833011 0 0.40362265567455102 0.42304679086704539 0 0.39942544658573009 0.43872588670818857 0 0.40362265567455102 0.42304679086704539 0 0.41248490446316177 0.43293377153942381 0 0.39942544658573009 0.43872588670818857 0 0.38530342098431941 0.41064856824057122 0 0.3889231515195431 0.43141286456833011 0 0.40362265567455102 0.42304679086704539 0 0.38530342098431941 0.41064856824057122 0 0.40362265567455102 0.42304679086704539 0 0.41521715527738928 0.40390661881175682 0 0.40362265567455102 0.42304679086704539 0 0.42233359500988371 0.42307221464191669 0 0.41521715527738928 0.40390661881175682 0 0.40362265567455102 0.42304679086704539 0 0.41248490446316177 0.43293377153942381 0 0.42233359500988371 0.42307221464191669 0 0.41248490446316177 0.43293377153942381 0 0.42233359500988371 0.42307221464191669 0 0.42326813014219627 0.43909650749986368 0 0.42233359500988371 0.42307221464191669 0 0.43681876433844857 0.43497208046478802 0 0.42326813014219627 0.43909650749986368 0 0.42233359500988371 0.42307221464191669 0 0.43681876433844857 0.43497208046478802 0 0.43655617137350622 0.42038510460191503 0 0.42233359500988371 0.42307221464191669 0 0.42830887421762198 0.41018013153495869 0 0.41521715527738928 0.40390661881175682 0 0.42233359500988371 0.42307221464191669 0 0.42830887421762198 0.41018013153495869 0 0.43655617137350622 0.42038510460191503 0 0.42830887421762198 0.41018013153495869 0 0.43655617137350622 0.42038510460191503 0 0.439625884597032 0.40642404903869822 0 0.42978568865087441 0.39901034440009059 0 0.42344095457037051 0.38268701701273461 0 0.4433226365022459 0.39280274251209668 0 0.42978568865087441 0.39901034440009059 0 0.41521715527738928 0.40390661881175682 0 0.42344095457037051 0.38268701701273461 0 0.42830887421762198 0.41018013153495869 0 0.42978568865087441 0.39901034440009059 0 0.439625884597032 0.40642404903869822 0 0.42830887421762198 0.41018013153495869 0 0.42978568865087441 0.39901034440009059 0 0.41521715527738928 0.40390661881175682 0 0.4167242930516859 0.35972934744593471 0 0.40101385701800268 0.38518895784325291 0 0.42344095457037051 0.38268701701273461 0 0.40101385701800268 0.38518895784325291 0 0.41521715527738928 0.40390661881175682 0 0.42344095457037051 0.38268701701273461 0 0.43815350284422228 0.36591948582569622 0 0.42344095457037051 0.38268701701273461 0 0.4433226365022459 0.39280274251209668 0 0.43815350284422228 0.36591948582569622 0 0.4433226365022459 0.39280274251209668 0 0.43815350284422228 0.36591948582569622 0 0.4433226365022459 0.39280274251209668 0 0.45848938469160699 0.38276388730883248 0 0.4433226365022459 0.39280274251209668 0 0.4587292321942566 0.40377894109977869 0 0.44849177016026981 0.41968599919849731 0 0.4433226365022459 0.39280274251209668 0 0.44849177016026981 0.41968599919849731 0 0.42978568865087441 0.39901034440009059 0 0.4433226365022459 0.39280274251209668 0 0.439625884597032 0.40642404903869822 0 0.4433226365022459 0.39280274251209668 0 0.4587292321942566 0.40377894109977869 0 0.45848938469160699 0.38276388730883248 0 0.4587292321942566 0.40377894109977869 0 0.45848938469160699 0.38276388730883248 0 0.47720201034463561 0.39055994944820821 0 0.46972057754862501 0.36630584452178799 0 0.45848938469160699 0.38276388730883248 0 0.47720201034463561 0.39055994944820821 0 0.46972057754862501 0.36630584452178799 0 0.47720201034463561 0.39055994944820821 0 0.5 0.37670548581833618 0 0.47720201034463561 0.39055994944820821 0 0.5 0.40420347785375749 0 0.47329291580914951 0.41490179660840648 0 0.4587292321942566 0.40377894109977869 0 0.47720201034463561 0.39055994944820821 0 0.47329291580914951 0.41490179660840648 0 0.47720201034463561 0.39055994944820821 0 0.5 0.40420347785375749 0 0.5 0.37670548581833618 0 0.48546521128148462 0.42572005307568972 0 0.49999999999999828 0.43170146988917901 0 0.48502495584706629 0.44181750450007778 0 0.49999999999999828 0.43170146988917901 0 0.48502495584706629 0.44181750450007778 0 0.5 0.40420347785375749 0 0.48546521128148462 0.42572005307568972 0 0.47329291580914951 0.41490179660840648 0 0.5 0.40420347785375749 0 0.48546521128148462 0.42572005307568972 0 0.49999999999999828 0.43170146988917901 0 0.48546521128148462 0.42572005307568972 0 0.47462076711180717 0.43403653248997731 0 0.48502495584706629 0.44181750450007778 0 0.47329291580914951 0.41490179660840648 0 0.47462076711180717 0.43403653248997731 0 0.45927084092720188 0.43580976915473651 0 0.48546521128148462 0.42572005307568972 0 0.47329291580914951 0.41490179660840648 0 0.47462076711180717 0.43403653248997731 0 0.45927084092720188 0.43580976915473651 0 0.44849177016026981 0.41968599919849731 0 0.47329291580914951 0.41490179660840648 0 0.45927084092720188 0.43580976915473651 0 0.44849177016026981 0.41968599919849731 0 0.45927084092720188 0.43580976915473651 0 0.44849177016026981 0.41968599919849731 0 0.45165089640657707 0.43611575462809582 0 0.4587292321942566 0.40377894109977869 0 0.47329291580914951 0.41490179660840648 0 0.44849177016026981 0.41968599919849731 0 0.4433226365022459 0.39280274251209668 0 0.44849177016026981 0.41968599919849731 0 0.439625884597032 0.40642404903869822 0 0.43655617137350622 0.42038510460191503 0 0.44849177016026981 0.41968599919849731 0 0.439625884597032 0.40642404903869822 0 0.44849177016026981 0.41968599919849731 0 0.439625884597032 0.40642404903869822 0 0.44849177016026981 0.41968599919849731 0 0.45165089640657707 0.43611575462809582 0 0.44386952542921521 0.4295111469185629 0 0.44849177016026981 0.41968599919849731 0 0.45165089640657707 0.43611575462809582 0 0.45165089640657707 0.43611575462809582 0 0.44386952542921521 0.4295111469185629 0 0.44519082659473158 0.43782150968735878 0 0.43655617137350622 0.42038510460191503 0 0.44849177016026981 0.41968599919849731 0 0.44386952542921521 0.4295111469185629 0 0.43681876433844857 0.43497208046478802 0 0.43655617137350622 0.42038510460191503 0 0.44386952542921521 0.4295111469185629 0 0.43681876433844857 0.43497208046478802 0 0.44386952542921521 0.4295111469185629 0 0.44519082659473158 0.43782150968735878 0 0.43681876433844857 0.43497208046478802 0 0.44519082659473158 0.43782150968735878 0 0.44362096681603608 0.44566090358066651 0 0.43681876433844857 0.43497208046478802 0 0.44362096681603608 0.44566090358066651 0 0.43343701099378978 0.44857281610427868 0 0.44362096681603608 0.44566090358066651 0 0.44110505044236059 0.45564825146568327 0 0.43343701099378978 0.44857281610427868 0 0.44362096681603608 0.44566090358066651 0 0.45255374853073171 0.45216262504332899 0 0.45221828903371142 0.44335246171580328 0 0.44362096681603608 0.44566090358066651 0 0.45255374853073171 0.45216262504332899 0 0.44110505044236059 0.45564825146568327 0 0.44519082659473158 0.43782150968735878 0 0.44362096681603608 0.44566090358066651 0 0.45221828903371142 0.44335246171580328 0 0.45165089640657707 0.43611575462809582 0 0.44519082659473158 0.43782150968735878 0 0.45221828903371142 0.44335246171580328 0 0.45255374853073171 0.45216262504332899 0 0.44518446721829791 0.46873079822848901 0 0.44110505044236059 0.45564825146568327 0 0.44518446721829791 0.46873079822848901 0 0.44110505044236059 0.45564825146568327 0 0.43072905865294731 0.46311411437165317 0 0.47284597636140308 0.45611600571247141 0 0.46302896313844299 0.47272331085799019 0 0.45255374853073171 0.45216262504332899 0 0.44518446721829791 0.46873079822848901 0 0.47004991169413368 0.45193353911097589 0 0.47004991169413368 0.45193353911097589 0 0.47284597636140308 0.45611600571247141 0 0.46302896313844299 0.47272331085799019 0 0.44518446721829791 0.46873079822848901 0 0.47004991169413368 0.45193353911097589 0 0.46302896313844299 0.47272331085799019 0 0.44518446721829791 0.46873079822848901 0 0.47004991169413368 0.45193353911097589 0 0.45927084092720188 0.43580976915473651 0 0.47004991169413368 0.45193353911097589 0 0.45927084092720188 0.43580976915473651 0 0.45930684530103161 0.44617181272829648 0 0.47004991169413368 0.45193353911097589 0 0.47462076711180717 0.43403653248997731 0 0.45927084092720188 0.43580976915473651 0 0.47004991169413368 0.45193353911097589 0 0.45255374853073171 0.45216262504332899 0 0.45930684530103161 0.44617181272829648 0 0.47004991169413368 0.45193353911097589 0 0.45927084092720188 0.43580976915473651 0 0.45221828903371142 0.44335246171580328 0 0.45930684530103161 0.44617181272829648 0 0.45927084092720188 0.43580976915473651 0 0.45165089640657707 0.43611575462809582 0 0.45221828903371142 0.44335246171580328 0 0.45255374853073171 0.45216262504332899 0 0.45221828903371142 0.44335246171580328 0 0.45930684530103161 0.44617181272829648 0 0.47462076711180717 0.43403653248997731 0 0.47004991169413368 0.45193353911097589 0 0.48502495584706629 0.44181750450007778 0 0.48189680466807888 0.45106209462173341 0 0.47450081081676521 0.45331654521044668 0 0.48502495584706629 0.44181750450007778 0 0.47004991169413368 0.45193353911097589 0 0.48502495584706629 0.44181750450007778 0 0.47004991169413368 0.45193353911097589 0 0.47450081081676521 0.45331654521044668 0 0.48502495584706629 0.44181750450007778 0 0.47284597636140308 0.45611600571247141 0 0.48050552008400071 0.46757346096286262 0 0.46302896313844299 0.47272331085799019 0 0.47004991169413368 0.45193353911097589 0 0.47284597636140308 0.45611600571247141 0 0.47004991169413368 0.45193353911097589 0 0.47450081081676521 0.45331654521044668 0 0.47284597636140308 0.45611600571247141 0 0.47450081081676521 0.45331654521044668 0 0.47284597636140308 0.45611600571247141 0 0.47951191807974908 0.45654698881850991 0 0.47450081081676521 0.45331654521044668 0 0.47284597636140308 0.45611600571247141 0 0.47284597636140308 0.45611600571247141 0 0.48050552008400071 0.46757346096286262 0 0.47284597636140308 0.45611600571247141 0 0.48050552008400071 0.46757346096286262 0 0.47951191807974908 0.45654698881850991 0 0.48189680466807888 0.45106209462173341 0 0.47951191807974908 0.45654698881850991 0 0.4878104784684959 0.4546668375850359 0 0.48050552008400071 0.46757346096286262 0 0.47951191807974908 0.45654698881850991 0 0.4878104784684959 0.4546668375850359 0 0.48189680466807888 0.45106209462173341 0 0.47450081081676521 0.45331654521044668 0 0.47951191807974908 0.45654698881850991 0 0.48050552008400071 0.46757346096286262 0 0.4878104784684959 0.4546668375850359 0 0.49999999999999928 0.46182898591187349 0 0.48050552008400071 0.46757346096286262 0 0.49999999999999928 0.46182898591187349 0 0.49999999999999828 0.43170146988917901 0 0.4878104784684959 0.4546668375850359 0 0.49999999999999928 0.46182898591187349 0 0.49999999999999828 0.43170146988917901 0 0.4878104784684959 0.4546668375850359 0 0.48502495584706629 0.44181750450007778 0 0.48189680466807888 0.45106209462173341 0 0.4878104784684959 0.4546668375850359 0 0.48502495584706629 0.44181750450007778 0 0.49999999999999928 0.46182898591187349 0 0.5 0.5 0 0.49753071700976492 0.4930404390193398 0 0.5 0.5 0 0.47501141284236448 0.48698608464618232 0 0.44690499747156931 0.4999999999999995 0 0.5 0.5 0 0.49753071700976492 0.4930404390193398 0 0.47501141284236448 0.48698608464618232 0 0.49753071700976492 0.4930404390193398 0 0.48901811854688337 0.4803069499911008 0 0.47501141284236448 0.48698608464618232 0 0.49753071700976492 0.4930404390193398 0 0.48901811854688337 0.4803069499911008 0 0.48050552008400071 0.46757346096286262 0 0.49999999999999928 0.46182898591187349 0 0.48901811854688337 0.4803069499911008 0 0.49999999999999928 0.46182898591187349 0 0.49753071700976492 0.4930404390193398 0 0.48901811854688337 0.4803069499911008 0 0.48050552008400071 0.46757346096286262 0 0.48901811854688337 0.4803069499911008 0 0.48050552008400071 0.46757346096286262 0 0.46302896313844299 0.47272331085799019 0 0.48901811854688337 0.4803069499911008 0 0.47689100365292297 0.47689745161453417 0 0.47501141284236448 0.48698608464618232 0 0.48050552008400071 0.46757346096286262 0 0.47689100365292297 0.47689745161453417 0 0.46302896313844299 0.47272331085799019 0 0.48050552008400071 0.46757346096286262 0 0.48901811854688337 0.4803069499911008 0 0.47689100365292297 0.47689745161453417 0 0.47689100365292297 0.47689745161453417 0 0.47501141284236448 0.48698608464618232 0 0.46302896313844299 0.47272331085799019 0 0.47501141284236448 0.48698608464618232 0 0.45496698030500621 0.48636165542899479 0 0.44690499747156931 0.4999999999999995 0 0.47501141284236448 0.48698608464618232 0 0.45496698030500621 0.48636165542899479 0 0.46302896313844299 0.47272331085799019 0 0.45496698030500621 0.48636165542899479 0 0.46302896313844299 0.47272331085799019 0 0.46302896313844299 0.47272331085799019 0 0.43620850627812668 0.48062654530969717 0 0.44518446721829791 0.46873079822848901 0 0.46302896313844299 0.47272331085799019 0 0.43620850627812668 0.48062654530969717 0 0.45496698030500621 0.48636165542899479 0 0.46302896313844299 0.47272331085799019 0 0.43620850627812668 0.48062654530969717 0 0.45496698030500621 0.48636165542899479 0 0.44690499747156931 0.4999999999999995 0 0.43620850627812668 0.48062654530969717 0 0.45496698030500621 0.48636165542899479 0 0.44690499747156931 0.4999999999999995 0 0.42031902274246069 0.48552805734600057 0 0.41743852268843429 0.5 0 0.43620850627812668 0.48062654530969717 0 0.44690499747156931 0.4999999999999995 0 0.41743852268843429 0.5 0 0.43620850627812668 0.48062654530969717 0 0.42031902274246069 0.48552805734600057 0 0.41743852268843429 0.5 0 0.40134209412993838 0.48520307466421098 0 0.42031902274246069 0.48552805734600057 0 0.40973563488985532 0.47579104778557152 0 0.40134209412993838 0.48520307466421098 0 0.42031902274246069 0.48552805734600057 0 0.40973563488985532 0.47579104778557152 0 0.41789473538963601 0.46705380048502582 0 0.44518446721829791 0.46873079822848901 0 0.42031902274246069 0.48552805734600057 0 0.43072905865294731 0.46311411437165317 0 0.44518446721829791 0.46873079822848901 0 0.42031902274246069 0.48552805734600057 0 0.43620850627812668 0.48062654530969717 0 0.44518446721829791 0.46873079822848901 0 0.42031902274246069 0.48552805734600057 0 0.42031902274246069 0.48552805734600057 0 0.43072905865294731 0.46311411437165317 0 0.41789473538963601 0.46705380048502582 0 0.44110505044236059 0.45564825146568327 0 0.43072905865294731 0.46311411437165317 0 0.43343701099378978 0.44857281610427868 0 0.43072905865294731 0.46311411437165317 0 0.43343701099378978 0.44857281610427868 0 0.42053980660522761 0.45341513910658388 0 0.43072905865294731 0.46311411437165317 0 0.41789473538963601 0.46705380048502582 0 0.42053980660522761 0.45341513910658388 0 0.43681876433844857 0.43497208046478802 0 0.43343701099378978 0.44857281610427868 0 0.42326813014219627 0.43909650749986368 0 0.43343701099378978 0.44857281610427868 0 0.42326813014219627 0.43909650749986368 0 0.42053980660522761 0.45341513910658388 0 0.41248490446316177 0.43293377153942381 0 0.42326813014219627 0.43909650749986368 0 0.41215324011006321 0.44426916471351768 0 0.42326813014219627 0.43909650749986368 0 0.41215324011006321 0.44426916471351768 0 0.42053980660522761 0.45341513910658388 0 0.41215324011006321 0.44426916471351768 0 0.42053980660522761 0.45341513910658388 0 0.40575666434273311 0.45838443146516472 0 0.41248490446316177 0.43293377153942381 0 0.41215324011006321 0.44426916471351768 0 0.39942544658573009 0.43872588670818857 0 0.40973563488985532 0.47579104778557152 0 0.41789473538963601 0.46705380048502582 0 0.40575666434273311 0.45838443146516472 0 0.41789473538963601 0.46705380048502582 0 0.42053980660522761 0.45341513910658388 0 0.40575666434273311 0.45838443146516472 0 0.40973563488985532 0.47579104778557152 0 0.40575666434273311 0.45838443146516472 0 0.39457326129307041 0.46924519202038539 0 0.40575666434273311 0.45838443146516472 0 0.38748492612950952 0.44892285829301931 0 0.39457326129307041 0.46924519202038539 0 0.40575666434273311 0.45838443146516472 0 0.39942544658573009 0.43872588670818857 0 0.38748492612950952 0.44892285829301931 0 0.3889231515195431 0.43141286456833011 0 0.39942544658573009 0.43872588670818857 0 0.38748492612950952 0.44892285829301931 0 0.41215324011006321 0.44426916471351768 0 0.40575666434273311 0.45838443146516472 0 0.39942544658573009 0.43872588670818857 0 0.36980735363827261 0.46050290225189661 0 0.36959298495063608 0.43610817863788948 0 0.38748492612950952 0.44892285829301931 0 0.36959298495063608 0.43610817863788948 0 0.3889231515195431 0.43141286456833011 0 0.38748492612950952 0.44892285829301931 0 0.36980735363827261 0.46050290225189661 0 0.38748492612950952 0.44892285829301931 0 0.39457326129307041 0.46924519202038539 0 0.36980735363827261 0.46050290225189661 0 0.37801407526051067 0.48065415083330842 0 0.39457326129307041 0.46924519202038539 0 0.37801407526051067 0.48065415083330842 0 0.38797204790529932 0.5 0 0.40134209412993838 0.48520307466421098 0 0.41743852268843429 0.5 0 0.38797204790529932 0.5 0 0.40134209412993838 0.48520307466421098 0 0.40973563488985532 0.47579104778557152 0 0.40134209412993838 0.48520307466421098 0 0.39457326129307041 0.46924519202038539 0 0.37801407526051067 0.48065415083330842 0 0.40134209412993838 0.48520307466421098 0 0.39457326129307041 0.46924519202038539 0 0.33471388977496319 0.083869725553476451 0 0.32003772732572838 0.080925826065863432 0 0.34163206045391592 0.099703108374672819 0 0.32003772732572838 0.080925826065863432 0 0.34163206045391592 0.099703108374672819 0 0.33471388977496319 0.083869725553476451 0 0.34163206045391592 0.099703108374672819 0 0.35085433501378249 0.086695181415402722 0 0.33471388977496319 0.083869725553476451 0 0.34209731100959018 0.06531632876058778 0 0.3490795063897344 0.076610282135673974 0 0.33471388977496319 0.083869725553476451 0 0.34209731100959018 0.06531632876058778 0 0.32721969837032222 0.069259436753723466 0 0.33471388977496319 0.083869725553476451 0 0.32721969837032222 0.069259436753723466 0 0.32003772732572838 0.080925826065863432 0 0.31518448171420999 0.065085558788002928 0 0.32721969837032222 0.069259436753723466 0 0.32003772732572838 0.080925826065863432 0 0.32003772732572838 0.080925826065863432 0 0.31657863646219547 0.093324099257994786 0 0.34163206045391592 0.099703108374672819 0 0.32003772732572838 0.080925826065863432 0 0.31657863646219547 0.093324099257994786 0 0.30227411453462139 0.089652133027170247 0 0.33471388977496319 0.083869725553476451 0 0.32003772732572838 0.080925826065863432 0 0.31657863646219547 0.093324099257994786 0 0.32025759602694659 0.1047776340902011 0 0.34163206045391592 0.099703108374672819 0 0.31657863646219547 0.093324099257994786 0 0.32025759602694659 0.1047776340902011 0 0.30640852481201453 0.1024735992044304 0 0.32025759602694659 0.1047776340902011 0 0.31114536757858358 0.11742006929579971 0 0.30640852481201453 0.1024735992044304 0 0.32606950933900308 0.1158177097477945 0 0.31114536757858358 0.11742006929579971 0 0.3195478300457561 0.1332621056988223 0 0.32025759602694659 0.1047776340902011 0 0.32606950933900308 0.1158177097477945 0 0.31114536757858358 0.11742006929579971 0 0.33761965874988609 0.1186889285033586 0 0.34163206045391592 0.099703108374672819 0 0.34956654336434939 0.1234914401014125 0 0.32606950933900308 0.1158177097477945 0 0.33761965874988609 0.1186889285033586 0 0.34163206045391592 0.099703108374672819 0 0.32606950933900308 0.1158177097477945 0 0.33761965874988609 0.1186889285033586 0 0.33436770153514289 0.13112975471366969 0 0.33761965874988609 0.1186889285033586 0 0.34956654336434939 0.1234914401014125 0 0.33436770153514289 0.13112975471366969 0 0.32025759602694659 0.1047776340902011 0 0.32606950933900308 0.1158177097477945 0 0.34163206045391592 0.099703108374672819 0 0.34163206045391592 0.099703108374672819 0 0.35755874922647762 0.098360434014750309 0 0.36322639358210312 0.11848039068348271 0 0.34163206045391592 0.099703108374672819 0 0.36322639358210312 0.11848039068348271 0 0.34163206045391592 0.099703108374672819 0 0.35755874922647762 0.098360434014750309 0 0.35085433501378249 0.086695181415402722 0 0.34163206045391592 0.099703108374672819 0 0.34956654336434939 0.1234914401014125 0 0.36322639358210312 0.11848039068348271 0 0.36322639358210312 0.11848039068348271 0 0.37045299287494049 0.09679375479102828 0 0.38005682511468147 0.12140739343396729 0 0.35755874922647762 0.098360434014750309 0 0.36322639358210312 0.11848039068348271 0 0.37045299287494049 0.09679375479102828 0 0.35755874922647762 0.098360434014750309 0 0.37045299287494049 0.09679375479102828 0 0.35979627253246887 0.087956112087811941 0 0.37045299287494049 0.09679375479102828 0 0.36986657419494789 0.075759843690150083 0 0.37682589963749002 0.081332762740894418 0 0.37045299287494049 0.09679375479102828 0 0.35979627253246887 0.087956112087811941 0 0.36084916063519962 0.072180116148089279 0 0.37045299287494049 0.09679375479102828 0 0.36084916063519962 0.072180116148089279 0 0.36986657419494789 0.075759843690150083 0 0.37045299287494049 0.09679375479102828 0 0.36084916063519962 0.072180116148089279 0 0.35755874922647762 0.098360434014750309 0 0.35979627253246887 0.087956112087811941 0 0.35085433501378249 0.086695181415402722 0 0.35979627253246887 0.087956112087811941 0 0.35560274156159061 0.081403828627082772 0 0.36084916063519962 0.072180116148089279 0 0.33471388977496319 0.083869725553476451 0 0.35085433501378249 0.086695181415402722 0 0.3490795063897344 0.076610282135673974 0 0.35979627253246887 0.087956112087811941 0 0.35560274156159061 0.081403828627082772 0 0.35085433501378249 0.086695181415402722 0 0.35560274156159061 0.081403828627082772 0 0.35085433501378249 0.086695181415402722 0 0.3490795063897344 0.076610282135673974 0 0.34209731100959018 0.06531632876058778 0 0.3490795063897344 0.076610282135673974 0 0.36084916063519962 0.072180116148089279 0 0.36448270712015302 0.068442951443566186 0 0.36084916063519962 0.072180116148089279 0 0.35124532839545858 0.047566477505150237 0 0.35560274156159061 0.081403828627082772 0 0.3490795063897344 0.076610282135673974 0 0.36084916063519962 0.072180116148089279 0 0.36448270712015302 0.068442951443566186 0 0.36084916063519962 0.072180116148089279 0 0.36986657419494789 0.075759843690150083 0 0.36986657419494789 0.075759843690150083 0 0.37596532967213542 0.069868995675824025 0 0.37682589963749002 0.081332762740894418 0 0.36448270712015302 0.068442951443566186 0 0.36986657419494789 0.075759843690150083 0 0.37084641292541748 0.06878424193773866 0 0.36986657419494789 0.075759843690150083 0 0.37084641292541748 0.06878424193773866 0 0.37596532967213542 0.069868995675824025 0 0.36448270712015302 0.068442951443566186 0 0.37084641292541748 0.06878424193773866 0 0.37307104071443398 0.061065176941414383 0 0.37084641292541748 0.06878424193773866 0 0.37307104071443398 0.061065176941414383 0 0.37596532967213542 0.069868995675824025 0 0.36448270712015302 0.068442951443566186 0 0.37307104071443398 0.061065176941414383 0 0.37146335928247548 0.04052602251159599 0 0.36448270712015302 0.068442951443566186 0 0.37146335928247548 0.04052602251159599 0 0.35124532839545858 0.047566477505150237 0 0.36448270712015302 0.068442951443566186 0 0.37146335928247548 0.04052602251159599 0 0.37146335928247548 0.04052602251159599 0 0.35572529983931911 0.032753521421585163 0 0.36312657459820519 0.022962182453169309 0 0.37146335928247548 0.04052602251159599 0 0.35572529983931911 0.032753521421585163 0 0.35124532839545858 0.047566477505150237 0 0.35572529983931911 0.032753521421585163 0 0.35124532839545858 0.047566477505150237 0 0.3321968515854315 0.028027004478648001 0 0.36084916063519962 0.072180116148089279 0 0.35124532839545858 0.047566477505150237 0 0.34209731100959018 0.06531632876058778 0 0.36084916063519962 0.072180116148089279 0 0.35124532839545858 0.047566477505150237 0 0.36312657459820519 0.022962182453169309 0 0.35936362748920009 0.0091271431172253586 0 0.37844401144479839 0.012609093579625891 0 0.35936362748920009 0.0091271431172253586 0 0.37844401144479839 0.012609093579625891 0 0.36665723294200347 -0.001883505129568449 0 0.35936362748920009 0.0091271431172253586 0 0.36665723294200347 -0.001883505129568449 0 0.35531676971978082 -0.0033532784323768001 0 0.37146335928247548 0.04052602251159599 0 0.36312657459820519 0.022962182453169309 0 0.37844401144479839 0.012609093579625891 0 0.37146335928247548 0.04052602251159599 0 0.37844401144479839 0.012609093579625891 0 0.35572529983931911 0.032753521421585163 0 0.35063657493523293 0.0197951316358141 0 0.3321968515854315 0.028027004478648001 0 0.35572529983931911 0.032753521421585163 0 0.36312657459820519 0.022962182453169309 0 0.35063657493523293 0.0197951316358141 0 0.36312657459820519 0.022962182453169309 0 0.35063657493523293 0.0197951316358141 0 0.35936362748920009 0.0091271431172253586 0 0.35936362748920009 0.0091271431172253586 0 0.33689267375143878 0.0039255003288513873 0 0.35531676971978082 -0.0033532784323768001 0 0.35063657493523293 0.0197951316358141 0 0.35936362748920009 0.0091271431172253586 0 0.33689267375143878 0.0039255003288513873 0 0.33689267375143878 0.0039255003288513873 0 0.3321968515854315 0.028027004478648001 0 0.30352242257352219 0.0039185454548519476 0 0.35063657493523293 0.0197951316358141 0 0.33689267375143878 0.0039255003288513873 0 0.3321968515854315 0.028027004478648001 0 0.3321968515854315 0.028027004478648001 0 0.32406508202711942 0.05109974460068676 0 0.30086563814790429 0.035038583275740692 0 0.34209731100959018 0.06531632876058778 0 0.32721969837032222 0.069259436753723466 0 0.32406508202711942 0.05109974460068676 0 0.34209731100959018 0.06531632876058778 0 0.35124532839545858 0.047566477505150237 0 0.32406508202711942 0.05109974460068676 0 0.35124532839545858 0.047566477505150237 0 0.3321968515854315 0.028027004478648001 0 0.32406508202711942 0.05109974460068676 0 0.31518448171420999 0.065085558788002928 0 0.32721969837032222 0.069259436753723466 0 0.32406508202711942 0.05109974460068676 0 0.31518448171420999 0.065085558788002928 0 0.32406508202711942 0.05109974460068676 0 0.29882370077581188 0.062479238108283437 0 0.32406508202711942 0.05109974460068676 0 0.29882370077581188 0.062479238108283437 0 0.30086563814790429 0.035038583275740692 0 0.32406508202711942 0.05109974460068676 0 0.30086563814790429 0.035038583275740692 0 0.30086563814790429 0.035038583275740692 0 0.28350496565293731 0.043820562147367653 0 0.27766619426868899 0.018977421950794569 0 0.29882370077581188 0.062479238108283437 0 0.30086563814790429 0.035038583275740692 0 0.28350496565293731 0.043820562147367653 0 0.29882370077581188 0.062479238108283437 0 0.28350496565293731 0.043820562147367653 0 0.28339325744793759 0.061338593161917712 0 0.3321968515854315 0.028027004478648001 0 0.30086563814790429 0.035038583275740692 0 0.30352242257352219 0.0039185454548519476 0 0.30086563814790429 0.035038583275740692 0 0.27766619426868899 0.018977421950794569 0 0.30086563814790429 0.035038583275740692 0 0.30352242257352219 0.0039185454548519476 0 0.27766619426868899 0.018977421950794569 0 0.30352242257352219 0.0039185454548519476 0 0.27766619426868899 0.018977421950794569 0 0.27708695819087842 -0.0025378708656911609 0 0.27766619426868899 0.018977421950794569 0 0.25446675038947358 0.0029162606258486688 0 0.27766619426868899 0.018977421950794569 0 0.26047117107291767 -0.0019720443344692288 0 0.27708695819087842 -0.0025378708656911609 0 0.27766619426868899 0.018977421950794569 0 0.2600935707136679 0.019574361616358959 0 0.26464981823601458 0.038183209123269009 0 0.2600935707136679 0.019574361616358959 0 0.26464981823601458 0.038183209123269009 0 0.25044211127373811 0.032849993626191502 0 0.27766619426868899 0.018977421950794569 0 0.2600935707136679 0.019574361616358959 0 0.25446675038947358 0.0029162606258486688 0 0.27766619426868899 0.018977421950794569 0 0.25446675038947358 0.0029162606258486688 0 0.26047117107291767 -0.0019720443344692288 0 0.25446675038947358 0.0029162606258486688 0 0.26047117107291767 -0.0019720443344692288 0 0.28339325744793759 0.061338593161917712 0 0.2699795556074106 0.054659435659755229 0 0.26514968559830832 0.069915803624621298 0 0.28350496565293731 0.043820562147367653 0 0.28339325744793759 0.061338593161917712 0 0.2699795556074106 0.054659435659755229 0 0.28350496565293731 0.043820562147367653 0 0.27766619426868899 0.018977421950794569 0 0.26464981823601458 0.038183209123269009 0 0.28350496565293731 0.043820562147367653 0 0.2699795556074106 0.054659435659755229 0 0.26464981823601458 0.038183209123269009 0 0.26464981823601458 0.038183209123269009 0 0.25174039047255609 0.044464402284776217 0 0.2585751734657834 0.052327775232976027 0 0.26464981823601458 0.038183209123269009 0 0.25044211127373811 0.032849993626191502 0 0.25174039047255609 0.044464402284776217 0 0.25174039047255609 0.044464402284776217 0 0.25102243244437311 0.053297338652025752 0 0.2585751734657834 0.052327775232976027 0 0.2699795556074106 0.054659435659755229 0 0.26464981823601458 0.038183209123269009 0 0.2585751734657834 0.052327775232976027 0 0.2699795556074106 0.054659435659755229 0 0.2585751734657834 0.052327775232976027 0 0.26000268679747079 0.061003988239662958 0 0.2699795556074106 0.054659435659755229 0 0.26000268679747079 0.061003988239662958 0 0.26514968559830832 0.069915803624621298 0 0.2585751734657834 0.052327775232976027 0 0.26000268679747079 0.061003988239662958 0 0.2530174900015254 0.0600809219264858 0 0.25102243244437311 0.053297338652025752 0 0.2585751734657834 0.052327775232976027 0 0.2530174900015254 0.0600809219264858 0 0.24751669685985911 0.059618880130872708 0 0.25102243244437311 0.053297338652025752 0 0.2530174900015254 0.0600809219264858 0 0.24853219730195361 0.063845178725116872 0 0.2530174900015254 0.0600809219264858 0 0.25274476311700622 0.067427493409812952 0 0.2530174900015254 0.0600809219264858 0 0.25274476311700622 0.067427493409812952 0 0.26000268679747079 0.061003988239662958 0 0.2530174900015254 0.0600809219264858 0 0.25274476311700622 0.067427493409812952 0 0.25274476311700622 0.067427493409812952 0 0.25243039498113262 0.075895774732197205 0 0.24842415088314279 0.069033451464499671 0 0.25274476311700622 0.067427493409812952 0 0.25243039498113262 0.075895774732197205 0 0.25274476311700622 0.067427493409812952 0 0.25243039498113262 0.075895774732197205 0 0.26514968559830832 0.069915803624621298 0 0.25243039498113262 0.075895774732197205 0 0.26514968559830832 0.069915803624621298 0 0.26417250328098718 0.085299079350852347 0 0.25243039498113262 0.075895774732197205 0 0.26514968559830832 0.069915803624621298 0 0.26000268679747079 0.061003988239662958 0 0.25274476311700622 0.067427493409812952 0 0.26514968559830832 0.069915803624621298 0 0.25274476311700622 0.067427493409812952 0 0.26514968559830832 0.069915803624621298 0 0.25243039498113262 0.075895774732197205 0 0.26417250328098718 0.085299079350852347 0 0.25158482098595109 0.098673396421397969 0 0.25243039498113262 0.075895774732197205 0 0.25158482098595109 0.098673396421397969 0 0.26417250328098718 0.085299079350852347 0 0.27563544099652842 0.091217529053328833 0 0.26597619666038957 0.098681263799979324 0 0.26417250328098718 0.085299079350852347 0 0.27658940398852799 0.081360569412953818 0 0.27563544099652842 0.091217529053328833 0 0.26514968559830832 0.069915803624621298 0 0.26417250328098718 0.085299079350852347 0 0.27658940398852799 0.081360569412953818 0 0.27658940398852799 0.081360569412953818 0 0.27563544099652842 0.091217529053328833 0 0.28742128170162778 0.087331448045782731 0 0.28339325744793759 0.061338593161917712 0 0.26514968559830832 0.069915803624621298 0 0.29259370646201821 0.075420814845242989 0 0.26514968559830832 0.069915803624621298 0 0.27658940398852799 0.081360569412953818 0 0.29259370646201821 0.075420814845242989 0 0.28339325744793759 0.061338593161917712 0 0.26514968559830832 0.069915803624621298 0 0.26514968559830832 0.069915803624621298 0 0.29259370646201821 0.075420814845242989 0 0.29882370077581188 0.062479238108283437 0 0.28339325744793759 0.061338593161917712 0 0.29259370646201821 0.075420814845242989 0 0.27658940398852799 0.081360569412953818 0 0.29259370646201821 0.075420814845242989 0 0.28742128170162778 0.087331448045782731 0 0.27563544099652842 0.091217529053328833 0 0.28742128170162778 0.087331448045782731 0 0.29001374252644291 0.099006193890217781 0 0.28742128170162778 0.087331448045782731 0 0.30227411453462139 0.089652133027170247 0 0.29001374252644291 0.099006193890217781 0 0.29259370646201821 0.075420814845242989 0 0.28742128170162778 0.087331448045782731 0 0.30227411453462139 0.089652133027170247 0 0.32003772732572838 0.080925826065863432 0 0.29259370646201821 0.075420814845242989 0 0.30227411453462139 0.089652133027170247 0 0.32003772732572838 0.080925826065863432 0 0.29259370646201821 0.075420814845242989 0 0.32003772732572838 0.080925826065863432 0 0.29882370077581188 0.062479238108283437 0 0.29259370646201821 0.075420814845242989 0 0.32003772732572838 0.080925826065863432 0 0.29882370077581188 0.062479238108283437 0 0.31518448171420999 0.065085558788002928 0 0.32003772732572838 0.080925826065863432 0 0.29882370077581188 0.062479238108283437 0 0.29818169174329712 0.11066146566519899 0 0.31114536757858358 0.11742006929579971 0 0.294250496481684 0.12267566802032639 0 0.31114536757858358 0.11742006929579971 0 0.294250496481684 0.12267566802032639 0 0.30313841955192899 0.13260249050964579 0 0.29818169174329712 0.11066146566519899 0 0.31114536757858358 0.11742006929579971 0 0.30640852481201453 0.1024735992044304 0 0.30227411453462139 0.089652133027170247 0 0.30640852481201453 0.1024735992044304 0 0.29001374252644291 0.099006193890217781 0 0.29818169174329712 0.11066146566519899 0 0.30640852481201453 0.1024735992044304 0 0.29001374252644291 0.099006193890217781 0 0.31657863646219547 0.093324099257994786 0 0.30227411453462139 0.089652133027170247 0 0.30640852481201453 0.1024735992044304 0 0.29818169174329712 0.11066146566519899 0 0.29001374252644291 0.099006193890217781 0 0.28729541733308872 0.1128284558108848 0 0.29001374252644291 0.099006193890217781 0 0.28729541733308872 0.1128284558108848 0 0.27577858748266387 0.1072301355245756 0 0.29818169174329712 0.11066146566519899 0 0.28729541733308872 0.1128284558108848 0 0.294250496481684 0.12267566802032639 0 0.28729541733308872 0.1128284558108848 0 0.294250496481684 0.12267566802032639 0 0.28067449336876182 0.1220521091494646 0 0.28067449336876182 0.1220521091494646 0 0.26956705708048567 0.1198361090660386 0 0.27577858748266387 0.1072301355245756 0 0.28729541733308872 0.1128284558108848 0 0.28067449336876182 0.1220521091494646 0 0.27577858748266387 0.1072301355245756 0 0.26956705708048567 0.1198361090660386 0 0.27577858748266387 0.1072301355245756 0 0.26270963055581759 0.11098617864974181 0 0.27563544099652842 0.091217529053328833 0 0.27577858748266387 0.1072301355245756 0 0.26597619666038957 0.098681263799979324 0 0.27563544099652842 0.091217529053328833 0 0.29001374252644291 0.099006193890217781 0 0.27577858748266387 0.1072301355245756 0 0.27577858748266387 0.1072301355245756 0 0.26597619666038957 0.098681263799979324 0 0.26270963055581759 0.11098617864974181 0 0.25158482098595109 0.098673396421397969 0 0.25094552198087999 0.11589449234768209 0 0.25158482098595109 0.098673396421397969 0 0.26270963055581759 0.11098617864974181 0 0.25094552198087999 0.11589449234768209 0 0.26417250328098718 0.085299079350852347 0 0.26597619666038957 0.098681263799979324 0 0.25158482098595109 0.098673396421397969 0 0.26597619666038957 0.098681263799979324 0 0.25158482098595109 0.098673396421397969 0 0.26270963055581759 0.11098617864974181 0 0.25158482098595109 0.098673396421397969 0 0.26270963055581759 0.11098617864974181 0 0.25094552198087999 0.11589449234768209 0 0.25030622297580962 0.13311558827396619 0 0.26022612795132161 0.12333036834530881 0 0.25094552198087999 0.11589449234768209 0 0.25030622297580962 0.13311558827396619 0 0.26956705708048567 0.1198361090660386 0 0.26022612795132161 0.12333036834530881 0 0.26270963055581759 0.11098617864974181 0 0.26022612795132161 0.12333036834530881 0 0.26270963055581759 0.11098617864974181 0 0.25094552198087999 0.11589449234768209 0 0.26956705708048567 0.1198361090660386 0 0.26022612795132161 0.12333036834530881 0 0.26675796828336718 0.1380571931171293 0 0.26022612795132161 0.12333036834530881 0 0.25030622297580962 0.13311558827396619 0 0.26675796828336718 0.1380571931171293 0 0.25030622297580962 0.13311558827396619 0 0.26675796828336718 0.1380571931171293 0 0.25030622297580962 0.13311558827396619 0 0.26675796828336718 0.1380571931171293 0 0.25638724149227848 0.14295410589973731 0 0.25004344172447263 0.14019424959050239 0 0.25030622297580962 0.13311558827396619 0 0.25638724149227848 0.14295410589973731 0 0.25004344172447263 0.14019424959050239 0 0.25030622297580962 0.13311558827396619 0 0.26675796828336718 0.1380571931171293 0 0.28320971359092417 0.1429987979602943 0 0.26675796828336718 0.1380571931171293 0 0.28666270206708028 0.1324408374186071 0 0.28320971359092417 0.1429987979602943 0 0.28067449336876182 0.1220521091494646 0 0.26956705708048567 0.1198361090660386 0 0.26675796828336718 0.1380571931171293 0 0.28067449336876182 0.1220521091494646 0 0.26675796828336718 0.1380571931171293 0 0.28666270206708028 0.1324408374186071 0 0.26675796828336718 0.1380571931171293 0 0.27436529468354132 0.15433220537778311 0 0.26010861073109098 0.15248373785575309 0 0.26675796828336718 0.1380571931171293 0 0.27436529468354132 0.15433220537778311 0 0.28320971359092417 0.1429987979602943 0 0.26675796828336718 0.1380571931171293 0 0.26010861073109098 0.15248373785575309 0 0.25638724149227848 0.14295410589973731 0 0.2496536413094039 0.15044712256699261 0 0.25004344172447263 0.14019424959050239 0 0.25638724149227848 0.14295410589973731 0 0.24653130607993951 0.16237692388552691 0 0.2496536413094039 0.15044712256699261 0 0.26010861073109098 0.15248373785575309 0 0.2496536413094039 0.15044712256699261 0 0.26010861073109098 0.15248373785575309 0 0.25638724149227848 0.14295410589973731 0 0.24653130607993951 0.16237692388552691 0 0.25292738168467233 0.17649485219682931 0 0.26638423851283249 0.16867758561061549 0 0.24653130607993951 0.16237692388552691 0 0.26010861073109098 0.15248373785575309 0 0.26638423851283249 0.16867758561061549 0 0.24528107816237801 0.1907036486386274 0 0.25292738168467233 0.17649485219682931 0 0.26633433714882182 0.18577592949096661 0 0.25292738168467233 0.17649485219682931 0 0.26633433714882182 0.18577592949096661 0 0.26638423851283249 0.16867758561061549 0 0.27723266788850742 0.181048228772968 0 0.26638423851283249 0.16867758561061549 0 0.28391425324491287 0.17071999404263091 0 0.26633433714882182 0.18577592949096661 0 0.27723266788850742 0.181048228772968 0 0.26638423851283249 0.16867758561061549 0 0.27436529468354132 0.15433220537778311 0 0.26010861073109098 0.15248373785575309 0 0.26638423851283249 0.16867758561061549 0 0.27436529468354132 0.15433220537778311 0 0.26638423851283249 0.16867758561061549 0 0.28391425324491287 0.17071999404263091 0 0.27436529468354132 0.15433220537778311 0 0.28391425324491287 0.17071999404263091 0 0.29097703849613438 0.15773848939083679 0 0.28391425324491287 0.17071999404263091 0 0.2931647794093819 0.16879209887591959 0 0.29097703849613438 0.15773848939083679 0 0.2931647794093819 0.16879209887591959 0 0.29097703849613438 0.15773848939083679 0 0.30040947706207388 0.16512632217721829 0 0.28391425324491287 0.17071999404263091 0 0.28743664533084129 0.187357279865842 0 0.29743995151898561 0.17866098634217961 0 0.27723266788850742 0.181048228772968 0 0.28391425324491287 0.17071999404263091 0 0.28743664533084129 0.187357279865842 0 0.28391425324491287 0.17071999404263091 0 0.2931647794093819 0.16879209887591959 0 0.29743995151898561 0.17866098634217961 0 0.28743664533084129 0.187357279865842 0 0.29743995151898561 0.17866098634217961 0 0.29971043857951379 0.19298806906372529 0 0.29743995151898561 0.17866098634217961 0 0.30929675685570829 0.1858318568065235 0 0.29971043857951379 0.19298806906372529 0 0.29743995151898561 0.17866098634217961 0 0.3101655001798202 0.17563615506282959 0 0.30040947706207388 0.16512632217721829 0 0.29743995151898561 0.17866098634217961 0 0.3101655001798202 0.17563615506282959 0 0.30929675685570829 0.1858318568065235 0 0.30040947706207388 0.16512632217721829 0 0.30453528129870422 0.15487579661148021 0 0.32848741365188411 0.1727716232507491 0 0.29097703849613438 0.15773848939083679 0 0.30040947706207388 0.16512632217721829 0 0.30453528129870422 0.15487579661148021 0 0.2931647794093819 0.16879209887591959 0 0.29743995151898561 0.17866098634217961 0 0.30040947706207388 0.16512632217721829 0 0.29097703849613438 0.15773848939083679 0 0.30453528129870422 0.15487579661148021 0 0.29618567382365713 0.14404403195872001 0 0.30453528129870422 0.15487579661148021 0 0.30873747279203018 0.14281046260302349 0 0.29618567382365713 0.14404403195872001 0 0.30453528129870422 0.15487579661148021 0 0.30873747279203018 0.14281046260302349 0 0.32007589174333823 0.14676000458717811 0 0.30873747279203018 0.14281046260302349 0 0.30313841955192899 0.13260249050964579 0 0.3195478300457561 0.1332621056988223 0 0.31114536757858358 0.11742006929579971 0 0.30313841955192899 0.13260249050964579 0 0.3195478300457561 0.1332621056988223 0 0.30873747279203018 0.14281046260302349 0 0.30313841955192899 0.13260249050964579 0 0.29618567382365713 0.14404403195872001 0 0.294250496481684 0.12267566802032639 0 0.30313841955192899 0.13260249050964579 0 0.28666270206708028 0.1324408374186071 0 0.30313841955192899 0.13260249050964579 0 0.28666270206708028 0.1324408374186071 0 0.29618567382365713 0.14404403195872001 0 0.294250496481684 0.12267566802032639 0 0.28067449336876182 0.1220521091494646 0 0.28666270206708028 0.1324408374186071 0 0.28666270206708028 0.1324408374186071 0 0.28320971359092417 0.1429987979602943 0 0.29618567382365713 0.14404403195872001 0 0.27436529468354132 0.15433220537778311 0 0.29097703849613438 0.15773848939083679 0 0.28320971359092417 0.1429987979602943 0 0.29097703849613438 0.15773848939083679 0 0.28320971359092417 0.1429987979602943 0 0.29618567382365713 0.14404403195872001 0 0.28119448123381058 0.25405304303149878 0 0.26221447651104962 0.2479993693513689 0 0.28440499104296979 0.23439140090611099 0 0.26221447651104962 0.2479993693513689 0 0.26853130556434218 0.23400660741274959 0 0.28440499104296979 0.23439140090611099 0 0.26221447651104962 0.2479993693513689 0 0.28440499104296979 0.23439140090611099 0 0.2457442494512444 0.24022391879071339 0 0.26221447651104962 0.2479993693513689 0 0.25511338863332461 0.22468137717712711 0 0.26221447651104962 0.2479993693513689 0 0.25511338863332461 0.22468137717712711 0 0.26853130556434218 0.23400660741274959 0 0.26221447651104962 0.2479993693513689 0 0.25511338863332461 0.22468137717712711 0 0.25511338863332461 0.22468137717712711 0 0.25242827713160498 0.21540237912569379 0 0.25511338863332461 0.22468137717712711 0 0.2794126892910288 0.21617120911671081 0 0.25511338863332461 0.22468137717712711 0 0.26853130556434218 0.23400660741274959 0 0.2794126892910288 0.21617120911671081 0 0.26853130556434218 0.23400660741274959 0 0.2794126892910288 0.21617120911671081 0 0.28440499104296979 0.23439140090611099 0 0.25511338863332461 0.22468137717712711 0 0.2794126892910288 0.21617120911671081 0 0.26644318031571418 0.20408753099865831 0 0.2794126892910288 0.21617120911671081 0 0.26644318031571418 0.20408753099865831 0 0.27722953884408802 0.19656269719262509 0 0.24528107816237801 0.1907036486386274 0 0.26644318031571418 0.20408753099865831 0 0.25242827713160498 0.21540237912569379 0 0.25511338863332461 0.22468137717712711 0 0.26644318031571418 0.20408753099865831 0 0.25242827713160498 0.21540237912569379 0 0.26644318031571418 0.20408753099865831 0 0.25242827713160498 0.21540237912569379 0 0.24528107816237801 0.1907036486386274 0 0.26633433714882182 0.18577592949096661 0 0.26644318031571418 0.20408753099865831 0 0.26633433714882182 0.18577592949096661 0 0.26644318031571418 0.20408753099865831 0 0.27722953884408802 0.19656269719262509 0 0.27723266788850742 0.181048228772968 0 0.28743664533084129 0.187357279865842 0 0.27722953884408802 0.19656269719262509 0 0.26633433714882182 0.18577592949096661 0 0.27723266788850742 0.181048228772968 0 0.27722953884408802 0.19656269719262509 0 0.28743664533084129 0.187357279865842 0 0.27722953884408802 0.19656269719262509 0 0.28939512316467059 0.2005252056429343 0 0.28743664533084129 0.187357279865842 0 0.28939512316467059 0.2005252056429343 0 0.29971043857951379 0.19298806906372529 0 0.30929675685570829 0.1858318568065235 0 0.29971043857951379 0.19298806906372529 0 0.31162694501442678 0.19735313208654229 0 0.29971043857951379 0.19298806906372529 0 0.31162694501442678 0.19735313208654229 0 0.30371198994873311 0.20766104105629449 0 0.28939512316467059 0.2005252056429343 0 0.29971043857951379 0.19298806906372529 0 0.30371198994873311 0.20766104105629449 0 0.2794126892910288 0.21617120911671081 0 0.30371198994873311 0.20766104105629449 0 0.2794126892910288 0.21617120911671081 0 0.30371198994873311 0.20766104105629449 0 0.30659550557489001 0.220783432460853 0 0.2794126892910288 0.21617120911671081 0 0.27722953884408802 0.19656269719262509 0 0.28939512316467059 0.2005252056429343 0 0.2794126892910288 0.21617120911671081 0 0.28939512316467059 0.2005252056429343 0 0.30371198994873311 0.20766104105629449 0 0.30659550557489001 0.220783432460853 0 0.28440499104296979 0.23439140090611099 0 0.2794126892910288 0.21617120911671081 0 0.30659550557489001 0.220783432460853 0 0.28440499104296979 0.23439140090611099 0 0.30659550557489001 0.220783432460853 0 0.30328699804120918 0.24394477185791469 0 0.28440499104296979 0.23439140090611099 0 0.30659550557489001 0.220783432460853 0 0.30328699804120918 0.24394477185791469 0 0.31607427666693672 0.2331905299380852 0 0.28119448123381058 0.25405304303149878 0 0.30328699804120918 0.24394477185791469 0 0.28440499104296979 0.23439140090611099 0 0.3433555784436142 0.25004320974280247 0 0.34183468199228573 0.23727684870966961 0 0.33092809789354199 0.24744869965648561 0 0.34183468199228573 0.23727684870966961 0 0.3288410404878227 0.2348757256337824 0 0.33092809789354199 0.24744869965648561 0 0.3288410404878227 0.2348757256337824 0 0.33092809789354199 0.24744869965648561 0 0.31845456220733243 0.24449663650262579 0 0.31879452400631653 0.25919465198291952 0 0.30328699804120918 0.24394477185791469 0 0.31845456220733243 0.24449663650262579 0 0.30328699804120918 0.24394477185791469 0 0.31845456220733243 0.24449663650262579 0 0.31607427666693672 0.2331905299380852 0 0.3288410404878227 0.2348757256337824 0 0.31845456220733243 0.24449663650262579 0 0.31607427666693672 0.2331905299380852 0 0.3288410404878227 0.2348757256337824 0 0.31607427666693672 0.2331905299380852 0 0.32372534117020862 0.22390137225637691 0 0.30659550557489001 0.220783432460853 0 0.31607427666693672 0.2331905299380852 0 0.32372534117020862 0.22390137225637691 0 0.3288410404878227 0.2348757256337824 0 0.32372534117020862 0.22390137225637691 0 0.33832986301458301 0.22348170923356889 0 0.34183468199228573 0.23727684870966961 0 0.3288410404878227 0.2348757256337824 0 0.33832986301458301 0.22348170923356889 0 0.32372534117020862 0.22390137225637691 0 0.33832986301458301 0.22348170923356889 0 0.32878602010681029 0.20717546401559489 0 0.33832986301458301 0.22348170923356889 0 0.32878602010681029 0.20717546401559489 0 0.35089693608391498 0.21212819010674691 0 0.32878602010681029 0.20717546401559489 0 0.35097653463873058 0.19356749557033681 0 0.35089693608391498 0.21212819010674691 0 0.30659550557489001 0.220783432460853 0 0.32372534117020862 0.22390137225637691 0 0.32878602010681029 0.20717546401559489 0 0.31162694501442678 0.19735313208654229 0 0.30371198994873311 0.20766104105629449 0 0.32878602010681029 0.20717546401559489 0 0.30371198994873311 0.20766104105629449 0 0.30659550557489001 0.220783432460853 0 0.32878602010681029 0.20717546401559489 0 0.30659550557489001 0.220783432460853 0 0.32878602010681029 0.20717546401559489 0 0.32878602010681029 0.20717546401559489 0 0.31972446529152482 0.19052244909679969 0 0.3336272658304279 0.18895925974375941 0 0.31162694501442678 0.19735313208654229 0 0.32878602010681029 0.20717546401559489 0 0.31972446529152482 0.19052244909679969 0 0.30929675685570829 0.1858318568065235 0 0.31162694501442678 0.19735313208654229 0 0.31972446529152482 0.19052244909679969 0 0.32878602010681029 0.20717546401559489 0 0.3336272658304279 0.18895925974375941 0 0.35097653463873058 0.19356749557033681 0 0.32878602010681029 0.20717546401559489 0 0.35097653463873058 0.19356749557033681 0 0.3336272658304279 0.18895925974375941 0 0.35097653463873058 0.19356749557033681 0 0.35656535024169428 0.1804169243242798 0 0.35097653463873058 0.19356749557033681 0 0.35896651107905142 0.20360726904620211 0 0.35089693608391498 0.21212819010674691 0 0.35097653463873058 0.19356749557033681 0 0.36405518175537521 0.19484170215684679 0 0.35896651107905142 0.20360726904620211 0 0.35097653463873058 0.19356749557033681 0 0.36405518175537521 0.19484170215684679 0 0.35656535024169428 0.1804169243242798 0 0.36405518175537521 0.19484170215684679 0 0.35656535024169428 0.1804169243242798 0 0.38464328683150451 0.18806222539781059 0 0.36405518175537521 0.19484170215684679 0 0.36923798170140371 0.20928007436804161 0 0.38464328683150451 0.18806222539781059 0 0.36405518175537521 0.19484170215684679 0 0.36923798170140371 0.20928007436804161 0 0.35896651107905142 0.20360726904620211 0 0.36923798170140371 0.20928007436804161 0 0.36132702422268731 0.21787493872225441 0 0.35896651107905142 0.20360726904620211 0 0.36923798170140371 0.20928007436804161 0 0.36132702422268731 0.21787493872225441 0 0.37292139258550783 0.22672254500020811 0 0.36132702422268731 0.21787493872225441 0 0.35896651107905142 0.20360726904620211 0 0.35089693608391498 0.21212819010674691 0 0.34183468199228573 0.23727684870966961 0 0.33832986301458301 0.22348170923356889 0 0.35524969613090918 0.22837961108452459 0 0.36132702422268731 0.21787493872225441 0 0.35089693608391498 0.21212819010674691 0 0.35524969613090918 0.22837961108452459 0 0.33832986301458301 0.22348170923356889 0 0.35089693608391498 0.21212819010674691 0 0.35524969613090918 0.22837961108452459 0 0.36132702422268731 0.21787493872225441 0 0.35524969613090918 0.22837961108452459 0 0.37292139258550783 0.22672254500020811 0 0.35524969613090918 0.22837961108452459 0 0.37292139258550783 0.22672254500020811 0 0.36587213359177301 0.2378375665458646 0 0.37292139258550783 0.22672254500020811 0 0.36587213359177301 0.2378375665458646 0 0.3757768555661396 0.240133652284411 0 0.36587213359177301 0.2378375665458646 0 0.37169426656027921 0.24972740256563611 0 0.3757768555661396 0.240133652284411 0 0.36587213359177301 0.2378375665458646 0 0.37169426656027921 0.24972740256563611 0 0.36205361842742478 0.24882498742118489 0 0.36587213359177301 0.2378375665458646 0 0.36205361842742478 0.24882498742118489 0 0.35356337405553911 0.24205426642971811 0 0.35175757775775729 0.2532797976346674 0 0.36205361842742478 0.24882498742118489 0 0.35356337405553911 0.24205426642971811 0 0.35524969613090918 0.22837961108452459 0 0.36587213359177301 0.2378375665458646 0 0.35356337405553911 0.24205426642971811 0 0.34183468199228573 0.23727684870966961 0 0.35524969613090918 0.22837961108452459 0 0.35356337405553911 0.24205426642971811 0 0.3433555784436142 0.25004320974280247 0 0.34183468199228573 0.23727684870966961 0 0.35356337405553911 0.24205426642971811 0 0.3433555784436142 0.25004320974280247 0 0.35175757775775729 0.2532797976346674 0 0.35356337405553911 0.24205426642971811 0 0.33379856680907583 0.1437068241164389 0 0.32007589174333823 0.14676000458717811 0 0.33365817402274128 0.15789089208148979 0 0.33379856680907583 0.1437068241164389 0 0.33365817402274128 0.15789089208148979 0 0.34780073530519279 0.14835628742565241 0 0.33379856680907583 0.1437068241164389 0 0.34780073530519279 0.14835628742565241 0 0.34586764947947463 0.1362539899128139 0 0.33379856680907583 0.1437068241164389 0 0.33436770153514289 0.13112975471366969 0 0.34586764947947463 0.1362539899128139 0 0.34956654336434939 0.1234914401014125 0 0.33436770153514289 0.13112975471366969 0 0.34586764947947463 0.1362539899128139 0 0.33379856680907583 0.1437068241164389 0 0.33436770153514289 0.13112975471366969 0 0.3195478300457561 0.1332621056988223 0 0.32606950933900308 0.1158177097477945 0 0.33436770153514289 0.13112975471366969 0 0.3195478300457561 0.1332621056988223 0 0.30873747279203018 0.14281046260302349 0 0.3195478300457561 0.1332621056988223 0 0.32007589174333823 0.14676000458717811 0 0.30453528129870422 0.15487579661148021 0 0.32007589174333823 0.14676000458717811 0 0.33365817402274128 0.15789089208148979 0 0.33379856680907583 0.1437068241164389 0 0.3195478300457561 0.1332621056988223 0 0.32007589174333823 0.14676000458717811 0 0.30453528129870422 0.15487579661148021 0 0.33365817402274128 0.15789089208148979 0 0.30453528129870422 0.15487579661148021 0 0.32848741365188411 0.1727716232507491 0 0.33365817402274128 0.15789089208148979 0 0.30040947706207388 0.16512632217721829 0 0.32848741365188411 0.1727716232507491 0 0.3101655001798202 0.17563615506282959 0 0.30040947706207388 0.16512632217721829 0 0.32848741365188411 0.1727716232507491 0 0.3101655001798202 0.17563615506282959 0 0.31983557186529732 0.18171103000860481 0 0.32848741365188411 0.1727716232507491 0 0.3336272658304279 0.18895925974375941 0 0.31983557186529732 0.18171103000860481 0 0.32848741365188411 0.1727716232507491 0 0.3101655001798202 0.17563615506282959 0 0.30929675685570829 0.1858318568065235 0 0.31983557186529732 0.18171103000860481 0 0.30929675685570829 0.1858318568065235 0 0.31972446529152482 0.19052244909679969 0 0.31983557186529732 0.18171103000860481 0 0.31972446529152482 0.19052244909679969 0 0.3336272658304279 0.18895925974375941 0 0.31983557186529732 0.18171103000860481 0 0.32848741365188411 0.1727716232507491 0 0.34507730906385942 0.16855187839241309 0 0.35656535024169428 0.1804169243242798 0 0.3336272658304279 0.18895925974375941 0 0.32848741365188411 0.1727716232507491 0 0.35656535024169428 0.1804169243242798 0 0.32848741365188411 0.1727716232507491 0 0.35656535024169428 0.1804169243242798 0 0.32848741365188411 0.1727716232507491 0 0.33365817402274128 0.15789089208148979 0 0.34507730906385942 0.16855187839241309 0 0.33365817402274128 0.15789089208148979 0 0.34507730906385942 0.16855187839241309 0 0.36278106674677829 0.1609059875514994 0 0.34507730906385942 0.16855187839241309 0 0.35656535024169428 0.1804169243242798 0 0.36278106674677829 0.1609059875514994 0 0.33365817402274128 0.15789089208148979 0 0.36278106674677829 0.1609059875514994 0 0.35656535024169428 0.1804169243242798 0 0.37356219856206202 0.1741215612114578 0 0.38464328683150451 0.18806222539781059 0 0.35656535024169428 0.1804169243242798 0 0.38464328683150451 0.18806222539781059 0 0.35656535024169428 0.1804169243242798 0 0.37356219856206202 0.1741215612114578 0 0.36278106674677829 0.1609059875514994 0 0.36278106674677829 0.1609059875514994 0 0.36531512046589693 0.1378839500987098 0 0.37680076681991098 0.15092733218095339 0 0.36278106674677829 0.1609059875514994 0 0.34780073530519279 0.14835628742565241 0 0.36531512046589693 0.1378839500987098 0 0.34780073530519279 0.14835628742565241 0 0.34586764947947463 0.1362539899128139 0 0.36531512046589693 0.1378839500987098 0 0.33365817402274128 0.15789089208148979 0 0.36278106674677829 0.1609059875514994 0 0.34780073530519279 0.14835628742565241 0 0.34956654336434939 0.1234914401014125 0 0.34586764947947463 0.1362539899128139 0 0.36531512046589693 0.1378839500987098 0 0.34956654336434939 0.1234914401014125 0 0.36322639358210312 0.11848039068348271 0 0.36531512046589693 0.1378839500987098 0 0.36322639358210312 0.11848039068348271 0 0.36531512046589693 0.1378839500987098 0 0.38482072671029011 0.13725767299229241 0 0.36322639358210312 0.11848039068348271 0 0.38482072671029011 0.13725767299229241 0 0.36322639358210312 0.11848039068348271 0 0.38482072671029011 0.13725767299229241 0 0.38005682511468147 0.12140739343396729 0 0.38482072671029011 0.13725767299229241 0 0.39398634319161102 0.12556361147638159 0 0.38005682511468147 0.12140739343396729 0 0.38482072671029011 0.13725767299229241 0 0.39398634319161102 0.12556361147638159 0 0.40386822996399702 0.1370092008917044 0 0.39398634319161102 0.12556361147638159 0 0.40386822996399702 0.1370092008917044 0 0.40630256149234217 0.12337914253670321 0 0.38482072671029011 0.13725767299229241 0 0.40641505983847698 0.15603495530110209 0 0.38482072671029011 0.13725767299229241 0 0.40386822996399702 0.1370092008917044 0 0.40641505983847698 0.15603495530110209 0 0.38482072671029011 0.13725767299229241 0 0.39190395947081519 0.16392108302150901 0 0.40641505983847698 0.15603495530110209 0 0.36531512046589693 0.1378839500987098 0 0.38482072671029011 0.13725767299229241 0 0.37680076681991098 0.15092733218095339 0 0.38482072671029011 0.13725767299229241 0 0.37680076681991098 0.15092733218095339 0 0.39190395947081519 0.16392108302150901 0 0.36278106674677829 0.1609059875514994 0 0.39190395947081519 0.16392108302150901 0 0.36278106674677829 0.1609059875514994 0 0.37680076681991098 0.15092733218095339 0 0.39190395947081519 0.16392108302150901 0 0.37356219856206202 0.1741215612114578 0 0.36278106674677829 0.1609059875514994 0 0.39190395947081519 0.16392108302150901 0 0.37356219856206202 0.1741215612114578 0 0.39190395947081519 0.16392108302150901 0 0.38464328683150451 0.18806222539781059 0 0.4059128807594603 0.17981630131623391 0 0.39190395947081519 0.16392108302150901 0 0.38464328683150451 0.18806222539781059 0 0.39190395947081519 0.16392108302150901 0 0.42102685219485209 0.16693617849151851 0 0.40641505983847698 0.15603495530110209 0 0.4059128807594603 0.17981630131623391 0 0.39190395947081519 0.16392108302150901 0 0.42102685219485209 0.16693617849151851 0 0.42102685219485209 0.16693617849151851 0 0.40641505983847698 0.15603495530110209 0 0.41490094777653419 0.14712571815411829 0 0.39190395947081519 0.16392108302150901 0 0.42102685219485209 0.16693617849151851 0 0.4059128807594603 0.17981630131623391 0 0.42102685219485209 0.16693617849151851 0 0.42759287120751482 0.1799189573059411 0 0.4059128807594603 0.17981630131623391 0 0.42759287120751482 0.1799189573059411 0 0.42045703890892938 0.19185412915784311 0 0.42102685219485209 0.16693617849151851 0 0.42759287120751482 0.1799189573059411 0 0.45014974491888898 0.16995127396152809 0 0.42759287120751482 0.1799189573059411 0 0.42045703890892938 0.19185412915784311 0 0.43799329450951457 0.1898848624547933 0 0.42102685219485209 0.16693617849151851 0 0.45014974491888898 0.16995127396152809 0 0.42102685219485209 0.16693617849151851 0 0.43641214087317609 0.15776157540708571 0 0.42820809332857229 0.14540676379554701 0 0.42102685219485209 0.16693617849151851 0 0.43641214087317609 0.15776157540708571 0 0.45014974491888898 0.16995127396152809 0 0.43641214087317609 0.15776157540708571 0 0.42820809332857229 0.14540676379554701 0 0.44305345270963392 0.14224085277467549 0 0.42820809332857229 0.14540676379554701 0 0.43267139290449452 0.12562392175117529 0 0.41815906511665779 0.13368892679480551 0 0.42820809332857229 0.14540676379554701 0 0.43267139290449452 0.12562392175117529 0 0.44305345270963392 0.14224085277467549 0 0.43267139290449452 0.12562392175117529 0 0.41815906511665779 0.13368892679480551 0 0.41840244549433692 0.1204435227777134 0 0.41815906511665779 0.13368892679480551 0 0.41840244549433692 0.1204435227777134 0 0.40630256149234217 0.12337914253670321 0 0.40386822996399702 0.1370092008917044 0 0.41815906511665779 0.13368892679480551 0 0.40630256149234217 0.12337914253670321 0 0.40386822996399702 0.1370092008917044 0 0.41815906511665779 0.13368892679480551 0 0.41490094777653419 0.14712571815411829 0 0.42102685219485209 0.16693617849151851 0 0.42820809332857229 0.14540676379554701 0 0.41490094777653419 0.14712571815411829 0 0.40386822996399702 0.1370092008917044 0 0.40641505983847698 0.15603495530110209 0 0.41490094777653419 0.14712571815411829 0 0.42820809332857229 0.14540676379554701 0 0.41815906511665779 0.13368892679480551 0 0.41490094777653419 0.14712571815411829 0 0.39196586341458151 0.242441409442547 0 0.40329821407583749 0.23025496453590971 0 0.40866327585672191 0.24600766979752939 0 0.38129994004966872 0.25577407136566988 0 0.39196586341458151 0.242441409442547 0 0.40866327585672191 0.24600766979752939 0 0.38129994004966872 0.25577407136566988 0 0.39196586341458151 0.242441409442547 0 0.38106847269238292 0.24536179082341181 0 0.37169426656027921 0.24972740256563611 0 0.38106847269238292 0.24536179082341181 0 0.3757768555661396 0.240133652284411 0 0.37292139258550783 0.22672254500020811 0 0.3757768555661396 0.240133652284411 0 0.38460543787124563 0.238732418458795 0 0.38106847269238292 0.24536179082341181 0 0.3757768555661396 0.240133652284411 0 0.38460543787124563 0.238732418458795 0 0.39196586341458151 0.242441409442547 0 0.38106847269238292 0.24536179082341181 0 0.38460543787124563 0.238732418458795 0 0.39196586341458151 0.242441409442547 0 0.38460543787124563 0.238732418458795 0 0.38844350160088592 0.2284985707660753 0 0.37292139258550783 0.22672254500020811 0 0.38460543787124563 0.238732418458795 0 0.38844350160088592 0.2284985707660753 0 0.37292139258550783 0.22672254500020811 0 0.38844350160088592 0.2284985707660753 0 0.38369130631537601 0.21297307403445409 0 0.38844350160088592 0.2284985707660753 0 0.39679964264504158 0.21937630878092959 0 0.38369130631537601 0.21297307403445409 0 0.38844350160088592 0.2284985707660753 0 0.39679964264504158 0.21937630878092959 0 0.40329821407583749 0.23025496453590971 0 0.39196586341458151 0.242441409442547 0 0.38844350160088592 0.2284985707660753 0 0.40329821407583749 0.23025496453590971 0 0.39679964264504158 0.21937630878092959 0 0.40329821407583749 0.23025496453590971 0 0.41066806580544729 0.2160617609406458 0 0.39598296716959969 0.20626700748070109 0 0.40513352984814438 0.19492560706685999 0 0.41066806580544729 0.2160617609406458 0 0.39679964264504158 0.21937630878092959 0 0.39598296716959969 0.20626700748070109 0 0.41066806580544729 0.2160617609406458 0 0.39679964264504158 0.21937630878092959 0 0.39598296716959969 0.20626700748070109 0 0.38369130631537601 0.21297307403445409 0 0.36923798170140371 0.20928007436804161 0 0.37292139258550783 0.22672254500020811 0 0.38369130631537601 0.21297307403445409 0 0.36923798170140371 0.20928007436804161 0 0.38369130631537601 0.21297307403445409 0 0.38464328683150451 0.18806222539781059 0 0.39598296716959969 0.20626700748070109 0 0.38369130631537601 0.21297307403445409 0 0.38464328683150451 0.18806222539781059 0 0.39598296716959969 0.20626700748070109 0 0.38464328683150451 0.18806222539781059 0 0.40513352984814438 0.19492560706685999 0 0.4059128807594603 0.17981630131623391 0 0.38464328683150451 0.18806222539781059 0 0.40513352984814438 0.19492560706685999 0 0.40513352984814438 0.19492560706685999 0 0.42045703890892938 0.19185412915784311 0 0.42444067869502011 0.20693424997503959 0 0.4059128807594603 0.17981630131623391 0 0.40513352984814438 0.19492560706685999 0 0.42045703890892938 0.19185412915784311 0 0.42045703890892938 0.19185412915784311 0 0.42444067869502011 0.20693424997503959 0 0.43799329450951457 0.1898848624547933 0 0.42444067869502011 0.20693424997503959 0 0.44184419378540352 0.2076794424592901 0 0.43799329450951457 0.1898848624547933 0 0.42444067869502011 0.20693424997503959 0 0.4302098735549707 0.2206458244329694 0 0.44184419378540352 0.2076794424592901 0 0.42444067869502011 0.20693424997503959 0 0.41066806580544729 0.2160617609406458 0 0.4302098735549707 0.2206458244329694 0 0.40513352984814438 0.19492560706685999 0 0.42444067869502011 0.20693424997503959 0 0.41066806580544729 0.2160617609406458 0 0.41066806580544729 0.2160617609406458 0 0.41777320819135039 0.22984229758728861 0 0.4302098735549707 0.2206458244329694 0 0.40329821407583749 0.23025496453590971 0 0.41066806580544729 0.2160617609406458 0 0.41777320819135039 0.22984229758728861 0 0.4302098735549707 0.2206458244329694 0 0.43602661166377499 0.2362412682293889 0 0.44584438813649652 0.2203436080528294 0 0.41777320819135039 0.22984229758728861 0 0.4302098735549707 0.2206458244329694 0 0.43602661166377499 0.2362412682293889 0 0.43602661166377499 0.2362412682293889 0 0.43076425121212841 0.2486853010718087 0 0.40866327585672191 0.24600766979752939 0 0.43602661166377499 0.2362412682293889 0 0.40866327585672191 0.24600766979752939 0 0.41777320819135039 0.22984229758728861 0 0.43602661166377499 0.2362412682293889 0 0.40866327585672191 0.24600766979752939 0 0.41664462513020523 0.25422696758609492 0 0.43076425121212841 0.2486853010718087 0 0.40866327585672191 0.24600766979752939 0 0.40329821407583749 0.23025496453590971 0 0.41777320819135039 0.22984229758728861 0 0.40866327585672191 0.24600766979752939 0 0.45166362976964691 0.25106894999712381 0 0.45384283414141641 0.23962742592169059 0 0.47583181488482379 0.2451422378191761 0 0.45166362976964691 0.25106894999712381 0 0.47583181488482379 0.2451422378191761 0 0.45384283414141641 0.23962742592169059 0 0.47692141707070451 0.23056955077157251 0 0.45166362976964691 0.25106894999712381 0 0.43076425121212841 0.2486853010718087 0 0.45384283414141641 0.23962742592169059 0 0.43602661166377499 0.2362412682293889 0 0.43076425121212841 0.2486853010718087 0 0.45384283414141641 0.23962742592169059 0 0.43076425121212841 0.2486853010718087 0 0.45384283414141641 0.23962742592169059 0 0.43602661166377499 0.2362412682293889 0 0.46338994747082818 0.22647486666124839 0 0.43602661166377499 0.2362412682293889 0 0.44584438813649652 0.2203436080528294 0 0.46338994747082818 0.22647486666124839 0 0.43602661166377499 0.2362412682293889 0 0.45384283414141641 0.23962742592169059 0 0.46338994747082818 0.22647486666124839 0 0.44584438813649652 0.2203436080528294 0 0.46338994747082818 0.22647486666124839 0 0.4574246187180494 0.20998202225832771 0 0.45384283414141641 0.23962742592169059 0 0.46338994747082818 0.22647486666124839 0 0.47692141707070451 0.23056955077157251 0 0.46338994747082818 0.22647486666124839 0 0.4574246187180494 0.20998202225832771 0 0.47311107537994651 0.21060674662752529 0 0.4574246187180494 0.20998202225832771 0 0.46861366351278472 0.19789432193598561 0 0.47311107537994651 0.21060674662752529 0 0.44584438813649652 0.2203436080528294 0 0.4574246187180494 0.20998202225832771 0 0.44184419378540352 0.2076794424592901 0 0.4302098735549707 0.2206458244329694 0 0.44584438813649652 0.2203436080528294 0 0.44184419378540352 0.2076794424592901 0 0.4574246187180494 0.20998202225832771 0 0.44184419378540352 0.2076794424592901 0 0.45120510308892831 0.19507838461398491 0 0.44184419378540352 0.2076794424592901 0 0.43799329450951457 0.1898848624547933 0 0.45120510308892831 0.19507838461398491 0 0.4574246187180494 0.20998202225832771 0 0.45120510308892831 0.19507838461398491 0 0.46861366351278472 0.19789432193598561 0 0.45120510308892831 0.19507838461398491 0 0.46861366351278472 0.19789432193598561 0 0.45014974491888898 0.16995127396152809 0 0.46861366351278472 0.19789432193598561 0 0.48377650321145821 0.20030440734603891 0 0.47890777313388699 0.17818810929941131 0 0.46861366351278472 0.19789432193598561 0 0.48377650321145821 0.20030440734603891 0 0.47311107537994651 0.21060674662752529 0 0.48377650321145821 0.20030440734603891 0 0.5 0.19442179120654851 0 0.47890777313388699 0.17818810929941131 0 0.48377650321145821 0.20030440734603891 0 0.5 0.19442179120654851 0 0.49075328327788142 0.2167084650931079 0 0.5 0.19442179120654851 0 0.49075328327788142 0.2167084650931079 0 0.49999999999999339 0.2215116756214566 0 0.48377650321145821 0.20030440734603891 0 0.49075328327788142 0.2167084650931079 0 0.47311107537994651 0.21060674662752529 0 0.46338994747082818 0.22647486666124839 0 0.49075328327788142 0.2167084650931079 0 0.47311107537994651 0.21060674662752529 0 0.46338994747082818 0.22647486666124839 0 0.49075328327788142 0.2167084650931079 0 0.46338994747082818 0.22647486666124839 0 0.49075328327788142 0.2167084650931079 0 0.47692141707070451 0.23056955077157251 0 0.47692141707070451 0.23056955077157251 0 0.49999999999999339 0.2215116756214566 0 0.50000000000000067 0.2392155256412283 0 0.49075328327788142 0.2167084650931079 0 0.47692141707070451 0.23056955077157251 0 0.49999999999999339 0.2215116756214566 0 0.47692141707070451 0.23056955077157251 0 0.49999999999999339 0.2215116756214566 0 0.50000000000000067 0.2392155256412283 0 0.47583181488482379 0.2451422378191761 0 0.48341195364679568 0.26002408893105827 0 0.50000000000000067 0.2392155256412283 0 0.47583181488482379 0.2451422378191761 0 0.47692141707070451 0.23056955077157251 0 0.50000000000000067 0.2392155256412283 0 0.47583181488482379 0.2451422378191761 0 0.45384283414141641 0.23962742592169059 0 0.47692141707070451 0.23056955077157251 0 0.47583181488482379 0.2451422378191761 0 0.46053260521531592 0.14091734283165991 0 0.45014974491888898 0.16995127396152809 0 0.47759274938693741 0.15337993901402261 0 0.46053260521531592 0.14091734283165991 0 0.47596637305353268 0.1236489788231635 0 0.45094723062946279 0.12208098845927939 0 0.46053260521531592 0.14091734283165991 0 0.44305345270963392 0.14224085277467549 0 0.45094723062946279 0.12208098845927939 0 0.43267139290449452 0.12562392175117529 0 0.44305345270963392 0.14224085277467549 0 0.45094723062946279 0.12208098845927939 0 0.46053260521531592 0.14091734283165991 0 0.44305345270963392 0.14224085277467549 0 0.45014974491888898 0.16995127396152809 0 0.43641214087317609 0.15776157540708571 0 0.44305345270963392 0.14224085277467549 0 0.45014974491888898 0.16995127396152809 0 0.42759287120751482 0.1799189573059411 0 0.43799329450951457 0.1898848624547933 0 0.45014974491888898 0.16995127396152809 0 0.43799329450951457 0.1898848624547933 0 0.45120510308892831 0.19507838461398491 0 0.45014974491888898 0.16995127396152809 0 0.46861366351278472 0.19789432193598561 0 0.45014974491888898 0.16995127396152809 0 0.47890777313388699 0.17818810929941131 0 0.45014974491888898 0.16995127396152809 0 0.47890777313388699 0.17818810929941131 0 0.47759274938693741 0.15337993901402261 0 0.5 0.19442179120654851 0 0.47890777313388699 0.17818810929941131 0 0.5 0.16733190679164031 0 0.47890777313388699 0.17818810929941131 0 0.5 0.16733190679164031 0 0.47759274938693741 0.15337993901402261 0 0.5 0.16733190679164031 0 0.47759274938693741 0.15337993901402261 0 0.5 0.14024202237673219 0 0.46053260521531592 0.14091734283165991 0 0.47759274938693741 0.15337993901402261 0 0.47596637305353268 0.1236489788231635 0 0.5 0.14024202237673219 0 0.5 0.11315213796182411 0 0.47596637305353268 0.1236489788231635 0 0.47759274938693741 0.15337993901402261 0 0.5 0.14024202237673219 0 0.47596637305353268 0.1236489788231635 0 0.5 0.11315213796182411 0 0.48146508414057748 0.097867616362435003 0 0.47596637305353268 0.1236489788231635 0 0.5 0.11315213796182411 0 0.48146508414057748 0.097867616362435003 0 0.5 0.08606225354691599 0 0.48146508414057748 0.097867616362435003 0 0.46684480345772023 0.083704774648097419 0 0.46085076100455152 0.1051260388446932 0 0.48146508414057748 0.097867616362435003 0 0.47596637305353268 0.1236489788231635 0 0.46085076100455152 0.1051260388446932 0 0.5 0.08606225354691599 0 0.48297411160829701 0.071419164250366693 0 0.5 0.058972369132007867 0 0.48146508414057748 0.097867616362435003 0 0.5 0.08606225354691599 0 0.48297411160829701 0.071419164250366693 0 0.48146508414057748 0.097867616362435003 0 0.48297411160829701 0.071419164250366693 0 0.46684480345772023 0.083704774648097419 0 0.48297411160829701 0.071419164250366693 0 0.46368779630991369 0.062884433647911922 0 0.46684480345772023 0.083704774648097419 0 0.46368779630991369 0.062884433647911922 0 0.4455316944648699 0.078385408113317706 0 0.46368779630991369 0.062884433647911922 0 0.46684480345772023 0.083704774648097419 0 0.4455316944648699 0.078385408113317706 0 0.46684480345772023 0.083704774648097419 0 0.4455316944648699 0.078385408113317706 0 0.46085076100455152 0.1051260388446932 0 0.4455316944648699 0.078385408113317706 0 0.46085076100455152 0.1051260388446932 0 0.43655847815144871 0.087567909291679069 0 0.4455316944648699 0.078385408113317706 0 0.43655847815144871 0.087567909291679069 0 0.43300293116684879 0.070359854062556224 0 0.4455316944648699 0.078385408113317706 0 0.43300293116684879 0.070359854062556224 0 0.44432728466234178 0.059795406129610977 0 0.46368779630991369 0.062884433647911922 0 0.4455316944648699 0.078385408113317706 0 0.44432728466234178 0.059795406129610977 0 0.47596637305353268 0.1236489788231635 0 0.46085076100455152 0.1051260388446932 0 0.45094723062946279 0.12208098845927939 0 0.46085076100455152 0.1051260388446932 0 0.43655847815144871 0.087567909291679069 0 0.46085076100455152 0.1051260388446932 0 0.43845481143497073 0.110031162788742 0 0.43302597451412722 0.09911942802672713 0 0.46085076100455152 0.1051260388446932 0 0.43302597451412722 0.09911942802672713 0 0.43655847815144871 0.087567909291679069 0 0.43267139290449452 0.12562392175117529 0 0.45094723062946279 0.12208098845927939 0 0.43845481143497073 0.110031162788742 0 0.46085076100455152 0.1051260388446932 0 0.45094723062946279 0.12208098845927939 0 0.43845481143497073 0.110031162788742 0 0.43267139290449452 0.12562392175117529 0 0.43845481143497073 0.110031162788742 0 0.42512360996164289 0.1101942667169049 0 0.43267139290449452 0.12562392175117529 0 0.42512360996164289 0.1101942667169049 0 0.41840244549433692 0.1204435227777134 0 0.42512360996164289 0.1101942667169049 0 0.41840244549433692 0.1204435227777134 0 0.41145911669595331 0.1096997076075869 0 0.41840244549433692 0.1204435227777134 0 0.41145911669595331 0.1096997076075869 0 0.40630256149234217 0.12337914253670321 0 0.41145911669595331 0.1096997076075869 0 0.41782870111656589 0.098086010242617663 0 0.40188519574572068 0.098349840232826835 0 0.41782870111656589 0.098086010242617663 0 0.41132824907511162 0.087668761689670915 0 0.40188519574572068 0.098349840232826835 0 0.42512360996164289 0.1101942667169049 0 0.41145911669595331 0.1096997076075869 0 0.41782870111656589 0.098086010242617663 0 0.41782870111656589 0.098086010242617663 0 0.43302597451412722 0.09911942802672713 0 0.42198136315300161 0.08812274721924529 0 0.42512360996164289 0.1101942667169049 0 0.41782870111656589 0.098086010242617663 0 0.43302597451412722 0.09911942802672713 0 0.43845481143497073 0.110031162788742 0 0.42512360996164289 0.1101942667169049 0 0.43302597451412722 0.09911942802672713 0 0.43655847815144871 0.087567909291679069 0 0.42198136315300161 0.08812274721924529 0 0.41226619529834591 0.070009779738664735 0 0.43655847815144871 0.087567909291679069 0 0.41226619529834591 0.070009779738664735 0 0.43302597451412722 0.09911942802672713 0 0.43655847815144871 0.087567909291679069 0 0.42198136315300161 0.08812274721924529 0 0.43300293116684879 0.070359854062556224 0 0.41226619529834591 0.070009779738664735 0 0.42739758089851382 0.054541393999090262 0 0.43655847815144871 0.087567909291679069 0 0.43300293116684879 0.070359854062556224 0 0.41226619529834591 0.070009779738664735 0 0.42198136315300161 0.08812274721924529 0 0.41226619529834591 0.070009779738664735 0 0.41132824907511162 0.087668761689670915 0 0.41226619529834591 0.070009779738664735 0 0.41132824907511162 0.087668761689670915 0 0.39992923875424519 0.082621500021195282 0 0.41782870111656589 0.098086010242617663 0 0.42198136315300161 0.08812274721924529 0 0.41132824907511162 0.087668761689670915 0 0.41132824907511162 0.087668761689670915 0 0.39992923875424519 0.082621500021195282 0 0.40188519574572068 0.098349840232826835 0 0.39992923875424519 0.082621500021195282 0 0.38759228221014619 0.095233220303727467 0 0.40188519574572068 0.098349840232826835 0 0.39992923875424519 0.082621500021195282 0 0.38759228221014619 0.095233220303727467 0 0.41226619529834591 0.070009779738664735 0 0.39707386889515511 0.070908779594843374 0 0.39683376059791597 0.058855427163935138 0 0.41226619529834591 0.070009779738664735 0 0.39683376059791597 0.058855427163935138 0 0.41226619529834591 0.070009779738664735 0 0.39992923875424519 0.082621500021195282 0 0.41226619529834591 0.070009779738664735 0 0.39992923875424519 0.082621500021195282 0 0.39707386889515511 0.070908779594843374 0 0.39992923875424519 0.082621500021195282 0 0.39707386889515511 0.070908779594843374 0 0.38583977896057609 0.075316135258006081 0 0.39707386889515511 0.070908779594843374 0 0.38282045226763678 0.060547433734587333 0 0.39683376059791597 0.058855427163935138 0 0.39707386889515511 0.070908779594843374 0 0.38583977896057609 0.075316135258006081 0 0.38282045226763678 0.060547433734587333 0 0.38583977896057609 0.075316135258006081 0 0.37596532967213542 0.069868995675824025 0 0.37682589963749002 0.081332762740894418 0 0.37307104071443398 0.061065176941414383 0 0.37596532967213542 0.069868995675824025 0 0.38282045226763678 0.060547433734587333 0 0.38583977896057609 0.075316135258006081 0 0.37596532967213542 0.069868995675824025 0 0.38282045226763678 0.060547433734587333 0 0.39992923875424519 0.082621500021195282 0 0.38412803848747967 0.086259474622970303 0 0.38759228221014619 0.095233220303727467 0 0.39992923875424519 0.082621500021195282 0 0.38583977896057609 0.075316135258006081 0 0.38412803848747967 0.086259474622970303 0 0.37045299287494049 0.09679375479102828 0 0.38412803848747967 0.086259474622970303 0 0.38759228221014619 0.095233220303727467 0 0.38583977896057609 0.075316135258006081 0 0.38412803848747967 0.086259474622970303 0 0.37682589963749002 0.081332762740894418 0 0.37045299287494049 0.09679375479102828 0 0.38412803848747967 0.086259474622970303 0 0.37682589963749002 0.081332762740894418 0 0.37045299287494049 0.09679375479102828 0 0.38005682511468147 0.12140739343396729 0 0.37045299287494049 0.09679375479102828 0 0.38759228221014619 0.095233220303727467 0 0.38890959528695412 0.1083938038889192 0 0.37045299287494049 0.09679375479102828 0 0.38890959528695412 0.1083938038889192 0 0.38005682511468147 0.12140739343396729 0 0.39398634319161102 0.12556361147638159 0 0.38890959528695412 0.1083938038889192 0 0.38005682511468147 0.12140739343396729 0 0.39398634319161102 0.12556361147638159 0 0.38890959528695412 0.1083938038889192 0 0.39948393258462489 0.11301500309558379 0 0.39398634319161102 0.12556361147638159 0 0.40630256149234217 0.12337914253670321 0 0.39948393258462489 0.11301500309558379 0 0.41145911669595331 0.1096997076075869 0 0.40630256149234217 0.12337914253670321 0 0.39948393258462489 0.11301500309558379 0 0.41145911669595331 0.1096997076075869 0 0.39948393258462489 0.11301500309558379 0 0.40188519574572068 0.098349840232826835 0 0.38759228221014619 0.095233220303727467 0 0.38890959528695412 0.1083938038889192 0 0.40188519574572068 0.098349840232826835 0 0.38890959528695412 0.1083938038889192 0 0.39948393258462489 0.11301500309558379 0 0.40188519574572068 0.098349840232826835 0 0.3912475249538237 0.025882868266216091 0 0.40325323122183843 0.024352223252143548 0 0.39536881189699241 0.01378873843063998 0 0.3912475249538237 0.025882868266216091 0 0.40325323122183843 0.024352223252143548 0 0.39805180056669343 0.032772735105760037 0 0.40325323122183843 0.024352223252143548 0 0.39805180056669343 0.032772735105760037 0 0.40655765028286611 0.035582104639029083 0 0.40325323122183843 0.024352223252143548 0 0.39536881189699241 0.01378873843063998 0 0.40720094273855439 0.01372602960598159 0 0.40060323373222451 0.0042547197705496897 0 0.39536881189699241 0.01378873843063998 0 0.40720094273855439 0.01372602960598159 0 0.40060323373222451 0.0042547197705496897 0 0.41081432206005303 0.0037114498956348132 0 0.4046584776842293 -0.0050702490882302163 0 0.40060323373222451 0.0042547197705496897 0 0.41081432206005303 0.0037114498956348132 0 0.40720094273855439 0.01372602960598159 0 0.40060323373222451 0.0042547197705496897 0 0.39025836247721268 0.0036292771787240202 0 0.39531848553630572 -0.0042569273994520467 0 0.40060323373222451 0.0042547197705496897 0 0.39536881189699241 0.01378873843063998 0 0.39025836247721268 0.0036292771787240202 0 0.37844401144479839 0.012609093579625891 0 0.38356146703633898 -0.0078565650350033434 0 0.37844401144479839 0.012609093579625891 0 0.39025836247721268 0.0036292771787240202 0 0.38356146703633898 -0.0078565650350033434 0 0.39536881189699241 0.01378873843063998 0 0.37844401144479839 0.012609093579625891 0 0.39025836247721268 0.0036292771787240202 0 0.3912475249538237 0.025882868266216091 0 0.37844401144479839 0.012609093579625891 0 0.38063223185621792 0.036578263657106522 0 0.37844401144479839 0.012609093579625891 0 0.38063223185621792 0.036578263657106522 0 0.37146335928247548 0.04052602251159599 0 0.37844401144479839 0.012609093579625891 0 0.38063223185621792 0.036578263657106522 0 0.3912475249538237 0.025882868266216091 0 0.39536881189699241 0.01378873843063998 0 0.37844401144479839 0.012609093579625891 0 0.37146335928247548 0.04052602251159599 0 0.38063223185621792 0.036578263657106522 0 0.38282045226763678 0.060547433734587333 0 0.3912475249538237 0.025882868266216091 0 0.38063223185621792 0.036578263657106522 0 0.3908528121234538 0.035995570554822158 0 0.38063223185621792 0.036578263657106522 0 0.38791705742610771 0.044539104287684539 0 0.3908528121234538 0.035995570554822158 0 0.38791705742610771 0.044539104287684539 0 0.38282045226763678 0.060547433734587333 0 0.39079668350586277 0.051215399393808793 0 0.37307104071443398 0.061065176941414383 0 0.37146335928247548 0.04052602251159599 0 0.38282045226763678 0.060547433734587333 0 0.38063223185621792 0.036578263657106522 0 0.38791705742610771 0.044539104287684539 0 0.38282045226763678 0.060547433734587333 0 0.38063223185621792 0.036578263657106522 0 0.38282045226763678 0.060547433734587333 0 0.38282045226763678 0.060547433734587333 0 0.39683376059791597 0.058855427163935138 0 0.39079668350586277 0.051215399393808793 0 0.41226619529834591 0.070009779738664735 0 0.39683376059791597 0.058855427163935138 0 0.40948896714378957 0.05055434744181983 0 0.39683376059791597 0.058855427163935138 0 0.39079668350586277 0.051215399393808793 0 0.39674782008621368 0.04348041067995833 0 0.39683376059791597 0.058855427163935138 0 0.39674782008621368 0.04348041067995833 0 0.40948896714378957 0.05055434744181983 0 0.3908528121234538 0.035995570554822158 0 0.39805180056669343 0.032772735105760037 0 0.39674782008621368 0.04348041067995833 0 0.3912475249538237 0.025882868266216091 0 0.3908528121234538 0.035995570554822158 0 0.39805180056669343 0.032772735105760037 0 0.38791705742610771 0.044539104287684539 0 0.3908528121234538 0.035995570554822158 0 0.39674782008621368 0.04348041067995833 0 0.38791705742610771 0.044539104287684539 0 0.39079668350586277 0.051215399393808793 0 0.39674782008621368 0.04348041067995833 0 0.39674782008621368 0.04348041067995833 0 0.40655765028286611 0.035582104639029083 0 0.40948896714378957 0.05055434744181983 0 0.39805180056669343 0.032772735105760037 0 0.39674782008621368 0.04348041067995833 0 0.40655765028286611 0.035582104639029083 0 0.40655765028286611 0.035582104639029083 0 0.41713079569888262 0.040856968430241461 0 0.41557099838193923 0.024039796491718179 0 0.41713079569888262 0.040856968430241461 0 0.42755741698364552 0.032815777208855347 0 0.41557099838193923 0.024039796491718179 0 0.40655765028286611 0.035582104639029083 0 0.41713079569888262 0.040856968430241461 0 0.40948896714378957 0.05055434744181983 0 0.41226619529834591 0.070009779738664735 0 0.40948896714378957 0.05055434744181983 0 0.42739758089851382 0.054541393999090262 0 0.41713079569888262 0.040856968430241461 0 0.40948896714378957 0.05055434744181983 0 0.42739758089851382 0.054541393999090262 0 0.41226619529834591 0.070009779738664735 0 0.42739758089851382 0.054541393999090262 0 0.43300293116684879 0.070359854062556224 0 0.42739758089851382 0.054541393999090262 0 0.44432728466234178 0.059795406129610977 0 0.41713079569888262 0.040856968430241461 0 0.42739758089851382 0.054541393999090262 0 0.42755741698364552 0.032815777208855347 0 0.42739758089851382 0.054541393999090262 0 0.42755741698364552 0.032815777208855347 0 0.44252896649868317 0.039073008259517338 0 0.42739758089851382 0.054541393999090262 0 0.44252896649868317 0.039073008259517338 0 0.42755741698364552 0.032815777208855347 0 0.4358194844604939 0.024219735287320941 0 0.44252896649868317 0.039073008259517338 0 0.42755741698364552 0.032815777208855347 0 0.41557099838193923 0.024039796491718179 0 0.4265644217351573 0.014684511896395219 0 0.4358194844604939 0.024219735287320941 0 0.4265644217351573 0.014684511896395219 0 0.44548351627008242 0.01642882659412407 0 0.42755741698364552 0.032815777208855347 0 0.4358194844604939 0.024219735287320941 0 0.4265644217351573 0.014684511896395219 0 0.41557099838193923 0.024039796491718179 0 0.4165272652869268 0.01155925859927168 0 0.4265644217351573 0.014684511896395219 0 0.41557099838193923 0.024039796491718179 0 0.40720094273855439 0.01372602960598159 0 0.4165272652869268 0.01155925859927168 0 0.40325323122183843 0.024352223252143548 0 0.41557099838193923 0.024039796491718179 0 0.40720094273855439 0.01372602960598159 0 0.40325323122183843 0.024352223252143548 0 0.40655765028286611 0.035582104639029083 0 0.41557099838193923 0.024039796491718179 0 0.41081432206005303 0.0037114498956348132 0 0.40720094273855439 0.01372602960598159 0 0.4165272652869268 0.01155925859927168 0 0.4165272652869268 0.01155925859927168 0 0.42248564151892998 0.0016345051066286029 0 0.4265644217351573 0.014684511896395219 0 0.41081432206005303 0.0037114498956348132 0 0.4165272652869268 0.01155925859927168 0 0.42248564151892998 0.0016345051066286029 0 0.42248564151892998 0.0016345051066286029 0 0.4265644217351573 0.014684511896395219 0 0.4382820622288856 -0.0014159552958160841 0 0.4265644217351573 0.014684511896395219 0 0.44548351627008242 0.01642882659412407 0 0.4382820622288856 -0.0014159552958160841 0 0.45100246047295739 0.0046664116742636159 0 0.44548351627008242 0.01642882659412407 0 0.4382820622288856 -0.0014159552958160841 0 0.45100246047295739 0.0046664116742636159 0 0.44548351627008242 0.01642882659412407 0 0.4580470330794123 0.0188547641718908 0 0.4358194844604939 0.024219735287320941 0 0.4514029071021442 0.02821869916314456 0 0.44548351627008242 0.01642882659412407 0 0.4358194844604939 0.024219735287320941 0 0.4514029071021442 0.02821869916314456 0 0.44252896649868317 0.039073008259517338 0 0.4514029071021442 0.02821869916314456 0 0.44548351627008242 0.01642882659412407 0 0.4580470330794123 0.0188547641718908 0 0.4514029071021442 0.02821869916314456 0 0.4580470330794123 0.0188547641718908 0 0.46553563141862692 0.027383902935855992 0 0.4580470330794123 0.0188547641718908 0 0.46553563141862692 0.027383902935855992 0 0.471035018561343 0.01684384088441979 0 0.4580470330794123 0.0188547641718908 0 0.4620271672997433 0.0081957990277541914 0 0.471035018561343 0.01684384088441979 0 0.4620271672997433 0.0081957990277541914 0 0.47207727543944228 0.0077163925679632076 0 0.45540766643685782 -0.0078732224449345398 0 0.4620271672997433 0.0081957990277541914 0 0.47207727543944228 0.0077163925679632076 0 0.471035018561343 0.01684384088441979 0 0.45100246047295739 0.0046664116742636159 0 0.4620271672997433 0.0081957990277541914 0 0.45540766643685782 -0.0078732224449345398 0 0.45100246047295739 0.0046664116742636159 0 0.4580470330794123 0.0188547641718908 0 0.4620271672997433 0.0081957990277541914 0 0.42739758089851382 0.054541393999090262 0 0.44432728466234178 0.059795406129610977 0 0.44252896649868317 0.039073008259517338 0 0.44432728466234178 0.059795406129610977 0 0.44252896649868317 0.039073008259517338 0 0.46100281088556699 0.043351957730158222 0 0.4514029071021442 0.02821869916314456 0 0.44252896649868317 0.039073008259517338 0 0.46100281088556699 0.043351957730158222 0 0.4514029071021442 0.02821869916314456 0 0.46553563141862692 0.027383902935855992 0 0.46100281088556699 0.043351957730158222 0 0.46553563141862692 0.027383902935855992 0 0.46100281088556699 0.043351957730158222 0 0.4764725540003833 0.035303178421407518 0 0.46368779630991369 0.062884433647911922 0 0.44432728466234178 0.059795406129610977 0 0.46100281088556699 0.043351957730158222 0 0.48297411160829701 0.071419164250366693 0 0.46368779630991369 0.062884433647911922 0 0.48184389815495748 0.047383459182506117 0 0.46368779630991369 0.062884433647911922 0 0.46100281088556699 0.043351957730158222 0 0.48184389815495748 0.047383459182506117 0 0.46368779630991369 0.062884433647911922 0 0.48184389815495748 0.047383459182506117 0 0.46100281088556699 0.043351957730158222 0 0.48184389815495748 0.047383459182506117 0 0.4764725540003833 0.035303178421407518 0 0.48184389815495748 0.047383459182506117 0 0.50000000000000089 0.031882484717099757 0 0.48184389815495748 0.047383459182506117 0 0.50000000000000089 0.031882484717099757 0 0.5 0.058972369132007867 0 0.48184389815495748 0.047383459182506117 0 0.4764725540003833 0.035303178421407518 0 0.50000000000000089 0.031882484717099757 0 0.48297411160829701 0.071419164250366693 0 0.48184389815495748 0.047383459182506117 0 0.5 0.058972369132007867 0 0.48173822001607031 0.002441982684480838 0 0.47207727543944228 0.0077163925679632076 0 0.45540766643685782 -0.0078732224449345398 0 0.48073089036299149 0.01447516008145705 0 0.48088876464914698 0.0066420825236524483 0 0.47207727543944228 0.0077163925679632076 0 0.48088876464914698 0.0066420825236524483 0 0.48173822001607031 0.002441982684480838 0 0.48944624590280772 0.014576472087587141 0 0.48073089036299149 0.01447516008145705 0 0.48088876464914698 0.0066420825236524483 0 0.48944624590280772 0.014576472087587141 0 0.48088876464914698 0.0066420825236524483 0 0.48173822001607031 0.002441982684480838 0 0.47207727543944228 0.0077163925679632076 0 0.48088876464914698 0.0066420825236524483 0 0.48173822001607031 0.002441982684480838 0 0.48073089036299149 0.01447516008145705 0 0.47207727543944228 0.0077163925679632076 0 0.471035018561343 0.01684384088441979 0 0.46553563141862692 0.027383902935855992 0 0.471035018561343 0.01684384088441979 0 0.48098968552297122 0.023479159592672289 0 0.46553563141862692 0.027383902935855992 0 0.4764725540003833 0.035303178421407518 0 0.48098968552297122 0.023479159592672289 0 0.48073089036299149 0.01447516008145705 0 0.471035018561343 0.01684384088441979 0 0.48098968552297122 0.023479159592672289 0 0.48073089036299149 0.01447516008145705 0 0.48098968552297122 0.023479159592672289 0 0.48944624590280772 0.014576472087587141 0 0.50000000000000089 0.031882484717099757 0 0.50000000000000044 0.0095961811708810997 0 0.48944624590280772 0.014576472087587141 0 0.4764725540003833 0.035303178421407518 0 0.50000000000000089 0.031882484717099757 0 0.48098968552297122 0.023479159592672289 0 0.50000000000000089 0.031882484717099757 0 0.48098968552297122 0.023479159592672289 0 0.48944624590280772 0.014576472087587141 0 0.48173822001607031 0.002441982684480838 0 0.50000000000000044 0.0095961811708810997 0 0.48944624590280772 0.014576472087587141 0 0.48173822001607031 0.002441982684480838 0 0.50000000000000044 0.0095961811708810997 0 0.48173822001607031 0.002441982684480838 0 0.50000000000000044 0.0095961811708810997 0 0.5 -0.01553848795347695 0 0.48173822001607031 0.002441982684480838 0 0.5 -0.01553848795347695 0 0.48723509010938909 -0.024737082977995831 0 0.48173822001607031 0.002441982684480838 0 0.48723509010938909 -0.024737082977995831 0 0.48173822001607031 0.002441982684480838 0 0.46944239540012012 -0.021901386132034111 0 0.45540766643685782 -0.0078732224449345398 0 0.48173822001607031 0.002441982684480838 0 0.46944239540012012 -0.021901386132034111 0 0.48723509010938909 -0.024737082977995831 0 0.46944239540012012 -0.021901386132034111 0 0.48723509010938909 -0.024737082977995831 0 0.47311684284700922 -0.039980301183512167 0 0.5 -0.01553848795347695 0 0.48723509010938909 -0.024737082977995831 0 0.5 -0.040673157077835087 0 0.48723509010938909 -0.024737082977995831 0 0.49273196020270971 -0.051916148640471983 0 0.48034048547664182 -0.050194577481915269 0 0.48723509010938909 -0.024737082977995831 0 0.49273196020270971 -0.051916148640471983 0 0.48723509010938909 -0.024737082977995831 0 0.5 -0.040673157077835087 0 0.49273196020270971 -0.051916148640471983 0 0.5 -0.040673157077835087 0 0.49273196020270971 -0.051916148640471983 0 0.5 -0.065807826202193331 0 0.49273196020270971 -0.051916148640471983 0 0.48384360039889979 -0.062204599920787272 0 0.48034048547664182 -0.050194577481915269 0 0.48034048547664182 -0.050194577481915269 0 0.47035120232490191 -0.060528185902064997 0 0.47311684284700922 -0.039980301183512167 0 0.47035120232490191 -0.060528185902064997 0 0.47311684284700922 -0.039980301183512167 0 0.48384360039889979 -0.062204599920787272 0 0.48034048547664182 -0.050194577481915269 0 0.47035120232490191 -0.060528185902064997 0 0.48723509010938909 -0.024737082977995831 0 0.48034048547664182 -0.050194577481915269 0 0.47311684284700922 -0.039980301183512167 0 0.46944239540012012 -0.021901386132034111 0 0.47311684284700922 -0.039980301183512167 0 0.44971415759127392 -0.039358306738208573 0 0.47035120232490191 -0.060528185902064997 0 0.47311684284700922 -0.039980301183512167 0 0.44971415759127392 -0.039358306738208573 0 0.47035120232490191 -0.060528185902064997 0 0.44971415759127392 -0.039358306738208573 0 0.47035120232490191 -0.060528185902064997 0 0.43963483674523918 -0.055334607978488382 0 0.44971415759127392 -0.039358306738208573 0 0.43963483674523918 -0.055334607978488382 0 0.44971415759127392 -0.039358306738208573 0 0.42419530264354072 -0.042652000491910397 0 0.46944239540012012 -0.021901386132034111 0 0.44971415759127392 -0.039358306738208573 0 0.45540766643685782 -0.0078732224449345398 0 0.44971415759127392 -0.039358306738208573 0 0.42907711285764621 -0.01818842757435184 0 0.44971415759127392 -0.039358306738208573 0 0.45540766643685782 -0.0078732224449345398 0 0.42907711285764621 -0.01818842757435184 0 0.45540766643685782 -0.0078732224449345398 0 0.42907711285764621 -0.01818842757435184 0 0.45100246047295739 0.0046664116742636159 0 0.4382820622288856 -0.0014159552958160841 0 0.45540766643685782 -0.0078732224449345398 0 0.4382820622288856 -0.0014159552958160841 0 0.45540766643685782 -0.0078732224449345398 0 0.42907711285764621 -0.01818842757435184 0 0.48173822001607031 0.002441982684480838 0 0.45540766643685782 -0.0078732224449345398 0 0.47129126618897188 -0.1223351355815797 0 0.47148248434309947 -0.114916285604633 0 0.48087269318342413 -0.1216818802472065 0 0.47148248434309947 -0.114916285604633 0 0.48087269318342413 -0.1216818802472065 0 0.47838814501791832 -0.1066654575105275 0 0.48087269318342413 -0.1216818802472065 0 0.48924328608656842 -0.1141618265083332 0 0.47838814501791832 -0.1066654575105275 0 0.5 -0.1122204549214597 0 0.48924328608656842 -0.1141618265083332 0 0.5 -0.13349841451636779 0 0.48087269318342413 -0.1216818802472065 0 0.48924328608656842 -0.1141618265083332 0 0.5 -0.13349841451636779 0 0.5 -0.1122204549214597 0 0.48924328608656842 -0.1141618265083332 0 0.48827073793524339 -0.097774102912636218 0 0.48924328608656842 -0.1141618265083332 0 0.48827073793524339 -0.097774102912636218 0 0.47838814501791832 -0.1066654575105275 0 0.5 -0.1122204549214597 0 0.48827073793524339 -0.097774102912636218 0 0.50000000000000266 -0.090942495326551576 0 0.47652975213937199 -0.091635549067057065 0 0.46683976751390588 -0.086617099886465918 0 0.46456669494636288 -0.10350535152343909 0 0.48827073793524339 -0.097774102912636218 0 0.47838814501791832 -0.1066654575105275 0 0.47652975213937199 -0.091635549067057065 0 0.47148248434309947 -0.114916285604633 0 0.47838814501791832 -0.1066654575105275 0 0.46456669494636288 -0.10350535152343909 0 0.47838814501791832 -0.1066654575105275 0 0.47652975213937199 -0.091635549067057065 0 0.46456669494636288 -0.10350535152343909 0 0.48827073793524339 -0.097774102912636218 0 0.47652975213937199 -0.091635549067057065 0 0.48517560116245317 -0.075735340614307423 0 0.47652975213937199 -0.091635549067057065 0 0.48517560116245317 -0.075735340614307423 0 0.46683976751390588 -0.086617099886465918 0 0.47652975213937199 -0.091635549067057065 0 0.46683976751390588 -0.086617099886465918 0 0.50000000000000266 -0.090942495326551576 0 0.49822883029603021 -0.079095214302948247 0 0.5 -0.065807826202193331 0 0.48827073793524339 -0.097774102912636218 0 0.50000000000000266 -0.090942495326551576 0 0.48517560116245317 -0.075735340614307423 0 0.50000000000000266 -0.090942495326551576 0 0.48517560116245317 -0.075735340614307423 0 0.50000000000000266 -0.090942495326551576 0 0.49822883029603021 -0.079095214302948247 0 0.48517560116245317 -0.075735340614307423 0 0.49273196020270971 -0.051916148640471983 0 0.49822883029603021 -0.079095214302948247 0 0.48384360039889979 -0.062204599920787272 0 0.49822883029603021 -0.079095214302948247 0 0.48517560116245317 -0.075735340614307423 0 0.49273196020270971 -0.051916148640471983 0 0.48384360039889979 -0.062204599920787272 0 0.49822883029603021 -0.079095214302948247 0 0.49273196020270971 -0.051916148640471983 0 0.49822883029603021 -0.079095214302948247 0 0.5 -0.065807826202193331 0 0.47035120232490191 -0.060528185902064997 0 0.48517560116245317 -0.075735340614307423 0 0.47035120232490191 -0.060528185902064997 0 0.48517560116245317 -0.075735340614307423 0 0.46683976751390588 -0.086617099886465918 0 0.48384360039889979 -0.062204599920787272 0 0.47035120232490191 -0.060528185902064997 0 0.48517560116245317 -0.075735340614307423 0 0.47035120232490191 -0.060528185902064997 0 0.46683976751390588 -0.086617099886465918 0 0.47035120232490191 -0.060528185902064997 0 0.44249197108241189 -0.074007360679063244 0 0.46683976751390588 -0.086617099886465918 0 0.47035120232490191 -0.060528185902064997 0 0.43963483674523918 -0.055334607978488382 0 0.44249197108241189 -0.074007360679063244 0 0.44249197108241189 -0.074007360679063244 0 0.46683976751390588 -0.086617099886465918 0 0.4490662803509099 -0.094083529251462475 0 0.44249197108241189 -0.074007360679063244 0 0.4490662803509099 -0.094083529251462475 0 0.42834270349958448 -0.099226311759436261 0 0.44249197108241189 -0.074007360679063244 0 0.46683976751390588 -0.086617099886465918 0 0.46683976751390588 -0.086617099886465918 0 0.46456669494636288 -0.10350535152343909 0 0.4490662803509099 -0.094083529251462475 0 0.46683976751390588 -0.086617099886465918 0 0.46456669494636288 -0.10350535152343909 0 0.46456669494636288 -0.10350535152343909 0 0.4490662803509099 -0.094083529251462475 0 0.44386094964032902 -0.11054798122052439 0 0.4490662803509099 -0.094083529251462475 0 0.44386094964032902 -0.11054798122052439 0 0.42834270349958448 -0.099226311759436261 0 0.44386094964032902 -0.11054798122052439 0 0.46257396642688631 -0.12529077885077469 0 0.45239247298790419 -0.125419693033265 0 0.44386094964032902 -0.11054798122052439 0 0.42916935431308728 -0.1205456085246996 0 0.4435038969132965 -0.12540022695152131 0 0.44386094964032902 -0.11054798122052439 0 0.45239247298790419 -0.125419693033265 0 0.4435038969132965 -0.12540022695152131 0 0.44386094964032902 -0.11054798122052439 0 0.46229362237882032 -0.1203936031604123 0 0.46257396642688631 -0.12529077885077469 0 0.46456669494636288 -0.10350535152343909 0 0.46229362237882032 -0.1203936031604123 0 0.46456669494636288 -0.10350535152343909 0 0.44386094964032902 -0.11054798122052439 0 0.46229362237882032 -0.1203936031604123 0 0.44386094964032902 -0.11054798122052439 0 0.46257396642688631 -0.12529077885077469 0 0.47148248434309947 -0.114916285604633 0 0.46456669494636288 -0.10350535152343909 0 0.46229362237882032 -0.1203936031604123 0 0.47129126618897188 -0.1223351355815797 0 0.46229362237882032 -0.1203936031604123 0 0.46257396642688631 -0.12529077885077469 0 0.47129126618897188 -0.1223351355815797 0 0.47148248434309947 -0.114916285604633 0 0.46229362237882032 -0.1203936031604123 0 0.44386094964032902 -0.11054798122052439 0 0.42916935431308728 -0.1205456085246996 0 0.42834270349958448 -0.099226311759436261 0 0.41143930547928681 -0.11934523636421419 0 0.42916935431308728 -0.1205456085246996 0 0.42834270349958448 -0.099226311759436261 0 0.41143930547928681 -0.11934523636421419 0 0.40555832972599831 -0.095826118330896617 0 0.41143930547928681 -0.11934523636421419 0 0.42834270349958448 -0.099226311759436261 0 0.40555832972599831 -0.095826118330896617 0 0.42834270349958448 -0.099226311759436261 0 0.41884290658632428 -0.080552882507727325 0 0.40555832972599831 -0.095826118330896617 0 0.41884290658632428 -0.080552882507727325 0 0.39967735397270959 -0.072307000297579083 0 0.40555832972599831 -0.095826118330896617 0 0.44249197108241189 -0.074007360679063244 0 0.42834270349958448 -0.099226311759436261 0 0.41884290658632428 -0.080552882507727325 0 0.44249197108241189 -0.074007360679063244 0 0.41814417465091752 -0.061397621471661459 0 0.43963483674523918 -0.055334607978488382 0 0.44249197108241189 -0.074007360679063244 0 0.41814417465091752 -0.061397621471661459 0 0.44249197108241189 -0.074007360679063244 0 0.41884290658632428 -0.080552882507727325 0 0.41814417465091752 -0.061397621471661459 0 0.41884290658632428 -0.080552882507727325 0 0.39967735397270959 -0.072307000297579083 0 0.41814417465091752 -0.061397621471661459 0 0.39967735397270959 -0.072307000297579083 0 0.38669795957132042 -0.057310603286660967 0 0.37240766699872252 -0.068318548019290964 0 0.39967735397270959 -0.072307000297579083 0 0.37781097748786241 -0.089314889372882261 0 0.37240766699872252 -0.068318548019290964 0 0.39967735397270959 -0.072307000297579083 0 0.37781097748786241 -0.089314889372882261 0 0.40555832972599831 -0.095826118330896617 0 0.39967735397270959 -0.072307000297579083 0 0.40555832972599831 -0.095826118330896617 0 0.40555832972599831 -0.095826118330896617 0 0.38953803654933628 -0.10754997095337659 0 0.39823574772599779 -0.11763079726210079 0 0.37781097748786241 -0.089314889372882261 0 0.40555832972599831 -0.095826118330896617 0 0.38953803654933628 -0.10754997095337659 0 0.37781097748786241 -0.089314889372882261 0 0.38953803654933628 -0.10754997095337659 0 0.37644505785585192 -0.1058120404938334 0 0.38953803654933628 -0.10754997095337659 0 0.37644505785585192 -0.1058120404938334 0 0.37720890243704291 -0.12310924361699779 0 0.38953803654933628 -0.10754997095337659 0 0.37720890243704291 -0.12310924361699779 0 0.38918813321375051 -0.12739880168557821 0 0.38953803654933628 -0.10754997095337659 0 0.39823574772599779 -0.11763079726210079 0 0.38918813321375051 -0.12739880168557821 0 0.41143930547928681 -0.11934523636421419 0 0.39823574772599779 -0.11763079726210079 0 0.40257569972698831 -0.13396225485532559 0 0.41143930547928681 -0.11934523636421419 0 0.40555832972599831 -0.095826118330896617 0 0.39823574772599779 -0.11763079726210079 0 0.42011428296152808 -0.02169968792975261 0 0.41401194260749391 -0.028450411104576211 0 0.41343304557213612 -0.018371446868227208 0 0.42011428296152808 -0.02169968792975261 0 0.41343304557213612 -0.018371446868227208 0 0.41928481904255338 -0.01548900553927589 0 0.42011428296152808 -0.02169968792975261 0 0.41928481904255338 -0.01548900553927589 0 0.42542521438275183 -0.0144422395697206 0 0.42011428296152808 -0.02169968792975261 0 0.41401194260749391 -0.028450411104576211 0 0.42742255973229643 -0.030069766767760062 0 0.41401194260749391 -0.028450411104576211 0 0.40522076275047969 -0.019933987949522329 0 0.40044964155059998 -0.029094842751199331 0 0.41401194260749391 -0.028450411104576211 0 0.41343304557213612 -0.018371446868227208 0 0.40522076275047969 -0.019933987949522329 0 0.41343304557213612 -0.018371446868227208 0 0.40806592415966281 -0.01253819616599721 0 0.40522076275047969 -0.019933987949522329 0 0.40806592415966281 -0.01253819616599721 0 0.4135204533098043 -0.0054466611181140526 0 0.41498054603746559 -0.011947546426581419 0 0.41343304557213612 -0.018371446868227208 0 0.40806592415966281 -0.01253819616599721 0 0.41498054603746559 -0.011947546426581419 0 0.41081432206005303 0.0037114498956348132 0 0.4135204533098043 -0.0054466611181140526 0 0.4046584776842293 -0.0050702490882302163 0 0.40806592415966281 -0.01253819616599721 0 0.4135204533098043 -0.0054466611181140526 0 0.4046584776842293 -0.0050702490882302163 0 0.41081432206005303 0.0037114498956348132 0 0.42248564151892998 0.0016345051066286029 0 0.4135204533098043 -0.0054466611181140526 0 0.42248564151892998 0.0016345051066286029 0 0.4135204533098043 -0.0054466611181140526 0 0.42119781252485211 -0.0083000839364812864 0 0.41343304557213612 -0.018371446868227208 0 0.41498054603746559 -0.011947546426581419 0 0.41928481904255338 -0.01548900553927589 0 0.4135204533098043 -0.0054466611181140526 0 0.41498054603746559 -0.011947546426581419 0 0.42119781252485211 -0.0083000839364812864 0 0.41498054603746559 -0.011947546426581419 0 0.42119781252485211 -0.0083000839364812864 0 0.41928481904255338 -0.01548900553927589 0 0.42542521438275183 -0.0144422395697206 0 0.42820760236351979 -0.0076976995852137747 0 0.42907711285764621 -0.01818842757435184 0 0.4382820622288856 -0.0014159552958160841 0 0.42820760236351979 -0.0076976995852137747 0 0.42907711285764621 -0.01818842757435184 0 0.42119781252485211 -0.0083000839364812864 0 0.41928481904255338 -0.01548900553927589 0 0.42542521438275183 -0.0144422395697206 0 0.42248564151892998 0.0016345051066286029 0 0.4382820622288856 -0.0014159552958160841 0 0.42820760236351979 -0.0076976995852137747 0 0.42119781252485211 -0.0083000839364812864 0 0.42542521438275183 -0.0144422395697206 0 0.42820760236351979 -0.0076976995852137747 0 0.42248564151892998 0.0016345051066286029 0 0.42119781252485211 -0.0083000839364812864 0 0.42820760236351979 -0.0076976995852137747 0 0.44971415759127392 -0.039358306738208573 0 0.42907711285764621 -0.01818842757435184 0 0.42742255973229643 -0.030069766767760062 0 0.42011428296152808 -0.02169968792975261 0 0.42907711285764621 -0.01818842757435184 0 0.42742255973229643 -0.030069766767760062 0 0.42011428296152808 -0.02169968792975261 0 0.42542521438275183 -0.0144422395697206 0 0.42907711285764621 -0.01818842757435184 0 0.42011428296152808 -0.02169968792975261 0 0.42907711285764621 -0.01818842757435184 0 0.42542521438275183 -0.0144422395697206 0 0.42907711285764621 -0.01818842757435184 0 0.44971415759127392 -0.039358306738208573 0 0.42742255973229643 -0.030069766767760062 0 0.42419530264354072 -0.042652000491910397 0 0.41401194260749391 -0.028450411104576211 0 0.42742255973229643 -0.030069766767760062 0 0.42419530264354072 -0.042652000491910397 0 0.43963483674523918 -0.055334607978488382 0 0.42419530264354072 -0.042652000491910397 0 0.41814417465091752 -0.061397621471661459 0 0.41814417465091752 -0.061397621471661459 0 0.41107184061272262 -0.047596707948501772 0 0.39379637821942232 -0.04878788226426127 0 0.42419530264354072 -0.042652000491910397 0 0.41814417465091752 -0.061397621471661459 0 0.41107184061272262 -0.047596707948501772 0 0.41401194260749391 -0.028450411104576211 0 0.42419530264354072 -0.042652000491910397 0 0.40815150693701141 -0.037549327566173699 0 0.42419530264354072 -0.042652000491910397 0 0.41107184061272262 -0.047596707948501772 0 0.40815150693701141 -0.037549327566173699 0 0.41401194260749391 -0.028450411104576211 0 0.40815150693701141 -0.037549327566173699 0 0.40044964155059998 -0.029094842751199331 0 0.41107184061272262 -0.047596707948501772 0 0.40815150693701141 -0.037549327566173699 0 0.39379637821942232 -0.04878788226426127 0 0.40815150693701141 -0.037549327566173699 0 0.39379637821942232 -0.04878788226426127 0 0.40044964155059998 -0.029094842751199331 0 0.39379637821942232 -0.04878788226426127 0 0.38867892262788012 -0.028322223649632432 0 0.39379637821942232 -0.04878788226426127 0 0.38867892262788012 -0.028322223649632432 0 0.40044964155059998 -0.029094842751199331 0 0.39967735397270959 -0.072307000297579083 0 0.39379637821942232 -0.04878788226426127 0 0.38669795957132042 -0.057310603286660967 0 0.41814417465091752 -0.061397621471661459 0 0.39379637821942232 -0.04878788226426127 0 0.39967735397270959 -0.072307000297579083 0 0.39379637821942232 -0.04878788226426127 0 0.39967735397270959 -0.072307000297579083 0 0.41814417465091752 -0.061397621471661459 0 0.39379637821942232 -0.04878788226426127 0 0.39379637821942232 -0.04878788226426127 0 0.38896036142985008 -0.046283306103098283 0 0.38669795957132042 -0.057310603286660967 0 0.37839056082150663 -0.050608978831784571 0 0.37240766699872252 -0.068318548019290964 0 0.38669795957132042 -0.057310603286660967 0 0.37839056082150663 -0.050608978831784571 0 0.38896036142985008 -0.046283306103098283 0 0.39379637821942232 -0.04878788226426127 0 0.38669795957132042 -0.057310603286660967 0 0.38896036142985008 -0.046283306103098283 0 0.39379637821942232 -0.04878788226426127 0 0.38896036142985008 -0.046283306103098283 0 0.38867892262788012 -0.028322223649632432 0 0.3834615598562825 -0.037386722635115492 0 0.38896036142985008 -0.046283306103098283 0 0.38867892262788012 -0.028322223649632432 0 0.37839056082150663 -0.050608978831784571 0 0.3834615598562825 -0.037386722635115492 0 0.38896036142985008 -0.046283306103098283 0 0.37839056082150663 -0.050608978831784571 0 0.3834615598562825 -0.037386722635115492 0 0.37356965880113402 -0.040783236975350308 0 0.38867892262788012 -0.028322223649632432 0 0.38356146703633898 -0.0078565650350033434 0 0.3834615598562825 -0.037386722635115492 0 0.37600683512296651 -0.014087071697862221 0 0.37356965880113402 -0.040783236975350308 0 0.3834615598562825 -0.037386722635115492 0 0.38867892262788012 -0.028322223649632432 0 0.37600683512296651 -0.014087071697862221 0 0.38867892262788012 -0.028322223649632432 0 0.37600683512296651 -0.014087071697862221 0 0.38356146703633898 -0.0078565650350033434 0 0.38867892262788012 -0.028322223649632432 0 0.39658225960386179 -0.014459285545308009 0 0.38356146703633898 -0.0078565650350033434 0 0.38867892262788012 -0.028322223649632432 0 0.40044964155059998 -0.029094842751199331 0 0.39658225960386179 -0.014459285545308009 0 0.40522076275047969 -0.019933987949522329 0 0.40044964155059998 -0.029094842751199331 0 0.39658225960386179 -0.014459285545308009 0 0.40806592415966281 -0.01253819616599721 0 0.40522076275047969 -0.019933987949522329 0 0.39658225960386179 -0.014459285545308009 0 0.40060323373222451 0.0042547197705496897 0 0.4046584776842293 -0.0050702490882302163 0 0.39531848553630572 -0.0042569273994520467 0 0.40806592415966281 -0.01253819616599721 0 0.4046584776842293 -0.0050702490882302163 0 0.39658225960386179 -0.014459285545308009 0 0.4046584776842293 -0.0050702490882302163 0 0.39658225960386179 -0.014459285545308009 0 0.39531848553630572 -0.0042569273994520467 0 0.39658225960386179 -0.014459285545308009 0 0.39531848553630572 -0.0042569273994520467 0 0.38356146703633898 -0.0078565650350033434 0 0.39025836247721268 0.0036292771787240202 0 0.39531848553630572 -0.0042569273994520467 0 0.38356146703633898 -0.0078565650350033434 0 0.37844401144479839 0.012609093579625891 0 0.37600683512296651 -0.014087071697862221 0 0.37844401144479839 0.012609093579625891 0 0.37600683512296651 -0.014087071697862221 0 0.38356146703633898 -0.0078565650350033434 0 0.37600683512296651 -0.014087071697862221 0 0.36665723294200347 -0.001883505129568449 0 0.35850646790810559 -0.01395473468271459 0 0.37844401144479839 0.012609093579625891 0 0.37600683512296651 -0.014087071697862221 0 0.36665723294200347 -0.001883505129568449 0 0.36665723294200347 -0.001883505129568449 0 0.35531676971978082 -0.0033532784323768001 0 0.35850646790810559 -0.01395473468271459 0 0.37600683512296651 -0.014087071697862221 0 0.37356965880113402 -0.040783236975350308 0 0.37600683512296651 -0.014087071697862221 0 0.36404947753274258 -0.026706798856440471 0 0.35850646790810559 -0.01395473468271459 0 0.37600683512296651 -0.014087071697862221 0 0.36404947753274258 -0.026706798856440471 0 0.37356965880113402 -0.040783236975350308 0 0.34748556133762742 -0.02738266599094942 0 0.35850646790810559 -0.01395473468271459 0 0.34370628527030811 -0.0115647124322744 0 0.36404947753274258 -0.026706798856440471 0 0.34748556133762742 -0.02738266599094942 0 0.35850646790810559 -0.01395473468271459 0 0.36404947753274258 -0.026706798856440471 0 0.34748556133762742 -0.02738266599094942 0 0.36012817770438982 -0.039413746555128387 0 0.33689267375143878 0.0039255003288513873 0 0.35531676971978082 -0.0033532784323768001 0 0.34370628527030811 -0.0115647124322744 0 0.35531676971978082 -0.0033532784323768001 0 0.35850646790810559 -0.01395473468271459 0 0.34370628527030811 -0.0115647124322744 0 0.33689267375143878 0.0039255003288513873 0 0.34370628527030811 -0.0115647124322744 0 0.32469666258817742 -0.019557632270551 0 0.33689267375143878 0.0039255003288513873 0 0.30352242257352219 0.0039185454548519476 0 0.32469666258817742 -0.019557632270551 0 0.34748556133762742 -0.02738266599094942 0 0.34370628527030811 -0.0115647124322744 0 0.32469666258817742 -0.019557632270551 0 0.34748556133762742 -0.02738266599094942 0 0.32469666258817742 -0.019557632270551 0 0.33457477032001748 -0.043965109755099818 0 0.31326255248553708 -0.043768501277314603 0 0.32924913997341337 -0.063603686862235317 0 0.31014365419524398 -0.06072536978512106 0 0.31326255248553708 -0.043768501277314603 0 0.32924913997341337 -0.063603686862235317 0 0.31326255248553708 -0.043768501277314603 0 0.33457477032001748 -0.043965109755099818 0 0.32924913997341337 -0.063603686862235317 0 0.32469666258817742 -0.019557632270551 0 0.31326255248553708 -0.043768501277314603 0 0.33457477032001748 -0.043965109755099818 0 0.33457477032001748 -0.043965109755099818 0 0.34313363496153881 -0.061193084728204693 0 0.35029003257871461 -0.048624574981710279 0 0.33457477032001748 -0.043965109755099818 0 0.34313363496153881 -0.061193084728204693 0 0.32924913997341337 -0.063603686862235317 0 0.35029003257871461 -0.048624574981710279 0 0.36524615827173029 -0.053571455971191423 0 0.35631850447425872 -0.066333179594821989 0 0.34313363496153881 -0.061193084728204693 0 0.35029003257871461 -0.048624574981710279 0 0.35631850447425872 -0.066333179594821989 0 0.35029003257871461 -0.048624574981710279 0 0.36012817770438982 -0.039413746555128387 0 0.36524615827173029 -0.053571455971191423 0 0.34748556133762742 -0.02738266599094942 0 0.33457477032001748 -0.043965109755099818 0 0.35029003257871461 -0.048624574981710279 0 0.34748556133762742 -0.02738266599094942 0 0.35029003257871461 -0.048624574981710279 0 0.36012817770438982 -0.039413746555128387 0 0.36404947753274258 -0.026706798856440471 0 0.36012817770438982 -0.039413746555128387 0 0.37356965880113402 -0.040783236975350308 0 0.36012817770438982 -0.039413746555128387 0 0.37356965880113402 -0.040783236975350308 0 0.36524615827173029 -0.053571455971191423 0 0.37839056082150663 -0.050608978831784571 0 0.36524615827173029 -0.053571455971191423 0 0.37240766699872252 -0.068318548019290964 0 0.37839056082150663 -0.050608978831784571 0 0.37356965880113402 -0.040783236975350308 0 0.36524615827173029 -0.053571455971191423 0 0.36524615827173029 -0.053571455971191423 0 0.37240766699872252 -0.068318548019290964 0 0.35631850447425872 -0.066333179594821989 0 0.37240766699872252 -0.068318548019290964 0 0.36259903827425999 -0.08213590949324566 0 0.35631850447425872 -0.066333179594821989 0 0.37781097748786241 -0.089314889372882261 0 0.37240766699872252 -0.068318548019290964 0 0.36259903827425999 -0.08213590949324566 0 0.37781097748786241 -0.089314889372882261 0 0.36259903827425999 -0.08213590949324566 0 0.3612223149491664 -0.1032740580320769 0 0.34523572746128989 -0.083438872447156087 0 0.3612223149491664 -0.1032740580320769 0 0.36259903827425999 -0.08213590949324566 0 0.34523572746128989 -0.083438872447156087 0 0.3612223149491664 -0.1032740580320769 0 0.34313363496153881 -0.061193084728204693 0 0.34523572746128989 -0.083438872447156087 0 0.35631850447425872 -0.066333179594821989 0 0.36259903827425999 -0.08213590949324566 0 0.34523572746128989 -0.083438872447156087 0 0.35631850447425872 -0.066333179594821989 0 0.37720890243704291 -0.12310924361699779 0 0.36253108037134668 -0.1248744885805331 0 0.3612223149491664 -0.1032740580320769 0 0.37644505785585192 -0.1058120404938334 0 0.37720890243704291 -0.12310924361699779 0 0.3612223149491664 -0.1032740580320769 0 0.37720890243704291 -0.12310924361699779 0 0.3612223149491664 -0.1032740580320769 0 0.37781097748786241 -0.089314889372882261 0 0.37644505785585192 -0.1058120404938334 0 0.3612223149491664 -0.1032740580320769 0 0.34523572746128989 -0.083438872447156087 0 0.3612223149491664 -0.1032740580320769 0 0.33932087337301742 -0.1007066993955318 0 0.3612223149491664 -0.1032740580320769 0 0.34941185211170689 -0.1127717253903176 0 0.33932087337301742 -0.1007066993955318 0 0.36253108037134668 -0.1248744885805331 0 0.33587402752894302 -0.122350175475488 0 0.36253108037134668 -0.1248744885805331 0 0.34941185211170689 -0.1127717253903176 0 0.33587402752894302 -0.122350175475488 0 0.36253108037134668 -0.1248744885805331 0 0.3612223149491664 -0.1032740580320769 0 0.34941185211170689 -0.1127717253903176 0 0.34941185211170689 -0.1127717253903176 0 0.33587402752894302 -0.122350175475488 0 0.33932087337301742 -0.1007066993955318 0 0.33587402752894302 -0.122350175475488 0 0.33932087337301742 -0.1007066993955318 0 0.31943204723016899 -0.10139701157958859 0 0.33932087337301742 -0.1007066993955318 0 0.31943204723016899 -0.10139701157958859 0 0.32474927095682959 -0.081008353448563344 0 0.33587402752894302 -0.122350175475488 0 0.31943204723016899 -0.10139701157958859 0 0.3092169746865393 -0.1198258623704429 0 0.33587402752894302 -0.122350175475488 0 0.3092169746865393 -0.1198258623704429 0 0.34523572746128989 -0.083438872447156087 0 0.32924913997341337 -0.063603686862235317 0 0.32474927095682959 -0.081008353448563344 0 0.34523572746128989 -0.083438872447156087 0 0.32924913997341337 -0.063603686862235317 0 0.34313363496153881 -0.061193084728204693 0 0.34523572746128989 -0.083438872447156087 0 0.32924913997341337 -0.063603686862235317 0 0.34523572746128989 -0.083438872447156087 0 0.33932087337301742 -0.1007066993955318 0 0.32474927095682959 -0.081008353448563344 0 0.31943204723016899 -0.10139701157958859 0 0.32474927095682959 -0.081008353448563344 0 0.31117343018006932 -0.08835554327446378 0 0.32474927095682959 -0.081008353448563344 0 0.30201438303726968 -0.075929904193525521 0 0.32474927095682959 -0.081008353448563344 0 0.30201438303726968 -0.075929904193525521 0 0.31117343018006932 -0.08835554327446378 0 0.32924913997341337 -0.063603686862235317 0 0.32474927095682959 -0.081008353448563344 0 0.31014365419524398 -0.06072536978512106 0 0.32474927095682959 -0.081008353448563344 0 0.30201438303726968 -0.075929904193525521 0 0.31014365419524398 -0.06072536978512106 0 0.30201438303726968 -0.075929904193525521 0 0.31014365419524398 -0.06072536978512106 0 0.29222542489931519 -0.060978945333093171 0 0.31117343018006932 -0.08835554327446378 0 0.29442961060618023 -0.089764156713605506 0 0.30306705175182019 -0.101009202806625 0 0.30201438303726968 -0.075929904193525521 0 0.31117343018006932 -0.08835554327446378 0 0.29442961060618023 -0.089764156713605506 0 0.29442961060618023 -0.089764156713605506 0 0.28691460331806928 -0.079185378374353493 0 0.27734124638624891 -0.089737863242296378 0 0.30201438303726968 -0.075929904193525521 0 0.29442961060618023 -0.089764156713605506 0 0.28691460331806928 -0.079185378374353493 0 0.30201438303726968 -0.075929904193525521 0 0.27927949511770961 -0.070851454938488739 0 0.29222542489931519 -0.060978945333093171 0 0.30201438303726968 -0.075929904193525521 0 0.27927949511770961 -0.070851454938488739 0 0.30201438303726968 -0.075929904193525521 0 0.28691460331806928 -0.079185378374353493 0 0.27927949511770961 -0.070851454938488739 0 0.28691460331806928 -0.079185378374353493 0 0.27927949511770961 -0.070851454938488739 0 0.27809334201771629 -0.079209584513290715 0 0.28691460331806928 -0.079185378374353493 0 0.27927949511770961 -0.070851454938488739 0 0.27927949511770961 -0.070851454938488739 0 0.27868582307562201 -0.055886184139343542 0 0.29222542489931519 -0.060978945333093171 0 0.31943204723016899 -0.10139701157958859 0 0.3092169746865393 -0.1198258623704429 0 0.30306705175182019 -0.101009202806625 0 0.3092169746865393 -0.1198258623704429 0 0.30306705175182019 -0.101009202806625 0 0.28879183359809052 -0.10393054527906551 0 0.31943204723016899 -0.10139701157958859 0 0.31117343018006932 -0.08835554327446378 0 0.30306705175182019 -0.101009202806625 0 0.28879183359809052 -0.10393054527906551 0 0.28255992184413548 -0.11730154926539781 0 0.27267591943638608 -0.1048970298088977 0 0.29442961060618023 -0.089764156713605506 0 0.28879183359809052 -0.10393054527906551 0 0.27734124638624891 -0.089737863242296378 0 0.29442961060618023 -0.089764156713605506 0 0.30306705175182019 -0.101009202806625 0 0.28879183359809052 -0.10393054527906551 0 0.3092169746865393 -0.1198258623704429 0 0.28255992184413548 -0.11730154926539781 0 0.3092169746865393 -0.1198258623704429 0 0.28879183359809052 -0.10393054527906551 0 0.28255992184413548 -0.11730154926539781 0 0.3092169746865393 -0.1198258623704429 0 0.28255992184413548 -0.11730154926539781 0 0.28721398294742878 -0.13035474923543569 0 0.28255992184413548 -0.11730154926539781 0 0.26776517015272971 -0.1222840496799191 0 0.28721398294742878 -0.13035474923543569 0 0.28255992184413548 -0.11730154926539781 0 0.26776517015272971 -0.1222840496799191 0 0.27267591943638608 -0.1048970298088977 0 0.26776517015272971 -0.1222840496799191 0 0.27267591943638608 -0.1048970298088977 0 0.26047800574605201 -0.11084537767631369 0 0.28879183359809052 -0.10393054527906551 0 0.27267591943638608 -0.1048970298088977 0 0.27734124638624891 -0.089737863242296378 0 0.27267591943638608 -0.1048970298088977 0 0.27734124638624891 -0.089737863242296378 0 0.26256105175446781 -0.092679464148907056 0 0.25771864553297669 -0.099620140202181948 0 0.26047800574605201 -0.11084537767631369 0 0.24375228786211539 -0.116580291014256 0 0.27267591943638608 -0.1048970298088977 0 0.25771864553297669 -0.099620140202181948 0 0.26256105175446781 -0.092679464148907056 0 0.25771864553297669 -0.099620140202181948 0 0.25304747237378489 -0.090741332181114118 0 0.24292322406264641 -0.096552741650977186 0 0.25771864553297669 -0.099620140202181948 0 0.26256105175446781 -0.092679464148907056 0 0.25304747237378489 -0.090741332181114118 0 0.27267591943638608 -0.1048970298088977 0 0.25771864553297669 -0.099620140202181948 0 0.26047800574605201 -0.11084537767631369 0 0.26776517015272971 -0.1222840496799191 0 0.26153006621115998 -0.13421007507225571 0 0.24375228786211539 -0.116580291014256 0 0.26776517015272971 -0.1222840496799191 0 0.24375228786211539 -0.116580291014256 0 0.26776517015272971 -0.1222840496799191 0 0.26047800574605201 -0.11084537767631369 0 0.24375228786211539 -0.116580291014256 0 0.27927949511770961 -0.070851454938488739 0 0.25811154610651499 -0.066123023671663908 0 0.26329678137076351 -0.053405898285071182 0 0.27927949511770961 -0.070851454938488739 0 0.25811154610651499 -0.066123023671663908 0 0.26883802324883782 -0.077063641498024305 0 0.27927949511770961 -0.070851454938488739 0 0.25811154610651499 -0.066123023671663908 0 0.26883802324883782 -0.077063641498024305 0 0.27927949511770961 -0.070851454938488739 0 0.27809334201771629 -0.079209584513290715 0 0.26883802324883782 -0.077063641498024305 0 0.27809334201771629 -0.079209584513290715 0 0.27734124638624891 -0.089737863242296378 0 0.26883802324883782 -0.077063641498024305 0 0.27734124638624891 -0.089737863242296378 0 0.25202197504294188 -0.078400955310045109 0 0.28691460331806928 -0.079185378374353493 0 0.27809334201771629 -0.079209584513290715 0 0.27734124638624891 -0.089737863242296378 0 0.27734124638624891 -0.089737863242296378 0 0.26256105175446781 -0.092679464148907056 0 0.25202197504294188 -0.078400955310045109 0 0.27734124638624891 -0.089737863242296378 0 0.25202197504294188 -0.078400955310045109 0 0.26256105175446781 -0.092679464148907056 0 0.25304747237378489 -0.090741332181114118 0 0.25202197504294188 -0.078400955310045109 0 0.25304747237378489 -0.090741332181114118 0 0.25202197504294188 -0.078400955310045109 0 0.24624903761231479 -0.086847438891893419 0 0.26883802324883782 -0.077063641498024305 0 0.25202197504294188 -0.078400955310045109 0 0.25811154610651499 -0.066123023671663908 0 0.25811154610651499 -0.066123023671663908 0 0.26329678137076351 -0.053405898285071182 0 0.24870160087168189 -0.052882304334001928 0 0.26329678137076351 -0.053405898285071182 0 0.24870160087168189 -0.052882304334001928 0 0.24731406762381819 -0.035960341631652723 0 0.27927949511770961 -0.070851454938488739 0 0.26329678137076351 -0.053405898285071182 0 0.27868582307562201 -0.055886184139343542 0 0.27927949511770961 -0.070851454938488739 0 0.26329678137076351 -0.053405898285071182 0 0.26329678137076351 -0.053405898285071182 0 0.27868582307562201 -0.055886184139343542 0 0.27337213238318842 -0.044040078526876879 0 0.27868582307562201 -0.055886184139343542 0 0.27337213238318842 -0.044040078526876879 0 0.28525528160713332 -0.050154543613187753 0 0.26329678137076351 -0.053405898285071182 0 0.27337213238318842 -0.044040078526876879 0 0.26311483972878968 -0.036713614733010089 0 0.27337213238318842 -0.044040078526876879 0 0.27217486102646721 -0.027861542379398439 0 0.28494473946257981 -0.034556038004921102 0 0.27337213238318842 -0.044040078526876879 0 0.26311483972878968 -0.036713614733010089 0 0.27217486102646721 -0.027861542379398439 0 0.27337213238318842 -0.044040078526876879 0 0.28525528160713332 -0.050154543613187753 0 0.28494473946257981 -0.034556038004921102 0 0.26311483972878968 -0.036713614733010089 0 0.25941635623971138 -0.02230021284205122 0 0.24731406762381819 -0.035960341631652723 0 0.26329678137076351 -0.053405898285071182 0 0.24731406762381819 -0.035960341631652723 0 0.26329678137076351 -0.053405898285071182 0 0.26311483972878968 -0.036713614733010089 0 0.24731406762381819 -0.035960341631652723 0 0.25941635623971138 -0.02230021284205122 0 0.24731406762381819 -0.035960341631652723 0 0.2482857443068576 -0.021714794414400052 0 0.25941635623971138 -0.02230021284205122 0 0.25508119948702751 -0.010083838205662381 0 0.2482857443068576 -0.021714794414400052 0 0.26311483972878968 -0.036713614733010089 0 0.25941635623971138 -0.02230021284205122 0 0.27217486102646721 -0.027861542379398439 0 0.2541426920980116 -0.0036136263454906951 0 0.25508119948702751 -0.010083838205662381 0 0.24138147174972829 -0.0061427828714447699 0 0.2541426920980116 -0.0036136263454906951 0 0.25508119948702751 -0.010083838205662381 0 0.26047117107291767 -0.0019720443344692288 0 0.25446675038947358 0.0029162606258486688 0 0.2541426920980116 -0.0036136263454906951 0 0.26047117107291767 -0.0019720443344692288 0 0.25941635623971138 -0.02230021284205122 0 0.25508119948702751 -0.010083838205662381 0 0.26474460583379889 -0.01023883548432745 0 0.25941635623971138 -0.02230021284205122 0 0.26474460583379889 -0.01023883548432745 0 0.27166734417845928 -0.01430021117376327 0 0.25508119948702751 -0.010083838205662381 0 0.26474460583379889 -0.01023883548432745 0 0.26047117107291767 -0.0019720443344692288 0 0.26474460583379889 -0.01023883548432745 0 0.26047117107291767 -0.0019720443344692288 0 0.27708695819087842 -0.0025378708656911609 0 0.26474460583379889 -0.01023883548432745 0 0.27166734417845928 -0.01430021117376327 0 0.27708695819087842 -0.0025378708656911609 0 0.27166734417845928 -0.01430021117376327 0 0.27708695819087842 -0.0025378708656911609 0 0.28469269166600031 -0.01545933141113482 0 0.27217486102646721 -0.027861542379398439 0 0.28469269166600031 -0.01545933141113482 0 0.28494473946257981 -0.034556038004921102 0 0.25941635623971138 -0.02230021284205122 0 0.27166734417845928 -0.01430021117376327 0 0.27217486102646721 -0.027861542379398439 0 0.27166734417845928 -0.01430021117376327 0 0.27217486102646721 -0.027861542379398439 0 0.28469269166600031 -0.01545933141113482 0 0.28469269166600031 -0.01545933141113482 0 0.29727596499766062 -0.023933315692393788 0 0.28494473946257981 -0.034556038004921102 0 0.30352242257352219 0.0039185454548519476 0 0.28469269166600031 -0.01545933141113482 0 0.29727596499766062 -0.023933315692393788 0 0.30352242257352219 0.0039185454548519476 0 0.27708695819087842 -0.0025378708656911609 0 0.28469269166600031 -0.01545933141113482 0 0.30352242257352219 0.0039185454548519476 0 0.32469666258817742 -0.019557632270551 0 0.29727596499766062 -0.023933315692393788 0 0.32469666258817742 -0.019557632270551 0 0.31326255248553708 -0.043768501277314603 0 0.29727596499766062 -0.023933315692393788 0 0.31326255248553708 -0.043768501277314603 0 0.29727596499766062 -0.023933315692393788 0 0.2968975050950291 -0.045887416406534938 0 0.31326255248553708 -0.043768501277314603 0 0.29727596499766062 -0.023933315692393788 0 0.31326255248553708 -0.043768501277314603 0 0.2968975050950291 -0.045887416406534938 0 0.31014365419524398 -0.06072536978512106 0 0.2968975050950291 -0.045887416406534938 0 0.31014365419524398 -0.06072536978512106 0 0.29222542489931519 -0.060978945333093171 0 0.2968975050950291 -0.045887416406534938 0 0.29222542489931519 -0.060978945333093171 0 0.28525528160713332 -0.050154543613187753 0 0.27868582307562201 -0.055886184139343542 0 0.29222542489931519 -0.060978945333093171 0 0.28525528160713332 -0.050154543613187753 0 0.2968975050950291 -0.045887416406534938 0 0.28525528160713332 -0.050154543613187753 0 0.28494473946257981 -0.034556038004921102 0 0.29727596499766062 -0.023933315692393788 0 0.2968975050950291 -0.045887416406534938 0 0.28494473946257981 -0.034556038004921102 0 0.29579617193404978 -0.19432558104056491 0 0.30588539897632072 -0.22256652654210629 0 0.2776594049058328 -0.2175861504380624 0 0.29579617193404978 -0.19432558104056491 0 0.2776594049058328 -0.2175861504380624 0 0.2764107852420567 -0.19644220614923899 0 0.29579617193404978 -0.19432558104056491 0 0.2764107852420567 -0.19644220614923899 0 0.2792899687438003 -0.18116405860585089 0 0.29579617193404978 -0.19432558104056491 0 0.31045946319455608 -0.20263901644370941 0 0.31057073564158039 -0.17760626025882659 0 0.29579617193404978 -0.19432558104056491 0 0.30588539897632072 -0.22256652654210629 0 0.31045946319455608 -0.20263901644370941 0 0.30588539897632072 -0.22256652654210629 0 0.32020032842118662 -0.2136972324735969 0 0.29579617193404978 -0.19432558104056491 0 0.31045946319455608 -0.20263901644370941 0 0.30588539897632072 -0.22256652654210629 0 0.29681701546221179 -0.23419681124085551 0 0.31597462601859122 -0.25080747204364812 0 0.30111904597271899 -0.2536098058489899 0 0.30588539897632072 -0.22256652654210629 0 0.29681701546221179 -0.23419681124085551 0 0.31597462601859122 -0.25080747204364812 0 0.30588539897632072 -0.22256652654210629 0 0.31597462601859122 -0.25080747204364812 0 0.29681701546221179 -0.23419681124085551 0 0.31597462601859122 -0.25080747204364812 0 0.29681701546221179 -0.23419681124085551 0 0.30111904597271899 -0.2536098058489899 0 0.28456511698073272 -0.25518130134833977 0 0.29681701546221179 -0.23419681124085551 0 0.27830026498091959 -0.23745462562099759 0 0.28456511698073272 -0.25518130134833977 0 0.30588539897632072 -0.22256652654210629 0 0.29681701546221179 -0.23419681124085551 0 0.2776594049058328 -0.2175861504380624 0 0.29681701546221179 -0.23419681124085551 0 0.27830026498091959 -0.23745462562099759 0 0.2776594049058328 -0.2175861504380624 0 0.29681701546221179 -0.23419681124085551 0 0.2776594049058328 -0.2175861504380624 0 0.26584409390649738 -0.23415831621220631 0 0.27830026498091959 -0.23745462562099759 0 0.2776594049058328 -0.2175861504380624 0 0.26584409390649738 -0.23415831621220631 0 0.25658827463044448 -0.2222138965281123 0 0.2776594049058328 -0.2175861504380624 0 0.27830026498091959 -0.23745462562099759 0 0.28456511698073272 -0.25518130134833977 0 0.26629969424128969 -0.25192769388052821 0 0.26584409390649738 -0.23415831621220631 0 0.27830026498091959 -0.23745462562099759 0 0.26629969424128969 -0.25192769388052821 0 0.26584409390649738 -0.23415831621220631 0 0.25037283077400019 -0.2416092145933311 0 0.26629969424128969 -0.25192769388052821 0 0.25037283077400019 -0.2416092145933311 0 0.25658827463044448 -0.2222138965281123 0 0.2446094219978813 -0.2276121794933563 0 0.26584409390649738 -0.23415831621220631 0 0.25037283077400019 -0.2416092145933311 0 0.25658827463044448 -0.2222138965281123 0 0.25658827463044448 -0.2222138965281123 0 0.2776594049058328 -0.2175861504380624 0 0.25850179434945381 -0.20097548963526929 0 0.25658827463044448 -0.2222138965281123 0 0.25850179434945381 -0.20097548963526929 0 0.23907695871134879 -0.21289681242661959 0 0.2776594049058328 -0.2175861504380624 0 0.25850179434945381 -0.20097548963526929 0 0.2776594049058328 -0.2175861504380624 0 0.2764107852420567 -0.19644220614923899 0 0.25850179434945381 -0.20097548963526929 0 0.2764107852420567 -0.19644220614923899 0 0.25850179434945381 -0.20097548963526929 0 0.26539786460737957 -0.18100391429238191 0 0.25850179434945381 -0.20097548963526929 0 0.26539786460737957 -0.18100391429238191 0 0.23934418379307471 -0.18436482883247621 0 0.26539786460737957 -0.18100391429238191 0 0.25449645062408999 -0.16331052089379791 0 0.23934418379307471 -0.18436482883247621 0 0.26539786460737957 -0.18100391429238191 0 0.25449645062408999 -0.16331052089379791 0 0.27043371620885309 -0.16438603764101259 0 0.25449645062408999 -0.16331052089379791 0 0.27043371620885309 -0.16438603764101259 0 0.2633734196266177 -0.15149826902969399 0 0.27043371620885309 -0.16438603764101259 0 0.2792899687438003 -0.18116405860585089 0 0.28570694489177878 -0.1660846355390232 0 0.27043371620885309 -0.16438603764101259 0 0.27930784456020519 -0.15183985913025491 0 0.28570694489177878 -0.1660846355390232 0 0.26539786460737957 -0.18100391429238191 0 0.27043371620885309 -0.16438603764101259 0 0.2792899687438003 -0.18116405860585089 0 0.2764107852420567 -0.19644220614923899 0 0.26539786460737957 -0.18100391429238191 0 0.2792899687438003 -0.18116405860585089 0 0.26153006621115998 -0.13421007507225571 0 0.24375228786211539 -0.116580291014256 0 0.24955680073527009 -0.143898101237383 0 0.26153006621115998 -0.13421007507225571 0 0.24375228786211539 -0.116580291014256 0 0.25449645062408999 -0.16331052089379791 0 0.2633734196266177 -0.15149826902969399 0 0.24955680073527009 -0.143898101237383 0 0.26153006621115998 -0.13421007507225571 0 0.2633734196266177 -0.15149826902969399 0 0.24955680073527009 -0.143898101237383 0 0.27043371620885309 -0.16438603764101259 0 0.2633734196266177 -0.15149826902969399 0 0.27930784456020519 -0.15183985913025491 0 0.27561771784950778 -0.13784369003748159 0 0.28570694489177878 -0.1660846355390232 0 0.26153006621115998 -0.13421007507225571 0 0.27930784456020519 -0.15183985913025491 0 0.27561771784950778 -0.13784369003748159 0 0.27930784456020519 -0.15183985913025491 0 0.27561771784950778 -0.13784369003748159 0 0.28570694489177878 -0.1660846355390232 0 0.26153006621115998 -0.13421007507225571 0 0.2633734196266177 -0.15149826902969399 0 0.27930784456020519 -0.15183985913025491 0 0.26153006621115998 -0.13421007507225571 0 0.27930784456020519 -0.15183985913025491 0 0.26776517015272971 -0.1222840496799191 0 0.27561771784950778 -0.13784369003748159 0 0.28721398294742878 -0.13035474923543569 0 0.26776517015272971 -0.1222840496799191 0 0.26153006621115998 -0.13421007507225571 0 0.27561771784950778 -0.13784369003748159 0 0.27561771784950778 -0.13784369003748159 0 0.28721398294742878 -0.13035474923543569 0 0.28891568690104508 -0.14625428249578579 0 0.28721398294742878 -0.13035474923543569 0 0.28891568690104508 -0.14625428249578579 0 0.29920842625061578 -0.1386190615635868 0 0.28891568690104508 -0.14625428249578579 0 0.29920842625061578 -0.1386190615635868 0 0.29789574789403661 -0.15876522012859751 0 0.27561771784950778 -0.13784369003748159 0 0.28891568690104508 -0.14625428249578579 0 0.28570694489177878 -0.1660846355390232 0 0.30985117626407932 -0.1486491484402036 0 0.29920842625061578 -0.1386190615635868 0 0.29789574789403661 -0.15876522012859751 0 0.30985117626407932 -0.1486491484402036 0 0.29789574789403661 -0.15876522012859751 0 0.3134799250960158 -0.16133035304856411 0 0.30985117626407932 -0.1486491484402036 0 0.29920842625061578 -0.1386190615635868 0 0.31980994510895661 -0.13408045692276491 0 0.3092169746865393 -0.1198258623704429 0 0.28721398294742878 -0.13035474923543569 0 0.29920842625061578 -0.1386190615635868 0 0.3092169746865393 -0.1198258623704429 0 0.29920842625061578 -0.1386190615635868 0 0.31980994510895661 -0.13408045692276491 0 0.29579617193404978 -0.19432558104056491 0 0.2792899687438003 -0.18116405860585089 0 0.28570694489177878 -0.1660846355390232 0 0.29579617193404978 -0.19432558104056491 0 0.28570694489177878 -0.1660846355390232 0 0.29579617193404978 -0.19432558104056491 0 0.28570694489177878 -0.1660846355390232 0 0.29784246694311001 -0.17248502473641619 0 0.28891568690104508 -0.14625428249578579 0 0.28570694489177878 -0.1660846355390232 0 0.29789574789403661 -0.15876522012859751 0 0.28570694489177878 -0.1660846355390232 0 0.29789574789403661 -0.15876522012859751 0 0.29784246694311001 -0.17248502473641619 0 0.29789574789403661 -0.15876522012859751 0 0.31057073564158039 -0.17760626025882659 0 0.3134799250960158 -0.16133035304856411 0 0.29789574789403661 -0.15876522012859751 0 0.31057073564158039 -0.17760626025882659 0 0.29784246694311001 -0.17248502473641619 0 0.29789574789403661 -0.15876522012859751 0 0.31057073564158039 -0.17760626025882659 0 0.29579617193404978 -0.19432558104056491 0 0.31057073564158039 -0.17760626025882659 0 0.29784246694311001 -0.17248502473641619 0 0.31057073564158039 -0.17760626025882659 0 0.33117051957001492 -0.16690810347740409 0 0.33960500058918919 -0.18923554211963439 0 0.31057073564158039 -0.17760626025882659 0 0.32324572338912438 -0.19644730038905581 0 0.3134799250960158 -0.16133035304856411 0 0.33117051957001492 -0.16690810347740409 0 0.32297156368297691 -0.15191279281852399 0 0.31057073564158039 -0.17760626025882659 0 0.3134799250960158 -0.16133035304856411 0 0.33117051957001492 -0.16690810347740409 0 0.33117051957001492 -0.16690810347740409 0 0.34312821131240068 -0.1490342399984359 0 0.35150112372442083 -0.17432517416681301 0 0.33117051957001492 -0.16690810347740409 0 0.35150112372442083 -0.17432517416681301 0 0.33960500058918919 -0.18923554211963439 0 0.33587402752894302 -0.122350175475488 0 0.3092169746865393 -0.1198258623704429 0 0.31980994510895661 -0.13408045692276491 0 0.30985117626407932 -0.1486491484402036 0 0.31980994510895661 -0.13408045692276491 0 0.32297156368297691 -0.15191279281852399 0 0.30985117626407932 -0.1486491484402036 0 0.3134799250960158 -0.16133035304856411 0 0.32297156368297691 -0.15191279281852399 0 0.33117051957001492 -0.16690810347740409 0 0.32297156368297691 -0.15191279281852399 0 0.34312821131240068 -0.1490342399984359 0 0.31980994510895661 -0.13408045692276491 0 0.32297156368297691 -0.15191279281852399 0 0.34312821131240068 -0.1490342399984359 0 0.33587402752894302 -0.122350175475488 0 0.31980994510895661 -0.13408045692276491 0 0.34312821131240068 -0.1490342399984359 0 0.36253108037134668 -0.1248744885805331 0 0.33587402752894302 -0.122350175475488 0 0.3555623608711499 -0.1359942506039106 0 0.33587402752894302 -0.122350175475488 0 0.34312821131240068 -0.1490342399984359 0 0.3555623608711499 -0.1359942506039106 0 0.34312821131240068 -0.1490342399984359 0 0.3555623608711499 -0.1359942506039106 0 0.36858459771950869 -0.15733985743645959 0 0.3555623608711499 -0.1359942506039106 0 0.36652086356581781 -0.12946943863695781 0 0.36858459771950869 -0.15733985743645959 0 0.36652086356581781 -0.12946943863695781 0 0.36858459771950869 -0.15733985743645959 0 0.36652086356581781 -0.12946943863695781 0 0.36858459771950869 -0.15733985743645959 0 0.3787995421462832 -0.1425544525875144 0 0.36652086356581781 -0.12946943863695781 0 0.37808333446084269 -0.1309391893982525 0 0.3787995421462832 -0.1425544525875144 0 0.36253108037134668 -0.1248744885805331 0 0.36652086356581781 -0.12946943863695781 0 0.37808333446084269 -0.1309391893982525 0 0.36253108037134668 -0.1248744885805331 0 0.3555623608711499 -0.1359942506039106 0 0.36652086356581781 -0.12946943863695781 0 0.35150112372442083 -0.17432517416681301 0 0.37064833187319962 -0.1852102762359614 0 0.35587008128221181 -0.19822302573298239 0 0.35150112372442083 -0.17432517416681301 0 0.35587008128221181 -0.19822302573298239 0 0.33960500058918919 -0.18923554211963439 0 0.34312821131240068 -0.1490342399984359 0 0.35150112372442083 -0.17432517416681301 0 0.36858459771950869 -0.15733985743645959 0 0.36858459771950869 -0.15733985743645959 0 0.37064833187319962 -0.1852102762359614 0 0.35150112372442083 -0.17432517416681301 0 0.36858459771950869 -0.15733985743645959 0 0.37064833187319962 -0.1852102762359614 0 0.36858459771950869 -0.15733985743645959 0 0.37064833187319962 -0.1852102762359614 0 0.3834788620725188 -0.17954848884060079 0 0.37064833187319962 -0.1852102762359614 0 0.37271206602689039 -0.21308069503546309 0 0.38139900114097952 -0.20469292352659629 0 0.37064833187319962 -0.1852102762359614 0 0.37271206602689039 -0.21308069503546309 0 0.37064833187319962 -0.1852102762359614 0 0.37271206602689039 -0.21308069503546309 0 0.35587008128221181 -0.19822302573298239 0 0.37271206602689039 -0.21308069503546309 0 0.35603419272415182 -0.2169366224123114 0 0.35587008128221181 -0.19822302573298239 0 0.35603419272415182 -0.2169366224123114 0 0.35587008128221181 -0.19822302573298239 0 0.33592071113666833 -0.21528834051928489 0 0.35587008128221181 -0.19822302573298239 0 0.33960500058918919 -0.18923554211963439 0 0.33592071113666833 -0.21528834051928489 0 0.33960500058918919 -0.18923554211963439 0 0.33592071113666833 -0.21528834051928489 0 0.32324572338912438 -0.19644730038905581 0 0.33592071113666833 -0.21528834051928489 0 0.32324572338912438 -0.19644730038905581 0 0.33592071113666833 -0.21528834051928489 0 0.32020032842118662 -0.2136972324735969 0 0.32324572338912438 -0.19644730038905581 0 0.31045946319455608 -0.20263901644370941 0 0.32020032842118662 -0.2136972324735969 0 0.32324572338912438 -0.19644730038905581 0 0.31057073564158039 -0.17760626025882659 0 0.33960500058918919 -0.18923554211963439 0 0.32324572338912438 -0.19644730038905581 0 0.31045946319455608 -0.20263901644370941 0 0.31057073564158039 -0.17760626025882659 0 0.32324572338912438 -0.19644730038905581 0 0.32549034540926353 -0.23154497847382799 0 0.33517615116993849 -0.24743488902137309 0 0.31597462601859122 -0.25080747204364812 0 0.30588539897632072 -0.22256652654210629 0 0.32549034540926353 -0.23154497847382799 0 0.31597462601859122 -0.25080747204364812 0 0.30588539897632072 -0.22256652654210629 0 0.32020032842118662 -0.2136972324735969 0 0.32549034540926353 -0.23154497847382799 0 0.33592071113666833 -0.21528834051928489 0 0.32020032842118662 -0.2136972324735969 0 0.32549034540926353 -0.23154497847382799 0 0.33592071113666833 -0.21528834051928489 0 0.32549034540926353 -0.23154497847382799 0 0.34859569888421221 -0.23412938064951411 0 0.33592071113666833 -0.21528834051928489 0 0.34859569888421221 -0.23412938064951411 0 0.32549034540926353 -0.23154497847382799 0 0.33517615116993849 -0.24743488902137309 0 0.34859569888421221 -0.23412938064951411 0 0.33517615116993849 -0.24743488902137309 0 0.34859569888421221 -0.23412938064951411 0 0.35185333732921159 -0.25428502110151557 0 0.34859569888421221 -0.23412938064951411 0 0.36075586336603621 -0.2426037127049111 0 0.35185333732921159 -0.25428502110151557 0 0.34859569888421221 -0.23412938064951411 0 0.36291464790978972 -0.22902601310760301 0 0.36075586336603621 -0.2426037127049111 0 0.35603419272415182 -0.2169366224123114 0 0.34859569888421221 -0.23412938064951411 0 0.36291464790978972 -0.22902601310760301 0 0.35603419272415182 -0.2169366224123114 0 0.33592071113666833 -0.21528834051928489 0 0.34859569888421221 -0.23412938064951411 0 0.37271206602689039 -0.21308069503546309 0 0.35603419272415182 -0.2169366224123114 0 0.36291464790978972 -0.22902601310760301 0 0.37271206602689039 -0.21308069503546309 0 0.37477580018058132 -0.24095111383496479 0 0.37555308153547928 -0.22286467051027881 0 0.37271206602689039 -0.21308069503546309 0 0.37477580018058132 -0.24095111383496479 0 0.37271206602689039 -0.21308069503546309 0 0.36291464790978972 -0.22902601310760301 0 0.37477580018058132 -0.24095111383496479 0 0.36075586336603621 -0.2426037127049111 0 0.37477580018058132 -0.24095111383496479 0 0.36563983252638571 -0.25462703483095822 0 0.36291464790978972 -0.22902601310760301 0 0.36075586336603621 -0.2426037127049111 0 0.37477580018058132 -0.24095111383496479 0 0.37477580018058132 -0.24095111383496479 0 0.39321551516580561 -0.23618023300957031 0 0.38725375881062551 -0.25185160038302579 0 0.39321551516580561 -0.23618023300957031 0 0.41087794879613182 -0.2494957955088617 0 0.40741230325918792 -0.23450562481703699 0 0.39321551516580561 -0.23618023300957031 0 0.41087794879613182 -0.2494957955088617 0 0.39321551516580561 -0.23618023300957031 0 0.38725375881062551 -0.25185160038302579 0 0.39640803358832022 -0.25154779433757402 0 0.39321551516580561 -0.23618023300957031 0 0.41087794879613182 -0.2494957955088617 0 0.39640803358832022 -0.25154779433757402 0 0.4055308246994358 -0.22407667781788709 0 0.39424069285124719 -0.22310079746779379 0 0.40434357831770951 -0.21487406561090469 0 0.4055308246994358 -0.22407667781788709 0 0.39424069285124719 -0.22310079746779379 0 0.40741230325918792 -0.23450562481703699 0 0.39321551516580561 -0.23618023300957031 0 0.39424069285124719 -0.22310079746779379 0 0.40741230325918792 -0.23450562481703699 0 0.37477580018058132 -0.24095111383496479 0 0.39321551516580561 -0.23618023300957031 0 0.37555308153547928 -0.22286467051027881 0 0.39424069285124719 -0.22310079746779379 0 0.37555308153547928 -0.22286467051027881 0 0.38300691860546521 -0.21527996176244341 0 0.39321551516580561 -0.23618023300957031 0 0.37555308153547928 -0.22286467051027881 0 0.39321551516580561 -0.23618023300957031 0 0.39424069285124719 -0.22310079746779379 0 0.37555308153547928 -0.22286467051027881 0 0.37271206602689039 -0.21308069503546309 0 0.37555308153547928 -0.22286467051027881 0 0.38300691860546521 -0.21527996176244341 0 0.37271206602689039 -0.21308069503546309 0 0.38139900114097952 -0.20469292352659629 0 0.38300691860546521 -0.21527996176244341 0 0.38139900114097952 -0.20469292352659629 0 0.39078770323730427 -0.19674260859680251 0 0.39112975147272949 -0.2126607222720846 0 0.38139900114097952 -0.20469292352659629 0 0.38300691860546521 -0.21527996176244341 0 0.39112975147272949 -0.2126607222720846 0 0.39424069285124719 -0.22310079746779379 0 0.38300691860546521 -0.21527996176244341 0 0.39112975147272949 -0.2126607222720846 0 0.37064833187319962 -0.1852102762359614 0 0.38139900114097952 -0.20469292352659629 0 0.39078770323730427 -0.19674260859680251 0 0.39078770323730427 -0.19674260859680251 0 0.40475141021500721 -0.1910589369573561 0 0.39510197637232292 -0.1839605883432579 0 0.39078770323730427 -0.19674260859680251 0 0.40426546228868082 -0.20108352786525729 0 0.397631623829106 -0.20634023108626229 0 0.39078770323730427 -0.19674260859680251 0 0.40426546228868082 -0.20108352786525729 0 0.40475141021500721 -0.1910589369573561 0 0.39078770323730427 -0.19674260859680251 0 0.39112975147272949 -0.2126607222720846 0 0.397631623829106 -0.20634023108626229 0 0.39112975147272949 -0.2126607222720846 0 0.397631623829106 -0.20634023108626229 0 0.40434357831770951 -0.21487406561090469 0 0.39424069285124719 -0.22310079746779379 0 0.39112975147272949 -0.2126607222720846 0 0.40434357831770951 -0.21487406561090469 0 0.40426546228868082 -0.20108352786525729 0 0.397631623829106 -0.20634023108626229 0 0.40434357831770951 -0.21487406561090469 0 0.40434357831770951 -0.21487406561090469 0 0.41713092845542321 -0.20900944133272009 0 0.41612672436959858 -0.22382622337581301 0 0.40426546228868082 -0.20108352786525729 0 0.40434357831770951 -0.21487406561090469 0 0.41713092845542321 -0.20900944133272009 0 0.41713092845542321 -0.20900944133272009 0 0.42330136258736267 -0.2174116668913772 0 0.41612672436959858 -0.22382622337581301 0 0.40475141021500721 -0.1910589369573561 0 0.41487892771890261 -0.19826025474908979 0 0.4146572714410397 -0.186958864794112 0 0.40426546228868082 -0.20108352786525729 0 0.41713092845542321 -0.20900944133272009 0 0.41487892771890261 -0.19826025474908979 0 0.40426546228868082 -0.20108352786525729 0 0.40475141021500721 -0.1910589369573561 0 0.41487892771890261 -0.19826025474908979 0 0.41713092845542321 -0.20900944133272009 0 0.41487892771890261 -0.19826025474908979 0 0.42701217502226602 -0.19751647228806199 0 0.41487892771890261 -0.19826025474908979 0 0.42053294087941678 -0.1923617771039739 0 0.42701217502226602 -0.19751647228806199 0 0.42053294087941678 -0.1923617771039739 0 0.4146572714410397 -0.186958864794112 0 0.42558338933545942 -0.1867115165846317 0 0.41487892771890261 -0.19826025474908979 0 0.42053294087941678 -0.1923617771039739 0 0.4146572714410397 -0.186958864794112 0 0.42701217502226602 -0.19751647228806199 0 0.43844209377108118 -0.18689286854296691 0 0.44355474576021348 -0.2050869029196882 0 0.42053294087941678 -0.1923617771039739 0 0.42701217502226602 -0.19751647228806199 0 0.42558338933545942 -0.1867115165846317 0 0.42701217502226602 -0.19751647228806199 0 0.42558338933545942 -0.1867115165846317 0 0.43844209377108118 -0.18689286854296691 0 0.42701217502226602 -0.19751647228806199 0 0.43006687167525981 -0.21185300334864521 0 0.44355474576021348 -0.2050869029196882 0 0.41713092845542321 -0.20900944133272009 0 0.42330136258736267 -0.2174116668913772 0 0.43006687167525981 -0.21185300334864521 0 0.42330136258736267 -0.2174116668913772 0 0.43006687167525981 -0.21185300334864521 0 0.42988092584916948 -0.2249579995083304 0 0.41713092845542321 -0.20900944133272009 0 0.42701217502226602 -0.19751647228806199 0 0.43006687167525981 -0.21185300334864521 0 0.43006687167525981 -0.21185300334864521 0 0.42988092584916948 -0.2249579995083304 0 0.44009267276725389 -0.2176624614444449 0 0.42330136258736267 -0.2174116668913772 0 0.42988092584916948 -0.2249579995083304 0 0.41612672436959858 -0.22382622337581301 0 0.42988092584916948 -0.2249579995083304 0 0.43458399188612801 -0.2397076170126072 0 0.42159465327244361 -0.23640953485310751 0 0.42988092584916948 -0.2249579995083304 0 0.42159465327244361 -0.23640953485310751 0 0.41612672436959858 -0.22382622337581301 0 0.42988092584916948 -0.2249579995083304 0 0.43458399188612801 -0.2397076170126072 0 0.44416109061426973 -0.22983272991065171 0 0.43458399188612801 -0.2397076170126072 0 0.42656562700980838 -0.24831468624349931 0 0.4372088962240912 -0.25169219704383999 0 0.43458399188612801 -0.2397076170126072 0 0.42656562700980838 -0.24831468624349931 0 0.42159465327244361 -0.23640953485310751 0 0.42656562700980838 -0.24831468624349931 0 0.42159465327244361 -0.23640953485310751 0 0.41087794879613182 -0.2494957955088617 0 0.42159465327244361 -0.23640953485310751 0 0.41087794879613182 -0.2494957955088617 0 0.40741230325918792 -0.23450562481703699 0 0.4055308246994358 -0.22407667781788709 0 0.40741230325918792 -0.23450562481703699 0 0.41612672436959858 -0.22382622337581301 0 0.4055308246994358 -0.22407667781788709 0 0.40434357831770951 -0.21487406561090469 0 0.41612672436959858 -0.22382622337581301 0 0.42159465327244361 -0.23640953485310751 0 0.40741230325918792 -0.23450562481703699 0 0.41612672436959858 -0.22382622337581301 0 0.39823574772599779 -0.11763079726210079 0 0.40257569972698831 -0.13396225485532559 0 0.38918813321375051 -0.12739880168557821 0 0.40257569972698831 -0.13396225485532559 0 0.38918813321375051 -0.12739880168557821 0 0.39017348084279901 -0.13955387731924049 0 0.38918813321375051 -0.12739880168557821 0 0.37808333446084269 -0.1309391893982525 0 0.39017348084279901 -0.13955387731924049 0 0.37720890243704291 -0.12310924361699779 0 0.36253108037134668 -0.1248744885805331 0 0.38918813321375051 -0.12739880168557821 0 0.36253108037134668 -0.1248744885805331 0 0.38918813321375051 -0.12739880168557821 0 0.37808333446084269 -0.1309391893982525 0 0.36253108037134668 -0.1248744885805331 0 0.38918813321375051 -0.12739880168557821 0 0.37808333446084269 -0.1309391893982525 0 0.39017348084279901 -0.13955387731924049 0 0.3787995421462832 -0.1425544525875144 0 0.36858459771950869 -0.15733985743645959 0 0.3787995421462832 -0.1425544525875144 0 0.38535727780346091 -0.1527557998392445 0 0.39017348084279901 -0.13955387731924049 0 0.3787995421462832 -0.1425544525875144 0 0.38535727780346091 -0.1527557998392445 0 0.40257569972698831 -0.13396225485532559 0 0.39822107621443897 -0.1501202070538992 0 0.41732028123257531 -0.14286435439753159 0 0.40257569972698831 -0.13396225485532559 0 0.39017348084279901 -0.13955387731924049 0 0.39822107621443897 -0.1501202070538992 0 0.39017348084279901 -0.13955387731924049 0 0.38535727780346091 -0.1527557998392445 0 0.39822107621443897 -0.1501202070538992 0 0.39822107621443897 -0.1501202070538992 0 0.39107178753907162 -0.16851380255406381 0 0.40713652226246821 -0.16744863749245631 0 0.39107178753907162 -0.16851380255406381 0 0.40713652226246821 -0.16744863749245631 0 0.38535727780346091 -0.1527557998392445 0 0.39822107621443897 -0.1501202070538992 0 0.39107178753907162 -0.16851380255406381 0 0.39107178753907162 -0.16851380255406381 0 0.40460499843718001 -0.17902112385493851 0 0.40713652226246821 -0.16744863749245631 0 0.36858459771950869 -0.15733985743645959 0 0.38535727780346091 -0.1527557998392445 0 0.39107178753907162 -0.16851380255406381 0 0.36858459771950869 -0.15733985743645959 0 0.39107178753907162 -0.16851380255406381 0 0.3834788620725188 -0.17954848884060079 0 0.39107178753907162 -0.16851380255406381 0 0.3834788620725188 -0.17954848884060079 0 0.39510197637232292 -0.1839605883432579 0 0.39078770323730427 -0.19674260859680251 0 0.3834788620725188 -0.17954848884060079 0 0.39510197637232292 -0.1839605883432579 0 0.37064833187319962 -0.1852102762359614 0 0.39078770323730427 -0.19674260859680251 0 0.3834788620725188 -0.17954848884060079 0 0.39107178753907162 -0.16851380255406381 0 0.39510197637232292 -0.1839605883432579 0 0.40460499843718001 -0.17902112385493851 0 0.40475141021500721 -0.1910589369573561 0 0.39510197637232292 -0.1839605883432579 0 0.40460499843718001 -0.17902112385493851 0 0.40475141021500721 -0.1910589369573561 0 0.40460499843718001 -0.17902112385493851 0 0.4146572714410397 -0.186958864794112 0 0.40460499843718001 -0.17902112385493851 0 0.41491102279317088 -0.17618591298838529 0 0.4146572714410397 -0.186958864794112 0 0.40460499843718001 -0.17902112385493851 0 0.41491102279317088 -0.17618591298838529 0 0.40713652226246821 -0.16744863749245631 0 0.41491102279317088 -0.17618591298838529 0 0.42527009306055918 -0.1746571334479238 0 0.4232012569858648 -0.16638347243084889 0 0.41491102279317088 -0.17618591298838529 0 0.42095079563492938 -0.18072636251124541 0 0.42527009306055918 -0.1746571334479238 0 0.41491102279317088 -0.17618591298838529 0 0.42095079563492938 -0.18072636251124541 0 0.4146572714410397 -0.186958864794112 0 0.42095079563492938 -0.18072636251124541 0 0.4146572714410397 -0.186958864794112 0 0.42558338933545942 -0.1867115165846317 0 0.43180268423531071 -0.1802632517690351 0 0.42527009306055918 -0.1746571334479238 0 0.44880083799057491 -0.164686103644653 0 0.42095079563492938 -0.18072636251124541 0 0.42558338933545942 -0.1867115165846317 0 0.43180268423531071 -0.1802632517690351 0 0.42558338933545942 -0.1867115165846317 0 0.43180268423531071 -0.1802632517690351 0 0.43844209377108118 -0.18689286854296691 0 0.42095079563492938 -0.18072636251124541 0 0.43180268423531071 -0.1802632517690351 0 0.42527009306055918 -0.1746571334479238 0 0.42527009306055918 -0.1746571334479238 0 0.4232012569858648 -0.16638347243084889 0 0.44880083799057491 -0.164686103644653 0 0.4232012569858648 -0.16638347243084889 0 0.43334283997313311 -0.15135273030925811 0 0.44880083799057491 -0.164686103644653 0 0.4232012569858648 -0.16638347243084889 0 0.44880083799057491 -0.164686103644653 0 0.42527009306055918 -0.1746571334479238 0 0.4232012569858648 -0.16638347243084889 0 0.4232012569858648 -0.16638347243084889 0 0.40713652226246821 -0.16744863749245631 0 0.41732028123257531 -0.14286435439753159 0 0.41491102279317088 -0.17618591298838529 0 0.4232012569858648 -0.16638347243084889 0 0.40713652226246821 -0.16744863749245631 0 0.4232012569858648 -0.16638347243084889 0 0.40713652226246821 -0.16744863749245631 0 0.4232012569858648 -0.16638347243084889 0 0.41732028123257531 -0.14286435439753159 0 0.39822107621443897 -0.1501202070538992 0 0.40713652226246821 -0.16744863749245631 0 0.41732028123257531 -0.14286435439753159 0 0.41732028123257531 -0.14286435439753159 0 0.43334283997313311 -0.15135273030925811 0 0.43763345530417341 -0.13584027725706749 0 0.4232012569858648 -0.16638347243084889 0 0.41732028123257531 -0.14286435439753159 0 0.43334283997313311 -0.15135273030925811 0 0.42916935431308728 -0.1205456085246996 0 0.41732028123257531 -0.14286435439753159 0 0.43763345530417341 -0.13584027725706749 0 0.42916935431308728 -0.1205456085246996 0 0.4435038969132965 -0.12540022695152131 0 0.43763345530417341 -0.13584027725706749 0 0.41143930547928681 -0.11934523636421419 0 0.42916935431308728 -0.1205456085246996 0 0.41732028123257531 -0.14286435439753159 0 0.41143930547928681 -0.11934523636421419 0 0.40257569972698831 -0.13396225485532559 0 0.41732028123257531 -0.14286435439753159 0 0.41143930547928681 -0.11934523636421419 0 0.41732028123257531 -0.14286435439753159 0 0.46257396642688631 -0.12529077885077469 0 0.46381730130484328 -0.1363472541609663 0 0.4585659370706795 -0.1308283620105129 0 0.46381730130484328 -0.1363472541609663 0 0.4585659370706795 -0.1308283620105129 0 0.45274550479158487 -0.1345999168850856 0 0.46381730130484328 -0.1363472541609663 0 0.45274550479158487 -0.1345999168850856 0 0.46138481906560302 -0.14686228775601681 0 0.46257396642688631 -0.12529077885077469 0 0.4585659370706795 -0.1308283620105129 0 0.45239247298790419 -0.125419693033265 0 0.4585659370706795 -0.1308283620105129 0 0.45239247298790419 -0.125419693033265 0 0.45274550479158487 -0.1345999168850856 0 0.45239247298790419 -0.125419693033265 0 0.4435038969132965 -0.12540022695152131 0 0.45274550479158487 -0.1345999168850856 0 0.4435038969132965 -0.12540022695152131 0 0.43763345530417341 -0.13584027725706749 0 0.45274550479158487 -0.1345999168850856 0 0.43763345530417341 -0.13584027725706749 0 0.45274550479158487 -0.1345999168850856 0 0.44678149142501389 -0.1466682631704162 0 0.43334283997313311 -0.15135273030925811 0 0.44678149142501389 -0.1466682631704162 0 0.44880083799057491 -0.164686103644653 0 0.44678149142501389 -0.1466682631704162 0 0.46138481906560302 -0.14686228775601681 0 0.44880083799057491 -0.164686103644653 0 0.43334283997313311 -0.15135273030925811 0 0.43763345530417341 -0.13584027725706749 0 0.44678149142501389 -0.1466682631704162 0 0.45274550479158487 -0.1345999168850856 0 0.44678149142501389 -0.1466682631704162 0 0.46138481906560302 -0.14686228775601681 0 0.46138481906560302 -0.14686228775601681 0 0.44880083799057491 -0.164686103644653 0 0.47440041899528501 -0.16298873485845719 0 0.44880083799057491 -0.164686103644653 0 0.46834799031954211 -0.17915452781490099 0 0.47440041899528501 -0.16298873485845719 0 0.44880083799057491 -0.164686103644653 0 0.47440041899528501 -0.16298873485845719 0 0.43180268423531071 -0.1802632517690351 0 0.44880083799057491 -0.164686103644653 0 0.43844209377108118 -0.18689286854296691 0 0.44880083799057491 -0.164686103644653 0 0.43844209377108118 -0.18689286854296691 0 0.45508032593701309 -0.1914137801830845 0 0.44880083799057491 -0.164686103644653 0 0.46834799031954211 -0.17915452781490099 0 0.45508032593701309 -0.1914137801830845 0 0.46834799031954211 -0.17915452781490099 0 0.48419704391512092 -0.17843144908975531 0 0.47440041899528501 -0.16298873485845719 0 0.46834799031954211 -0.17915452781490099 0 0.48419704391512092 -0.17843144908975531 0 0.47823681026078202 -0.19812675643970101 0 0.48419704391512092 -0.17843144908975531 0 0.49999999999999523 -0.16129136607226169 0 0.5 -0.1905958602634561 0 0.49999999999999523 -0.16129136607226169 0 0.47440041899528501 -0.16298873485845719 0 0.50000000000000067 -0.1547763741112759 0 0.48419704391512092 -0.17843144908975531 0 0.49999999999999523 -0.16129136607226169 0 0.47440041899528501 -0.16298873485845719 0 0.49999999999999523 -0.16129136607226169 0 0.47440041899528501 -0.16298873485845719 0 0.46138481906560302 -0.14686228775601681 0 0.47440041899528501 -0.16298873485845719 0 0.48128698321344371 -0.14003357648102521 0 0.46381730130484328 -0.1363472541609663 0 0.46138481906560302 -0.14686228775601681 0 0.48128698321344371 -0.14003357648102521 0 0.50000000000000067 -0.1547763741112759 0 0.48128698321344371 -0.14003357648102521 0 0.50000000000000067 -0.1547763741112759 0 0.5 -0.13349841451636779 0 0.48128698321344371 -0.14003357648102521 0 0.47440041899528501 -0.16298873485845719 0 0.50000000000000067 -0.1547763741112759 0 0.48128698321344371 -0.14003357648102521 0 0.48087269318342413 -0.1216818802472065 0 0.5 -0.13349841451636779 0 0.48128698321344371 -0.14003357648102521 0 0.46257396642688631 -0.12529077885077469 0 0.48128698321344371 -0.14003357648102521 0 0.46257396642688631 -0.12529077885077469 0 0.46381730130484328 -0.1363472541609663 0 0.48128698321344371 -0.14003357648102521 0 0.47129126618897188 -0.1223351355815797 0 0.48087269318342413 -0.1216818802472065 0 0.48128698321344371 -0.14003357648102521 0 0.47129126618897188 -0.1223351355815797 0 0.46257396642688631 -0.12529077885077469 0 0.48128698321344371 -0.14003357648102521 0 0.46029750420545162 -0.23134667767863379 0 0.45079963313025367 -0.219495204315066 0 0.46126535540865482 -0.21094244298034759 0 0.46029750420545162 -0.23134667767863379 0 0.46126535540865482 -0.21094244298034759 0 0.47937109712497578 -0.22608105856418539 0 0.46029750420545162 -0.23134667767863379 0 0.44856132313442931 -0.24393079079591279 0 0.47387431588802909 -0.25499376211151131 0 0.46029750420545162 -0.23134667767863379 0 0.44856132313442931 -0.24393079079591279 0 0.44416109061426973 -0.22983272991065171 0 0.43458399188612801 -0.2397076170126072 0 0.44856132313442931 -0.24393079079591279 0 0.4372088962240912 -0.25169219704383999 0 0.43458399188612801 -0.2397076170126072 0 0.44856132313442931 -0.24393079079591279 0 0.44416109061426973 -0.22983272991065171 0 0.46029750420545162 -0.23134667767863379 0 0.44416109061426973 -0.22983272991065171 0 0.45079963313025367 -0.219495204315066 0 0.44416109061426973 -0.22983272991065171 0 0.45079963313025367 -0.219495204315066 0 0.44009267276725389 -0.2176624614444449 0 0.42988092584916948 -0.2249579995083304 0 0.44416109061426973 -0.22983272991065171 0 0.44009267276725389 -0.2176624614444449 0 0.45079963313025367 -0.219495204315066 0 0.44355474576021348 -0.2050869029196882 0 0.46126535540865482 -0.21094244298034759 0 0.43006687167525981 -0.21185300334864521 0 0.44009267276725389 -0.2176624614444449 0 0.44355474576021348 -0.2050869029196882 0 0.45079963313025367 -0.219495204315066 0 0.44009267276725389 -0.2176624614444449 0 0.44355474576021348 -0.2050869029196882 0 0.43844209377108118 -0.18689286854296691 0 0.44355474576021348 -0.2050869029196882 0 0.45508032593701309 -0.1914137801830845 0 0.46834799031954211 -0.17915452781490099 0 0.45508032593701309 -0.1914137801830845 0 0.47823681026078202 -0.19812675643970101 0 0.44355474576021348 -0.2050869029196882 0 0.45508032593701309 -0.1914137801830845 0 0.46126535540865482 -0.21094244298034759 0 0.45508032593701309 -0.1914137801830845 0 0.46126535540865482 -0.21094244298034759 0 0.47823681026078202 -0.19812675643970101 0 0.46126535540865482 -0.21094244298034759 0 0.47823681026078202 -0.19812675643970101 0 0.47937109712497578 -0.22608105856418539 0 0.48419704391512092 -0.17843144908975531 0 0.47823681026078202 -0.19812675643970101 0 0.5 -0.1905958602634561 0 0.47823681026078202 -0.19812675643970101 0 0.5 -0.1905958602634561 0 0.5 -0.21990035445465039 0 0.47823681026078202 -0.19812675643970101 0 0.5 -0.21990035445465039 0 0.47937109712497578 -0.22608105856418539 0 0.5 -0.21990035445465039 0 0.47937109712497578 -0.22608105856418539 0 0.50000000000000444 -0.24920484864584491 0 0.46029750420545162 -0.23134667767863379 0 0.47937109712497578 -0.22608105856418539 0 0.47387431588802909 -0.25499376211151131 0 0.47937109712497578 -0.22608105856418539 0 0.50000000000000444 -0.24920484864584491 0 0.47387431588802909 -0.25499376211151131 0 0.50000000000000444 -0.24920484864584491 0 0.4915669900217115 -0.25615479242606781 0 0.5 -0.27170772691138367 0 0.50000000000000444 -0.24920484864584491 0 0.4915669900217115 -0.25615479242606781 0 0.47387431588802909 -0.25499376211151131 0 0.50000000000000444 -0.24920484864584491 0 0.47387431588802909 -0.25499376211151131 0 0.4915669900217115 -0.25615479242606781 0 0.48280749151585822 -0.27129304150170008 0 0.47954864786353962 -0.26301133191085868 0 0.4915669900217115 -0.25615479242606781 0 0.5 -0.27170772691138367 0 0.48280749151585822 -0.27129304150170008 0 0.5 -0.27170772691138367 0 0.48280749151585822 -0.27129304150170008 0 0.48951500520952212 -0.28458010338455908 0 0.48280749151585822 -0.27129304150170008 0 0.47474596181800061 -0.28621450290334632 0 0.48951500520952212 -0.28458010338455908 0 0.48280749151585822 -0.27129304150170008 0 0.47416229901770612 -0.26612875971404459 0 0.47954864786353962 -0.26301133191085868 0 0.48280749151585822 -0.27129304150170008 0 0.47416229901770612 -0.26612875971404459 0 0.47052118473631321 -0.27447720361836658 0 0.47416229901770612 -0.26612875971404459 0 0.47052118473631321 -0.27447720361836658 0 0.46319689217890331 -0.26835660325056299 0 0.48280749151585822 -0.27129304150170008 0 0.47052118473631321 -0.27447720361836658 0 0.47474596181800061 -0.28621450290334632 0 0.4915669900217115 -0.25615479242606781 0 0.46965781089888248 -0.25846873400162218 0 0.4915669900217115 -0.25615479242606781 0 0.47387431588802909 -0.25499376211151131 0 0.46965781089888248 -0.25846873400162218 0 0.4915669900217115 -0.25615479242606781 0 0.47954864786353962 -0.26301133191085868 0 0.46965781089888248 -0.25846873400162218 0 0.47416229901770612 -0.26612875971404459 0 0.47954864786353962 -0.26301133191085868 0 0.46965781089888248 -0.25846873400162218 0 0.47416229901770612 -0.26612875971404459 0 0.46965781089888248 -0.25846873400162218 0 0.46319689217890331 -0.26835660325056299 0 0.46965781089888248 -0.25846873400162218 0 0.46319689217890331 -0.26835660325056299 0 0.4477486317760534 -0.26078267557717671 0 0.44856132313442931 -0.24393079079591279 0 0.47387431588802909 -0.25499376211151131 0 0.4477486317760534 -0.26078267557717671 0 0.47387431588802909 -0.25499376211151131 0 0.4477486317760534 -0.26078267557717671 0 0.46965781089888248 -0.25846873400162218 0 0.4477486317760534 -0.26078267557717671 0 0.47387431588802909 -0.25499376211151131 0 0.46965781089888248 -0.25846873400162218 0 0.4477486317760534 -0.26078267557717671 0 0.47052118473631321 -0.27447720361836658 0 0.45389453446556111 -0.28192564334160541 0 0.47474596181800061 -0.28621450290334632 0 0.47052118473631321 -0.27447720361836658 0 0.46319689217890331 -0.26835660325056299 0 0.45389453446556111 -0.28192564334160541 0 0.46319689217890331 -0.26835660325056299 0 0.4477486317760534 -0.26078267557717671 0 0.45389453446556111 -0.28192564334160541 0 0.45389453446556111 -0.28192564334160541 0 0.430823863629894 -0.26453285558412298 0 0.45389453446556111 -0.28192564334160541 0 0.430823863629894 -0.26453285558412298 0 0.43570592202634773 -0.28205449164250063 0 0.4477486317760534 -0.26078267557717671 0 0.45389453446556111 -0.28192564334160541 0 0.430823863629894 -0.26453285558412298 0 0.4477486317760534 -0.26078267557717671 0 0.42854038242645709 -0.26281135800815408 0 0.44856132313442931 -0.24393079079591279 0 0.4477486317760534 -0.26078267557717671 0 0.4372088962240912 -0.25169219704383999 0 0.4477486317760534 -0.26078267557717671 0 0.42854038242645709 -0.26281135800815408 0 0.4372088962240912 -0.25169219704383999 0 0.4477486317760534 -0.26078267557717671 0 0.430823863629894 -0.26453285558412298 0 0.44815314542162782 -0.30273998798419938 0 0.44271266904340639 -0.31513600928105973 0 0.43092107089682352 -0.30573631325696571 0 0.44815314542162782 -0.30273998798419938 0 0.43874415768382158 -0.29310671547163403 0 0.43092107089682352 -0.30573631325696571 0 0.43874415768382158 -0.29310671547163403 0 0.45389453446556111 -0.28192564334160541 0 0.43570592202634773 -0.28205449164250063 0 0.44815314542162782 -0.30273998798419938 0 0.43874415768382158 -0.29310671547163403 0 0.45389453446556111 -0.28192564334160541 0 0.45389453446556111 -0.28192564334160541 0 0.46668010371271101 -0.29937682325086112 0 0.47474596181800061 -0.28621450290334632 0 0.44815314542162782 -0.30273998798419938 0 0.45389453446556111 -0.28192564334160541 0 0.46668010371271101 -0.29937682325086112 0 0.46668010371271101 -0.29937682325086112 0 0.45907432653114449 -0.32014896664993769 0 0.44815314542162782 -0.30273998798419938 0 0.46668010371271101 -0.29937682325086112 0 0.45907432653114449 -0.32014896664993769 0 0.46668010371271101 -0.29937682325086112 0 0.48375110351916628 -0.30725513966339157 0 0.45907432653114449 -0.32014896664993769 0 0.46668010371271101 -0.29937682325086112 0 0.48375110351916628 -0.30725513966339157 0 0.47474596181800061 -0.28621450290334632 0 0.48375110351916628 -0.30725513966339157 0 0.47474596181800061 -0.28621450290334632 0 0.48951500520952212 -0.28458010338455908 0 0.48375110351916628 -0.30725513966339157 0 0.5 -0.29421060517692271 0 0.48951500520952212 -0.28458010338455908 0 0.5 -0.27170772691138367 0 0.5 -0.29421060517692271 0 0.48951500520952212 -0.28458010338455908 0 0.48375110351916628 -0.30725513966339157 0 0.5 -0.29421060517692271 0 0.49999999999999972 -0.31671348344246159 0 0.48375110351916628 -0.30725513966339157 0 0.49999999999999972 -0.31671348344246159 0 0.48658745812515303 -0.32591538654610069 0 0.49999999999999972 -0.31671348344246159 0 0.49107839048707969 -0.33844651150006611 0 0.49999999999999972 -0.31671348344246159 0 0.48658745812515303 -0.32591538654610069 0 0.49107839048707969 -0.33844651150006611 0 0.49999999999999972 -0.31671348344246159 0 0.5 -0.34354646621870782 0 0.49107839048707969 -0.33844651150006611 0 0.48658745812515303 -0.32591538654610069 0 0.49107839048707969 -0.33844651150006611 0 0.48013111160135669 -0.33592777501669763 0 0.48658745812515303 -0.32591538654610069 0 0.48013111160135669 -0.33592777501669763 0 0.47588582758327369 -0.32632043512378739 0 0.48013111160135669 -0.33592777501669763 0 0.46883970942210401 -0.33989811375075968 0 0.47588582758327369 -0.32632043512378739 0 0.48375110351916628 -0.30725513966339157 0 0.48658745812515303 -0.32591538654610069 0 0.47588582758327369 -0.32632043512378739 0 0.48375110351916628 -0.30725513966339157 0 0.47588582758327369 -0.32632043512378739 0 0.45907432653114449 -0.32014896664993769 0 0.5 -0.37037944899495368 0 0.48466784746851571 -0.3739080713738358 0 0.48215678097416009 -0.36017953955767068 0 0.5 -0.34354646621870782 0 0.49107839048707969 -0.33844651150006611 0 0.48215678097416009 -0.36017953955767068 0 0.49107839048707969 -0.33844651150006611 0 0.48013111160135669 -0.33592777501669763 0 0.48215678097416009 -0.36017953955767068 0 0.5 -0.34354646621870782 0 0.5 -0.37037944899495368 0 0.48215678097416009 -0.36017953955767068 0 0.49107839048707969 -0.33844651150006611 0 0.48215678097416009 -0.36017953955767068 0 0.48013111160135669 -0.33592777501669763 0 0.46883970942210401 -0.33989811375075968 0 0.48215678097416009 -0.36017953955767068 0 0.46883970942210401 -0.33989811375075968 0 0.48215678097416009 -0.36017953955767068 0 0.46166172922915721 -0.35810144835948332 0 0.48215678097416009 -0.36017953955767068 0 0.47323517146124039 -0.38191256761527542 0 0.48215678097416009 -0.36017953955767068 0 0.4671179630262795 -0.37324494563770522 0 0.47323517146124039 -0.38191256761527542 0 0.48466784746851571 -0.3739080713738358 0 0.48215678097416009 -0.36017953955767068 0 0.47323517146124039 -0.38191256761527542 0 0.48215678097416009 -0.36017953955767068 0 0.4671179630262795 -0.37324494563770522 0 0.46166172922915721 -0.35810144835948332 0 0.45652460043480969 -0.37267172771365881 0 0.46166172922915721 -0.35810144835948332 0 0.44386277216801179 -0.36169325344809122 0 0.45652460043480969 -0.37267172771365881 0 0.4671179630262795 -0.37324494563770522 0 0.46166172922915721 -0.35810144835948332 0 0.46883970942210401 -0.33989811375075968 0 0.46166172922915721 -0.35810144835948332 0 0.45146854934957792 -0.34092111004901438 0 0.43963091224731599 -0.34751792105314822 0 0.44386277216801179 -0.36169325344809122 0 0.45146854934957792 -0.34092111004901438 0 0.44386277216801179 -0.36169325344809122 0 0.45146854934957792 -0.34092111004901438 0 0.46166172922915721 -0.35810144835948332 0 0.44386277216801179 -0.36169325344809122 0 0.45146854934957792 -0.34092111004901438 0 0.44386277216801179 -0.36169325344809122 0 0.43376943787959182 -0.36708850497004442 0 0.43808065797110041 -0.37748478958974491 0 0.45652460043480969 -0.37267172771365881 0 0.44386277216801179 -0.36169325344809122 0 0.44783900322824399 -0.38008781189722518 0 0.44386277216801179 -0.36169325344809122 0 0.43808065797110041 -0.37748478958974491 0 0.44386277216801179 -0.36169325344809122 0 0.43808065797110041 -0.37748478958974491 0 0.44783900322824399 -0.38008781189722518 0 0.45652460043480969 -0.37267172771365881 0 0.44386277216801179 -0.36169325344809122 0 0.46883970942210401 -0.33989811375075968 0 0.45907432653114449 -0.32014896664993769 0 0.45146854934957792 -0.34092111004901438 0 0.45907432653114449 -0.32014896664993769 0 0.45146854934957792 -0.34092111004901438 0 0.46883970942210401 -0.33989811375075968 0 0.47588582758327369 -0.32632043512378739 0 0.45907432653114449 -0.32014896664993769 0 0.43963091224731599 -0.34751792105314822 0 0.45146854934957792 -0.34092111004901438 0 0.43565299676263758 -0.3352386806192425 0 0.45146854934957792 -0.34092111004901438 0 0.44493724809618768 -0.32603283426431229 0 0.43565299676263758 -0.3352386806192425 0 0.45907432653114449 -0.32014896664993769 0 0.45146854934957792 -0.34092111004901438 0 0.44493724809618768 -0.32603283426431229 0 0.45907432653114449 -0.32014896664993769 0 0.44493724809618768 -0.32603283426431229 0 0.44271266904340639 -0.31513600928105973 0 0.44493724809618768 -0.32603283426431229 0 0.44271266904340639 -0.31513600928105973 0 0.43047755427124879 -0.32102194424988317 0 0.44815314542162782 -0.30273998798419938 0 0.45907432653114449 -0.32014896664993769 0 0.44271266904340639 -0.31513600928105973 0 0.44271266904340639 -0.31513600928105973 0 0.43047755427124879 -0.32102194424988317 0 0.43092107089682352 -0.30573631325696571 0 0.43047755427124879 -0.32102194424988317 0 0.41919911313656122 -0.31385112706466711 0 0.41739686236043672 -0.32199345155319897 0 0.43047755427124879 -0.32102194424988317 0 0.41919911313656122 -0.31385112706466711 0 0.43092107089682352 -0.30573631325696571 0 0.43047755427124879 -0.32102194424988317 0 0.42053718701310799 -0.32957674384091618 0 0.41739686236043672 -0.32199345155319897 0 0.44493724809618768 -0.32603283426431229 0 0.43047755427124879 -0.32102194424988317 0 0.43565299676263758 -0.3352386806192425 0 0.43565299676263758 -0.3352386806192425 0 0.42053718701310799 -0.32957674384091618 0 0.4250793590774925 -0.34540704162396091 0 0.43963091224731599 -0.34751792105314822 0 0.43565299676263758 -0.3352386806192425 0 0.4250793590774925 -0.34540704162396091 0 0.43047755427124879 -0.32102194424988317 0 0.43565299676263758 -0.3352386806192425 0 0.42053718701310799 -0.32957674384091618 0 0.4062959459869725 -0.32912082979983148 0 0.4250793590774925 -0.34540704162396091 0 0.41055923831377589 -0.34398547157316572 0 0.42053718701310799 -0.32957674384091618 0 0.4062959459869725 -0.32912082979983148 0 0.4250793590774925 -0.34540704162396091 0 0.4062959459869725 -0.32912082979983148 0 0.4250793590774925 -0.34540704162396091 0 0.42053718701310799 -0.32957674384091618 0 0.4062959459869725 -0.32912082979983148 0 0.40802480504278882 -0.32457497099322458 0 0.4062959459869725 -0.32912082979983148 0 0.40802480504278882 -0.32457497099322458 0 0.4062959459869725 -0.32912082979983148 0 0.40802480504278882 -0.32457497099322458 0 0.40572459905769331 -0.31910551143285631 0 0.40802480504278882 -0.32457497099322458 0 0.4119015194344513 -0.31818912214386269 0 0.41739686236043672 -0.32199345155319897 0 0.40802480504278882 -0.32457497099322458 0 0.4119015194344513 -0.31818912214386269 0 0.40572459905769331 -0.31910551143285631 0 0.4119015194344513 -0.31818912214386269 0 0.41919911313656122 -0.31385112706466711 0 0.40916221757477672 -0.31142054967536659 0 0.4119015194344513 -0.31818912214386269 0 0.40572459905769331 -0.31910551143285631 0 0.40916221757477672 -0.31142054967536659 0 0.4119015194344513 -0.31818912214386269 0 0.41919911313656122 -0.31385112706466711 0 0.41739686236043672 -0.32199345155319897 0 0.42053718701310799 -0.32957674384091618 0 0.40802480504278882 -0.32457497099322458 0 0.41739686236043672 -0.32199345155319897 0 0.44386277216801179 -0.36169325344809122 0 0.43376943787959182 -0.36708850497004442 0 0.42728564025893462 -0.35958684797927032 0 0.42489657602010461 -0.37065940299189432 0 0.43376943787959182 -0.36708850497004442 0 0.43808065797110041 -0.37748478958974491 0 0.42489657602010461 -0.37065940299189432 0 0.43376943787959182 -0.36708850497004442 0 0.42728564025893462 -0.35958684797927032 0 0.44386277216801179 -0.36169325344809122 0 0.4250793590774925 -0.34540704162396091 0 0.43963091224731599 -0.34751792105314822 0 0.44386277216801179 -0.36169325344809122 0 0.4250793590774925 -0.34540704162396091 0 0.44386277216801179 -0.36169325344809122 0 0.42728564025893462 -0.35958684797927032 0 0.4250793590774925 -0.34540704162396091 0 0.42728564025893462 -0.35958684797927032 0 0.4250793590774925 -0.34540704162396091 0 0.41069622259092692 -0.35617360609135817 0 0.4250793590774925 -0.34540704162396091 0 0.41055923831377589 -0.34398547157316572 0 0.41069622259092692 -0.35617360609135817 0 0.41055923831377589 -0.34398547157316572 0 0.41069622259092692 -0.35617360609135817 0 0.40016542559971202 -0.34524040877751239 0 0.42489657602010461 -0.37065940299189432 0 0.42728564025893462 -0.35958684797927032 0 0.41069622259092692 -0.35617360609135817 0 0.42489657602010461 -0.37065940299189432 0 0.41069622259092692 -0.35617360609135817 0 0.4070765621089808 -0.37107032214525337 0 0.42489657602010461 -0.37065940299189432 0 0.41069622259092692 -0.35617360609135817 0 0.39585190457779329 -0.37201308858561799 0 0.3940349052124521 -0.36135998775519362 0 0.38601585554704992 -0.38244526212700758 0 0.41069622259092692 -0.35617360609135817 0 0.4070765621089808 -0.37107032214525337 0 0.3940349052124521 -0.36135998775519362 0 0.4070765621089808 -0.37107032214525337 0 0.39585190457779329 -0.37201308858561799 0 0.3940349052124521 -0.36135998775519362 0 0.39585190457779329 -0.37201308858561799 0 0.3940349052124521 -0.36135998775519362 0 0.3940349052124521 -0.36135998775519362 0 0.40016542559971202 -0.34524040877751239 0 0.38974443050024338 -0.33620485529262373 0 0.3940349052124521 -0.36135998775519362 0 0.38974443050024338 -0.33620485529262373 0 0.3940349052124521 -0.36135998775519362 0 0.40016542559971202 -0.34524040877751239 0 0.41069622259092692 -0.35617360609135817 0 0.3940349052124521 -0.36135998775519362 0 0.40016542559971202 -0.34524040877751239 0 0.3940349052124521 -0.36135998775519362 0 0.38974443050024338 -0.33620485529262373 0 0.37368731816096312 -0.34897020548070451 0 0.3940349052124521 -0.36135998775519362 0 0.38601585554704992 -0.38244526212700758 0 0.3940349052124521 -0.36135998775519362 0 0.38601585554704992 -0.38244526212700758 0 0.3689120952668708 -0.37284951495870189 0 0.3940349052124521 -0.36135998775519362 0 0.3689120952668708 -0.37284951495870189 0 0.37368731816096312 -0.34897020548070451 0 0.4062959459869725 -0.32912082979983148 0 0.40572459905769331 -0.31910551143285631 0 0.39816778062817881 -0.31191488097197773 0 0.4062959459869725 -0.32912082979983148 0 0.38974443050024338 -0.33620485529262373 0 0.38545395578803499 -0.31104972283005378 0 0.4062959459869725 -0.32912082979983148 0 0.38545395578803499 -0.31104972283005378 0 0.4062959459869725 -0.32912082979983148 0 0.38545395578803499 -0.31104972283005378 0 0.39816778062817881 -0.31191488097197773 0 0.40572459905769331 -0.31910551143285631 0 0.39816778062817881 -0.31191488097197773 0 0.40916221757477672 -0.31142054967536659 0 0.4062959459869725 -0.32912082979983148 0 0.40016542559971202 -0.34524040877751239 0 0.38974443050024338 -0.33620485529262373 0 0.4062959459869725 -0.32912082979983148 0 0.40016542559971202 -0.34524040877751239 0 0.4062959459869725 -0.32912082979983148 0 0.41055923831377589 -0.34398547157316572 0 0.40016542559971202 -0.34524040877751239 0 0.38974443050024338 -0.33620485529262373 0 0.36945761595668469 -0.32738841673247931 0 0.37368731816096312 -0.34897020548070451 0 0.38974443050024338 -0.33620485529262373 0 0.38545395578803499 -0.31104972283005378 0 0.36945761595668469 -0.32738841673247931 0 0.38974443050024338 -0.33620485529262373 0 0.38545395578803499 -0.31104972283005378 0 0.38545395578803499 -0.31104972283005378 0 0.38245755150739558 -0.29348174920317632 0 0.37101427446782781 -0.29852975601036341 0 0.38545395578803499 -0.31104972283005378 0 0.38245755150739558 -0.29348174920317632 0 0.38545395578803499 -0.31104972283005378 0 0.37101427446782781 -0.29852975601036341 0 0.38545395578803499 -0.31104972283005378 0 0.39567659353887108 -0.29306988619604551 0 0.38245755150739558 -0.29348174920317632 0 0.39816778062817881 -0.31191488097197773 0 0.40563314249086863 -0.30155395497769039 0 0.39567659353887108 -0.29306988619604551 0 0.38545395578803499 -0.31104972283005378 0 0.39816778062817881 -0.31191488097197773 0 0.39567659353887108 -0.29306988619604551 0 0.39816778062817881 -0.31191488097197773 0 0.40563314249086863 -0.30155395497769039 0 0.40916221757477672 -0.31142054967536659 0 0.39567659353887108 -0.29306988619604551 0 0.40514250542832608 -0.27022331558021301 0 0.41160024963212011 -0.28933460066763711 0 0.40563314249086863 -0.30155395497769039 0 0.39567659353887108 -0.29306988619604551 0 0.41160024963212011 -0.28933460066763711 0 0.38245755150739558 -0.29348174920317632 0 0.37946114722675722 -0.27591377557629859 0 0.39567659353887108 -0.29306988619604551 0 0.38245755150739558 -0.29348174920317632 0 0.37946114722675722 -0.27591377557629859 0 0.38245755150739558 -0.29348174920317632 0 0.37795999762798671 -0.28395322059410122 0 0.37946114722675722 -0.27591377557629859 0 0.37519981906117678 -0.29055939022370142 0 0.38245755150739558 -0.29348174920317632 0 0.37101427446782781 -0.29852975601036341 0 0.37519981906117678 -0.29055939022370142 0 0.38245755150739558 -0.29348174920317632 0 0.37795999762798671 -0.28395322059410122 0 0.37795999762798671 -0.28395322059410122 0 0.37946114722675722 -0.27591377557629859 0 0.37739853904771847 -0.27637080706343392 0 0.37739853904771847 -0.27637080706343392 0 0.37683953433427181 -0.26882153263446662 0 0.37273728942595791 -0.27740364396778311 0 0.37795999762798671 -0.28395322059410122 0 0.37739853904771847 -0.27637080706343392 0 0.37273728942595791 -0.27740364396778311 0 0.37946114722675722 -0.27591377557629859 0 0.38774772661347989 -0.26664574742688191 0 0.3964002279028962 -0.26984905957103239 0 0.37946114722675722 -0.27591377557629859 0 0.3964002279028962 -0.26984905957103239 0 0.37795999762798671 -0.28395322059410122 0 0.37739853904771847 -0.27637080706343392 0 0.37739853904771847 -0.27637080706343392 0 0.37273728942595791 -0.27740364396778311 0 0.37946114722675722 -0.27591377557629859 0 0.37739853904771847 -0.27637080706343392 0 0.37683953433427181 -0.26882153263446662 0 0.37946114722675722 -0.27591377557629859 0 0.37739853904771847 -0.27637080706343392 0 0.37946114722675722 -0.27591377557629859 0 0.37843581040967561 -0.26746760801825881 0 0.38284686623937531 -0.26497045393317709 0 0.37946114722675722 -0.27591377557629859 0 0.37683953433427181 -0.26882153263446662 0 0.37843581040967561 -0.26746760801825881 0 0.37739853904771847 -0.27637080706343392 0 0.37683953433427181 -0.26882153263446662 0 0.37683953433427181 -0.26882153263446662 0 0.37843581040967561 -0.26746760801825881 0 0.37946114722675722 -0.27591377557629859 0 0.38774772661347989 -0.26664574742688191 0 0.38284686623937531 -0.26497045393317709 0 0.37477580018058132 -0.24095111383496479 0 0.37683953433427181 -0.26882153263446662 0 0.38107906364546162 -0.25934379353391329 0 0.37477580018058132 -0.24095111383496479 0 0.37683953433427181 -0.26882153263446662 0 0.37477580018058132 -0.24095111383496479 0 0.38107906364546162 -0.25934379353391329 0 0.38725375881062551 -0.25185160038302579 0 0.37843581040967561 -0.26746760801825881 0 0.38107906364546162 -0.25934379353391329 0 0.38284686623937531 -0.26497045393317709 0 0.37683953433427181 -0.26882153263446662 0 0.37843581040967561 -0.26746760801825881 0 0.38107906364546162 -0.25934379353391329 0 0.38107906364546162 -0.25934379353391329 0 0.38632261189823958 -0.26200045239958702 0 0.38284686623937531 -0.26497045393317709 0 0.38774772661347989 -0.26664574742688191 0 0.38632261189823958 -0.26200045239958702 0 0.38284686623937531 -0.26497045393317709 0 0.38774772661347989 -0.26664574742688191 0 0.38955528694719099 -0.2630172622662057 0 0.39295554709344072 -0.26445586107842978 0 0.38774772661347989 -0.26664574742688191 0 0.38632261189823958 -0.26200045239958702 0 0.38955528694719099 -0.2630172622662057 0 0.38632261189823958 -0.26200045239958702 0 0.38955528694719099 -0.2630172622662057 0 0.39119526218360401 -0.25896698815992442 0 0.38632261189823958 -0.26200045239958702 0 0.38725375881062551 -0.25185160038302579 0 0.39119526218360401 -0.25896698815992442 0 0.38107906364546162 -0.25934379353391329 0 0.38632261189823958 -0.26200045239958702 0 0.38725375881062551 -0.25185160038302579 0 0.40314688718896508 -0.2619981766022052 0 0.39707581272688741 -0.26613449373937459 0 0.41345304600685079 -0.26440480953867462 0 0.39707581272688741 -0.26613449373937459 0 0.41345304600685079 -0.26440480953867462 0 0.38725375881062551 -0.25185160038302579 0 0.39640803358832022 -0.25154779433757402 0 0.39119526218360401 -0.25896698815992442 0 0.39640803358832022 -0.25154779433757402 0 0.39702034872720737 -0.26014738253762237 0 0.39119526218360401 -0.25896698815992442 0 0.39702034872720737 -0.26014738253762237 0 0.39119526218360401 -0.25896698815992442 0 0.39295554709344072 -0.26445586107842978 0 0.38955528694719099 -0.2630172622662057 0 0.39119526218360401 -0.25896698815992442 0 0.39295554709344072 -0.26445586107842978 0 0.39702034872720737 -0.26014738253762237 0 0.39295554709344072 -0.26445586107842978 0 0.39707581272688741 -0.26613449373937459 0 0.39702034872720737 -0.26014738253762237 0 0.40314688718896508 -0.2619981766022052 0 0.39707581272688741 -0.26613449373937459 0 0.40314688718896508 -0.2619981766022052 0 0.40257909468765629 -0.25704117102420471 0 0.40998094690083942 -0.2590606397541646 0 0.39702034872720737 -0.26014738253762237 0 0.40314688718896508 -0.2619981766022052 0 0.40257909468765629 -0.25704117102420471 0 0.39640803358832022 -0.25154779433757402 0 0.39702034872720737 -0.26014738253762237 0 0.40257909468765629 -0.25704117102420471 0 0.41087794879613182 -0.2494957955088617 0 0.39640803358832022 -0.25154779433757402 0 0.40257909468765629 -0.25704117102420471 0 0.40514250542832608 -0.27022331558021301 0 0.3964002279028962 -0.26984905957103239 0 0.41345304600685079 -0.26440480953867462 0 0.37946114722675722 -0.27591377557629859 0 0.40514250542832608 -0.27022331558021301 0 0.3964002279028962 -0.26984905957103239 0 0.39707581272688741 -0.26613449373937459 0 0.3964002279028962 -0.26984905957103239 0 0.41345304600685079 -0.26440480953867462 0 0.37946114722675722 -0.27591377557629859 0 0.40514250542832608 -0.27022331558021301 0 0.3964002279028962 -0.26984905957103239 0 0.41345304600685079 -0.26440480953867462 0 0.39567659353887108 -0.29306988619604551 0 0.37946114722675722 -0.27591377557629859 0 0.40514250542832608 -0.27022331558021301 0 0.38774772661347989 -0.26664574742688191 0 0.39295554709344072 -0.26445586107842978 0 0.3964002279028962 -0.26984905957103239 0 0.39295554709344072 -0.26445586107842978 0 0.39707581272688741 -0.26613449373937459 0 0.3964002279028962 -0.26984905957103239 0 0.40514250542832608 -0.27022331558021301 0 0.41345304600685079 -0.26440480953867462 0 0.430823863629894 -0.26453285558412298 0 0.40514250542832608 -0.27022331558021301 0 0.430823863629894 -0.26453285558412298 0 0.40514250542832608 -0.27022331558021301 0 0.42166373126508722 -0.27984448092147479 0 0.41160024963212011 -0.28933460066763711 0 0.40514250542832608 -0.27022331558021301 0 0.42166373126508722 -0.27984448092147479 0 0.430823863629894 -0.26453285558412298 0 0.41087794879613182 -0.2494957955088617 0 0.41984775782459283 -0.2623632460968765 0 0.42854038242645709 -0.26281135800815408 0 0.41087794879613182 -0.2494957955088617 0 0.42854038242645709 -0.26281135800815408 0 0.41087794879613182 -0.2494957955088617 0 0.40257909468765629 -0.25704117102420471 0 0.40998094690083942 -0.2590606397541646 0 0.41087794879613182 -0.2494957955088617 0 0.40998094690083942 -0.2590606397541646 0 0.41984775782459283 -0.2623632460968765 0 0.40314688718896508 -0.2619981766022052 0 0.40998094690083942 -0.2590606397541646 0 0.41345304600685079 -0.26440480953867462 0 0.41345304600685079 -0.26440480953867462 0 0.41984775782459283 -0.2623632460968765 0 0.42854038242645709 -0.26281135800815408 0 0.40998094690083942 -0.2590606397541646 0 0.41345304600685079 -0.26440480953867462 0 0.41984775782459283 -0.2623632460968765 0 0.41345304600685079 -0.26440480953867462 0 0.42854038242645709 -0.26281135800815408 0 0.41345304600685079 -0.26440480953867462 0 0.41984775782459283 -0.2623632460968765 0 0.42656562700980838 -0.24831468624349931 0 0.41087794879613182 -0.2494957955088617 0 0.42854038242645709 -0.26281135800815408 0 0.4477486317760534 -0.26078267557717671 0 0.42854038242645709 -0.26281135800815408 0 0.430823863629894 -0.26453285558412298 0 0.41345304600685079 -0.26440480953867462 0 0.42854038242645709 -0.26281135800815408 0 0.430823863629894 -0.26453285558412298 0 0.42854038242645709 -0.26281135800815408 0 0.430823863629894 -0.26453285558412298 0 0.42656562700980838 -0.24831468624349931 0 0.42854038242645709 -0.26281135800815408 0 0.4372088962240912 -0.25169219704383999 0 0.42166373126508722 -0.27984448092147479 0 0.430823863629894 -0.26453285558412298 0 0.43570592202634773 -0.28205449164250063 0 0.42166373126508722 -0.27984448092147479 0 0.43570592202634773 -0.28205449164250063 0 0.42504611560874761 -0.29307714113289868 0 0.43874415768382158 -0.29310671547163403 0 0.43570592202634773 -0.28205449164250063 0 0.42504611560874761 -0.29307714113289868 0 0.43874415768382158 -0.29310671547163403 0 0.42504611560874761 -0.29307714113289868 0 0.43092107089682352 -0.30573631325696571 0 0.41919911313656122 -0.31385112706466711 0 0.43092107089682352 -0.30573631325696571 0 0.41692698488998292 -0.30249561446253759 0 0.42504611560874761 -0.29307714113289868 0 0.43092107089682352 -0.30573631325696571 0 0.41692698488998292 -0.30249561446253759 0 0.41919911313656122 -0.31385112706466711 0 0.41692698488998292 -0.30249561446253759 0 0.40916221757477672 -0.31142054967536659 0 0.40563314249086863 -0.30155395497769039 0 0.41692698488998292 -0.30249561446253759 0 0.40916221757477672 -0.31142054967536659 0 0.40563314249086863 -0.30155395497769039 0 0.41692698488998292 -0.30249561446253759 0 0.41160024963212011 -0.28933460066763711 0 0.42166373126508722 -0.27984448092147479 0 0.42504611560874761 -0.29307714113289868 0 0.41160024963212011 -0.28933460066763711 0 0.42504611560874761 -0.29307714113289868 0 0.41692698488998292 -0.30249561446253759 0 0.41160024963212011 -0.28933460066763711 0 0.5 -0.5 0 0.47532784176218862 -0.47257481327436679 0 0.43264288253940292 -0.48275234633568048 0 0.5 -0.5 0 0.41749257905485199 -0.50000000000000033 0 0.43264288253940292 -0.48275234633568048 0 0.47532784176218862 -0.47257481327436679 0 0.44779318602395363 -0.46550469267136052 0 0.43264288253940292 -0.48275234633568048 0 0.44779318602395363 -0.46550469267136052 0 0.43264288253940292 -0.48275234633568048 0 0.5 -0.5 0 0.47532784176218862 -0.47257481327436679 0 0.49999999999999828 -0.44642064777577001 0 0.47532784176218862 -0.47257481327436679 0 0.47918453573141367 -0.4495963838019249 0 0.46294348950850428 -0.44825703900704061 0 0.47532784176218862 -0.47257481327436679 0 0.49999999999999828 -0.44642064777577001 0 0.47918453573141367 -0.4495963838019249 0 0.49999999999999828 -0.44642064777577001 0 0.47846681165496419 -0.4311330351505217 0 0.49999999999999828 -0.44642064777577001 0 0.47918453573141367 -0.4495963838019249 0 0.47846681165496419 -0.4311330351505217 0 0.47918453573141367 -0.4495963838019249 0 0.46294348950850428 -0.44825703900704061 0 0.47846681165496419 -0.4311330351505217 0 0.46294348950850428 -0.44825703900704061 0 0.44442683605218691 -0.44583817528272968 0 0.45721208074107311 -0.43281318479414382 0 0.46294348950850428 -0.44825703900704061 0 0.44779318602395363 -0.46550469267136052 0 0.47532784176218862 -0.47257481327436679 0 0.46294348950850428 -0.44825703900704061 0 0.44779318602395363 -0.46550469267136052 0 0.44779318602395363 -0.46550469267136052 0 0.44442683605218691 -0.44583817528272968 0 0.43057418754349119 -0.46211781715143319 0 0.46294348950850428 -0.44825703900704061 0 0.44779318602395363 -0.46550469267136052 0 0.44442683605218691 -0.44583817528272968 0 0.44442683605218691 -0.44583817528272968 0 0.44324354583686831 -0.42153379012121539 0 0.45721208074107311 -0.43281318479414382 0 0.44442683605218691 -0.44583817528272968 0 0.44324354583686831 -0.42153379012121539 0 0.42653452723640378 -0.44279137365393179 0 0.44324354583686831 -0.42153379012121539 0 0.45693362330993059 -0.41584542252527262 0 0.45721208074107311 -0.43281318479414382 0 0.45693362330993059 -0.41584542252527262 0 0.4354004349648965 -0.40055780990002432 0 0.44324354583686831 -0.42153379012121539 0 0.45693362330993059 -0.41584542252527262 0 0.4354004349648965 -0.40055780990002432 0 0.45693362330993059 -0.41584542252527262 0 0.46461049463358839 -0.41117161714406408 0 0.47846681165496419 -0.4311330351505217 0 0.45693362330993059 -0.41584542252527262 0 0.46461049463358839 -0.41117161714406408 0 0.45329728287846061 -0.39963099679296588 0 0.46294348950850428 -0.44825703900704061 0 0.45721208074107311 -0.43281318479414382 0 0.47846681165496419 -0.4311330351505217 0 0.45693362330993059 -0.41584542252527262 0 0.45721208074107311 -0.43281318479414382 0 0.47846681165496419 -0.4311330351505217 0 0.45693362330993059 -0.41584542252527262 0 0.47846681165496419 -0.4311330351505217 0 0.49999999999999828 -0.44642064777577001 0 0.47846681165496419 -0.4311330351505217 0 0.5 -0.42181653977348488 0 0.5 -0.42181653977348488 0 0.48394518954555588 -0.41195106762427058 0 0.49999999999999789 -0.3972124317711998 0 0.47846681165496419 -0.4311330351505217 0 0.5 -0.42181653977348488 0 0.48394518954555588 -0.41195106762427058 0 0.46461049463358839 -0.41117161714406408 0 0.47846681165496419 -0.4311330351505217 0 0.48394518954555588 -0.41195106762427058 0 0.46461049463358839 -0.41117161714406408 0 0.48394518954555588 -0.41195106762427058 0 0.47664864143922919 -0.39842171428208217 0 0.47664864143922919 -0.39842171428208217 0 0.47975395238035062 -0.3854291032725421 0 0.46812846895096999 -0.38912968091376021 0 0.47664864143922919 -0.39842171428208217 0 0.49999999999999789 -0.3972124317711998 0 0.48779058149940679 -0.38751051868815611 0 0.48394518954555588 -0.41195106762427058 0 0.47664864143922919 -0.39842171428208217 0 0.49999999999999789 -0.3972124317711998 0 0.47664864143922919 -0.39842171428208217 0 0.49999999999999789 -0.3972124317711998 0 0.5 -0.37037944899495368 0 0.49999999999999789 -0.3972124317711998 0 0.48779058149940679 -0.38751051868815611 0 0.5 -0.37037944899495368 0 0.48466784746851571 -0.3739080713738358 0 0.48779058149940679 -0.38751051868815611 0 0.48466784746851571 -0.3739080713738358 0 0.47975395238035062 -0.3854291032725421 0 0.47323517146124039 -0.38191256761527542 0 0.48466784746851571 -0.3739080713738358 0 0.48779058149940679 -0.38751051868815611 0 0.47975395238035062 -0.3854291032725421 0 0.47664864143922919 -0.39842171428208217 0 0.48779058149940679 -0.38751051868815611 0 0.47975395238035062 -0.3854291032725421 0 0.47975395238035062 -0.3854291032725421 0 0.47323517146124039 -0.38191256761527542 0 0.46812846895096999 -0.38912968091376021 0 0.46918642870160698 -0.38365020197922722 0 0.47323517146124039 -0.38191256761527542 0 0.46812846895096999 -0.38912968091376021 0 0.4671179630262795 -0.37324494563770522 0 0.46918642870160698 -0.38365020197922722 0 0.47323517146124039 -0.38191256761527542 0 0.45652460043480969 -0.37267172771365881 0 0.4671179630262795 -0.37324494563770522 0 0.46918642870160698 -0.38365020197922722 0 0.45652460043480969 -0.37267172771365881 0 0.46918642870160698 -0.38365020197922722 0 0.45652460043480969 -0.37267172771365881 0 0.45606522570456098 -0.38599652494351028 0 0.44783900322824399 -0.38008781189722518 0 0.45652460043480969 -0.37267172771365881 0 0.46918642870160698 -0.38365020197922722 0 0.45606522570456098 -0.38599652494351028 0 0.46918642870160698 -0.38365020197922722 0 0.45606522570456098 -0.38599652494351028 0 0.46812846895096999 -0.38912968091376021 0 0.46461049463358839 -0.41117161714406408 0 0.47664864143922919 -0.39842171428208217 0 0.45329728287846061 -0.39963099679296588 0 0.47664864143922919 -0.39842171428208217 0 0.45329728287846061 -0.39963099679296588 0 0.47664864143922919 -0.39842171428208217 0 0.46812846895096999 -0.38912968091376021 0 0.45329728287846061 -0.39963099679296588 0 0.46461049463358839 -0.41117161714406408 0 0.45329728287846061 -0.39963099679296588 0 0.45606522570456098 -0.38599652494351028 0 0.46812846895096999 -0.38912968091376021 0 0.45329728287846061 -0.39963099679296588 0 0.45693362330993059 -0.41584542252527262 0 0.45329728287846061 -0.39963099679296588 0 0.4354004349648965 -0.40055780990002432 0 0.45329728287846061 -0.39963099679296588 0 0.4354004349648965 -0.40055780990002432 0 0.45329728287846061 -0.39963099679296588 0 0.4390969294492823 -0.3851451998924304 0 0.4354004349648965 -0.40055780990002432 0 0.45329728287846061 -0.39963099679296588 0 0.4390969294492823 -0.3851451998924304 0 0.45606522570456098 -0.38599652494351028 0 0.4390969294492823 -0.3851451998924304 0 0.44783900322824399 -0.38008781189722518 0 0.45606522570456098 -0.38599652494351028 0 0.45329728287846061 -0.39963099679296588 0 0.4390969294492823 -0.3851451998924304 0 0.4390969294492823 -0.3851451998924304 0 0.43808065797110041 -0.37748478958974491 0 0.44783900322824399 -0.38008781189722518 0 0.42782015831496062 -0.38505662608606978 0 0.4354004349648965 -0.40055780990002432 0 0.41188669282555868 -0.38386409155992901 0 0.42489657602010461 -0.37065940299189432 0 0.4390969294492823 -0.3851451998924304 0 0.42782015831496062 -0.38505662608606978 0 0.42489657602010461 -0.37065940299189432 0 0.4390969294492823 -0.3851451998924304 0 0.43808065797110041 -0.37748478958974491 0 0.42489657602010461 -0.37065940299189432 0 0.4390969294492823 -0.3851451998924304 0 0.4390969294492823 -0.3851451998924304 0 0.42782015831496062 -0.38505662608606978 0 0.4354004349648965 -0.40055780990002432 0 0.4354004349648965 -0.40055780990002432 0 0.41188669282555868 -0.38386409155992901 0 0.4354004349648965 -0.40055780990002432 0 0.40669862042327182 -0.40204417319942209 0 0.4354004349648965 -0.40055780990002432 0 0.40669862042327182 -0.40204417319942209 0 0.41188669282555868 -0.38386409155992901 0 0.42489657602010461 -0.37065940299189432 0 0.42782015831496062 -0.38505662608606978 0 0.41188669282555868 -0.38386409155992901 0 0.42489657602010461 -0.37065940299189432 0 0.4070765621089808 -0.37107032214525337 0 0.41188669282555868 -0.38386409155992901 0 0.4070765621089808 -0.37107032214525337 0 0.39585190457779329 -0.37201308858561799 0 0.39886607975096749 -0.38470810625682389 0 0.40669862042327182 -0.40204417319942209 0 0.41188669282555868 -0.38386409155992901 0 0.39886607975096749 -0.38470810625682389 0 0.4070765621089808 -0.37107032214525337 0 0.41188669282555868 -0.38386409155992901 0 0.39886607975096749 -0.38470810625682389 0 0.39585190457779329 -0.37201308858561799 0 0.39886607975096749 -0.38470810625682389 0 0.38601585554704992 -0.38244526212700758 0 0.39886607975096749 -0.38470810625682389 0 0.38601585554704992 -0.38244526212700758 0 0.37799680588164719 -0.40353053649882148 0 0.38601585554704992 -0.38244526212700758 0 0.37799680588164719 -0.40353053649882148 0 0.38601585554704992 -0.38244526212700758 0 0.37799680588164719 -0.40353053649882148 0 0.36816388811638329 -0.39545065246060412 0 0.37799680588164719 -0.40353053649882148 0 0.37635446215448021 -0.40784891206015261 0 0.37799680588164719 -0.40353053649882148 0 0.37505152225636262 -0.40368306209891941 0 0.37635446215448021 -0.40784891206015261 0 0.37799680588164719 -0.40353053649882148 0 0.37505152225636262 -0.40368306209891941 0 0.40669862042327182 -0.40204417319942209 0 0.39886607975096749 -0.38470810625682389 0 0.37799680588164719 -0.40353053649882148 0 0.40669862042327182 -0.40204417319942209 0 0.37799680588164719 -0.40353053649882148 0 0.40669862042327182 -0.40204417319942209 0 0.38553791301154328 -0.41840677215457472 0 0.40567792500840172 -0.4277251834563135 0 0.40669862042327182 -0.40204417319942209 0 0.37799680588164719 -0.40353053649882148 0 0.38553791301154328 -0.41840677215457472 0 0.38553791301154328 -0.41840677215457472 0 0.36905142820508552 -0.42917232846767789 0 0.37241381966677689 -0.417360225696081 0 0.38553791301154328 -0.41840677215457472 0 0.37635446215448021 -0.40784891206015261 0 0.37241381966677689 -0.417360225696081 0 0.37799680588164719 -0.40353053649882148 0 0.38553791301154328 -0.41840677215457472 0 0.37635446215448021 -0.40784891206015261 0 0.38553791301154328 -0.41840677215457472 0 0.38807715457860831 -0.4388905332329941 0 0.36905142820508552 -0.42917232846767789 0 0.38553791301154328 -0.41840677215457472 0 0.40567792500840172 -0.4277251834563135 0 0.38807715457860831 -0.4388905332329941 0 0.40567792500840172 -0.4277251834563135 0 0.42351101069396863 -0.41893046606618117 0 0.42653452723640378 -0.44279137365393179 0 0.4354004349648965 -0.40055780990002432 0 0.40669862042327182 -0.40204417319942209 0 0.42351101069396863 -0.41893046606618117 0 0.40669862042327182 -0.40204417319942209 0 0.40567792500840172 -0.4277251834563135 0 0.42351101069396863 -0.41893046606618117 0 0.44324354583686831 -0.42153379012121539 0 0.4354004349648965 -0.40055780990002432 0 0.42351101069396863 -0.41893046606618117 0 0.44324354583686831 -0.42153379012121539 0 0.42653452723640378 -0.44279137365393179 0 0.44324354583686831 -0.42153379012121539 0 0.42351101069396863 -0.41893046606618117 0 0.42653452723640378 -0.44279137365393179 0 0.44442683605218691 -0.44583817528272968 0 0.42653452723640378 -0.44279137365393179 0 0.43057418754349119 -0.46211781715143319 0 0.42653452723640378 -0.44279137365393179 0 0.43057418754349119 -0.46211781715143319 0 0.40982550863593931 -0.46404895718664829 0 0.42653452723640378 -0.44279137365393179 0 0.40982550863593931 -0.46404895718664829 0 0.42653452723640378 -0.44279137365393179 0 0.40982550863593931 -0.46404895718664829 0 0.4036378289262339 -0.44671034290208689 0 0.40567792500840172 -0.4277251834563135 0 0.42653452723640378 -0.44279137365393179 0 0.4036378289262339 -0.44671034290208689 0 0.40567792500840172 -0.4277251834563135 0 0.4036378289262339 -0.44671034290208689 0 0.38807715457860831 -0.4388905332329941 0 0.4036378289262339 -0.44671034290208689 0 0.38807715457860831 -0.4388905332329941 0 0.38807402917181633 -0.46009566698054732 0 0.38807715457860831 -0.4388905332329941 0 0.3733961412993268 -0.45022493016754961 0 0.36905142820508552 -0.42917232846767789 0 0.38807715457860831 -0.4388905332329941 0 0.38807402917181633 -0.46009566698054732 0 0.3733961412993268 -0.45022493016754961 0 0.38807402917181633 -0.46009566698054732 0 0.36593927904035028 -0.47432204071884282 0 0.3733961412993268 -0.45022493016754961 0 0.40982550863593931 -0.46404895718664829 0 0.4036378289262339 -0.44671034290208689 0 0.38807402917181633 -0.46009566698054732 0 0.40982550863593931 -0.46404895718664829 0 0.39311649003547477 -0.48530654071936469 0 0.40982550863593931 -0.46404895718664829 0 0.38807402917181633 -0.46009566698054732 0 0.39311649003547477 -0.48530654071936469 0 0.38807402917181633 -0.46009566698054732 0 0.39311649003547477 -0.48530654071936469 0 0.36593927904035028 -0.47432204071884282 0 0.37603974257992701 -0.49999999999999978 0 0.39311649003547477 -0.48530654071936469 0 0.36593927904035028 -0.47432204071884282 0 0.37603974257992701 -0.49999999999999978 0 0.39676616081738958 -0.5 0 0.39311649003547477 -0.48530654071936469 0 0.39676616081738958 -0.5 0 0.39311649003547477 -0.48530654071936469 0 0.41749257905485199 -0.50000000000000033 0 0.40982550863593931 -0.46404895718664829 0 0.41749257905485199 -0.50000000000000033 0 0.43264288253940292 -0.48275234633568048 0 0.40982550863593931 -0.46404895718664829 0 0.39311649003547477 -0.48530654071936469 0 0.41749257905485199 -0.50000000000000033 0 0.43057418754349119 -0.46211781715143319 0 0.40982550863593931 -0.46404895718664829 0 0.43264288253940292 -0.48275234633568048 0 0.44779318602395363 -0.46550469267136052 0 0.43057418754349119 -0.46211781715143319 0 0.43264288253940292 -0.48275234633568048 0 0.41749257905485199 -0.50000000000000033 0 0.43264288253940292 -0.48275234633568048 0 0.32215468257820618 -0.5 0 0.33760568703239408 -0.47417818032706111 0 0.31005432530219129 -0.48106067464861729 0 0.33760568703239408 -0.47417818032706111 0 0.3189449745883719 -0.46117016543644002 0 0.31005432530219129 -0.48106067464861729 0 0.32215468257820618 -0.5 0 0.33760568703239408 -0.47417818032706111 0 0.34909721257906662 -0.5 0 0.37603974257992701 -0.49999999999999978 0 0.34909721257906662 -0.5 0 0.36593927904035028 -0.47432204071884282 0 0.37603974257992701 -0.49999999999999978 0 0.36593927904035028 -0.47432204071884282 0 0.33760568703239408 -0.47417818032706111 0 0.34909721257906662 -0.5 0 0.36593927904035028 -0.47432204071884282 0 0.33760568703239408 -0.47417818032706111 0 0.36593927904035028 -0.47432204071884282 0 0.35583881550077368 -0.44864408143768569 0 0.36593927904035028 -0.47432204071884282 0 0.35583881550077368 -0.44864408143768569 0 0.36593927904035028 -0.47432204071884282 0 0.3733961412993268 -0.45022493016754961 0 0.35583881550077368 -0.44864408143768569 0 0.3733961412993268 -0.45022493016754961 0 0.35583881550077368 -0.44864408143768569 0 0.36905142820508552 -0.42917232846767789 0 0.35583881550077368 -0.44864408143768569 0 0.33540415989768779 -0.44905252560006492 0 0.34573835196119679 -0.42296612215652868 0 0.33760568703239408 -0.47417818032706111 0 0.35583881550077368 -0.44864408143768569 0 0.33540415989768779 -0.44905252560006492 0 0.33760568703239408 -0.47417818032706111 0 0.33540415989768779 -0.44905252560006492 0 0.3189449745883719 -0.46117016543644002 0 0.33540415989768779 -0.44905252560006492 0 0.3189449745883719 -0.46117016543644002 0 0.32126124445813709 -0.43429719032362252 0 0.3189449745883719 -0.46117016543644002 0 0.32126124445813709 -0.43429719032362252 0 0.30480654487456732 -0.44641521679941309 0 0.32126124445813709 -0.43429719032362252 0 0.3193156137706864 -0.40941365839269389 0 0.29937418247959258 -0.41817563384508599 0 0.3193156137706864 -0.40941365839269389 0 0.34573835196119679 -0.42296612215652868 0 0.33563788842162012 -0.39728816287537172 0 0.34573835196119679 -0.42296612215652868 0 0.33563788842162012 -0.39728816287537172 0 0.33540415989768779 -0.44905252560006492 0 0.32126124445813709 -0.43429719032362252 0 0.34573835196119679 -0.42296612215652868 0 0.32126124445813709 -0.43429719032362252 0 0.3193156137706864 -0.40941365839269389 0 0.34573835196119679 -0.42296612215652868 0 0.35583881550077368 -0.44864408143768569 0 0.34573835196119679 -0.42296612215652868 0 0.36905142820508552 -0.42917232846767789 0 0.35583881550077368 -0.44864408143768569 0 0.34573835196119679 -0.42296612215652868 0 0.36905142820508552 -0.42917232846767789 0 0.37241381966677689 -0.417360225696081 0 0.36195200988480669 -0.41065981681110758 0 0.36990343230398692 -0.40830781576793279 0 0.37241381966677689 -0.417360225696081 0 0.36195200988480669 -0.41065981681110758 0 0.37635446215448021 -0.40784891206015261 0 0.36990343230398692 -0.40830781576793279 0 0.37241381966677689 -0.417360225696081 0 0.37505152225636262 -0.40368306209891941 0 0.37635446215448021 -0.40784891206015261 0 0.36990343230398692 -0.40830781576793279 0 0.36990343230398692 -0.40830781576793279 0 0.36195200988480669 -0.41065981681110758 0 0.36876771314038492 -0.40452533678464098 0 0.34573835196119679 -0.42296612215652868 0 0.36195200988480669 -0.41065981681110758 0 0.35211107663302149 -0.40015425695529971 0 0.34573835196119679 -0.42296612215652868 0 0.36905142820508552 -0.42917232846767789 0 0.36195200988480669 -0.41065981681110758 0 0.34573835196119679 -0.42296612215652868 0 0.35211107663302149 -0.40015425695529971 0 0.33563788842162012 -0.39728816287537172 0 0.35211107663302149 -0.40015425695529971 0 0.35352794608594401 -0.38791341326287138 0 0.33563788842162012 -0.39728816287537172 0 0.35211107663302149 -0.40015425695529971 0 0.36816388811638329 -0.39545065246060412 0 0.35352794608594401 -0.38791341326287138 0 0.36195200988480669 -0.41065981681110758 0 0.36816388811638329 -0.39545065246060412 0 0.36876771314038492 -0.40452533678464098 0 0.36195200988480669 -0.41065981681110758 0 0.35211107663302149 -0.40015425695529971 0 0.36816388811638329 -0.39545065246060412 0 0.37505152225636262 -0.40368306209891941 0 0.36816388811638329 -0.39545065246060412 0 0.36876771314038492 -0.40452533678464098 0 0.37799680588164719 -0.40353053649882148 0 0.37505152225636262 -0.40368306209891941 0 0.36816388811638329 -0.39545065246060412 0 0.37505152225636262 -0.40368306209891941 0 0.36990343230398692 -0.40830781576793279 0 0.36876771314038492 -0.40452533678464098 0 0.38601585554704992 -0.38244526212700758 0 0.36816388811638329 -0.39545065246060412 0 0.3689120952668708 -0.37284951495870189 0 0.36816388811638329 -0.39545065246060412 0 0.35352794608594401 -0.38791341326287138 0 0.3689120952668708 -0.37284951495870189 0 0.35352794608594401 -0.38791341326287138 0 0.33563788842162012 -0.39728816287537172 0 0.34467783115022588 -0.37252705130409253 0 0.35352794608594401 -0.38791341326287138 0 0.3689120952668708 -0.37284951495870189 0 0.34467783115022588 -0.37252705130409253 0 0.33563788842162012 -0.39728816287537172 0 0.3255374248820434 -0.37161020359421471 0 0.33563788842162012 -0.39728816287537172 0 0.34467783115022588 -0.37252705130409253 0 0.3255374248820434 -0.37161020359421471 0 0.3193156137706864 -0.40941365839269389 0 0.33563788842162012 -0.39728816287537172 0 0.30534853388527528 -0.38930881101125692 0 0.33563788842162012 -0.39728816287537172 0 0.30534853388527528 -0.38930881101125692 0 0.3255374248820434 -0.37161020359421471 0 0.30534853388527528 -0.38930881101125692 0 0.3255374248820434 -0.37161020359421471 0 0.30525369772634148 -0.37164386163485291 0 0.30534853388527528 -0.38930881101125692 0 0.28783989868818821 -0.37644057584389279 0 0.30525369772634148 -0.37164386163485291 0 0.3193156137706864 -0.40941365839269389 0 0.30534853388527528 -0.38930881101125692 0 0.29937418247959258 -0.41817563384508599 0 0.30534853388527528 -0.38930881101125692 0 0.28922044672054198 -0.39637746652331562 0 0.29937418247959258 -0.41817563384508599 0 0.28922044672054198 -0.39637746652331562 0 0.27510086349567708 -0.39798721671617321 0 0.28320928432356041 -0.41012407252970262 0 0.28922044672054198 -0.39637746652331562 0 0.28783989868818821 -0.37644057584389279 0 0.27924907625512951 -0.38731579260330862 0 0.30534853388527528 -0.38930881101125692 0 0.28922044672054198 -0.39637746652331562 0 0.28783989868818821 -0.37644057584389279 0 0.30534853388527528 -0.38930881101125692 0 0.28783989868818821 -0.37644057584389279 0 0.28783989868818821 -0.37644057584389279 0 0.27447250226623809 -0.37821124143188289 0 0.27924907625512951 -0.38731579260330862 0 0.27447250226623809 -0.37821124143188289 0 0.27924907625512951 -0.38731579260330862 0 0.26961167010500181 -0.38756246250127813 0 0.27447250226623809 -0.37821124143188289 0 0.26961167010500181 -0.38756246250127813 0 0.26423397132697279 -0.37890457124200982 0 0.26961167010500181 -0.38756246250127813 0 0.26423397132697279 -0.37890457124200982 0 0.25687819372407023 -0.38903915957053298 0 0.26423397132697279 -0.37890457124200982 0 0.25687819372407023 -0.38903915957053298 0 0.24987622704845311 -0.37613765202982719 0 0.25108303853213881 -0.40002667887407228 0 0.26390234922262928 -0.39930308446362528 0 0.256136481120742 -0.41447562176841068 0 0.25687819372407023 -0.38903915957053298 0 0.25108303853213881 -0.40002667887407228 0 0.24309899287842279 -0.39271330151873202 0 0.25687819372407023 -0.38903915957053298 0 0.25108303853213881 -0.40002667887407228 0 0.26390234922262928 -0.39930308446362528 0 0.26961167010500181 -0.38756246250127813 0 0.25687819372407023 -0.38903915957053298 0 0.26390234922262928 -0.39930308446362528 0 0.26390234922262928 -0.39930308446362528 0 0.27510086349567708 -0.39798721671617321 0 0.2708804648698091 -0.41009655218672442 0 0.26961167010500181 -0.38756246250127813 0 0.26390234922262928 -0.39930308446362528 0 0.27510086349567708 -0.39798721671617321 0 0.28922044672054198 -0.39637746652331562 0 0.27924907625512951 -0.38731579260330862 0 0.27510086349567708 -0.39798721671617321 0 0.27924907625512951 -0.38731579260330862 0 0.26961167010500181 -0.38756246250127813 0 0.27510086349567708 -0.39798721671617321 0 0.27510086349567708 -0.39798721671617321 0 0.2708804648698091 -0.41009655218672442 0 0.28320928432356041 -0.41012407252970262 0 0.2708804648698091 -0.41009655218672442 0 0.256136481120742 -0.41447562176841068 0 0.27433621812851161 -0.42550461519375637 0 0.2708804648698091 -0.41009655218672442 0 0.27433621812851161 -0.42550461519375637 0 0.28320928432356041 -0.41012407252970262 0 0.26390234922262928 -0.39930308446362528 0 0.2708804648698091 -0.41009655218672442 0 0.256136481120742 -0.41447562176841068 0 0.25108303853213881 -0.40002667887407228 0 0.256136481120742 -0.41447562176841068 0 0.24629253832767661 -0.41022035877505542 0 0.256136481120742 -0.41447562176841068 0 0.25513396950241118 -0.43290986753561628 0 0.2453827316299185 -0.42192330194190181 0 0.256136481120742 -0.41447562176841068 0 0.25513396950241118 -0.43290986753561628 0 0.27433621812851161 -0.42550461519375637 0 0.25513396950241118 -0.43290986753561628 0 0.27433621812851161 -0.42550461519375637 0 0.26752346795397081 -0.44788636482661331 0 0.27433621812851161 -0.42550461519375637 0 0.29937418247959258 -0.41817563384508599 0 0.28546596250580908 -0.44246723239800262 0 0.29937418247959258 -0.41817563384508599 0 0.30480654487456732 -0.44641521679941309 0 0.28546596250580908 -0.44246723239800262 0 0.28922044672054198 -0.39637746652331562 0 0.28320928432356041 -0.41012407252970262 0 0.29937418247959258 -0.41817563384508599 0 0.27433621812851161 -0.42550461519375637 0 0.28320928432356041 -0.41012407252970262 0 0.29937418247959258 -0.41817563384508599 0 0.32126124445813709 -0.43429719032362252 0 0.29937418247959258 -0.41817563384508599 0 0.30480654487456732 -0.44641521679941309 0 0.3189449745883719 -0.46117016543644002 0 0.30480654487456732 -0.44641521679941309 0 0.28880919487484108 -0.4658549053918814 0 0.30480654487456732 -0.44641521679941309 0 0.28880919487484108 -0.4658549053918814 0 0.28546596250580908 -0.44246723239800262 0 0.27433621812851161 -0.42550461519375637 0 0.28546596250580908 -0.44246723239800262 0 0.26752346795397081 -0.44788636482661331 0 0.28880919487484108 -0.4658549053918814 0 0.28546596250580908 -0.44246723239800262 0 0.26752346795397081 -0.44788636482661331 0 0.25513396950241118 -0.43290986753561628 0 0.26752346795397081 -0.44788636482661331 0 0.24480843210435321 -0.45079661158300749 0 0.26752346795397081 -0.44788636482661331 0 0.2588368117714554 -0.46700690363883102 0 0.24480843210435321 -0.45079661158300749 0 0.28880919487484108 -0.4658549053918814 0 0.26752346795397081 -0.44788636482661331 0 0.2588368117714554 -0.46700690363883102 0 0.28880919487484108 -0.4658549053918814 0 0.2588368117714554 -0.46700690363883102 0 0.27227655507569209 -0.48076744006000099 0 0.2588368117714554 -0.46700690363883102 0 0.27227655507569209 -0.48076744006000099 0 0.25270961841775552 -0.48460016746525392 0 0.2588368117714554 -0.46700690363883102 0 0.25270961841775552 -0.48460016746525392 0 0.23949561189523169 -0.47426551941090739 0 0.25270961841775552 -0.48460016746525392 0 0.26826962257648529 -0.5 0 0.2413270925756249 -0.5 0 0.27227655507569209 -0.48076744006000099 0 0.25270961841775552 -0.48460016746525392 0 0.26826962257648529 -0.5 0 0.27227655507569209 -0.48076744006000099 0 0.26826962257648529 -0.5 0 0.29521215257734579 -0.5 0 0.28880919487484108 -0.4658549053918814 0 0.27227655507569209 -0.48076744006000099 0 0.29521215257734579 -0.5 0 0.28880919487484108 -0.4658549053918814 0 0.29521215257734579 -0.5 0 0.31005432530219129 -0.48106067464861729 0 0.3189449745883719 -0.46117016543644002 0 0.28880919487484108 -0.4658549053918814 0 0.31005432530219129 -0.48106067464861729 0 0.32215468257820618 -0.5 0 0.29521215257734579 -0.5 0 0.31005432530219129 -0.48106067464861729 0 0.33463237856908817 -0.28956894479377399 0 0.33485830675890288 -0.30442904333306592 0 0.35657459314761941 -0.2860097891906741 0 0.33463237856908817 -0.28956894479377399 0 0.32894302133540282 -0.28710755170783531 0 0.35195887039823659 -0.28200771363307098 0 0.32894302133540282 -0.28710755170783531 0 0.35195887039823659 -0.28200771363307098 0 0.32894302133540282 -0.28710755170783531 0 0.33255663915089151 -0.29722249741805129 0 0.33463237856908817 -0.28956894479377399 0 0.32894302133540282 -0.28710755170783531 0 0.33255663915089151 -0.29722249741805129 0 0.32894302133540282 -0.28710755170783531 0 0.33255663915089151 -0.29722249741805129 0 0.32301709761150521 -0.2972128627914089 0 0.33485830675890288 -0.30442904333306592 0 0.34824447571033601 -0.30253517369681238 0 0.34533870308018377 -0.31598934501886372 0 0.33485830675890288 -0.30442904333306592 0 0.33255663915089151 -0.29722249741805129 0 0.32434770264142349 -0.30499280498860082 0 0.33463237856908817 -0.28956894479377399 0 0.33485830675890288 -0.30442904333306592 0 0.33255663915089151 -0.29722249741805129 0 0.32301709761150521 -0.2972128627914089 0 0.32434770264142349 -0.30499280498860082 0 0.3171485971304504 -0.30589952111326829 0 0.32434770264142349 -0.30499280498860082 0 0.3171485971304504 -0.30589952111326829 0 0.31314202037018413 -0.32284829747545468 0 0.33485830675890288 -0.30442904333306592 0 0.32434770264142349 -0.30499280498860082 0 0.31314202037018413 -0.32284829747545468 0 0.33255663915089151 -0.29722249741805129 0 0.32301709761150521 -0.2972128627914089 0 0.32434770264142349 -0.30499280498860082 0 0.3171485971304504 -0.30589952111326829 0 0.31208952779935789 -0.2908419387292881 0 0.30833746379913463 -0.30503745501229762 0 0.32301709761150521 -0.2972128627914089 0 0.3171485971304504 -0.30589952111326829 0 0.31208952779935789 -0.2908419387292881 0 0.32894302133540282 -0.28710755170783531 0 0.31611371382327402 -0.28007222207304999 0 0.31208952779935789 -0.2908419387292881 0 0.32894302133540282 -0.28710755170783531 0 0.32301709761150521 -0.2972128627914089 0 0.31208952779935789 -0.2908419387292881 0 0.32894302133540282 -0.28710755170783531 0 0.31208952779935789 -0.2908419387292881 0 0.32894302133540282 -0.28710755170783531 0 0.32245882367699719 -0.26895751187574157 0 0.32894302133540282 -0.28710755170783531 0 0.31611371382327402 -0.28007222207304999 0 0.32245882367699719 -0.26895751187574157 0 0.31611371382327402 -0.28007222207304999 0 0.32245882367699719 -0.26895751187574157 0 0.30706455279928557 -0.27339796693147528 0 0.32245882367699719 -0.26895751187574157 0 0.30981211567343969 -0.26250129009931661 0 0.30706455279928557 -0.27339796693147528 0 0.32245882367699719 -0.26895751187574157 0 0.31597462601859122 -0.25080747204364812 0 0.32245882367699719 -0.26895751187574157 0 0.31597462601859122 -0.25080747204364812 0 0.30981211567343969 -0.26250129009931661 0 0.32245882367699719 -0.26895751187574157 0 0.31597462601859122 -0.25080747204364812 0 0.33396674820841349 -0.26640759283836002 0 0.31597462601859122 -0.25080747204364812 0 0.33396674820841349 -0.26640759283836002 0 0.33517615116993849 -0.24743488902137309 0 0.33396674820841349 -0.26640759283836002 0 0.35185333732921159 -0.25428502110151557 0 0.33517615116993849 -0.24743488902137309 0 0.31597462601859122 -0.25080747204364812 0 0.33396674820841349 -0.26640759283836002 0 0.32894302133540282 -0.28710755170783531 0 0.32245882367699719 -0.26895751187574157 0 0.33396674820841349 -0.26640759283836002 0 0.33396674820841349 -0.26640759283836002 0 0.35195887039823659 -0.28200771363307098 0 0.32894302133540282 -0.28710755170783531 0 0.33396674820841349 -0.26640759283836002 0 0.35195887039823659 -0.28200771363307098 0 0.33396674820841349 -0.26640759283836002 0 0.35159414215374007 -0.26901089914998932 0 0.35195887039823659 -0.28200771363307098 0 0.35159414215374007 -0.26901089914998932 0 0.36459381448795669 -0.2792080702757721 0 0.35195887039823659 -0.28200771363307098 0 0.36459381448795669 -0.2792080702757721 0 0.35195887039823659 -0.28200771363307098 0 0.33396674820841349 -0.26640759283836002 0 0.35159414215374007 -0.26901089914998932 0 0.35185333732921159 -0.25428502110151557 0 0.35159414215374007 -0.26901089914998932 0 0.35185333732921159 -0.25428502110151557 0 0.36435388824524378 -0.26651308148643732 0 0.37477580018058132 -0.24095111383496479 0 0.37683953433427181 -0.26882153263446662 0 0.36563983252638571 -0.25462703483095822 0 0.36075586336603621 -0.2426037127049111 0 0.35185333732921159 -0.25428502110151557 0 0.36563983252638571 -0.25462703483095822 0 0.35185333732921159 -0.25428502110151557 0 0.36563983252638571 -0.25462703483095822 0 0.36435388824524378 -0.26651308148643732 0 0.37683953433427181 -0.26882153263446662 0 0.36563983252638571 -0.25462703483095822 0 0.36435388824524378 -0.26651308148643732 0 0.36459381448795669 -0.2792080702757721 0 0.36308990924476459 -0.28048364807874221 0 0.35195887039823659 -0.28200771363307098 0 0.36459381448795669 -0.2792080702757721 0 0.36308990924476459 -0.28048364807874221 0 0.37273728942595791 -0.27740364396778311 0 0.36459381448795669 -0.2792080702757721 0 0.36308990924476459 -0.28048364807874221 0 0.35159414215374007 -0.26901089914998932 0 0.36459381448795669 -0.2792080702757721 0 0.36435388824524378 -0.26651308148643732 0 0.37683953433427181 -0.26882153263446662 0 0.36459381448795669 -0.2792080702757721 0 0.36435388824524378 -0.26651308148643732 0 0.36459381448795669 -0.2792080702757721 0 0.37273728942595791 -0.27740364396778311 0 0.37683953433427181 -0.26882153263446662 0 0.36459381448795669 -0.2792080702757721 0 0.37273728942595791 -0.27740364396778311 0 0.37683953433427181 -0.26882153263446662 0 0.36459381448795669 -0.2792080702757721 0 0.36308990924476459 -0.28048364807874221 0 0.37273728942595791 -0.27740364396778311 0 0.37795999762798671 -0.28395322059410122 0 0.37273728942595791 -0.27740364396778311 0 0.36936745264149701 -0.28627283508716472 0 0.35657459314761941 -0.2860097891906741 0 0.35620629985463748 -0.30371251724464648 0 0.37101427446782781 -0.29852975601036341 0 0.36308990924476459 -0.28048364807874221 0 0.37273728942595791 -0.27740364396778311 0 0.36936745264149701 -0.28627283508716472 0 0.37519981906117678 -0.29055939022370142 0 0.37795999762798671 -0.28395322059410122 0 0.36936745264149701 -0.28627283508716472 0 0.37519981906117678 -0.29055939022370142 0 0.36936745264149701 -0.28627283508716472 0 0.37101427446782781 -0.29852975601036341 0 0.36936745264149701 -0.28627283508716472 0 0.35657459314761941 -0.2860097891906741 0 0.37101427446782781 -0.29852975601036341 0 0.35657459314761941 -0.2860097891906741 0 0.37101427446782781 -0.29852975601036341 0 0.36308990924476459 -0.28048364807874221 0 0.36936745264149701 -0.28627283508716472 0 0.35657459314761941 -0.2860097891906741 0 0.36308990924476459 -0.28048364807874221 0 0.35657459314761941 -0.2860097891906741 0 0.36308990924476459 -0.28048364807874221 0 0.35366972758071469 -0.28349111722646431 0 0.33463237856908817 -0.28956894479377399 0 0.35366972758071469 -0.28349111722646431 0 0.33463237856908817 -0.28956894479377399 0 0.35366972758071469 -0.28349111722646431 0 0.35195887039823659 -0.28200771363307098 0 0.36308990924476459 -0.28048364807874221 0 0.35366972758071469 -0.28349111722646431 0 0.35195887039823659 -0.28200771363307098 0 0.33485830675890288 -0.30442904333306592 0 0.35657459314761941 -0.2860097891906741 0 0.36308990924476459 -0.28048364807874221 0 0.35366972758071469 -0.28349111722646431 0 0.35657459314761941 -0.2860097891906741 0 0.33463237856908817 -0.28956894479377399 0 0.35366972758071469 -0.28349111722646431 0 0.35657459314761941 -0.2860097891906741 0 0.35366972758071469 -0.28349111722646431 0 0.35657459314761941 -0.2860097891906741 0 0.35366972758071469 -0.28349111722646431 0 0.35195887039823659 -0.28200771363307098 0 0.35620629985463748 -0.30371251724464648 0 0.36380134767337091 -0.31365371592763602 0 0.34533870308018377 -0.31598934501886372 0 0.35657459314761941 -0.2860097891906741 0 0.34824447571033601 -0.30253517369681238 0 0.35620629985463748 -0.30371251724464648 0 0.33485830675890288 -0.30442904333306592 0 0.35657459314761941 -0.2860097891906741 0 0.34824447571033601 -0.30253517369681238 0 0.34824447571033601 -0.30253517369681238 0 0.35620629985463748 -0.30371251724464648 0 0.34533870308018377 -0.31598934501886372 0 0.38545395578803499 -0.31104972283005378 0 0.37101427446782781 -0.29852975601036341 0 0.36380134767337091 -0.31365371592763602 0 0.35620629985463748 -0.30371251724464648 0 0.37101427446782781 -0.29852975601036341 0 0.36380134767337091 -0.31365371592763602 0 0.38545395578803499 -0.31104972283005378 0 0.36380134767337091 -0.31365371592763602 0 0.36945761595668469 -0.32738841673247931 0 0.36380134767337091 -0.31365371592763602 0 0.36945761595668469 -0.32738841673247931 0 0.35533723689285712 -0.32525253772940937 0 0.36945761595668469 -0.32738841673247931 0 0.35618710249729552 -0.34088690244721892 0 0.35533723689285712 -0.32525253772940937 0 0.36945761595668469 -0.32738841673247931 0 0.35618710249729552 -0.34088690244721892 0 0.37368731816096312 -0.34897020548070451 0 0.35618710249729552 -0.34088690244721892 0 0.33810128782584858 -0.35072533414536311 0 0.34064131712366241 -0.33181983138849169 0 0.35618710249729552 -0.34088690244721892 0 0.35533723689285712 -0.32525253772940937 0 0.34064131712366241 -0.33181983138849169 0 0.34533870308018377 -0.31598934501886372 0 0.35533723689285712 -0.32525253772940937 0 0.34064131712366241 -0.33181983138849169 0 0.36380134767337091 -0.31365371592763602 0 0.34533870308018377 -0.31598934501886372 0 0.35533723689285712 -0.32525253772940937 0 0.3689120952668708 -0.37284951495870189 0 0.37368731816096312 -0.34897020548070451 0 0.35738528973841999 -0.35772904562383351 0 0.35618710249729552 -0.34088690244721892 0 0.37368731816096312 -0.34897020548070451 0 0.35738528973841999 -0.35772904562383351 0 0.35618710249729552 -0.34088690244721892 0 0.35738528973841999 -0.35772904562383351 0 0.33810128782584858 -0.35072533414536311 0 0.35738528973841999 -0.35772904562383351 0 0.34467783115022588 -0.37252705130409253 0 0.33810128782584858 -0.35072533414536311 0 0.3689120952668708 -0.37284951495870189 0 0.35738528973841999 -0.35772904562383351 0 0.34467783115022588 -0.37252705130409253 0 0.34467783115022588 -0.37252705130409253 0 0.33810128782584858 -0.35072533414536311 0 0.3255374248820434 -0.37161020359421471 0 0.31543696134246668 -0.34593224431305769 0 0.3255374248820434 -0.37161020359421471 0 0.30900602422585888 -0.35865430802761772 0 0.31543696134246668 -0.34593224431305769 0 0.3255374248820434 -0.37161020359421471 0 0.33810128782584858 -0.35072533414536311 0 0.31543696134246668 -0.34593224431305769 0 0.3255374248820434 -0.37161020359421471 0 0.3255374248820434 -0.37161020359421471 0 0.30525369772634148 -0.37164386163485291 0 0.30900602422585888 -0.35865430802761772 0 0.34533870308018377 -0.31598934501886372 0 0.33130220335757699 -0.32186248444176119 0 0.34064131712366241 -0.33181983138849169 0 0.33485830675890288 -0.30442904333306592 0 0.34533870308018377 -0.31598934501886372 0 0.33130220335757699 -0.32186248444176119 0 0.33810128782584858 -0.35072533414536311 0 0.34064131712366241 -0.33181983138849169 0 0.3268430880468266 -0.33457206034663262 0 0.33130220335757699 -0.32186248444176119 0 0.34064131712366241 -0.33181983138849169 0 0.3268430880468266 -0.33457206034663262 0 0.31543696134246668 -0.34593224431305769 0 0.3268430880468266 -0.33457206034663262 0 0.31314202037018413 -0.32284829747545468 0 0.33810128782584858 -0.35072533414536311 0 0.31543696134246668 -0.34593224431305769 0 0.3268430880468266 -0.33457206034663262 0 0.33130220335757699 -0.32186248444176119 0 0.3268430880468266 -0.33457206034663262 0 0.31314202037018413 -0.32284829747545468 0 0.33485830675890288 -0.30442904333306592 0 0.31314202037018413 -0.32284829747545468 0 0.3171485971304504 -0.30589952111326829 0 0.31314202037018413 -0.32284829747545468 0 0.3109911447756647 -0.31350988965823029 0 0.33485830675890288 -0.30442904333306592 0 0.33130220335757699 -0.32186248444176119 0 0.31314202037018413 -0.32284829747545468 0 0.31314202037018413 -0.32284829747545468 0 0.30533649780288991 -0.32025428503190068 0 0.3109911447756647 -0.31350988965823029 0 0.30533649780288991 -0.32025428503190068 0 0.3109911447756647 -0.31350988965823029 0 0.30833746379913463 -0.30503745501229762 0 0.31543696134246668 -0.34593224431305769 0 0.30533649780288991 -0.32025428503190068 0 0.30314188851555429 -0.3464145030398364 0 0.30533649780288991 -0.32025428503190068 0 0.29792146783109758 -0.32077626486014349 0 0.30314188851555429 -0.3464145030398364 0 0.31543696134246668 -0.34593224431305769 0 0.31314202037018413 -0.32284829747545468 0 0.30533649780288991 -0.32025428503190068 0 0.29792146783109758 -0.32077626486014349 0 0.30314188851555429 -0.3464145030398364 0 0.31543696134246668 -0.34593224431305769 0 0.30533649780288991 -0.32025428503190068 0 0.29792146783109758 -0.32077626486014349 0 0.29422135484035322 -0.33366994296298719 0 0.30314188851555429 -0.3464145030398364 0 0.29422135484035322 -0.33366994296298719 0 0.29546103181119637 -0.34185893253319311 0 0.30314188851555429 -0.3464145030398364 0 0.29422135484035322 -0.33366994296298719 0 0.29546103181119637 -0.34185893253319311 0 0.28827175492889229 -0.34275780055790278 0 0.29546103181119637 -0.34185893253319311 0 0.28827175492889229 -0.34275780055790278 0 0.29811044553331972 -0.34650788457159087 0 0.29422135484035322 -0.33366994296298719 0 0.28827175492889229 -0.34275780055790278 0 0.27955848846152698 -0.33666113426449551 0 0.29422135484035322 -0.33366994296298719 0 0.28744860979629389 -0.32474860906702402 0 0.27955848846152698 -0.33666113426449551 0 0.28744860979629389 -0.32474860906702402 0 0.29019889155513462 -0.31620785207956748 0 0.28097437988070417 -0.31138482246715898 0 0.29792146783109758 -0.32077626486014349 0 0.29019889155513462 -0.31620785207956748 0 0.29244758100571983 -0.32385066724243061 0 0.29422135484035322 -0.33366994296298719 0 0.28744860979629389 -0.32474860906702402 0 0.29244758100571983 -0.32385066724243061 0 0.29792146783109758 -0.32077626486014349 0 0.29422135484035322 -0.33366994296298719 0 0.29244758100571983 -0.32385066724243061 0 0.28744860979629389 -0.32474860906702402 0 0.29019889155513462 -0.31620785207956748 0 0.29244758100571983 -0.32385066724243061 0 0.30525369772634148 -0.37164386163485291 0 0.30031449930387721 -0.36082981960256849 0 0.30900602422585888 -0.35865430802761772 0 0.30525369772634148 -0.37164386163485291 0 0.30031449930387721 -0.36082981960256849 0 0.29483415024835152 -0.36747827247447862 0 0.30080593951138668 -0.35381036279877531 0 0.30900602422585888 -0.35865430802761772 0 0.30314188851555429 -0.3464145030398364 0 0.30080593951138668 -0.35381036279877531 0 0.29811044553331972 -0.34650788457159087 0 0.29345683997832372 -0.35664529875226292 0 0.30031449930387721 -0.36082981960256849 0 0.30080593951138668 -0.35381036279877531 0 0.30900602422585888 -0.35865430802761772 0 0.30031449930387721 -0.36082981960256849 0 0.30080593951138668 -0.35381036279877531 0 0.29345683997832372 -0.35664529875226292 0 0.31543696134246668 -0.34593224431305769 0 0.30900602422585888 -0.35865430802761772 0 0.30314188851555429 -0.3464145030398364 0 0.30080593951138668 -0.35381036279877531 0 0.30314188851555429 -0.3464145030398364 0 0.29811044553331972 -0.34650788457159087 0 0.29546103181119637 -0.34185893253319311 0 0.30314188851555429 -0.3464145030398364 0 0.29811044553331972 -0.34650788457159087 0 0.29811044553331972 -0.34650788457159087 0 0.29345683997832372 -0.35664529875226292 0 0.28122462644821988 -0.35688066365974619 0 0.28827175492889229 -0.34275780055790278 0 0.29811044553331972 -0.34650788457159087 0 0.28122462644821988 -0.35688066365974619 0 0.28827175492889229 -0.34275780055790278 0 0.28122462644821988 -0.35688066365974619 0 0.27955848846152698 -0.33666113426449551 0 0.29811044553331972 -0.34650788457159087 0 0.28122462644821988 -0.35688066365974619 0 0.29345683997832372 -0.35664529875226292 0 0.28676543400443838 -0.36101512068260139 0 0.28122462644821988 -0.35688066365974619 0 0.28676543400443838 -0.36101512068260139 0 0.28122462644821988 -0.35688066365974619 0 0.28783989868818821 -0.37644057584389279 0 0.30525369772634148 -0.37164386163485291 0 0.29483415024835152 -0.36747827247447862 0 0.28783989868818821 -0.37644057584389279 0 0.28676543400443838 -0.36101512068260139 0 0.27033126349110148 -0.36357234067652822 0 0.29357505063040601 -0.36145191270551408 0 0.28676543400443838 -0.36101512068260139 0 0.29483415024835152 -0.36747827247447862 0 0.30031449930387721 -0.36082981960256849 0 0.29357505063040601 -0.36145191270551408 0 0.29483415024835152 -0.36747827247447862 0 0.30031449930387721 -0.36082981960256849 0 0.29345683997832372 -0.35664529875226292 0 0.29357505063040601 -0.36145191270551408 0 0.29345683997832372 -0.35664529875226292 0 0.29357505063040601 -0.36145191270551408 0 0.28676543400443838 -0.36101512068260139 0 0.28783989868818821 -0.37644057584389279 0 0.28676543400443838 -0.36101512068260139 0 0.29483415024835152 -0.36747827247447862 0 0.28783989868818821 -0.37644057584389279 0 0.27033126349110148 -0.36357234067652822 0 0.28783989868818821 -0.37644057584389279 0 0.27447250226623809 -0.37821124143188289 0 0.27033126349110148 -0.36357234067652822 0 0.28676543400443838 -0.36101512068260139 0 0.27033126349110148 -0.36357234067652822 0 0.28122462644821988 -0.35688066365974619 0 0.27447250226623809 -0.37821124143188289 0 0.26423397132697279 -0.37890457124200982 0 0.27033126349110148 -0.36357234067652822 0 0.27033126349110148 -0.36357234067652822 0 0.28122462644821988 -0.35688066365974619 0 0.28122462644821988 -0.35688066365974619 0 0.26082083375001269 -0.34165569813656432 0 0.27033126349110148 -0.36357234067652822 0 0.28122462644821988 -0.35688066365974619 0 0.26082083375001269 -0.34165569813656432 0 0.28122462644821988 -0.35688066365974619 0 0.27955848846152698 -0.33666113426449551 0 0.26082083375001269 -0.34165569813656432 0 0.27033126349110148 -0.36357234067652822 0 0.25099839141978419 -0.34936335514031408 0 0.27033126349110148 -0.36357234067652822 0 0.25099839141978419 -0.34936335514031408 0 0.26082083375001269 -0.34165569813656432 0 0.27033126349110148 -0.36357234067652822 0 0.25099839141978419 -0.34936335514031408 0 0.24534349961555019 -0.36253701182870851 0 0.26423397132697279 -0.37890457124200982 0 0.27033126349110148 -0.36357234067652822 0 0.24987622704845311 -0.37613765202982719 0 0.27033126349110148 -0.36357234067652822 0 0.24534349961555019 -0.36253701182870851 0 0.24987622704845311 -0.37613765202982719 0 0.27033126349110148 -0.36357234067652822 0 0.24987622704845311 -0.37613765202982719 0 0.28744860979629389 -0.32474860906702402 0 0.26598899428458778 -0.32103793389256657 0 0.27955848846152698 -0.33666113426449551 0 0.28744860979629389 -0.32474860906702402 0 0.26598899428458778 -0.32103793389256657 0 0.28097437988070417 -0.31138482246715898 0 0.26598899428458778 -0.32103793389256657 0 0.27955848846152698 -0.33666113426449551 0 0.26082083375001269 -0.34165569813656432 0 0.26082083375001269 -0.34165569813656432 0 0.2404170410518052 -0.32643073261338312 0 0.26598899428458778 -0.32103793389256657 0 0.26082083375001269 -0.34165569813656432 0 0.2404170410518052 -0.32643073261338312 0 0.25099839141978419 -0.34936335514031408 0 0.26082083375001269 -0.34165569813656432 0 0.2404170410518052 -0.32643073261338312 0 0.26598899428458778 -0.32103793389256657 0 0.24423538898563429 -0.30587701823941071 0 0.2404170410518052 -0.32643073261338312 0 0.26846821806613752 -0.30050752245993012 0 0.24423538898563429 -0.30587701823941071 0 0.25301376652256202 -0.2892367573709661 0 0.26846821806613752 -0.30050752245993012 0 0.24423538898563429 -0.30587701823941071 0 0.26598899428458778 -0.32103793389256657 0 0.26846821806613752 -0.30050752245993012 0 0.24423538898563429 -0.30587701823941071 0 0.25301376652256202 -0.2892367573709661 0 0.26500420865911251 -0.28331687632378699 0 0.26846821806613752 -0.30050752245993012 0 0.25301376652256202 -0.2892367573709661 0 0.26500420865911251 -0.28331687632378699 0 0.2507153324002197 -0.27704953531328702 0 0.26500420865911251 -0.28331687632378699 0 0.27805302037335089 -0.28584974436810762 0 0.26846821806613752 -0.30050752245993012 0 0.27805302037335089 -0.28584974436810762 0 0.26846821806613752 -0.30050752245993012 0 0.29270104714664102 -0.29513802668045069 0 0.26500420865911251 -0.28331687632378699 0 0.27805302037335089 -0.28584974436810762 0 0.27342558025451552 -0.27498979272208851 0 0.26598899428458778 -0.32103793389256657 0 0.26846821806613752 -0.30050752245993012 0 0.28097437988070417 -0.31138482246715898 0 0.26846821806613752 -0.30050752245993012 0 0.28097437988070417 -0.31138482246715898 0 0.29270104714664102 -0.29513802668045069 0 0.26846821806613752 -0.30050752245993012 0 0.29270104714664102 -0.29513802668045069 0 0.29792146783109758 -0.32077626486014349 0 0.29270104714664102 -0.29513802668045069 0 0.29019889155513462 -0.31620785207956748 0 0.28097437988070417 -0.31138482246715898 0 0.29270104714664102 -0.29513802668045069 0 0.29792146783109758 -0.32077626486014349 0 0.29019889155513462 -0.31620785207956748 0 0.29270104714664102 -0.29513802668045069 0 0.29792146783109758 -0.32077626486014349 0 0.29270104714664102 -0.29513802668045069 0 0.29523603426331357 -0.29457632575074338 0 0.27805302037335089 -0.28584974436810762 0 0.29026987947112831 -0.28319821192468808 0 0.29270104714664102 -0.29513802668045069 0 0.27805302037335089 -0.28584974436810762 0 0.29026987947112831 -0.28319821192468808 0 0.28863308206368682 -0.27515966401439529 0 0.29026987947112831 -0.28319821192468808 0 0.29523603426331357 -0.29457632575074338 0 0.29026987947112831 -0.28319821192468808 0 0.29523603426331357 -0.29457632575074338 0 0.30320790951940702 -0.28313078900162059 0 0.29026987947112831 -0.28319821192468808 0 0.29270104714664102 -0.29513802668045069 0 0.29523603426331357 -0.29457632575074338 0 0.29026987947112831 -0.28319821192468808 0 0.29270104714664102 -0.29513802668045069 0 0.29270104714664102 -0.29513802668045069 0 0.29523603426331357 -0.29457632575074338 0 0.29523603426331357 -0.29457632575074338 0 0.31208952779935789 -0.2908419387292881 0 0.29523603426331357 -0.29457632575074338 0 0.30320790951940702 -0.28313078900162059 0 0.31208952779935789 -0.2908419387292881 0 0.29523603426331357 -0.29457632575074338 0 0.31208952779935789 -0.2908419387292881 0 0.30833746379913463 -0.30503745501229762 0 0.31611371382327402 -0.28007222207304999 0 0.30320790951940702 -0.28313078900162059 0 0.31208952779935789 -0.2908419387292881 0 0.30533649780288991 -0.32025428503190068 0 0.29523603426331357 -0.29457632575074338 0 0.30833746379913463 -0.30503745501229762 0 0.30533649780288991 -0.32025428503190068 0 0.29792146783109758 -0.32077626486014349 0 0.29523603426331357 -0.29457632575074338 0 0.30533649780288991 -0.32025428503190068 0 0.29523603426331357 -0.29457632575074338 0 0.3171485971304504 -0.30589952111326829 0 0.3109911447756647 -0.31350988965823029 0 0.30833746379913463 -0.30503745501229762 0 0.29812220868357159 -0.26533402464574418 0 0.30111904597271899 -0.2536098058489899 0 0.30981211567343969 -0.26250129009931661 0 0.31597462601859122 -0.25080747204364812 0 0.30111904597271899 -0.2536098058489899 0 0.30981211567343969 -0.26250129009931661 0 0.29812220868357159 -0.26533402464574418 0 0.30981211567343969 -0.26250129009931661 0 0.30706455279928557 -0.27339796693147528 0 0.31611371382327402 -0.28007222207304999 0 0.30320790951940702 -0.28313078900162059 0 0.30706455279928557 -0.27339796693147528 0 0.29026987947112831 -0.28319821192468808 0 0.30320790951940702 -0.28313078900162059 0 0.29755036247591721 -0.27602563541609298 0 0.30320790951940702 -0.28313078900162059 0 0.30706455279928557 -0.27339796693147528 0 0.29755036247591721 -0.27602563541609298 0 0.29812220868357159 -0.26533402464574418 0 0.30706455279928557 -0.27339796693147528 0 0.29755036247591721 -0.27602563541609298 0 0.29812220868357159 -0.26533402464574418 0 0.29755036247591721 -0.27602563541609298 0 0.28863308206368682 -0.27515966401439529 0 0.29026987947112831 -0.28319821192468808 0 0.28863308206368682 -0.27515966401439529 0 0.29026987947112831 -0.28319821192468808 0 0.29755036247591721 -0.27602563541609298 0 0.28863308206368682 -0.27515966401439529 0 0.28863308206368682 -0.27515966401439529 0 0.28456511698073272 -0.25518130134833977 0 0.29812220868357159 -0.26533402464574418 0 0.28863308206368682 -0.27515966401439529 0 0.28456511698073272 -0.25518130134833977 0 0.29812220868357159 -0.26533402464574418 0 0.30111904597271899 -0.2536098058489899 0 0.28456511698073272 -0.25518130134833977 0 0.28863308206368682 -0.27515966401439529 0 0.28456511698073272 -0.25518130134833977 0 0.27223885194073971 -0.26265851400849172 0 0.28456511698073272 -0.25518130134833977 0 0.27223885194073971 -0.26265851400849172 0 0.26629969424128969 -0.25192769388052821 0 0.27223885194073971 -0.26265851400849172 0 0.26629969424128969 -0.25192769388052821 0 0.2629172406837702 -0.26740365320709081 0 0.26500420865911251 -0.28331687632378699 0 0.27342558025451552 -0.27498979272208851 0 0.2629172406837702 -0.26740365320709081 0 0.28863308206368682 -0.27515966401439529 0 0.27223885194073971 -0.26265851400849172 0 0.27342558025451552 -0.27498979272208851 0 0.27805302037335089 -0.28584974436810762 0 0.28863308206368682 -0.27515966401439529 0 0.27342558025451552 -0.27498979272208851 0 0.27223885194073971 -0.26265851400849172 0 0.27342558025451552 -0.27498979272208851 0 0.2629172406837702 -0.26740365320709081 0 0.26500420865911251 -0.28331687632378699 0 0.2629172406837702 -0.26740365320709081 0 0.2507153324002197 -0.27704953531328702 0 0.2629172406837702 -0.26740365320709081 0 0.2507153324002197 -0.27704953531328702 0 0.2466218950091964 -0.26012473444713258 0 0.25037283077400019 -0.2416092145933311 0 0.26629969424128969 -0.25192769388052821 0 0.2466218950091964 -0.26012473444713258 0 0.26629969424128969 -0.25192769388052821 0 0.2629172406837702 -0.26740365320709081 0 0.2466218950091964 -0.26012473444713258 0 0.25037283077400019 -0.2416092145933311 0 0.2466218950091964 -0.26012473444713258 0 0.2339549802858914 -0.24933471903745599 0 0.2466218950091964 -0.26012473444713258 0 0.22717476572977791 -0.26325637954660608 0 0.2339549802858914 -0.24933471903745599 0 0.2466218950091964 -0.26012473444713258 0 0.23628574795648369 -0.27498419313581679 0 0.22717476572977791 -0.26325637954660608 0 0.2507153324002197 -0.27704953531328702 0 0.2466218950091964 -0.26012473444713258 0 0.23628574795648369 -0.27498419313581679 0 0.2507153324002197 -0.27704953531328702 0 0.23628574795648369 -0.27498419313581679 0 0.24044913557019401 -0.28723099739492908 0 0.2247339410531527 -0.27667652802353632 0 0.21554844428562811 -0.26491471108287651 0 0.21653111649902579 -0.28712771180040292 0 0.23628574795648369 -0.27498419313581679 0 0.2247339410531527 -0.27667652802353632 0 0.22717476572977791 -0.26325637954660608 0 0.2247339410531527 -0.27667652802353632 0 0.22717476572977791 -0.26325637954660608 0 0.21554844428562811 -0.26491471108287651 0 0.22717476572977791 -0.26325637954660608 0 0.22331750647786899 -0.25281133177650322 0 0.2339549802858914 -0.24933471903745599 0 0.22717476572977791 -0.26325637954660608 0 0.22331750647786899 -0.25281133177650322 0 0.21554844428562811 -0.26491471108287651 0 0.2084475354763706 -0.25511513831035743 0 0.21554844428562811 -0.26491471108287651 0 0.1982966667633215 -0.26354120971092698 0 0.21554844428562811 -0.26491471108287651 0 0.21456577207223029 -0.24270171036535029 0 0.22331750647786899 -0.25281133177650322 0 0.21554844428562811 -0.26491471108287651 0 0.21456577207223029 -0.24270171036535029 0 0.2084475354763706 -0.25511513831035743 0 0.21554844428562811 -0.26491471108287651 0 0.21336353465090491 -0.24693864317134839 0 0.21554844428562811 -0.26491471108287651 0 0.21336353465090491 -0.24693864317134839 0 0.21456577207223029 -0.24270171036535029 0 0.2084475354763706 -0.25511513831035743 0 0.1982966667633215 -0.26354120971092698 0 0.2080714594183444 -0.2424179483002232 0 0.1982966667633215 -0.26354120971092698 0 0.2080714594183444 -0.2424179483002232 0 0.21554844428562811 -0.26491471108287651 0 0.21653111649902579 -0.28712771180040292 0 0.21554844428562811 -0.26491471108287651 0 0.20859607852913339 -0.28093905456482821 0 0.21653111649902579 -0.28712771180040292 0 0.21554844428562811 -0.26491471108287651 0 0.20859607852913339 -0.28093905456482821 0 0.2011380539128553 -0.27767933622792518 0 0.21554844428562811 -0.26491471108287651 0 0.2011380539128553 -0.27767933622792518 0 0.1982966667633215 -0.26354120971092698 0 0.1982966667633215 -0.26354120971092698 0 0.18852187410829821 -0.28466447112163068 0 0.1982966667633215 -0.26354120971092698 0 0.18852187410829821 -0.28466447112163068 0 0.1845366839674035 -0.26640487959885623 0 0.2011380539128553 -0.27767933622792518 0 0.1982966667633215 -0.26354120971092698 0 0.18852187410829821 -0.28466447112163068 0 0.1982966667633215 -0.26354120971092698 0 0.2080714594183444 -0.2424179483002232 0 0.19254414318066221 -0.24961624770678509 0 0.1982966667633215 -0.26354120971092698 0 0.18706352147094041 -0.25756661524031438 0 0.1845366839674035 -0.26640487959885623 0 0.1982966667633215 -0.26354120971092698 0 0.18706352147094041 -0.25756661524031438 0 0.19254414318066221 -0.24961624770678509 0 0.18706352147094041 -0.25756661524031438 0 0.19254414318066221 -0.24961624770678509 0 0.18399505531774341 -0.24981832115951039 0 0.20249447748908611 -0.29813355613580778 0 0.1976485991634879 -0.30796138879627621 0 0.19462594870140809 -0.30164723750547567 0 0.20249447748908611 -0.29813355613580778 0 0.19462594870140809 -0.30164723750547567 0 0.19392418081794471 -0.29575522021664652 0 0.20249447748908611 -0.29813355613580778 0 0.1976485991634879 -0.30796138879627621 0 0.20782414549410869 -0.30817847155873718 0 0.1976485991634879 -0.30796138879627621 0 0.20782414549410869 -0.30817847155873718 0 0.20282381327660201 -0.31505297042611552 0 0.1976485991634879 -0.30796138879627621 0 0.19009702279388629 -0.3064242775921906 0 0.18802618722583669 -0.31833181955932999 0 0.1976485991634879 -0.30796138879627621 0 0.19009702279388629 -0.3064242775921906 0 0.19462594870140809 -0.30164723750547567 0 0.19009702279388629 -0.3064242775921906 0 0.19462594870140809 -0.30164723750547567 0 0.1880606218677118 -0.30022154946313712 0 0.19462594870140809 -0.30164723750547567 0 0.19110113081553529 -0.29631368747161629 0 0.19392418081794471 -0.29575522021664652 0 0.1880606218677118 -0.30022154946313712 0 0.19110113081553529 -0.29631368747161629 0 0.18734834214976739 -0.29514628785519947 0 0.19462594870140809 -0.30164723750547567 0 0.1880606218677118 -0.30022154946313712 0 0.19110113081553529 -0.29631368747161629 0 0.20249447748908611 -0.29813355613580778 0 0.18747516626574931 -0.28692639975368628 0 0.20249447748908611 -0.29813355613580778 0 0.19392418081794471 -0.29575522021664652 0 0.18747516626574931 -0.28692639975368628 0 0.19110113081553529 -0.29631368747161629 0 0.19392418081794471 -0.29575522021664652 0 0.18747516626574931 -0.28692639975368628 0 0.19110113081553529 -0.29631368747161629 0 0.18747516626574931 -0.28692639975368628 0 0.18734834214976739 -0.29514628785519947 0 0.18852187410829821 -0.28466447112163068 0 0.19787122383615691 -0.29172525818392958 0 0.18852187410829821 -0.28466447112163068 0 0.19731262536099689 -0.28481999283041842 0 0.19787122383615691 -0.29172525818392958 0 0.18852187410829821 -0.28466447112163068 0 0.19787122383615691 -0.29172525818392958 0 0.18747516626574931 -0.28692639975368628 0 0.18852187410829821 -0.28466447112163068 0 0.18747516626574931 -0.28692639975368628 0 0.2011380539128553 -0.27767933622792518 0 0.18852187410829821 -0.28466447112163068 0 0.19731262536099689 -0.28481999283041842 0 0.201719349586677 -0.2852109057881882 0 0.19787122383615691 -0.29172525818392958 0 0.206049533411369 -0.28982701925762389 0 0.19731262536099689 -0.28481999283041842 0 0.201719349586677 -0.2852109057881882 0 0.19787122383615691 -0.29172525818392958 0 0.2011380539128553 -0.27767933622792518 0 0.19731262536099689 -0.28481999283041842 0 0.201719349586677 -0.2852109057881882 0 0.20249447748908611 -0.29813355613580778 0 0.19787122383615691 -0.29172525818392958 0 0.18747516626574931 -0.28692639975368628 0 0.20249447748908611 -0.29813355613580778 0 0.19787122383615691 -0.29172525818392958 0 0.206049533411369 -0.28982701925762389 0 0.20249447748908611 -0.29813355613580778 0 0.206049533411369 -0.28982701925762389 0 0.20903552332543929 -0.29406903275804652 0 0.206049533411369 -0.28982701925762389 0 0.20903552332543929 -0.29406903275804652 0 0.21653111649902579 -0.28712771180040292 0 0.20249447748908611 -0.29813355613580778 0 0.20903552332543929 -0.29406903275804652 0 0.2123558614978226 -0.29827812898856709 0 0.20859607852913339 -0.28093905456482821 0 0.206049533411369 -0.28982701925762389 0 0.21653111649902579 -0.28712771180040292 0 0.20859607852913339 -0.28093905456482821 0 0.201719349586677 -0.2852109057881882 0 0.206049533411369 -0.28982701925762389 0 0.20859607852913339 -0.28093905456482821 0 0.2011380539128553 -0.27767933622792518 0 0.201719349586677 -0.2852109057881882 0 0.20903552332543929 -0.29406903275804652 0 0.21653111649902579 -0.28712771180040292 0 0.2123558614978226 -0.29827812898856709 0 0.21653111649902579 -0.28712771180040292 0 0.2175137887124228 -0.30934071251792922 0 0.21653111649902579 -0.28712771180040292 0 0.2123558614978226 -0.29827812898856709 0 0.2175137887124228 -0.30934071251792922 0 0.20249447748908611 -0.29813355613580778 0 0.2123558614978226 -0.29827812898856709 0 0.2175137887124228 -0.30934071251792922 0 0.20249447748908611 -0.29813355613580778 0 0.2175137887124228 -0.30934071251792922 0 0.20782414549410869 -0.30817847155873718 0 0.2176214393273678 -0.31177412129290383 0 0.20282381327660201 -0.31505297042611552 0 0.20249447748908611 -0.29813355613580778 0 0.20782414549410869 -0.30817847155873718 0 0.2175137887124228 -0.30934071251792922 0 0.20782414549410869 -0.30817847155873718 0 0.2175137887124228 -0.30934071251792922 0 0.2176214393273678 -0.31177412129290383 0 0.2175137887124228 -0.30934071251792922 0 0.2176214393273678 -0.31177412129290383 0 0.2175137887124228 -0.30934071251792922 0 0.2176214393273678 -0.31177412129290383 0 0.21999804566891551 -0.31122614102315033 0 0.21999804566891551 -0.31122614102315033 0 0.24423538898563429 -0.30587701823941071 0 0.2175137887124228 -0.30934071251792922 0 0.21999804566891551 -0.31122614102315033 0 0.22812963079484819 -0.29309964455197901 0 0.21999804566891551 -0.31122614102315033 0 0.22812963079484819 -0.29309964455197901 0 0.21999804566891551 -0.31122614102315033 0 0.22812963079484819 -0.29309964455197901 0 0.24423538898563429 -0.30587701823941071 0 0.2176214393273678 -0.31177412129290383 0 0.21999804566891551 -0.31122614102315033 0 0.2175137887124228 -0.30934071251792922 0 0.21999804566891551 -0.31122614102315033 0 0.23628574795648369 -0.27498419313581679 0 0.22812963079484819 -0.29309964455197901 0 0.2247339410531527 -0.27667652802353632 0 0.21653111649902579 -0.28712771180040292 0 0.22812963079484819 -0.29309964455197901 0 0.23628574795648369 -0.27498419313581679 0 0.2247339410531527 -0.27667652802353632 0 0.22812963079484819 -0.29309964455197901 0 0.21653111649902579 -0.28712771180040292 0 0.2175137887124228 -0.30934071251792922 0 0.22812963079484819 -0.29309964455197901 0 0.23628574795648369 -0.27498419313581679 0 0.22812963079484819 -0.29309964455197901 0 0.24044913557019401 -0.28723099739492908 0 0.25301376652256202 -0.2892367573709661 0 0.24044913557019401 -0.28723099739492908 0 0.24423538898563429 -0.30587701823941071 0 0.22812963079484819 -0.29309964455197901 0 0.24044913557019401 -0.28723099739492908 0 0.24423538898563429 -0.30587701823941071 0 0.25301376652256202 -0.2892367573709661 0 0.2507153324002197 -0.27704953531328702 0 0.24044913557019401 -0.28723099739492908 0 0.21999804566891551 -0.31122614102315033 0 0.24423538898563429 -0.30587701823941071 0 0.2404170410518052 -0.32643073261338312 0 0.25099839141978419 -0.34936335514031408 0 0.2316655193484673 -0.33515436960409939 0 0.25099839141978419 -0.34936335514031408 0 0.2404170410518052 -0.32643073261338312 0 0.2316655193484673 -0.33515436960409939 0 0.2404170410518052 -0.32643073261338312 0 0.2316655193484673 -0.33515436960409939 0 0.2247705650129608 -0.32491873692320528 0 0.2316655193484673 -0.33515436960409939 0 0.22208049410379579 -0.34309390150507102 0 0.22867514261462599 -0.34782526071452929 0 0.2316655193484673 -0.33515436960409939 0 0.22208049410379579 -0.34309390150507102 0 0.220555537226792 -0.33578323097752499 0 0.22208049410379579 -0.34309390150507102 0 0.220555537226792 -0.33578323097752499 0 0.21451162402718699 -0.34512658597487872 0 0.220555537226792 -0.33578323097752499 0 0.2247705650129608 -0.32491873692320528 0 0.21820242441149371 -0.32490710899175251 0 0.2316655193484673 -0.33515436960409939 0 0.220555537226792 -0.33578323097752499 0 0.2247705650129608 -0.32491873692320528 0 0.21999804566891551 -0.31122614102315033 0 0.2404170410518052 -0.32643073261338312 0 0.2247705650129608 -0.32491873692320528 0 0.21999804566891551 -0.31122614102315033 0 0.2404170410518052 -0.32643073261338312 0 0.2247705650129608 -0.32491873692320528 0 0.21780935440599439 -0.31602188338433101 0 0.21820242441149371 -0.32490710899175251 0 0.21999804566891551 -0.31122614102315033 0 0.2247705650129608 -0.32491873692320528 0 0.21780935440599439 -0.31602188338433101 0 0.21999804566891551 -0.31122614102315033 0 0.21780935440599439 -0.31602188338433101 0 0.23679608458568241 -0.3713456781615978 0 0.24534349961555019 -0.36253701182870851 0 0.24987622704845311 -0.37613765202982719 0 0.23679608458568241 -0.3713456781615978 0 0.24534349961555019 -0.36253701182870851 0 0.23133102347449649 -0.35950822589080189 0 0.25099839141978419 -0.34936335514031408 0 0.2316655193484673 -0.33515436960409939 0 0.23760271529458479 -0.35087764463569071 0 0.24534349961555019 -0.36253701182870851 0 0.23760271529458479 -0.35087764463569071 0 0.23133102347449649 -0.35950822589080189 0 0.25099839141978419 -0.34936335514031408 0 0.24534349961555019 -0.36253701182870851 0 0.23760271529458479 -0.35087764463569071 0 0.2316655193484673 -0.33515436960409939 0 0.23760271529458479 -0.35087764463569071 0 0.22867514261462599 -0.34782526071452929 0 0.22208049410379579 -0.34309390150507102 0 0.22076837523631451 -0.35267920974236072 0 0.21451162402718699 -0.34512658597487872 0 0.22208049410379579 -0.34309390150507102 0 0.22867514261462599 -0.34782526071452929 0 0.22076837523631451 -0.35267920974236072 0 0.22076837523631451 -0.35267920974236072 0 0.22341137818785181 -0.36337688942730773 0 0.21609027172906259 -0.36087537471117581 0 0.22076837523631451 -0.35267920974236072 0 0.23133102347449649 -0.35950822589080189 0 0.22341137818785181 -0.36337688942730773 0 0.22867514261462599 -0.34782526071452929 0 0.22076837523631451 -0.35267920974236072 0 0.23133102347449649 -0.35950822589080189 0 0.23760271529458479 -0.35087764463569071 0 0.22867514261462599 -0.34782526071452929 0 0.23133102347449649 -0.35950822589080189 0 0.23133102347449649 -0.35950822589080189 0 0.22341137818785181 -0.36337688942730773 0 0.22699371624108439 -0.37103399677892651 0 0.22341137818785181 -0.36337688942730773 0 0.22699371624108439 -0.37103399677892651 0 0.21663927632257499 -0.37152038636996992 0 0.22699371624108439 -0.37103399677892651 0 0.21663927632257499 -0.37152038636996992 0 0.22189277223980711 -0.38054577212349588 0 0.23679608458568241 -0.3713456781615978 0 0.22699371624108439 -0.37103399677892651 0 0.23010576568282681 -0.37607478874810818 0 0.23679608458568241 -0.3713456781615978 0 0.23133102347449649 -0.35950822589080189 0 0.22699371624108439 -0.37103399677892651 0 0.21663927632257499 -0.37152038636996992 0 0.20683644217058031 -0.36558797855932218 0 0.20576161095015591 -0.37595213443190167 0 0.22341137818785181 -0.36337688942730773 0 0.21663927632257499 -0.37152038636996992 0 0.21609027172906259 -0.36087537471117581 0 0.21609027172906259 -0.36087537471117581 0 0.20683644217058031 -0.36558797855932218 0 0.21089823393406021 -0.35324530101306001 0 0.21663927632257499 -0.37152038636996992 0 0.21609027172906259 -0.36087537471117581 0 0.20683644217058031 -0.36558797855932218 0 0.19940837682496099 -0.35689206815154528 0 0.20777431361625601 -0.33831058893907762 0 0.21089823393406021 -0.35324530101306001 0 0.19940837682496099 -0.35689206815154528 0 0.20777431361625601 -0.33831058893907762 0 0.20683644217058031 -0.36558797855932218 0 0.21089823393406021 -0.35324530101306001 0 0.19940837682496099 -0.35689206815154528 0 0.22076837523631451 -0.35267920974236072 0 0.21609027172906259 -0.36087537471117581 0 0.21089823393406021 -0.35324530101306001 0 0.21089823393406021 -0.35324530101306001 0 0.21451162402718699 -0.34512658597487872 0 0.20777431361625601 -0.33831058893907762 0 0.22076837523631451 -0.35267920974236072 0 0.21089823393406021 -0.35324530101306001 0 0.21451162402718699 -0.34512658597487872 0 0.1971616983813648 -0.34495631128618592 0 0.19940837682496099 -0.35689206815154528 0 0.20777431361625601 -0.33831058893907762 0 0.1971616983813648 -0.34495631128618592 0 0.18787137947787569 -0.35180034780069419 0 0.18864170350563411 -0.33720407153827198 0 0.1971616983813648 -0.34495631128618592 0 0.18787137947787569 -0.35180034780069419 0 0.19940837682496099 -0.35689206815154528 0 0.20683644217058031 -0.36558797855932218 0 0.20576161095015591 -0.37595213443190167 0 0.1910424400336663 -0.37547354736401328 0 0.18787137947787569 -0.35180034780069419 0 0.19940837682496099 -0.35689206815154528 0 0.1910424400336663 -0.37547354736401328 0 0.19940837682496099 -0.35689206815154528 0 0.1910424400336663 -0.37547354736401328 0 0.20683644217058031 -0.36558797855932218 0 0.19940837682496099 -0.35689206815154528 0 0.1910424400336663 -0.37547354736401328 0 0.21780935440599439 -0.31602188338433101 0 0.20777431361625601 -0.33831058893907762 0 0.21780935440599439 -0.31602188338433101 0 0.20777431361625601 -0.33831058893907762 0 0.20282381327660201 -0.31505297042611552 0 0.21780935440599439 -0.31602188338433101 0 0.21820242441149371 -0.32490710899175251 0 0.20777431361625601 -0.33831058893907762 0 0.2176214393273678 -0.31177412129290383 0 0.20282381327660201 -0.31505297042611552 0 0.2176214393273678 -0.31177412129290383 0 0.21780935440599439 -0.31602188338433101 0 0.20282381327660201 -0.31505297042611552 0 0.2176214393273678 -0.31177412129290383 0 0.21780935440599439 -0.31602188338433101 0 0.2176214393273678 -0.31177412129290383 0 0.21999804566891551 -0.31122614102315033 0 0.21780935440599439 -0.31602188338433101 0 0.21780935440599439 -0.31602188338433101 0 0.21820242441149371 -0.32490710899175251 0 0.220555537226792 -0.33578323097752499 0 0.21820242441149371 -0.32490710899175251 0 0.20777431361625601 -0.33831058893907762 0 0.220555537226792 -0.33578323097752499 0 0.21451162402718699 -0.34512658597487872 0 0.20777431361625601 -0.33831058893907762 0 0.21451162402718699 -0.34512658597487872 0 0.20777431361625601 -0.33831058893907762 0 0.1971616983813648 -0.34495631128618592 0 0.20777431361625601 -0.33831058893907762 0 0.18864170350563411 -0.33720407153827198 0 0.20777431361625601 -0.33831058893907762 0 0.18802618722583669 -0.31833181955932999 0 0.20777431361625601 -0.33831058893907762 0 0.18864170350563411 -0.33720407153827198 0 0.18802618722583669 -0.31833181955932999 0 0.20777431361625601 -0.33831058893907762 0 0.20282381327660201 -0.31505297042611552 0 0.18802618722583669 -0.31833181955932999 0 0.20282381327660201 -0.31505297042611552 0 0.18802618722583669 -0.31833181955932999 0 0.1976485991634879 -0.30796138879627621 0 0.20282381327660201 -0.31505297042611552 0 0.18802618722583669 -0.31833181955932999 0 0.18802618722583669 -0.31833181955932999 0 0.1791507244663583 -0.32983729973660558 0 0.16791254130802971 -0.3227885891963716 0 0.18802618722583669 -0.31833181955932999 0 0.17151825735526699 -0.31325416760549368 0 0.16791254130802971 -0.3227885891963716 0 0.18802618722583669 -0.31833181955932999 0 0.16791254130802971 -0.3227885891963716 0 0.18864170350563411 -0.33720407153827198 0 0.18802618722583669 -0.31833181955932999 0 0.1791507244663583 -0.32983729973660558 0 0.17202246582593331 -0.34102471865244838 0 0.1791507244663583 -0.32983729973660558 0 0.16791254130802971 -0.3227885891963716 0 0.18787137947787569 -0.35180034780069419 0 0.18864170350563411 -0.33720407153827198 0 0.17202246582593331 -0.34102471865244838 0 0.18864170350563411 -0.33720407153827198 0 0.17202246582593331 -0.34102471865244838 0 0.1791507244663583 -0.32983729973660558 0 0.17202246582593331 -0.34102471865244838 0 0.1546435437787094 -0.34381338892778002 0 0.1557586906108582 -0.32786840018592928 0 0.17202246582593331 -0.34102471865244838 0 0.16791254130802971 -0.3227885891963716 0 0.1557586906108582 -0.32786840018592928 0 0.16791254130802971 -0.3227885891963716 0 0.1557586906108582 -0.32786840018592928 0 0.1602411687519314 -0.31190927739118429 0 0.17151825735526699 -0.31325416760549368 0 0.16791254130802971 -0.3227885891963716 0 0.1602411687519314 -0.31190927739118429 0 0.18787137947787569 -0.35180034780069419 0 0.17662324672053431 -0.35795823269279659 0 0.1910424400336663 -0.37547354736401328 0 0.17662324672053431 -0.35795823269279659 0 0.17035242753357599 -0.36877211446365682 0 0.1910424400336663 -0.37547354736401328 0 0.17035242753357599 -0.36877211446365682 0 0.1910424400336663 -0.37547354736401328 0 0.1737051017910701 -0.38004230502140057 0 0.18787137947787569 -0.35180034780069419 0 0.17202246582593331 -0.34102471865244838 0 0.17662324672053431 -0.35795823269279659 0 0.17202246582593331 -0.34102471865244838 0 0.17662324672053431 -0.35795823269279659 0 0.16265844046108829 -0.35526087104265458 0 0.17202246582593331 -0.34102471865244838 0 0.16265844046108829 -0.35526087104265458 0 0.1546435437787094 -0.34381338892778002 0 0.17662324672053431 -0.35795823269279659 0 0.16265844046108829 -0.35526087104265458 0 0.17035242753357599 -0.36877211446365682 0 0.16265844046108829 -0.35526087104265458 0 0.1569593121701936 -0.36832063090657668 0 0.17035242753357599 -0.36877211446365682 0 0.1569593121701936 -0.36832063090657668 0 0.17035242753357599 -0.36877211446365682 0 0.16307541855137739 -0.37743582412871929 0 0.14536400873927011 -0.3681220756701501 0 0.1426630499740982 -0.35652090160864008 0 0.13524945632583441 -0.37311377610700652 0 0.16265844046108829 -0.35526087104265458 0 0.1569593121701936 -0.36832063090657668 0 0.1426630499740982 -0.35652090160864008 0 0.14536400873927011 -0.3681220756701501 0 0.13524945632583441 -0.37311377610700652 0 0.14973869037300869 -0.38096853745143089 0 0.1569593121701936 -0.36832063090657668 0 0.14536400873927011 -0.3681220756701501 0 0.14973869037300869 -0.38096853745143089 0 0.1569593121701936 -0.36832063090657668 0 0.14536400873927011 -0.3681220756701501 0 0.1426630499740982 -0.35652090160864008 0 0.1546435437787094 -0.34381338892778002 0 0.1426630499740982 -0.35652090160864008 0 0.1424354920479888 -0.33775294740649747 0 0.16265844046108829 -0.35526087104265458 0 0.1546435437787094 -0.34381338892778002 0 0.1426630499740982 -0.35652090160864008 0 0.13449730155472761 -0.34743155680512378 0 0.12784456261830821 -0.36308533366748658 0 0.123981461538115 -0.35128285539313481 0 0.1426630499740982 -0.35652090160864008 0 0.13449730155472761 -0.34743155680512378 0 0.1424354920479888 -0.33775294740649747 0 0.1426630499740982 -0.35652090160864008 0 0.13449730155472761 -0.34743155680512378 0 0.12784456261830821 -0.36308533366748658 0 0.13449730155472761 -0.34743155680512378 0 0.13051916655351839 -0.33696304048325831 0 0.123981461538115 -0.35128285539313481 0 0.1426630499740982 -0.35652090160864008 0 0.12784456261830821 -0.36308533366748658 0 0.13524945632583441 -0.37311377610700652 0 0.12784456261830821 -0.36308533366748658 0 0.13524945632583441 -0.37311377610700652 0 0.12609635470998201 -0.38402791619100712 0 0.14855409589738661 -0.31441038212804873 0 0.1557586906108582 -0.32786840018592928 0 0.1602411687519314 -0.31190927739118429 0 0.1445015266660287 -0.32337949759917511 0 0.14855409589738661 -0.31441038212804873 0 0.13871327718005111 -0.31332369293528212 0 0.1445015266660287 -0.32337949759917511 0 0.14855409589738661 -0.31441038212804873 0 0.1557586906108582 -0.32786840018592928 0 0.1546435437787094 -0.34381338892778002 0 0.1557586906108582 -0.32786840018592928 0 0.1424354920479888 -0.33775294740649747 0 0.1445015266660287 -0.32337949759917511 0 0.1557586906108582 -0.32786840018592928 0 0.1424354920479888 -0.33775294740649747 0 0.1445015266660287 -0.32337949759917511 0 0.1424354920479888 -0.33775294740649747 0 0.13219802669416811 -0.32498852212276208 0 0.1424354920479888 -0.33775294740649747 0 0.13051916655351839 -0.33696304048325831 0 0.13219802669416811 -0.32498852212276208 0 0.13449730155472761 -0.34743155680512378 0 0.1424354920479888 -0.33775294740649747 0 0.13051916655351839 -0.33696304048325831 0 0.13051916655351839 -0.33696304048325831 0 0.13219802669416811 -0.32498852212276208 0 0.12260601330919629 -0.33072698382653798 0 0.1445015266660287 -0.32337949759917511 0 0.13219802669416811 -0.32498852212276208 0 0.13871327718005111 -0.31332369293528212 0 0.13219802669416811 -0.32498852212276208 0 0.1265219532001009 -0.3124330460259736 0 0.1192961391526948 -0.32261879728377291 0 0.13219802669416811 -0.32498852212276208 0 0.13871327718005111 -0.31332369293528212 0 0.1265219532001009 -0.3124330460259736 0 0.1265219532001009 -0.3124330460259736 0 0.1332586495603032 -0.30031372317270688 0 0.1198701537204314 -0.30089140532399938 0 0.1332586495603032 -0.30031372317270688 0 0.1242383748246253 -0.29131174999725179 0 0.1198701537204314 -0.30089140532399938 0 0.13871327718005111 -0.31332369293528212 0 0.1265219532001009 -0.3124330460259736 0 0.1332586495603032 -0.30031372317270688 0 0.13871327718005111 -0.31332369293528212 0 0.1332586495603032 -0.30031372317270688 0 0.147245411062319 -0.30441698656302629 0 0.14855409589738661 -0.31441038212804873 0 0.13871327718005111 -0.31332369293528212 0 0.147245411062319 -0.30441698656302629 0 0.147245411062319 -0.30441698656302629 0 0.15432967412725099 -0.29846298066074151 0 0.14327492933615671 -0.29425024746867751 0 0.1332586495603032 -0.30031372317270688 0 0.147245411062319 -0.30441698656302629 0 0.14327492933615671 -0.29425024746867751 0 0.147245411062319 -0.30441698656302629 0 0.15432967412725099 -0.29846298066074151 0 0.1602411687519314 -0.31190927739118429 0 0.14855409589738661 -0.31441038212804873 0 0.147245411062319 -0.30441698656302629 0 0.1602411687519314 -0.31190927739118429 0 0.15432967412725099 -0.29846298066074151 0 0.1517600770447052 -0.28164214899084639 0 0.14327492933615671 -0.29425024746867751 0 0.1517600770447052 -0.28164214899084639 0 0.14327492933615671 -0.29425024746867751 0 0.13646338677899769 -0.28546266283427663 0 0.1332586495603032 -0.30031372317270688 0 0.14327492933615671 -0.29425024746867751 0 0.13646338677899769 -0.28546266283427663 0 0.1332586495603032 -0.30031372317270688 0 0.13646338677899769 -0.28546266283427663 0 0.1242383748246253 -0.29131174999725179 0 0.13646338677899769 -0.28546266283427663 0 0.1233023238440631 -0.28097148456094378 0 0.1242383748246253 -0.29131174999725179 0 0.1517600770447052 -0.28164214899084639 0 0.13646338677899769 -0.28546266283427663 0 0.1311170075682456 -0.27142576198599933 0 0.1517600770447052 -0.28164214899084639 0 0.1311170075682456 -0.27142576198599933 0 0.1364827709165429 -0.26618641562940759 0 0.13646338677899769 -0.28546266283427663 0 0.1311170075682456 -0.27142576198599933 0 0.1233023238440631 -0.28097148456094378 0 0.1311170075682456 -0.27142576198599933 0 0.1364827709165429 -0.26618641562940759 0 0.1212054647883809 -0.25073068226796852 0 0.1364827709165429 -0.26618641562940759 0 0.13217397618885759 -0.25462043987800831 0 0.1212054647883809 -0.25073068226796852 0 0.1364827709165429 -0.26618641562940759 0 0.1212054647883809 -0.25073068226796852 0 0.1364827709165429 -0.26618641562940759 0 0.13217397618885759 -0.25462043987800831 0 0.14275904560399111 -0.25945725309375861 0 0.13217397618885759 -0.25462043987800831 0 0.1429630926125974 -0.2502577086919005 0 0.14275904560399111 -0.25945725309375861 0 0.1429630926125974 -0.2502577086919005 0 0.16574248336044761 -0.26746108990676593 0 0.1429630926125974 -0.2502577086919005 0 0.15128247879849499 -0.26292486595599002 0 0.16574248336044761 -0.26746108990676593 0 0.1429630926125974 -0.2502577086919005 0 0.16574248336044761 -0.26746108990676593 0 0.16001236861667459 -0.2513654190734112 0 0.1429630926125974 -0.2502577086919005 0 0.14275904560399111 -0.25945725309375861 0 0.15128247879849499 -0.26292486595599002 0 0.1364827709165429 -0.26618641562940759 0 0.14275904560399111 -0.25945725309375861 0 0.15128247879849499 -0.26292486595599002 0 0.1517600770447052 -0.28164214899084639 0 0.1364827709165429 -0.26618641562940759 0 0.15128247879849499 -0.26292486595599002 0 0.1517600770447052 -0.28164214899084639 0 0.15128247879849499 -0.26292486595599002 0 0.15776774232478771 -0.26956647822523339 0 0.1517600770447052 -0.28164214899084639 0 0.1311170075682456 -0.27142576198599933 0 0.1517600770447052 -0.28164214899084639 0 0.1364827709165429 -0.26618641562940759 0 0.1517600770447052 -0.28164214899084639 0 0.16209364730358741 -0.27452888323759039 0 0.16594555478614451 -0.28284233368471318 0 0.1517600770447052 -0.28164214899084639 0 0.16209364730358741 -0.27452888323759039 0 0.15776774232478771 -0.26956647822523339 0 0.16209364730358741 -0.27452888323759039 0 0.15776774232478771 -0.26956647822523339 0 0.16574248336044761 -0.26746108990676593 0 0.15128247879849499 -0.26292486595599002 0 0.15776774232478771 -0.26956647822523339 0 0.16574248336044761 -0.26746108990676593 0 0.16209364730358741 -0.27452888323759039 0 0.16574248336044761 -0.26746108990676593 0 0.16920230535812411 -0.27329149954452342 0 0.16209364730358741 -0.27452888323759039 0 0.16920230535812411 -0.27329149954452342 0 0.16594555478614451 -0.28284233368471318 0 0.16920230535812411 -0.27329149954452342 0 0.1710222018321049 -0.28124575318360368 0 0.16594555478614451 -0.28284233368471318 0 0.16574248336044761 -0.26746108990676593 0 0.16001236861667459 -0.2513654190734112 0 0.16988601458932601 -0.2589500224365659 0 0.16574248336044761 -0.26746108990676593 0 0.16988601458932601 -0.2589500224365659 0 0.17628584543496439 -0.26683535894776161 0 0.16001236861667459 -0.2513654190734112 0 0.16988601458932601 -0.2589500224365659 0 0.16978669848249819 -0.25098739912941831 0 0.1767458594742066 -0.25730285456071711 0 0.17619278994504239 -0.24587918172992959 0 0.18399505531774341 -0.24981832115951039 0 0.16978669848249819 -0.25098739912941831 0 0.1767458594742066 -0.25730285456071711 0 0.17619278994504239 -0.24587918172992959 0 0.16988601458932601 -0.2589500224365659 0 0.16978669848249819 -0.25098739912941831 0 0.1767458594742066 -0.25730285456071711 0 0.16988601458932601 -0.2589500224365659 0 0.1767458594742066 -0.25730285456071711 0 0.17628584543496439 -0.26683535894776161 0 0.1767458594742066 -0.25730285456071711 0 0.17628584543496439 -0.26683535894776161 0 0.1845366839674035 -0.26640487959885623 0 0.1767458594742066 -0.25730285456071711 0 0.18706352147094041 -0.25756661524031438 0 0.1845366839674035 -0.26640487959885623 0 0.1767458594742066 -0.25730285456071711 0 0.18706352147094041 -0.25756661524031438 0 0.18399505531774341 -0.24981832115951039 0 0.18852187410829821 -0.28466447112163068 0 0.17628584543496439 -0.26683535894776161 0 0.1845366839674035 -0.26640487959885623 0 0.18852187410829821 -0.28466447112163068 0 0.16574248336044761 -0.26746108990676593 0 0.18852187410829821 -0.28466447112163068 0 0.16574248336044761 -0.26746108990676593 0 0.17628584543496439 -0.26683535894776161 0 0.16920230535812411 -0.27329149954452342 0 0.18747516626574931 -0.28692639975368628 0 0.17602993407772211 -0.2832030986568283 0 0.18852187410829821 -0.28466447112163068 0 0.16574248336044761 -0.26746108990676593 0 0.16920230535812411 -0.27329149954452342 0 0.16920230535812411 -0.27329149954452342 0 0.18747516626574931 -0.28692639975368628 0 0.16920230535812411 -0.27329149954452342 0 0.1710222018321049 -0.28124575318360368 0 0.17602993407772211 -0.2832030986568283 0 0.18747516626574931 -0.28692639975368628 0 0.1806905449634813 -0.28832929748571318 0 0.17602993407772211 -0.2832030986568283 0 0.18852187410829821 -0.28466447112163068 0 0.16920230535812411 -0.27329149954452342 0 0.18747516626574931 -0.28692639975368628 0 0.18747516626574931 -0.28692639975368628 0 0.1806905449634813 -0.28832929748571318 0 0.18301660310609241 -0.29114958545392738 0 0.17291101310642881 -0.28564608084835003 0 0.17864991096044419 -0.29495009963706692 0 0.16594555478614451 -0.28284233368471318 0 0.1806905449634813 -0.28832929748571318 0 0.17602993407772211 -0.2832030986568283 0 0.17673138357400531 -0.28840876668861409 0 0.17602993407772211 -0.2832030986568283 0 0.17673138357400531 -0.28840876668861409 0 0.17291101310642881 -0.28564608084835003 0 0.1710222018321049 -0.28124575318360368 0 0.17602993407772211 -0.2832030986568283 0 0.17291101310642881 -0.28564608084835003 0 0.17673138357400531 -0.28840876668861409 0 0.17291101310642881 -0.28564608084835003 0 0.17864991096044419 -0.29495009963706692 0 0.17673138357400531 -0.28840876668861409 0 0.17909088347012619 -0.29088019083727579 0 0.17864991096044419 -0.29495009963706692 0 0.1806905449634813 -0.28832929748571318 0 0.17673138357400531 -0.28840876668861409 0 0.17909088347012619 -0.29088019083727579 0 0.17909088347012619 -0.29088019083727579 0 0.17864991096044419 -0.29495009963706692 0 0.18114425154506539 -0.29221912984395187 0 0.18747516626574931 -0.28692639975368628 0 0.18734834214976739 -0.29514628785519947 0 0.1827564496500734 -0.29712351473235832 0 0.18747516626574931 -0.28692639975368628 0 0.18301660310609241 -0.29114958545392738 0 0.1827564496500734 -0.29712351473235832 0 0.18114425154506539 -0.29221912984395187 0 0.18301660310609241 -0.29114958545392738 0 0.1827564496500734 -0.29712351473235832 0 0.17864991096044419 -0.29495009963706692 0 0.18114425154506539 -0.29221912984395187 0 0.1827564496500734 -0.29712351473235832 0 0.18747516626574931 -0.28692639975368628 0 0.1827564496500734 -0.29712351473235832 0 0.1806905449634813 -0.28832929748571318 0 0.18114425154506539 -0.29221912984395187 0 0.18301660310609241 -0.29114958545392738 0 0.1806905449634813 -0.28832929748571318 0 0.17909088347012619 -0.29088019083727579 0 0.18114425154506539 -0.29221912984395187 0 0.18802618722583669 -0.31833181955932999 0 0.18221347423979239 -0.30458962683289892 0 0.1698931321352706 -0.29998698427508858 0 0.1880606218677118 -0.30022154946313712 0 0.18734834214976739 -0.29514628785519947 0 0.1827564496500734 -0.29712351473235832 0 0.19009702279388629 -0.3064242775921906 0 0.1880606218677118 -0.30022154946313712 0 0.18221347423979239 -0.30458962683289892 0 0.18802618722583669 -0.31833181955932999 0 0.17151825735526699 -0.31325416760549368 0 0.1698931321352706 -0.29998698427508858 0 0.1880606218677118 -0.30022154946313712 0 0.18221347423979239 -0.30458962683289892 0 0.1827564496500734 -0.29712351473235832 0 0.18802618722583669 -0.31833181955932999 0 0.1698931321352706 -0.29998698427508858 0 0.17864991096044419 -0.29495009963706692 0 0.1827564496500734 -0.29712351473235832 0 0.17837824174639511 -0.29916255636935318 0 0.18221347423979239 -0.30458962683289892 0 0.1827564496500734 -0.29712351473235832 0 0.17837824174639511 -0.29916255636935318 0 0.19009702279388629 -0.3064242775921906 0 0.18802618722583669 -0.31833181955932999 0 0.18221347423979239 -0.30458962683289892 0 0.18221347423979239 -0.30458962683289892 0 0.17837824174639511 -0.29916255636935318 0 0.1698931321352706 -0.29998698427508858 0 0.17864991096044419 -0.29495009963706692 0 0.17837824174639511 -0.29916255636935318 0 0.1698931321352706 -0.29998698427508858 0 0.17151825735526699 -0.31325416760549368 0 0.1698931321352706 -0.29998698427508858 0 0.1602411687519314 -0.31190927739118429 0 0.15432967412725099 -0.29846298066074151 0 0.1698931321352706 -0.29998698427508858 0 0.1602411687519314 -0.31190927739118429 0 0.1517600770447052 -0.28164214899084639 0 0.17864991096044419 -0.29495009963706692 0 0.1698931321352706 -0.29998698427508858 0 0.1517600770447052 -0.28164214899084639 0 0.1698931321352706 -0.29998698427508858 0 0.15432967412725099 -0.29846298066074151 0 0.1517600770447052 -0.28164214899084639 0 0.1698931321352706 -0.29998698427508858 0 0.1517600770447052 -0.28164214899084639 0 0.17864991096044419 -0.29495009963706692 0 0.1517600770447052 -0.28164214899084639 0 0.17864991096044419 -0.29495009963706692 0 0.16594555478614451 -0.28284233368471318 0 0.1710222018321049 -0.28124575318360368 0 0.17291101310642881 -0.28564608084835003 0 0.16594555478614451 -0.28284233368471318 0 0.21438456257476449 -0.5 0 0.2048745361024723 -0.48472171768082351 0 0.18744203257390391 -0.5 0 0.19122796324104871 -0.48466606029959602 0 0.2048745361024723 -0.48472171768082351 0 0.18744203257390391 -0.5 0 0.19122796324104871 -0.48466606029959602 0 0.20365346230900849 -0.47086657296764728 0 0.1938641377332887 -0.4633108835168005 0 0.19122796324104871 -0.48466606029959602 0 0.20365346230900849 -0.47086657296764728 0 0.2048745361024723 -0.48472171768082351 0 0.21766866328091511 -0.47157360957620892 0 0.2048745361024723 -0.48472171768082351 0 0.22288060450936709 -0.48400008360299168 0 0.20365346230900849 -0.47086657296764728 0 0.21766866328091511 -0.47157360957620892 0 0.2048745361024723 -0.48472171768082351 0 0.21438456257476449 -0.5 0 0.2048745361024723 -0.48472171768082351 0 0.22288060450936709 -0.48400008360299168 0 0.21438456257476449 -0.5 0 0.23633351028628971 -0.48712361601618398 0 0.2413270925756249 -0.5 0 0.21438456257476449 -0.5 0 0.23633351028628971 -0.48712361601618398 0 0.22288060450936709 -0.48400008360299168 0 0.25270961841775552 -0.48460016746525392 0 0.23633351028628971 -0.48712361601618398 0 0.2413270925756249 -0.5 0 0.25270961841775552 -0.48460016746525392 0 0.23633351028628971 -0.48712361601618398 0 0.23949561189523169 -0.47426551941090739 0 0.23949561189523169 -0.47426551941090739 0 0.22288060450936709 -0.48400008360299168 0 0.22545312399173489 -0.46028769725088831 0 0.21766866328091511 -0.47157360957620892 0 0.22288060450936709 -0.48400008360299168 0 0.22545312399173489 -0.46028769725088831 0 0.23633351028628971 -0.48712361601618398 0 0.23949561189523169 -0.47426551941090739 0 0.22288060450936709 -0.48400008360299168 0 0.22288060450936709 -0.48400008360299168 0 0.22545312399173489 -0.46028769725088831 0 0.21766866328091511 -0.47157360957620892 0 0.22545312399173489 -0.46028769725088831 0 0.2186728293425339 -0.44755637628226819 0 0.2588368117714554 -0.46700690363883102 0 0.23949561189523169 -0.47426551941090739 0 0.2409729068143365 -0.46262444708906358 0 0.22545312399173489 -0.46028769725088831 0 0.2409729068143365 -0.46262444708906358 0 0.24480843210435321 -0.45079661158300749 0 0.2588368117714554 -0.46700690363883102 0 0.2409729068143365 -0.46262444708906358 0 0.24480843210435321 -0.45079661158300749 0 0.23949561189523169 -0.47426551941090739 0 0.22545312399173489 -0.46028769725088831 0 0.2409729068143365 -0.46262444708906358 0 0.24480843210435321 -0.45079661158300749 0 0.22802564347410281 -0.43657531089878487 0 0.2418992233321238 -0.43333026798624508 0 0.25513396950241118 -0.43290986753561628 0 0.24480843210435321 -0.45079661158300749 0 0.2418992233321238 -0.43333026798624508 0 0.22545312399173489 -0.46028769725088831 0 0.22802564347410281 -0.43657531089878487 0 0.2186728293425339 -0.44755637628226819 0 0.21246462128442831 -0.43168381348743168 0 0.22802564347410281 -0.43657531089878487 0 0.22545312399173489 -0.46028769725088831 0 0.2186728293425339 -0.44755637628226819 0 0.22802564347410281 -0.43657531089878487 0 0.22545312399173489 -0.46028769725088831 0 0.24480843210435321 -0.45079661158300749 0 0.22802564347410281 -0.43657531089878487 0 0.20442019459899149 -0.44533796874460208 0 0.2186728293425339 -0.44755637628226819 0 0.21246462128442831 -0.43168381348743168 0 0.21766866328091511 -0.47157360957620892 0 0.20442019459899149 -0.44533796874460208 0 0.21766866328091511 -0.47157360957620892 0 0.20442019459899149 -0.44533796874460208 0 0.2186728293425339 -0.44755637628226819 0 0.20365346230900849 -0.47086657296764728 0 0.21766866328091511 -0.47157360957620892 0 0.20442019459899149 -0.44533796874460208 0 0.20365346230900849 -0.47086657296764728 0 0.20442019459899149 -0.44533796874460208 0 0.1938641377332887 -0.4633108835168005 0 0.20442019459899149 -0.44533796874460208 0 0.18484232774876749 -0.43033534366960768 0 0.18590039067086719 -0.44115637567916172 0 0.20442019459899149 -0.44533796874460208 0 0.18923595964957429 -0.45067509688328122 0 0.18590039067086719 -0.44115637567916172 0 0.20442019459899149 -0.44533796874460208 0 0.1938641377332887 -0.4633108835168005 0 0.18923595964957429 -0.45067509688328122 0 0.20442019459899149 -0.44533796874460208 0 0.1911717259170673 -0.41910232791299562 0 0.20473537155931409 -0.42802668409371708 0 0.20442019459899149 -0.44533796874460208 0 0.1911717259170673 -0.41910232791299562 0 0.20442019459899149 -0.44533796874460208 0 0.1911717259170673 -0.41910232791299562 0 0.18484232774876749 -0.43033534366960768 0 0.1911717259170673 -0.41910232791299562 0 0.21088494443676881 -0.41598262622983972 0 0.20473537155931409 -0.42802668409371708 0 0.18851111772050869 -0.41383358608972459 0 0.208966154163157 -0.40126827473642579 0 0.1911717259170673 -0.41910232791299562 0 0.21088494443676881 -0.41598262622983972 0 0.1911717259170673 -0.41910232791299562 0 0.18851111772050869 -0.41383358608972459 0 0.21088494443676881 -0.41598262622983972 0 0.18851111772050869 -0.41383358608972459 0 0.21088494443676881 -0.41598262622983972 0 0.208966154163157 -0.40126827473642579 0 0.1911717259170673 -0.41910232791299562 0 0.18851111772050869 -0.41383358608972459 0 0.21088494443676881 -0.41598262622983972 0 0.22155668588658281 -0.40529615173032069 0 0.208966154163157 -0.40126827473642579 0 0.21088494443676881 -0.41598262622983972 0 0.20473537155931409 -0.42802668409371708 0 0.21246462128442831 -0.43168381348743168 0 0.21088494443676881 -0.41598262622983972 0 0.21246462128442831 -0.43168381348743168 0 0.21959695705502991 -0.42408781639437282 0 0.20442019459899149 -0.44533796874460208 0 0.20473537155931409 -0.42802668409371708 0 0.21246462128442831 -0.43168381348743168 0 0.21246462128442831 -0.43168381348743168 0 0.21959695705502991 -0.42408781639437282 0 0.22802564347410281 -0.43657531089878487 0 0.22802564347410281 -0.43657531089878487 0 0.23614533994983331 -0.4244462479719151 0 0.23059816295646979 -0.4128629245466815 0 0.22802564347410281 -0.43657531089878487 0 0.23059816295646979 -0.4128629245466815 0 0.21959695705502991 -0.42408781639437282 0 0.22802564347410281 -0.43657531089878487 0 0.23059816295646979 -0.4128629245466815 0 0.22802564347410281 -0.43657531089878487 0 0.2418992233321238 -0.43333026798624508 0 0.23614533994983331 -0.4244462479719151 0 0.2418992233321238 -0.43333026798624508 0 0.23614533994983331 -0.4244462479719151 0 0.2453827316299185 -0.42192330194190181 0 0.25513396950241118 -0.43290986753561628 0 0.2418992233321238 -0.43333026798624508 0 0.2453827316299185 -0.42192330194190181 0 0.256136481120742 -0.41447562176841068 0 0.2453827316299185 -0.42192330194190181 0 0.24629253832767661 -0.41022035877505542 0 0.2453827316299185 -0.42192330194190181 0 0.24629253832767661 -0.41022035877505542 0 0.2366098857920339 -0.41191154353144788 0 0.23614533994983331 -0.4244462479719151 0 0.2366098857920339 -0.41191154353144788 0 0.23059816295646979 -0.4128629245466815 0 0.23614533994983331 -0.4244462479719151 0 0.2453827316299185 -0.42192330194190181 0 0.2366098857920339 -0.41191154353144788 0 0.24629253832767661 -0.41022035877505542 0 0.2366098857920339 -0.41191154353144788 0 0.2422505545635501 -0.40276464775944387 0 0.21088494443676881 -0.41598262622983972 0 0.23059816295646979 -0.4128629245466815 0 0.2366098857920339 -0.41191154353144788 0 0.23059816295646979 -0.4128629245466815 0 0.23156745731421779 -0.4039283829592023 0 0.23059816295646979 -0.4128629245466815 0 0.22155668588658281 -0.40529615173032069 0 0.23156745731421779 -0.4039283829592023 0 0.23059816295646979 -0.4128629245466815 0 0.23156745731421779 -0.4039283829592023 0 0.21088494443676881 -0.41598262622983972 0 0.23059816295646979 -0.4128629245466815 0 0.22155668588658281 -0.40529615173032069 0 0.21088494443676881 -0.41598262622983972 0 0.21959695705502991 -0.42408781639437282 0 0.23059816295646979 -0.4128629245466815 0 0.2366098857920339 -0.41191154353144788 0 0.23059816295646979 -0.4128629245466815 0 0.22155668588658281 -0.40529615173032069 0 0.22942119060580499 -0.38870296338312649 0 0.208966154163157 -0.40126827473642579 0 0.22155668588658281 -0.40529615173032069 0 0.23156745731421779 -0.4039283829592023 0 0.22942119060580499 -0.38870296338312649 0 0.22942119060580499 -0.38870296338312649 0 0.208966154163157 -0.40126827473642579 0 0.23156745731421779 -0.4039283829592023 0 0.24309899287842279 -0.39271330151873202 0 0.2422505545635501 -0.40276464775944387 0 0.2366098857920339 -0.41191154353144788 0 0.23156745731421779 -0.4039283829592023 0 0.2422505545635501 -0.40276464775944387 0 0.23156745731421779 -0.4039283829592023 0 0.24309899287842279 -0.39271330151873202 0 0.22942119060580499 -0.38870296338312649 0 0.25108303853213881 -0.40002667887407228 0 0.24629253832767661 -0.41022035877505542 0 0.2422505545635501 -0.40276464775944387 0 0.25108303853213881 -0.40002667887407228 0 0.24309899287842279 -0.39271330151873202 0 0.2422505545635501 -0.40276464775944387 0 0.24987622704845311 -0.37613765202982719 0 0.22942119060580499 -0.38870296338312649 0 0.24309899287842279 -0.39271330151873202 0 0.24987622704845311 -0.37613765202982719 0 0.22942119060580499 -0.38870296338312649 0 0.24987622704845311 -0.37613765202982719 0 0.23474048966473349 -0.38137370792841258 0 0.22942119060580499 -0.38870296338312649 0 0.25687819372407023 -0.38903915957053298 0 0.24309899287842279 -0.39271330151873202 0 0.24987622704845311 -0.37613765202982719 0 0.23679608458568241 -0.3713456781615978 0 0.24987622704845311 -0.37613765202982719 0 0.23474048966473349 -0.38137370792841258 0 0.23474048966473349 -0.38137370792841258 0 0.23010576568282681 -0.37607478874810818 0 0.22189277223980711 -0.38054577212349588 0 0.23474048966473349 -0.38137370792841258 0 0.22189277223980711 -0.38054577212349588 0 0.20961824525516401 -0.3936281247522696 0 0.23474048966473349 -0.38137370792841258 0 0.22942119060580499 -0.38870296338312649 0 0.20961824525516401 -0.3936281247522696 0 0.23679608458568241 -0.3713456781615978 0 0.23474048966473349 -0.38137370792841258 0 0.23010576568282681 -0.37607478874810818 0 0.23474048966473349 -0.38137370792841258 0 0.20961824525516401 -0.3936281247522696 0 0.22699371624108439 -0.37103399677892651 0 0.23010576568282681 -0.37607478874810818 0 0.22189277223980711 -0.38054577212349588 0 0.21663927632257499 -0.37152038636996992 0 0.22189277223980711 -0.38054577212349588 0 0.21119602619295649 -0.38157571206759561 0 0.21663927632257499 -0.37152038636996992 0 0.21119602619295649 -0.38157571206759561 0 0.20576161095015591 -0.37595213443190167 0 0.21119602619295649 -0.38157571206759561 0 0.20576161095015591 -0.37595213443190167 0 0.20229958674085519 -0.38616776423662919 0 0.21119602619295649 -0.38157571206759561 0 0.20961824525516401 -0.3936281247522696 0 0.20229958674085519 -0.38616776423662919 0 0.22189277223980711 -0.38054577212349588 0 0.21119602619295649 -0.38157571206759561 0 0.20961824525516401 -0.3936281247522696 0 0.22942119060580499 -0.38870296338312649 0 0.208966154163157 -0.40126827473642579 0 0.20961824525516401 -0.3936281247522696 0 0.20961824525516401 -0.3936281247522696 0 0.18449600084559339 -0.40588254157612419 0 0.20961824525516401 -0.3936281247522696 0 0.19262774622386039 -0.39991289132556063 0 0.20229958674085519 -0.38616776423662919 0 0.18851111772050869 -0.41383358608972459 0 0.20961824525516401 -0.3936281247522696 0 0.18449600084559339 -0.40588254157612419 0 0.19262774622386039 -0.39991289132556063 0 0.193172237845981 -0.38760648281860499 0 0.20229958674085519 -0.38616776423662919 0 0.20961824525516401 -0.3936281247522696 0 0.19262774622386039 -0.39991289132556063 0 0.18449600084559339 -0.40588254157612419 0 0.18851111772050869 -0.41383358608972459 0 0.208966154163157 -0.40126827473642579 0 0.20961824525516401 -0.3936281247522696 0 0.19262774622386039 -0.39991289132556063 0 0.18963514604776821 -0.39361523539988952 0 0.193172237845981 -0.38760648281860499 0 0.19262774622386039 -0.39991289132556063 0 0.18963514604776821 -0.39361523539988952 0 0.18221634088723479 -0.40136818287387582 0 0.18963514604776821 -0.39361523539988952 0 0.193172237845981 -0.38760648281860499 0 0.18267650324237161 -0.39405502657648112 0 0.193172237845981 -0.38760648281860499 0 0.1910424400336663 -0.37547354736401328 0 0.18267650324237161 -0.39405502657648112 0 0.20576161095015591 -0.37595213443190167 0 0.1910424400336663 -0.37547354736401328 0 0.20229958674085519 -0.38616776423662919 0 0.193172237845981 -0.38760648281860499 0 0.1910424400336663 -0.37547354736401328 0 0.20229958674085519 -0.38616776423662919 0 0.1910424400336663 -0.37547354736401328 0 0.17822948803450961 -0.38676940160015832 0 0.1737051017910701 -0.38004230502140057 0 0.1910424400336663 -0.37547354736401328 0 0.18267650324237161 -0.39405502657648112 0 0.1910424400336663 -0.37547354736401328 0 0.17822948803450961 -0.38676940160015832 0 0.18267650324237161 -0.39405502657648112 0 0.17822948803450961 -0.38676940160015832 0 0.17910183421640119 -0.39520059623836468 0 0.1646215608890387 -0.38907553280053181 0 0.17822948803450961 -0.38676940160015832 0 0.1737051017910701 -0.38004230502140057 0 0.1646215608890387 -0.38907553280053181 0 0.17822948803450961 -0.38676940160015832 0 0.18267650324237161 -0.39405502657648112 0 0.17910183421640119 -0.39520059623836468 0 0.18221634088723479 -0.40136818287387582 0 0.17910183421640119 -0.39520059623836468 0 0.15805845094365739 -0.40474493864538458 0 0.18963514604776821 -0.39361523539988952 0 0.18267650324237161 -0.39405502657648112 0 0.18221634088723479 -0.40136818287387582 0 0.18267650324237161 -0.39405502657648112 0 0.18221634088723479 -0.40136818287387582 0 0.17910183421640119 -0.39520059623836468 0 0.18221634088723479 -0.40136818287387582 0 0.17910183421640119 -0.39520059623836468 0 0.19262774622386039 -0.39991289132556063 0 0.18221634088723479 -0.40136818287387582 0 0.19262774622386039 -0.39991289132556063 0 0.18449600084559339 -0.40588254157612419 0 0.18221634088723479 -0.40136818287387582 0 0.18449600084559339 -0.40588254157612419 0 0.18221634088723479 -0.40136818287387582 0 0.17910183421640119 -0.39520059623836468 0 0.15805845094365739 -0.40474493864538458 0 0.1646215608890387 -0.38907553280053181 0 0.18221634088723479 -0.40136818287387582 0 0.15805845094365739 -0.40474493864538458 0 0.15805845094365739 -0.40474493864538458 0 0.1646215608890387 -0.38907553280053181 0 0.14706277844018539 -0.39464292458295508 0 0.1737051017910701 -0.38004230502140057 0 0.1646215608890387 -0.38907553280053181 0 0.16307541855137739 -0.37743582412871929 0 0.17035242753357599 -0.36877211446365682 0 0.1737051017910701 -0.38004230502140057 0 0.16307541855137739 -0.37743582412871929 0 0.1569593121701936 -0.36832063090657668 0 0.16307541855137739 -0.37743582412871929 0 0.14973869037300869 -0.38096853745143089 0 0.1646215608890387 -0.38907553280053181 0 0.16307541855137739 -0.37743582412871929 0 0.14973869037300869 -0.38096853745143089 0 0.1646215608890387 -0.38907553280053181 0 0.14973869037300869 -0.38096853745143089 0 0.14706277844018539 -0.39464292458295508 0 0.14973869037300869 -0.38096853745143089 0 0.1375772795987745 -0.38493757303029391 0 0.14706277844018539 -0.39464292458295508 0 0.13524945632583441 -0.37311377610700652 0 0.14973869037300869 -0.38096853745143089 0 0.1375772795987745 -0.38493757303029391 0 0.13524945632583441 -0.37311377610700652 0 0.1375772795987745 -0.38493757303029391 0 0.12609635470998201 -0.38402791619100712 0 0.1375772795987745 -0.38493757303029391 0 0.12609635470998201 -0.38402791619100712 0 0.13569313113510631 -0.39589912548093298 0 0.12645644117523869 -0.39722706905544619 0 0.13569313113510631 -0.39589912548093298 0 0.1339005610000801 -0.40812169441689322 0 0.12645644117523869 -0.39722706905544619 0 0.1339005610000801 -0.40812169441689322 0 0.1250254850364893 -0.40936224001308058 0 0.12609635470998201 -0.38402791619100712 0 0.12645644117523869 -0.39722706905544619 0 0.13569313113510631 -0.39589912548093298 0 0.1375772795987745 -0.38493757303029391 0 0.13569313113510631 -0.39589912548093298 0 0.14706277844018539 -0.39464292458295508 0 0.13569313113510631 -0.39589912548093298 0 0.14706277844018539 -0.39464292458295508 0 0.1339005610000801 -0.40812169441689322 0 0.13569313113510631 -0.39589912548093298 0 0.1339005610000801 -0.40812169441689322 0 0.15805845094365739 -0.40474493864538458 0 0.14706277844018539 -0.39464292458295508 0 0.1339005610000801 -0.40812169441689322 0 0.15805845094365739 -0.40474493864538458 0 0.1339005610000801 -0.40812169441689322 0 0.15805845094365739 -0.40474493864538458 0 0.15398562739609989 -0.414436145328195 0 0.14500783119440661 -0.41410657591589572 0 0.15805845094365739 -0.40474493864538458 0 0.14500783119440661 -0.41410657591589572 0 0.1339005610000801 -0.40812169441689322 0 0.15398562739609989 -0.414436145328195 0 0.15088002640467921 -0.42009116626417142 0 0.14500783119440661 -0.41410657591589572 0 0.15088002640467921 -0.42009116626417142 0 0.15979138776423191 -0.42406840149736191 0 0.15636365466176849 -0.41960526040447821 0 0.15398562739609989 -0.414436145328195 0 0.15088002640467921 -0.42009116626417142 0 0.15636365466176849 -0.41960526040447821 0 0.15088002640467921 -0.42009116626417142 0 0.14500783119440661 -0.41410657591589572 0 0.14354831806896931 -0.42663893719234869 0 0.14500783119440661 -0.41410657591589572 0 0.1339005610000801 -0.40812169441689322 0 0.13212255532719441 -0.42024495614079282 0 0.14500783119440661 -0.41410657591589572 0 0.13212255532719441 -0.42024495614079282 0 0.14354831806896931 -0.42663893719234869 0 0.1339005610000801 -0.40812169441689322 0 0.13212255532719441 -0.42024495614079282 0 0.13212255532719441 -0.42024495614079282 0 0.1250254850364893 -0.40936224001308058 0 0.117866085899093 -0.41583132647739651 0 0.13212255532719441 -0.42024495614079282 0 0.1250254850364893 -0.40936224001308058 0 0.1339005610000801 -0.40812169441689322 0 0.13212255532719441 -0.42024495614079282 0 0.1250254850364893 -0.40936224001308058 0 0.1339005610000801 -0.40812169441689322 0 0.1250254850364893 -0.40936224001308058 0 0.13212255532719441 -0.42024495614079282 0 0.14354831806896931 -0.42663893719234869 0 0.1460535583969573 -0.44160689079445481 0 0.13212255532719441 -0.42024495614079282 0 0.128223579302082 -0.44682997076052833 0 0.13212255532719441 -0.42024495614079282 0 0.128223579302082 -0.44682997076052833 0 0.1159996351348133 -0.43474120747525058 0 0.13212255532719441 -0.42024495614079282 0 0.1460535583969573 -0.44160689079445481 0 0.13212255532719441 -0.42024495614079282 0 0.1460535583969573 -0.44160689079445481 0 0.128223579302082 -0.44682997076052833 0 0.15088002640467921 -0.42009116626417142 0 0.14354831806896931 -0.42663893719234869 0 0.15979138776423191 -0.42406840149736191 0 0.14354831806896931 -0.42663893719234869 0 0.15979138776423191 -0.42406840149736191 0 0.14354831806896931 -0.42663893719234869 0 0.15423293294423909 -0.43386412417913311 0 0.1460535583969573 -0.44160689079445481 0 0.14354831806896931 -0.42663893719234869 0 0.15423293294423909 -0.43386412417913311 0 0.15979138776423191 -0.42406840149736191 0 0.15423293294423909 -0.43386412417913311 0 0.16088991666547389 -0.43196094602310392 0 0.16557730454712019 -0.44172028084172121 0 0.1713980071398 -0.42434598792645378 0 0.15979138776423191 -0.42406840149736191 0 0.1760344574594947 -0.42149786580237669 0 0.15423293294423909 -0.43386412417913311 0 0.16088991666547389 -0.43196094602310392 0 0.15979138776423191 -0.42406840149736191 0 0.15979138776423191 -0.42406840149736191 0 0.1760344574594947 -0.42149786580237669 0 0.16626302434537371 -0.43076979168845952 0 0.17509911994716071 -0.43336510097506958 0 0.16557730454712019 -0.44172028084172121 0 0.16088991666547389 -0.43196094602310392 0 0.16626302434537371 -0.43076979168845952 0 0.16557730454712019 -0.44172028084172121 0 0.16626302434537371 -0.43076979168845952 0 0.1713980071398 -0.42434598792645378 0 0.17509911994716071 -0.43336510097506958 0 0.16626302434537371 -0.43076979168845952 0 0.1713980071398 -0.42434598792645378 0 0.15979138776423191 -0.42406840149736191 0 0.16088991666547389 -0.43196094602310392 0 0.16626302434537371 -0.43076979168845952 0 0.15979138776423191 -0.42406840149736191 0 0.15636365466176849 -0.41960526040447821 0 0.16176651730702801 -0.41283252991975622 0 0.17042982775368151 -0.41274390099030239 0 0.18221634088723479 -0.40136818287387582 0 0.15805845094365739 -0.40474493864538458 0 0.17042982775368151 -0.41274390099030239 0 0.15979138776423191 -0.42406840149736191 0 0.15636365466176849 -0.41960526040447821 0 0.17042982775368151 -0.41274390099030239 0 0.15636365466176849 -0.41960526040447821 0 0.17042982775368151 -0.41274390099030239 0 0.15979138776423191 -0.42406840149736191 0 0.17042982775368151 -0.41274390099030239 0 0.1760344574594947 -0.42149786580237669 0 0.15398562739609989 -0.414436145328195 0 0.15636365466176849 -0.41960526040447821 0 0.16176651730702801 -0.41283252991975622 0 0.15805845094365739 -0.40474493864538458 0 0.15398562739609989 -0.414436145328195 0 0.16176651730702801 -0.41283252991975622 0 0.15805845094365739 -0.40474493864538458 0 0.16176651730702801 -0.41283252991975622 0 0.17042982775368151 -0.41274390099030239 0 0.17042982775368151 -0.41274390099030239 0 0.1760344574594947 -0.42149786580237669 0 0.17986785094481991 -0.4134894736146324 0 0.18449600084559339 -0.40588254157612419 0 0.17042982775368151 -0.41274390099030239 0 0.18449600084559339 -0.40588254157612419 0 0.18221634088723479 -0.40136818287387582 0 0.17042982775368151 -0.41274390099030239 0 0.18449600084559339 -0.40588254157612419 0 0.17042982775368151 -0.41274390099030239 0 0.17986785094481991 -0.4134894736146324 0 0.18851111772050869 -0.41383358608972459 0 0.18449600084559339 -0.40588254157612419 0 0.18851111772050869 -0.41383358608972459 0 0.18449600084559339 -0.40588254157612419 0 0.17986785094481991 -0.4134894736146324 0 0.18851111772050869 -0.41383358608972459 0 0.1760344574594947 -0.42149786580237669 0 0.1911717259170673 -0.41910232791299562 0 0.1760344574594947 -0.42149786580237669 0 0.18851111772050869 -0.41383358608972459 0 0.1760344574594947 -0.42149786580237669 0 0.17986785094481991 -0.4134894736146324 0 0.1911717259170673 -0.41910232791299562 0 0.18851111772050869 -0.41383358608972459 0 0.1760344574594947 -0.42149786580237669 0 0.1911717259170673 -0.41910232791299562 0 0.1760344574594947 -0.42149786580237669 0 0.18484232774876749 -0.43033534366960768 0 0.18484232774876749 -0.43033534366960768 0 0.17509911994716071 -0.43336510097506958 0 0.18590039067086719 -0.44115637567916172 0 0.18484232774876749 -0.43033534366960768 0 0.17509911994716071 -0.43336510097506958 0 0.17653319474121221 -0.42750765242104072 0 0.1713980071398 -0.42434598792645378 0 0.17509911994716071 -0.43336510097506958 0 0.17653319474121221 -0.42750765242104072 0 0.1760344574594947 -0.42149786580237669 0 0.18484232774876749 -0.43033534366960768 0 0.17653319474121221 -0.42750765242104072 0 0.1713980071398 -0.42434598792645378 0 0.1760344574594947 -0.42149786580237669 0 0.17653319474121221 -0.42750765242104072 0 0.1713980071398 -0.42434598792645378 0 0.1760344574594947 -0.42149786580237669 0 0.17791556380287959 -0.4455361086535346 0 0.17376504419967539 -0.46076368888843938 0 0.16557730454712019 -0.44172028084172121 0 0.17509911994716071 -0.43336510097506958 0 0.17791556380287959 -0.4455361086535346 0 0.18590039067086719 -0.44115637567916172 0 0.17509911994716071 -0.43336510097506958 0 0.17791556380287959 -0.4455361086535346 0 0.16557730454712019 -0.44172028084172121 0 0.18923595964957429 -0.45067509688328122 0 0.17791556380287959 -0.4455361086535346 0 0.18590039067086719 -0.44115637567916172 0 0.18923595964957429 -0.45067509688328122 0 0.17791556380287959 -0.4455361086535346 0 0.17376504419967539 -0.46076368888843938 0 0.1938641377332887 -0.4633108835168005 0 0.18923595964957429 -0.45067509688328122 0 0.17376504419967539 -0.46076368888843938 0 0.1938641377332887 -0.4633108835168005 0 0.17376504419967539 -0.46076368888843938 0 0.17718182015316611 -0.48165544175840053 0 0.17376504419967539 -0.46076368888843938 0 0.15550290350416551 -0.45157236434768988 0 0.1539044029471725 -0.46809795184702829 0 0.17376504419967539 -0.46076368888843938 0 0.16557730454712019 -0.44172028084172121 0 0.15550290350416551 -0.45157236434768988 0 0.15423293294423909 -0.43386412417913311 0 0.16557730454712019 -0.44172028084172121 0 0.15550290350416551 -0.45157236434768988 0 0.15423293294423909 -0.43386412417913311 0 0.15550290350416551 -0.45157236434768988 0 0.1460535583969573 -0.44160689079445481 0 0.15550290350416551 -0.45157236434768988 0 0.1460535583969573 -0.44160689079445481 0 0.14153074802588431 -0.45654190970348868 0 0.1460535583969573 -0.44160689079445481 0 0.128223579302082 -0.44682997076052833 0 0.14153074802588431 -0.45654190970348868 0 0.128223579302082 -0.44682997076052833 0 0.12432460327697011 -0.47341498538026422 0 0.128223579302082 -0.44682997076052833 0 0.14153074802588431 -0.45654190970348868 0 0.12432460327697011 -0.47341498538026422 0 0.1539044029471725 -0.46809795184702829 0 0.14153074802588431 -0.45654190970348868 0 0.12432460327697011 -0.47341498538026422 0 0.15550290350416551 -0.45157236434768988 0 0.1539044029471725 -0.46809795184702829 0 0.14153074802588431 -0.45654190970348868 0 0.1539044029471725 -0.46809795184702829 0 0.15048103374274721 -0.48484579871078243 0 0.12432460327697011 -0.47341498538026422 0 0.1404625649124509 -0.5 0 0.15048103374274721 -0.48484579871078243 0 0.12432460327697011 -0.47341498538026422 0 0.1404625649124509 -0.5 0 0.12042562725185831 -0.49999999999999989 0 0.12432460327697011 -0.47341498538026422 0 0.1404625649124509 -0.5 0 0.15048103374274721 -0.48484579871078243 0 0.16049950257304349 -0.50000000000000033 0 0.16049950257304349 -0.50000000000000033 0 0.17718182015316611 -0.48165544175840053 0 0.15048103374274721 -0.48484579871078243 0 0.16049950257304349 -0.50000000000000033 0 0.17718182015316611 -0.48165544175840053 0 0.17376504419967539 -0.46076368888843938 0 0.1539044029471725 -0.46809795184702829 0 0.17718182015316611 -0.48165544175840053 0 0.1539044029471725 -0.46809795184702829 0 0.15048103374274721 -0.48484579871078243 0 0.17718182015316611 -0.48165544175840053 0 0.1938641377332887 -0.4633108835168005 0 0.17718182015316611 -0.48165544175840053 0 0.19122796324104871 -0.48466606029959602 0 0.1938641377332887 -0.4633108835168005 0 0.17718182015316611 -0.48165544175840053 0 0.16049950257304349 -0.50000000000000033 0 0.17718182015316611 -0.48165544175840053 0 0.18744203257390391 -0.5 0 0.19122796324104871 -0.48466606029959602 0 0.17718182015316611 -0.48165544175840053 0 0.18744203257390391 -0.5 0 0.072018957471098571 -0.48629524479662273 0 0.069142552082564368 -0.5 0 0.082735946582200875 -0.4892045976485363 0 0.072018957471098571 -0.48629524479662273 0 0.079568506083734697 -0.4785915255016745 0 0.082735946582200875 -0.4892045976485363 0 0.072018957471098571 -0.48629524479662273 0 0.062670741706174135 -0.48944359682069549 0 0.064881374578912687 -0.4815757870058418 0 0.072018957471098571 -0.48629524479662273 0 0.069142552082564368 -0.5 0 0.062670741706174135 -0.48944359682069549 0 0.073180054077148754 -0.46968413697177741 0 0.079568506083734697 -0.4785915255016745 0 0.081395248040860374 -0.46160025678040811 0 0.067447632246636219 -0.45716428258124142 0 0.05849497948899289 -0.47642287528831911 0 0.061758178687080389 -0.47580514524370598 0 0.072018957471098571 -0.48629524479662273 0 0.064881374578912687 -0.4815757870058418 0 0.070673492561877091 -0.4782128222507579 0 0.064881374578912687 -0.4815757870058418 0 0.066280053791524171 -0.47680462027284459 0 0.061758178687080389 -0.47580514524370598 0 0.064881374578912687 -0.4815757870058418 0 0.066280053791524171 -0.47680462027284459 0 0.070673492561877091 -0.4782128222507579 0 0.066280053791524171 -0.47680462027284459 0 0.067807169338226503 -0.47162472659107291 0 0.061758178687080389 -0.47580514524370598 0 0.066280053791524171 -0.47680462027284459 0 0.067807169338226503 -0.47162472659107291 0 0.070673492561877091 -0.4782128222507579 0 0.067807169338226503 -0.47162472659107291 0 0.073180054077148754 -0.46968413697177741 0 0.070673492561877091 -0.4782128222507579 0 0.073180054077148754 -0.46968413697177741 0 0.070673492561877091 -0.4782128222507579 0 0.079568506083734697 -0.4785915255016745 0 0.072018957471098571 -0.48629524479662273 0 0.070673492561877091 -0.4782128222507579 0 0.079568506083734697 -0.4785915255016745 0 0.096876661376123455 -0.48080012839020431 0 0.081395248040860374 -0.46160025678040811 0 0.096876661376123455 -0.48080012839020431 0 0.095349939854524335 -0.46404107218864848 0 0.081395248040860374 -0.46160025678040811 0 0.079568506083734697 -0.4785915255016745 0 0.082735946582200875 -0.4892045976485363 0 0.096876661376123455 -0.48080012839020431 0 0.079568506083734697 -0.4785915255016745 0 0.096876661376123455 -0.48080012839020431 0 0.081395248040860374 -0.46160025678040811 0 0.090750313396975479 -0.5 0 0.082735946582200875 -0.4892045976485363 0 0.096876661376123455 -0.48080012839020431 0 0.069142552082564368 -0.5 0 0.090750313396975479 -0.5 0 0.082735946582200875 -0.4892045976485363 0 0.1123580747113867 -0.50000000000000033 0 0.1124728586670535 -0.48406595427175642 0 0.096876661376123455 -0.48080012839020431 0 0.090750313396975479 -0.5 0 0.1123580747113867 -0.50000000000000033 0 0.096876661376123455 -0.48080012839020431 0 0.1123580747113867 -0.50000000000000033 0 0.096876661376123455 -0.48080012839020431 0 0.1123580747113867 -0.50000000000000033 0 0.12042562725185831 -0.49999999999999989 0 0.1124728586670535 -0.48406595427175642 0 0.12042562725185831 -0.49999999999999989 0 0.1124728586670535 -0.48406595427175642 0 0.12432460327697011 -0.47341498538026422 0 0.12042562725185831 -0.49999999999999989 0 0.12432460327697011 -0.47341498538026422 0 0.1124728586670535 -0.48406595427175642 0 0.12432460327697011 -0.47341498538026422 0 0.1082250197838846 -0.46311527911574241 0 0.096876661376123455 -0.48080012839020431 0 0.095349939854524335 -0.46404107218864848 0 0.1082250197838846 -0.46311527911574241 0 0.1124728586670535 -0.48406595427175642 0 0.096876661376123455 -0.48080012839020431 0 0.1082250197838846 -0.46311527911574241 0 0.095349939854524335 -0.46404107218864848 0 0.1082250197838846 -0.46311527911574241 0 0.094902830217228867 -0.45064862446823939 0 0.128223579302082 -0.44682997076052833 0 0.12432460327697011 -0.47341498538026422 0 0.1082250197838846 -0.46311527911574241 0 0.128223579302082 -0.44682997076052833 0 0.1069391861142964 -0.44299064961396012 0 0.1159996351348133 -0.43474120747525058 0 0.128223579302082 -0.44682997076052833 0 0.1082250197838846 -0.46311527911574241 0 0.1069391861142964 -0.44299064961396012 0 0.1082250197838846 -0.46311527911574241 0 0.1069391861142964 -0.44299064961396012 0 0.094902830217228867 -0.45064862446823939 0 0.1069391861142964 -0.44299064961396012 0 0.091812697424993442 -0.4386357446441016 0 0.098414951810672224 -0.43233268446502993 0 0.1069391861142964 -0.44299064961396012 0 0.094902830217228867 -0.45064862446823939 0 0.091812697424993442 -0.4386357446441016 0 0.094902830217228867 -0.45064862446823939 0 0.091812697424993442 -0.4386357446441016 0 0.082434724511159588 -0.44537142502386151 0 0.094902830217228867 -0.45064862446823939 0 0.082434724511159588 -0.44537142502386151 0 0.081395248040860374 -0.46160025678040811 0 0.091812697424993442 -0.4386357446441016 0 0.082434724511159588 -0.44537142502386151 0 0.078149012167117934 -0.43357211405594609 0 0.095349939854524335 -0.46404107218864848 0 0.094902830217228867 -0.45064862446823939 0 0.081395248040860374 -0.46160025678040811 0 0.067447632246636219 -0.45716428258124142 0 0.065913834705597293 -0.44240038517061198 0 0.057068655694905858 -0.46015288389510001 0 0.067447632246636219 -0.45716428258124142 0 0.05849497948899289 -0.47642287528831911 0 0.067807169338226503 -0.47162472659107291 0 0.067447632246636219 -0.45716428258124142 0 0.061758178687080389 -0.47580514524370598 0 0.081395248040860374 -0.46160025678040811 0 0.067447632246636219 -0.45716428258124142 0 0.065913834705597293 -0.44240038517061198 0 0.073180054077148754 -0.46968413697177741 0 0.081395248040860374 -0.46160025678040811 0 0.067447632246636219 -0.45716428258124142 0 0.067807169338226503 -0.47162472659107291 0 0.073180054077148754 -0.46968413697177741 0 0.067447632246636219 -0.45716428258124142 0 0.081395248040860374 -0.46160025678040811 0 0.065913834705597293 -0.44240038517061198 0 0.082434724511159588 -0.44537142502386151 0 0.081395248040860374 -0.46160025678040811 0 0.065913834705597293 -0.44240038517061198 0 0.082434724511159588 -0.44537142502386151 0 0.065913834705597293 -0.44240038517061198 0 0.078149012167117934 -0.43357211405594609 0 0.065921365320016911 -0.4273577277455588 0 0.073982485551444349 -0.42005290588181732 0 0.078149012167117934 -0.43357211405594609 0 0.065913834705597293 -0.44240038517061198 0 0.065921365320016911 -0.4273577277455588 0 0.078149012167117934 -0.43357211405594609 0 0.073982485551444349 -0.42005290588181732 0 0.069775570718114244 -0.40426700169235308 0 0.060774245729122177 -0.41691050055794487 0 0.065921365320016911 -0.4273577277455588 0 0.073982485551444349 -0.42005290588181732 0 0.060774245729122177 -0.41691050055794487 0 0.073982485551444349 -0.42005290588181732 0 0.086447448161059384 -0.41120764722282821 0 0.069775570718114244 -0.40426700169235308 0 0.073982485551444349 -0.42005290588181732 0 0.086447448161059384 -0.41120764722282821 0 0.088692331433278357 -0.42535053834926723 0 0.086447448161059384 -0.41120764722282821 0 0.093827427438274241 -0.41775801958915132 0 0.099702730965631758 -0.41290181884877419 0 0.086447448161059384 -0.41120764722282821 0 0.088692331433278357 -0.42535053834926723 0 0.093827427438274241 -0.41775801958915132 0 0.088692331433278357 -0.42535053834926723 0 0.097645949564215143 -0.42435504664253748 0 0.093827427438274241 -0.41775801958915132 0 0.073982485551444349 -0.42005290588181732 0 0.088692331433278357 -0.42535053834926723 0 0.078149012167117934 -0.43357211405594609 0 0.091812697424993442 -0.4386357446441016 0 0.088692331433278357 -0.42535053834926723 0 0.078149012167117934 -0.43357211405594609 0 0.091812697424993442 -0.4386357446441016 0 0.088692331433278357 -0.42535053834926723 0 0.098414951810672224 -0.43233268446502993 0 0.098414951810672224 -0.43233268446502993 0 0.097645949564215143 -0.42435504664253748 0 0.1061961683754654 -0.43004895598907111 0 0.088692331433278357 -0.42535053834926723 0 0.098414951810672224 -0.43233268446502993 0 0.097645949564215143 -0.42435504664253748 0 0.1061961683754654 -0.43004895598907111 0 0.11152958735588871 -0.42539382439527612 0 0.1045809803654715 -0.42051706085107571 0 0.097645949564215143 -0.42435504664253748 0 0.1061961683754654 -0.43004895598907111 0 0.1045809803654715 -0.42051706085107571 0 0.1069391861142964 -0.44299064961396012 0 0.098414951810672224 -0.43233268446502993 0 0.1061961683754654 -0.43004895598907111 0 0.1061961683754654 -0.43004895598907111 0 0.1159996351348133 -0.43474120747525058 0 0.11152958735588871 -0.42539382439527612 0 0.13212255532719441 -0.42024495614079282 0 0.1159996351348133 -0.43474120747525058 0 0.11851153239627241 -0.42275952171654291 0 0.1069391861142964 -0.44299064961396012 0 0.1061961683754654 -0.43004895598907111 0 0.1159996351348133 -0.43474120747525058 0 0.1159996351348133 -0.43474120747525058 0 0.11152958735588871 -0.42539382439527612 0 0.11851153239627241 -0.42275952171654291 0 0.11152958735588871 -0.42539382439527612 0 0.11851153239627241 -0.42275952171654291 0 0.1123596205074209 -0.41890237594444008 0 0.1250254850364893 -0.40936224001308058 0 0.117866085899093 -0.41583132647739651 0 0.1096180349996463 -0.41151587164058129 0 0.1250254850364893 -0.40936224001308058 0 0.1096180349996463 -0.41151587164058129 0 0.13212255532719441 -0.42024495614079282 0 0.11851153239627241 -0.42275952171654291 0 0.117866085899093 -0.41583132647739651 0 0.117866085899093 -0.41583132647739651 0 0.1123596205074209 -0.41890237594444008 0 0.1096180349996463 -0.41151587164058129 0 0.11851153239627241 -0.42275952171654291 0 0.117866085899093 -0.41583132647739651 0 0.1123596205074209 -0.41890237594444008 0 0.11152958735588871 -0.42539382439527612 0 0.1123596205074209 -0.41890237594444008 0 0.1045809803654715 -0.42051706085107571 0 0.1123596205074209 -0.41890237594444008 0 0.1096180349996463 -0.41151587164058129 0 0.1065506547415149 -0.41613106226330793 0 0.1096180349996463 -0.41151587164058129 0 0.1065506547415149 -0.41613106226330793 0 0.099702730965631758 -0.41290181884877419 0 0.1096180349996463 -0.41151587164058129 0 0.099702730965631758 -0.41290181884877419 0 0.1096180349996463 -0.41151587164058129 0 0.099702730965631758 -0.41290181884877419 0 0.1041447551606165 -0.40305668800175581 0 0.1123596205074209 -0.41890237594444008 0 0.1065506547415149 -0.41613106226330793 0 0.1045809803654715 -0.42051706085107571 0 0.1065506547415149 -0.41613106226330793 0 0.1045809803654715 -0.42051706085107571 0 0.099702730965631758 -0.41290181884877419 0 0.1045809803654715 -0.42051706085107571 0 0.093827427438274241 -0.41775801958915132 0 0.099702730965631758 -0.41290181884877419 0 0.097645949564215143 -0.42435504664253748 0 0.1045809803654715 -0.42051706085107571 0 0.093827427438274241 -0.41775801958915132 0 0.086447448161059384 -0.41120764722282821 0 0.099702730965631758 -0.41290181884877419 0 0.095691580682652475 -0.39908469234235189 0 0.095691580682652475 -0.39908469234235189 0 0.1041447551606165 -0.40305668800175581 0 0.1115666739945345 -0.38872436917531578 0 0.099702730965631758 -0.41290181884877419 0 0.095691580682652475 -0.39908469234235189 0 0.1041447551606165 -0.40305668800175581 0 0.1096180349996463 -0.41151587164058129 0 0.1041447551606165 -0.40305668800175581 0 0.1115666739945345 -0.38872436917531578 0 0.1250254850364893 -0.40936224001308058 0 0.1115666739945345 -0.38872436917531578 0 0.1096180349996463 -0.41151587164058129 0 0.1115666739945345 -0.38872436917531578 0 0.1250254850364893 -0.40936224001308058 0 0.1096180349996463 -0.41151587164058129 0 0.1115666739945345 -0.38872436917531578 0 0.12645644117523869 -0.39722706905544619 0 0.1250254850364893 -0.40936224001308058 0 0.1115666739945345 -0.38872436917531578 0 0.12609635470998201 -0.38402791619100712 0 0.1115666739945345 -0.38872436917531578 0 0.113745377556003 -0.36324200547299851 0 0.1115666739945345 -0.38872436917531578 0 0.113745377556003 -0.36324200547299851 0 0.12609635470998201 -0.38402791619100712 0 0.12645644117523869 -0.39722706905544619 0 0.1115666739945345 -0.38872436917531578 0 0.1115666739945345 -0.38872436917531578 0 0.096372132326470572 -0.36542491223168638 0 0.1115666739945345 -0.38872436917531578 0 0.089853218628298884 -0.38394717958202601 0 0.096372132326470572 -0.36542491223168638 0 0.095691580682652475 -0.39908469234235189 0 0.1115666739945345 -0.38872436917531578 0 0.089853218628298884 -0.38394717958202601 0 0.089853218628298884 -0.38394717958202601 0 0.082924844884061683 -0.39714926844771359 0 0.072939106935086151 -0.38728773006234168 0 0.089853218628298884 -0.38394717958202601 0 0.072939106935086151 -0.38728773006234168 0 0.07582030708563034 -0.37256671738353597 0 0.095691580682652475 -0.39908469234235189 0 0.089853218628298884 -0.38394717958202601 0 0.082924844884061683 -0.39714926844771359 0 0.086447448161059384 -0.41120764722282821 0 0.082924844884061683 -0.39714926844771359 0 0.069775570718114244 -0.40426700169235308 0 0.086447448161059384 -0.41120764722282821 0 0.095691580682652475 -0.39908469234235189 0 0.082924844884061683 -0.39714926844771359 0 0.069775570718114244 -0.40426700169235308 0 0.072939106935086151 -0.38728773006234168 0 0.058313699768321348 -0.39007371912844929 0 0.082924844884061683 -0.39714926844771359 0 0.069775570718114244 -0.40426700169235308 0 0.072939106935086151 -0.38728773006234168 0 0.072939106935086151 -0.38728773006234168 0 0.05933500968155693 -0.37671477575793533 0 0.058313699768321348 -0.39007371912844929 0 0.072939106935086151 -0.38728773006234168 0 0.05933500968155693 -0.37671477575793533 0 0.07582030708563034 -0.37256671738353597 0 0.05933500968155693 -0.37671477575793533 0 0.043300396670470892 -0.38581293046691678 0 0.039079294002052851 -0.37065651216905859 0 0.05933500968155693 -0.37671477575793533 0 0.058313699768321348 -0.39007371912844929 0 0.043300396670470892 -0.38581293046691678 0 0.058313699768321348 -0.39007371912844929 0 0.0466875803122518 -0.39705513158652528 0 0.054373060569327003 -0.40663711634463268 0 0.069775570718114244 -0.40426700169235308 0 0.058313699768321348 -0.39007371912844929 0 0.054373060569327003 -0.40663711634463268 0 0.058313699768321348 -0.39007371912844929 0 0.054373060569327003 -0.40663711634463268 0 0.0466875803122518 -0.39705513158652528 0 0.042121557959679479 -0.40689397827368962 0 0.054373060569327003 -0.40663711634463268 0 0.058313699768321348 -0.39007371912844929 0 0.0466875803122518 -0.39705513158652528 0 0.043300396670470892 -0.38581293046691678 0 0.0466875803122518 -0.39705513158652528 0 0.032645317368698572 -0.39721328630736241 0 0.043300396670470892 -0.38581293046691678 0 0.0466875803122518 -0.39705513158652528 0 0.032645317368698572 -0.39721328630736241 0 0.042121557959679479 -0.40689397827368962 0 0.032645317368698572 -0.39721328630736241 0 0.043300396670470892 -0.38581293046691678 0 0.025542853711361019 -0.38384675294920401 0 0.043300396670470892 -0.38581293046691678 0 0.025542853711361019 -0.38384675294920401 0 0.039079294002052851 -0.37065651216905859 0 0.025542853711361019 -0.38384675294920401 0 0.009690974369139977 -0.39295199195252922 0 0.016784443680880379 -0.36713146693108112 0 -0.0064694903547723136 -0.38059021958606692 0 0.009690974369139977 -0.39295199195252922 0 0.016784443680880379 -0.36713146693108112 0 0.032645317368698572 -0.39721328630736241 0 0.009690974369139977 -0.39295199195252922 0 0.030062121183744069 -0.41560348860952728 0 0.032645317368698572 -0.39721328630736241 0 0.025542853711361019 -0.38384675294920401 0 0.009690974369139977 -0.39295199195252922 0 0.009690974369139977 -0.39295199195252922 0 0.030062121183744069 -0.41560348860952728 0 0.01224976062295041 -0.42183763890738629 0 -0.0080625817845775948 -0.40608726553411861 0 0.009690974369139977 -0.39295199195252922 0 0.01224976062295041 -0.42183763890738629 0 0.009690974369139977 -0.39295199195252922 0 0.01224976062295041 -0.42183763890738629 0 0.01224976062295041 -0.42183763890738629 0 0.01480854687676085 -0.45072328586224342 0 0.030062121183744069 -0.41560348860952728 0 0.01224976062295041 -0.42183763890738629 0 0.028535899264767479 -0.43733174884408438 0 0.01224976062295041 -0.42183763890738629 0 0.028535899264767479 -0.43733174884408438 0 0.01480854687676085 -0.45072328586224342 0 0.030062121183744069 -0.41560348860952728 0 0.028535899264767479 -0.43733174884408438 0 0.039909128579099777 -0.42893709763038412 0 0.039909128579099777 -0.42893709763038412 0 0.050432421370333713 -0.42320051356081623 0 0.04400553312424714 -0.45021417746364167 0 0.039909128579099777 -0.42893709763038412 0 0.046509667952406512 -0.41833555967385072 0 0.050432421370333713 -0.42320051356081623 0 0.032645317368698572 -0.39721328630736241 0 0.030062121183744069 -0.41560348860952728 0 0.042121557959679479 -0.40689397827368962 0 0.030062121183744069 -0.41560348860952728 0 0.039909128579099777 -0.42893709763038412 0 0.046509667952406512 -0.41833555967385072 0 0.030062121183744069 -0.41560348860952728 0 0.042121557959679479 -0.40689397827368962 0 0.046509667952406512 -0.41833555967385072 0 0.054373060569327003 -0.40663711634463268 0 0.050432421370333713 -0.42320051356081623 0 0.046509667952406512 -0.41833555967385072 0 0.054373060569327003 -0.40663711634463268 0 0.050432421370333713 -0.42320051356081623 0 0.054373060569327003 -0.40663711634463268 0 0.060774245729122177 -0.41691050055794487 0 0.050432421370333713 -0.42320051356081623 0 0.046509667952406512 -0.41833555967385072 0 0.050432421370333713 -0.42320051356081623 0 0.042121557959679479 -0.40689397827368962 0 0.046509667952406512 -0.41833555967385072 0 0.054373060569327003 -0.40663711634463268 0 0.069775570718114244 -0.40426700169235308 0 0.054373060569327003 -0.40663711634463268 0 0.060774245729122177 -0.41691050055794487 0 0.050432421370333713 -0.42320051356081623 0 0.04400553312424714 -0.45021417746364167 0 0.065913834705597293 -0.44240038517061198 0 0.050432421370333713 -0.42320051356081623 0 0.065913834705597293 -0.44240038517061198 0 0.065921365320016911 -0.4273577277455588 0 0.050432421370333713 -0.42320051356081623 0 0.065921365320016911 -0.4273577277455588 0 0.060774245729122177 -0.41691050055794487 0 0.050432421370333713 -0.42320051356081623 0 0.065913834705597293 -0.44240038517061198 0 0.050432421370333713 -0.42320051356081623 0 0.04400553312424714 -0.45021417746364167 0 0.065913834705597293 -0.44240038517061198 0 0.057068655694905858 -0.46015288389510001 0 0.04400553312424714 -0.45021417746364167 0 0.057068655694905858 -0.46015288389510001 0 0.048043393468649283 -0.46676160836513853 0 0.04400553312424714 -0.45021417746364167 0 0.067447632246636219 -0.45716428258124142 0 0.057068655694905858 -0.46015288389510001 0 0.05849497948899289 -0.47642287528831911 0 0.057068655694905858 -0.46015288389510001 0 0.048043393468649283 -0.46676160836513853 0 0.052635520687858477 -0.47072247146996382 0 0.04400553312424714 -0.45021417746364167 0 0.037578644878161642 -0.47722784136646751 0 0.048043393468649283 -0.46676160836513853 0 0.04400553312424714 -0.45021417746364167 0 0.037578644878161642 -0.47722784136646751 0 0.04400553312424714 -0.45021417746364167 0 0.030366658319331299 -0.45781827645911538 0 0.037578644878161642 -0.47722784136646751 0 0.028535899264767479 -0.43733174884408438 0 0.039909128579099777 -0.42893709763038412 0 0.04400553312424714 -0.45021417746364167 0 0.028535899264767479 -0.43733174884408438 0 0.04400553312424714 -0.45021417746364167 0 0.030366658319331299 -0.45781827645911538 0 0.028535899264767479 -0.43733174884408438 0 0.01480854687676085 -0.45072328586224342 0 0.030366658319331299 -0.45781827645911538 0 -0.008216644178786571 -0.4466179140804285 0 0.01224976062295041 -0.42183763890738629 0 0.01480854687676085 -0.45072328586224342 0 0.01480854687676085 -0.45072328586224342 0 0.017367333130571299 -0.47960893281710049 0 0.0084119176919832291 -0.471974008478943 0 -0.0021957942935651631 -0.46571035637089769 0 0.01480854687676085 -0.45072328586224342 0 0.0084119176919832291 -0.471974008478943 0 -0.008216644178786571 -0.4466179140804285 0 -0.0021957942935651631 -0.46571035637089769 0 0.01480854687676085 -0.45072328586224342 0 0.01480854687676085 -0.45072328586224342 0 0.017367333130571299 -0.47960893281710049 0 0.01480854687676085 -0.45072328586224342 0 0.030366658319331299 -0.45781827645911538 0 0.0269046674527194 -0.47359432875914009 0 0.01480854687676085 -0.45072328586224342 0 0.0269046674527194 -0.47359432875914009 0 0.017367333130571299 -0.47960893281710049 0 0.017367333130571299 -0.47960893281710049 0 0.012735562036971701 -0.48508522326900949 0 0.035615270762982369 -0.48075404927866472 0 0.012735562036971701 -0.48508522326900949 0 0.035615270762982369 -0.48075404927866472 0 0.0269046674527194 -0.47359432875914009 0 0.017367333130571299 -0.47960893281710049 0 0.035615270762982369 -0.48075404927866472 0 0.017367333130571299 -0.47960893281710049 0 0.0084119176919832291 -0.471974008478943 0 0.012735562036971701 -0.48508522326900949 0 -0.00065605929082254884 -0.47874224407546379 0 0.0084119176919832291 -0.471974008478943 0 0.012735562036971701 -0.48508522326900949 0 -0.0021957942935651631 -0.46571035637089769 0 -0.00065605929082254884 -0.47874224407546379 0 0.0084119176919832291 -0.471974008478943 0 -0.010144146689038991 -0.48941639725935437 0 -0.00065605929082254884 -0.47874224407546379 0 0.012735562036971701 -0.48508522326900949 0 -0.010144146689038991 -0.48941639725935437 0 0.012735562036971701 -0.48508522326900949 0 -0.011489863113854141 -0.5 0 0.012735562036971701 -0.48508522326900949 0 0.01802246382714956 -0.5 0 0.01802246382714956 -0.5 0 0.025329369399590369 -0.48901546815995378 0 0.047534790768153173 -0.50000000000000044 0 0.012735562036971701 -0.48508522326900949 0 0.025329369399590369 -0.48901546815995378 0 0.035615270762982369 -0.48075404927866472 0 0.012735562036971701 -0.48508522326900949 0 0.01802246382714956 -0.5 0 0.025329369399590369 -0.48901546815995378 0 0.025329369399590369 -0.48901546815995378 0 0.035615270762982369 -0.48075404927866472 0 0.047534790768153173 -0.50000000000000044 0 0.030366658319331299 -0.45781827645911538 0 0.0269046674527194 -0.47359432875914009 0 0.037578644878161642 -0.47722784136646751 0 0.0269046674527194 -0.47359432875914009 0 0.037578644878161642 -0.47722784136646751 0 0.035615270762982369 -0.48075404927866472 0 0.048043393468649283 -0.46676160836513853 0 0.037578644878161642 -0.47722784136646751 0 0.046296380844488463 -0.47463440362945558 0 0.035615270762982369 -0.48075404927866472 0 0.046296380844488463 -0.47463440362945558 0 0.049693011087844949 -0.4756354888466594 0 0.037578644878161642 -0.47722784136646751 0 0.035615270762982369 -0.48075404927866472 0 0.046296380844488463 -0.47463440362945558 0 0.057068655694905858 -0.46015288389510001 0 0.052635520687858477 -0.47072247146996382 0 0.05849497948899289 -0.47642287528831911 0 0.035615270762982369 -0.48075404927866472 0 0.049693011087844949 -0.4756354888466594 0 0.05849497948899289 -0.47642287528831911 0 0.035615270762982369 -0.48075404927866472 0 0.05849497948899289 -0.47642287528831911 0 0.048043393468649283 -0.46676160836513853 0 0.046296380844488463 -0.47463440362945558 0 0.052635520687858477 -0.47072247146996382 0 0.049693011087844949 -0.4756354888466594 0 0.052635520687858477 -0.47072247146996382 0 0.05849497948899289 -0.47642287528831911 0 0.046296380844488463 -0.47463440362945558 0 0.049693011087844949 -0.4756354888466594 0 0.052635520687858477 -0.47072247146996382 0 0.05849497948899289 -0.47642287528831911 0 0.061758178687080389 -0.47580514524370598 0 0.062670741706174135 -0.48944359682069549 0 0.064881374578912687 -0.4815757870058418 0 0.05849497948899289 -0.47642287528831911 0 0.064881374578912687 -0.4815757870058418 0 0.05849497948899289 -0.47642287528831911 0 0.061758178687080389 -0.47580514524370598 0 0.069142552082564368 -0.5 0 0.062670741706174135 -0.48944359682069549 0 0.047534790768153173 -0.50000000000000044 0 0.05849497948899289 -0.47642287528831911 0 0.047534790768153173 -0.50000000000000044 0 0.035615270762982369 -0.48075404927866472 0 0.05849497948899289 -0.47642287528831911 0 0.047534790768153173 -0.50000000000000044 0 0.062670741706174135 -0.48944359682069549 0 0.05849497948899289 -0.47642287528831911 0 0.047534790768153173 -0.50000000000000044 0 0.089727975817252392 -0.29646224842349211 0 0.069967983226982527 -0.30495776272600778 0 0.075483032258224086 -0.28815868119130272 0 0.089727975817252392 -0.29646224842349211 0 0.088503230311337153 -0.27716835087377989 0 0.101883582619993 -0.28460947857741209 0 0.089727975817252392 -0.29646224842349211 0 0.075483032258224086 -0.28815868119130272 0 0.088503230311337153 -0.27716835087377989 0 0.089727975817252392 -0.29646224842349211 0 0.086214248119208581 -0.31193359067875348 0 0.069967983226982527 -0.30495776272600778 0 0.089727975817252392 -0.29646224842349211 0 0.086214248119208581 -0.31193359067875348 0 0.10049372866807189 -0.31082656242210721 0 0.069967983226982527 -0.30495776272600778 0 0.075483032258224086 -0.28815868119130272 0 0.059449054433483903 -0.28956707473318272 0 0.075483032258224086 -0.28815868119130272 0 0.0646939085167762 -0.2722383315448984 0 0.059449054433483903 -0.28956707473318272 0 0.0646939085167762 -0.2722383315448984 0 0.077350866508299074 -0.27549126298099152 0 0.080723294946858856 -0.26439968831398508 0 0.075483032258224086 -0.28815868119130272 0 0.0646939085167762 -0.2722383315448984 0 0.077350866508299074 -0.27549126298099152 0 0.0646939085167762 -0.2722383315448984 0 0.070005134957367529 -0.25889031236374099 0 0.080723294946858856 -0.26439968831398508 0 0.070005134957367529 -0.25889031236374099 0 0.061490933840310687 -0.25382890142296882 0 0.070069103552599196 -0.24823964670048029 0 0.0646939085167762 -0.2722383315448984 0 0.070005134957367529 -0.25889031236374099 0 0.060614126731859473 -0.2624009925450973 0 0.070005134957367529 -0.25889031236374099 0 0.061490933840310687 -0.25382890142296882 0 0.060614126731859473 -0.2624009925450973 0 0.070005134957367529 -0.25889031236374099 0 0.080071368274292315 -0.25145738896057979 0 0.080723294946858856 -0.26439968831398508 0 0.070005134957367529 -0.25889031236374099 0 0.080071368274292315 -0.25145738896057979 0 0.070069103552599196 -0.24823964670048029 0 0.080071368274292315 -0.25145738896057979 0 0.080723294946858856 -0.26439968831398508 0 0.090706365013478091 -0.25245448435890872 0 0.080723294946858856 -0.26439968831398508 0 0.090706365013478091 -0.25245448435890872 0 0.095060577752172304 -0.26241188567384149 0 0.075483032258224086 -0.28815868119130272 0 0.077350866508299074 -0.27549126298099152 0 0.088503230311337153 -0.27716835087377989 0 0.077350866508299074 -0.27549126298099152 0 0.080723294946858856 -0.26439968831398508 0 0.088503230311337153 -0.27716835087377989 0 0.080723294946858856 -0.26439968831398508 0 0.088503230311337153 -0.27716835087377989 0 0.095060577752172304 -0.26241188567384149 0 0.088503230311337153 -0.27716835087377989 0 0.1016952336099234 -0.27235330725820578 0 0.101883582619993 -0.28460947857741209 0 0.088503230311337153 -0.27716835087377989 0 0.1016952336099234 -0.27235330725820578 0 0.095060577752172304 -0.26241188567384149 0 0.1016952336099234 -0.27235330725820578 0 0.1104739380917857 -0.2612093749811526 0 0.1125548392743288 -0.27636744618484282 0 0.1016952336099234 -0.27235330725820578 0 0.1125548392743288 -0.27636744618484282 0 0.101883582619993 -0.28460947857741209 0 0.090706365013478091 -0.25245448435890872 0 0.099550463170151926 -0.25262580003909579 0 0.095060577752172304 -0.26241188567384149 0 0.1016952336099234 -0.27235330725820578 0 0.095060577752172304 -0.26241188567384149 0 0.1104739380917857 -0.2612093749811526 0 0.099550463170151926 -0.25262580003909579 0 0.095060577752172304 -0.26241188567384149 0 0.1104739380917857 -0.2612093749811526 0 0.099550463170151926 -0.25262580003909579 0 0.1104739380917857 -0.2612093749811526 0 0.1078238037173969 -0.24832262031645649 0 0.1311170075682456 -0.27142576198599933 0 0.1104739380917857 -0.2612093749811526 0 0.1212054647883809 -0.25073068226796852 0 0.1104739380917857 -0.2612093749811526 0 0.1212054647883809 -0.25073068226796852 0 0.1078238037173969 -0.24832262031645649 0 0.1311170075682456 -0.27142576198599933 0 0.1104739380917857 -0.2612093749811526 0 0.1311170075682456 -0.27142576198599933 0 0.1104739380917857 -0.2612093749811526 0 0.1193620271946058 -0.27249351692823448 0 0.1104739380917857 -0.2612093749811526 0 0.1125548392743288 -0.27636744618484282 0 0.1193620271946058 -0.27249351692823448 0 0.1125548392743288 -0.27636744618484282 0 0.1193620271946058 -0.27249351692823448 0 0.1233023238440631 -0.28097148456094378 0 0.1311170075682456 -0.27142576198599933 0 0.1193620271946058 -0.27249351692823448 0 0.1233023238440631 -0.28097148456094378 0 0.1233023238440631 -0.28097148456094378 0 0.1242383748246253 -0.29131174999725179 0 0.1141297936923768 -0.28878453930630188 0 0.1242383748246253 -0.29131174999725179 0 0.1141297936923768 -0.28878453930630188 0 0.1198701537204314 -0.30089140532399938 0 0.1141297936923768 -0.28878453930630188 0 0.10622170970645189 -0.29895353846799488 0 0.1198701537204314 -0.30089140532399938 0 0.1125548392743288 -0.27636744618484282 0 0.1233023238440631 -0.28097148456094378 0 0.1141297936923768 -0.28878453930630188 0 0.1125548392743288 -0.27636744618484282 0 0.1141297936923768 -0.28878453930630188 0 0.101883582619993 -0.28460947857741209 0 0.089727975817252392 -0.29646224842349211 0 0.101883582619993 -0.28460947857741209 0 0.10622170970645189 -0.29895353846799488 0 0.1141297936923768 -0.28878453930630188 0 0.101883582619993 -0.28460947857741209 0 0.10622170970645189 -0.29895353846799488 0 0.089727975817252392 -0.29646224842349211 0 0.10049372866807189 -0.31082656242210721 0 0.10622170970645189 -0.29895353846799488 0 0.10049372866807189 -0.31082656242210721 0 0.10622170970645189 -0.29895353846799488 0 0.1134387524627216 -0.31086840579325631 0 0.10622170970645189 -0.29895353846799488 0 0.1134387524627216 -0.31086840579325631 0 0.1198701537204314 -0.30089140532399938 0 0.1265219532001009 -0.3124330460259736 0 0.1134387524627216 -0.31086840579325631 0 0.1198701537204314 -0.30089140532399938 0 0.1265219532001009 -0.3124330460259736 0 0.1134387524627216 -0.31086840579325631 0 0.1192961391526948 -0.32261879728377291 0 0.1134387524627216 -0.31086840579325631 0 0.1192961391526948 -0.32261879728377291 0 0.1082288303285789 -0.31948708523568958 0 0.1192961391526948 -0.32261879728377291 0 0.1093748658769356 -0.32997486192450581 0 0.1082288303285789 -0.31948708523568958 0 0.1192961391526948 -0.32261879728377291 0 0.1168506625355451 -0.3296807312869221 0 0.1093748658769356 -0.32997486192450581 0 0.1192961391526948 -0.32261879728377291 0 0.12260601330919629 -0.33072698382653798 0 0.1168506625355451 -0.3296807312869221 0 0.13219802669416811 -0.32498852212276208 0 0.1192961391526948 -0.32261879728377291 0 0.12260601330919629 -0.33072698382653798 0 0.13051916655351839 -0.33696304048325831 0 0.12260601330919629 -0.33072698382653798 0 0.1159240811174677 -0.33775964177068091 0 0.12260601330919629 -0.33072698382653798 0 0.1159240811174677 -0.33775964177068091 0 0.1161256318033537 -0.33540228211287182 0 0.12260601330919629 -0.33072698382653798 0 0.1168506625355451 -0.3296807312869221 0 0.1161256318033537 -0.33540228211287182 0 0.13051916655351839 -0.33696304048325831 0 0.1159240811174677 -0.33775964177068091 0 0.13051916655351839 -0.33696304048325831 0 0.1159240811174677 -0.33775964177068091 0 0.123981461538115 -0.35128285539313481 0 0.1159240811174677 -0.33775964177068091 0 0.1161256318033537 -0.33540228211287182 0 0.1168506625355451 -0.3296807312869221 0 0.1161256318033537 -0.33540228211287182 0 0.1093748658769356 -0.32997486192450581 0 0.1159240811174677 -0.33775964177068091 0 0.1161256318033537 -0.33540228211287182 0 0.1093748658769356 -0.32997486192450581 0 0.1159240811174677 -0.33775964177068091 0 0.092335912071574502 -0.33904708650077298 0 0.1159240811174677 -0.33775964177068091 0 0.1093748658769356 -0.32997486192450581 0 0.092335912071574502 -0.33904708650077298 0 0.1093748658769356 -0.32997486192450581 0 0.096347407600029022 -0.32440529872184809 0 0.092335912071574502 -0.33904708650077298 0 0.1159240811174677 -0.33775964177068091 0 0.10211321446004019 -0.35101158716873732 0 0.092335912071574502 -0.33904708650077298 0 0.086214248119208581 -0.31193359067875348 0 0.10049372866807189 -0.31082656242210721 0 0.096347407600029022 -0.32440529872184809 0 0.10049372866807189 -0.31082656242210721 0 0.1134387524627216 -0.31086840579325631 0 0.1082288303285789 -0.31948708523568958 0 0.10049372866807189 -0.31082656242210721 0 0.096347407600029022 -0.32440529872184809 0 0.1082288303285789 -0.31948708523568958 0 0.1093748658769356 -0.32997486192450581 0 0.096347407600029022 -0.32440529872184809 0 0.1082288303285789 -0.31948708523568958 0 0.12784456261830821 -0.36308533366748658 0 0.12609635470998201 -0.38402791619100712 0 0.113745377556003 -0.36324200547299851 0 0.1159240811174677 -0.33775964177068091 0 0.113745377556003 -0.36324200547299851 0 0.123981461538115 -0.35128285539313481 0 0.1159240811174677 -0.33775964177068091 0 0.113745377556003 -0.36324200547299851 0 0.1159240811174677 -0.33775964177068091 0 0.113745377556003 -0.36324200547299851 0 0.10211321446004019 -0.35101158716873732 0 0.12784456261830821 -0.36308533366748658 0 0.113745377556003 -0.36324200547299851 0 0.123981461538115 -0.35128285539313481 0 0.1115666739945345 -0.38872436917531578 0 0.113745377556003 -0.36324200547299851 0 0.096372132326470572 -0.36542491223168638 0 0.113745377556003 -0.36324200547299851 0 0.10211321446004019 -0.35101158716873732 0 0.096372132326470572 -0.36542491223168638 0 0.089853218628298884 -0.38394717958202601 0 0.096372132326470572 -0.36542491223168638 0 0.07582030708563034 -0.37256671738353597 0 0.096372132326470572 -0.36542491223168638 0 0.082110249222110576 -0.35466523699539548 0 0.07582030708563034 -0.37256671738353597 0 0.10211321446004019 -0.35101158716873732 0 0.096372132326470572 -0.36542491223168638 0 0.082110249222110576 -0.35466523699539548 0 0.082110249222110576 -0.35466523699539548 0 0.092335912071574502 -0.33904708650077298 0 0.068747743025681235 -0.34033453123086538 0 0.10211321446004019 -0.35101158716873732 0 0.082110249222110576 -0.35466523699539548 0 0.092335912071574502 -0.33904708650077298 0 0.082110249222110576 -0.35466523699539548 0 0.068747743025681235 -0.34033453123086538 0 0.057272186363266697 -0.35960658745677498 0 0.082110249222110576 -0.35466523699539548 0 0.07582030708563034 -0.37256671738353597 0 0.057272186363266697 -0.35960658745677498 0 0.05933500968155693 -0.37671477575793533 0 0.07582030708563034 -0.37256671738353597 0 0.057272186363266697 -0.35960658745677498 0 0.086214248119208581 -0.31193359067875348 0 0.096347407600029022 -0.32440529872184809 0 0.078030795921920637 -0.32434601069550512 0 0.092335912071574502 -0.33904708650077298 0 0.068747743025681235 -0.34033453123086538 0 0.078030795921920637 -0.32434601069550512 0 0.092335912071574502 -0.33904708650077298 0 0.068747743025681235 -0.34033453123086538 0 0.096347407600029022 -0.32440529872184809 0 0.092335912071574502 -0.33904708650077298 0 0.078030795921920637 -0.32434601069550512 0 0.068747743025681235 -0.34033453123086538 0 0.078030795921920637 -0.32434601069550512 0 0.053863538987460123 -0.3232816795844588 0 0.069967983226982527 -0.30495776272600778 0 0.078030795921920637 -0.32434601069550512 0 0.053863538987460123 -0.3232816795844588 0 0.086214248119208581 -0.31193359067875348 0 0.069967983226982527 -0.30495776272600778 0 0.078030795921920637 -0.32434601069550512 0 0.068747743025681235 -0.34033453123086538 0 0.045159573979787898 -0.34162197596095778 0 0.068747743025681235 -0.34033453123086538 0 0.053863538987460123 -0.3232816795844588 0 0.045159573979787898 -0.34162197596095778 0 0.053863538987460123 -0.3232816795844588 0 0.034832013842728909 -0.33032259781876938 0 0.045159573979787898 -0.34162197596095778 0 0.034832013842728909 -0.33032259781876938 0 0.045159573979787898 -0.34162197596095778 0 0.02157140493389462 -0.34290942069105018 0 0.045159573979787898 -0.34162197596095778 0 0.02157140493389462 -0.34290942069105018 0 0.053863538987460123 -0.3232816795844588 0 0.034832013842728909 -0.33032259781876938 0 0.03621734991660093 -0.31670946998547028 0 0.053863538987460123 -0.3232816795844588 0 0.03621734991660093 -0.31670946998547028 0 0.048768037075517537 -0.30442990221103089 0 0.05933500968155693 -0.37671477575793533 0 0.057272186363266697 -0.35960658745677498 0 0.039079294002052851 -0.37065651216905859 0 0.068747743025681235 -0.34033453123086538 0 0.045159573979787898 -0.34162197596095778 0 0.057272186363266697 -0.35960658745677498 0 0.045159573979787898 -0.34162197596095778 0 0.034512899630155462 -0.3545258348651717 0 0.02157140493389462 -0.34290942069105018 0 0.045159573979787898 -0.34162197596095778 0 0.057272186363266697 -0.35960658745677498 0 0.034512899630155462 -0.3545258348651717 0 0.057272186363266697 -0.35960658745677498 0 0.034512899630155462 -0.3545258348651717 0 0.039079294002052851 -0.37065651216905859 0 0.025542853711361019 -0.38384675294920401 0 0.039079294002052851 -0.37065651216905859 0 0.016784443680880379 -0.36713146693108112 0 0.034512899630155462 -0.3545258348651717 0 0.039079294002052851 -0.37065651216905859 0 0.016784443680880379 -0.36713146693108112 0 0.034512899630155462 -0.3545258348651717 0 0.016784443680880379 -0.36713146693108112 0 0.02157140493389462 -0.34290942069105018 0 -0.0043130761299947744 -0.35643483176966217 0 0.016784443680880379 -0.36713146693108112 0 0.02157140493389462 -0.34290942069105018 0 -0.0038616663111063101 -0.33241552487502413 0 -0.0043130761299947744 -0.35643483176966217 0 0.02157140493389462 -0.34290942069105018 0 -0.0043130761299947744 -0.35643483176966217 0 -0.0064694903547723136 -0.38059021958606692 0 0.016784443680880379 -0.36713146693108112 0 0.03621734991660093 -0.31670946998547028 0 0.020048637459846991 -0.32439583124448262 0 0.029165048793799431 -0.30349547286963757 0 0.034832013842728909 -0.33032259781876938 0 0.03621734991660093 -0.31670946998547028 0 0.020048637459846991 -0.32439583124448262 0 0.020048637459846991 -0.32439583124448262 0 0.0094652366165251054 -0.31053241408104548 0 0.029165048793799431 -0.30349547286963757 0 0.034832013842728909 -0.33032259781876938 0 0.020048637459846991 -0.32439583124448262 0 0.02157140493389462 -0.34290942069105018 0 -0.0038616663111063101 -0.33241552487502413 0 0.020048637459846991 -0.32439583124448262 0 0.02157140493389462 -0.34290942069105018 0 -0.0038616663111063101 -0.33241552487502413 0 0.020048637459846991 -0.32439583124448262 0 0.0094652366165251054 -0.31053241408104548 0 -0.01007927323019326 -0.3103345258507364 0 0.0094652366165251054 -0.31053241408104548 0 0.0017563221397047381 -0.2997067901486577 0 0.0094652366165251054 -0.31053241408104548 0 0.0017563221397047381 -0.2997067901486577 0 0.017453688627786131 -0.29322190620108468 0 0.0017563221397047381 -0.2997067901486577 0 0.0066437179820165657 -0.2861171845936395 0 0.017453688627786131 -0.29322190620108468 0 -0.0080748459131490501 -0.2914060437848453 0 0.0017563221397047381 -0.2997067901486577 0 0.0066437179820165657 -0.2861171845936395 0 0.0066437179820165657 -0.2861171845936395 0 0.017453688627786131 -0.29322190620108468 0 0.01908241754038794 -0.28073467218482329 0 0.017453688627786131 -0.29322190620108468 0 0.029398966714908509 -0.28692964748338379 0 0.029165048793799431 -0.30349547286963757 0 0.017453688627786131 -0.29322190620108468 0 0.029398966714908509 -0.28692964748338379 0 0.01908241754038794 -0.28073467218482329 0 0.0094652366165251054 -0.31053241408104548 0 0.017453688627786131 -0.29322190620108468 0 0.029165048793799431 -0.30349547286963757 0 0.03621734991660093 -0.31670946998547028 0 0.029165048793799431 -0.30349547286963757 0 0.048768037075517537 -0.30442990221103089 0 0.029165048793799431 -0.30349547286963757 0 0.043029943860180789 -0.28970337243015992 0 0.048768037075517537 -0.30442990221103089 0 0.029398966714908509 -0.28692964748338379 0 0.029165048793799431 -0.30349547286963757 0 0.043029943860180789 -0.28970337243015992 0 0.029398966714908509 -0.28692964748338379 0 0.043029943860180789 -0.28970337243015992 0 0.038396769586432553 -0.27977596087564799 0 0.043029943860180789 -0.28970337243015992 0 0.051749435803858171 -0.27840569125857739 0 0.038396769586432553 -0.27977596087564799 0 0.043029943860180789 -0.28970337243015992 0 0.059449054433483903 -0.28956707473318272 0 0.051749435803858171 -0.27840569125857739 0 0.043029943860180789 -0.28970337243015992 0 0.059449054433483903 -0.28956707473318272 0 0.048768037075517537 -0.30442990221103089 0 0.069967983226982527 -0.30495776272600778 0 0.059449054433483903 -0.28956707473318272 0 0.048768037075517537 -0.30442990221103089 0 0.069967983226982527 -0.30495776272600778 0 0.053863538987460123 -0.3232816795844588 0 0.048768037075517537 -0.30442990221103089 0 0.053380735395516472 -0.25867595766617779 0 0.04428054005230446 -0.26275141268032309 0 0.045372505498807933 -0.25408090721008542 0 0.053380735395516472 -0.25867595766617779 0 0.053158010572478251 -0.26777612517812432 0 0.04428054005230446 -0.26275141268032309 0 0.053380735395516472 -0.25867595766617779 0 0.045372505498807933 -0.25408090721008542 0 0.05268811686830014 -0.24901610311096159 0 0.053380735395516472 -0.25867595766617779 0 0.061490933840310687 -0.25382890142296882 0 0.05268811686830014 -0.24901610311096159 0 0.053380735395516472 -0.25867595766617779 0 0.060614126731859473 -0.2624009925450973 0 0.053158010572478251 -0.26777612517812432 0 0.053380735395516472 -0.25867595766617779 0 0.061490933840310687 -0.25382890142296882 0 0.060614126731859473 -0.2624009925450973 0 0.0646939085167762 -0.2722383315448984 0 0.060614126731859473 -0.2624009925450973 0 0.053158010572478251 -0.26777612517812432 0 0.0646939085167762 -0.2722383315448984 0 0.059449054433483903 -0.28956707473318272 0 0.051749435803858171 -0.27840569125857739 0 0.0646939085167762 -0.2722383315448984 0 0.051749435803858171 -0.27840569125857739 0 0.053158010572478251 -0.26777612517812432 0 0.053158010572478251 -0.26777612517812432 0 0.044229316934554799 -0.27218436537367241 0 0.04428054005230446 -0.26275141268032309 0 0.051749435803858171 -0.27840569125857739 0 0.053158010572478251 -0.26777612517812432 0 0.044229316934554799 -0.27218436537367241 0 0.044229316934554799 -0.27218436537367241 0 0.031885251388666561 -0.26470215361104171 0 0.04428054005230446 -0.26275141268032309 0 0.051749435803858171 -0.27840569125857739 0 0.044229316934554799 -0.27218436537367241 0 0.038396769586432553 -0.27977596087564799 0 0.044229316934554799 -0.27218436537367241 0 0.038396769586432553 -0.27977596087564799 0 0.029696712261103771 -0.27487286106778819 0 0.029398966714908509 -0.28692964748338379 0 0.038396769586432553 -0.27977596087564799 0 0.029696712261103771 -0.27487286106778819 0 0.044229316934554799 -0.27218436537367241 0 0.031885251388666561 -0.26470215361104171 0 0.029696712261103771 -0.27487286106778819 0 0.037315510146954597 -0.25849363249326118 0 0.031885251388666561 -0.26470215361104171 0 0.04428054005230446 -0.26275141268032309 0 0.037315510146954597 -0.25849363249326118 0 0.031885251388666561 -0.26470215361104171 0 0.03069464768829987 -0.25176037071845259 0 0.037315510146954597 -0.25849363249326118 0 0.04428054005230446 -0.26275141268032309 0 0.045372505498807933 -0.25408090721008542 0 0.045372505498807933 -0.25408090721008542 0 0.03069464768829987 -0.25176037071845259 0 0.042588116356466379 -0.2448823624008481 0 0.037315510146954597 -0.25849363249326118 0 0.045372505498807933 -0.25408090721008542 0 0.03069464768829987 -0.25176037071845259 0 0.031885251388666561 -0.26470215361104171 0 0.021199614426200629 -0.26114166245967918 0 0.019908913466960752 -0.27058631964059482 0 0.031885251388666561 -0.26470215361104171 0 0.03069464768829987 -0.25176037071845259 0 0.021199614426200629 -0.26114166245967918 0 0.03069464768829987 -0.25176037071845259 0 0.021199614426200629 -0.26114166245967918 0 0.016145176335298529 -0.25210595968411048 0 0.029398966714908509 -0.28692964748338379 0 0.029696712261103771 -0.27487286106778819 0 0.01908241754038794 -0.28073467218482329 0 0.031885251388666561 -0.26470215361104171 0 0.029696712261103771 -0.27487286106778819 0 0.019908913466960752 -0.27058631964059482 0 0.019908913466960752 -0.27058631964059482 0 0.01908241754038794 -0.28073467218482329 0 0.01128192931255503 -0.27464126756021451 0 0.029696712261103771 -0.27487286106778819 0 0.019908913466960752 -0.27058631964059482 0 0.01908241754038794 -0.28073467218482329 0 -0.01145854626600548 -0.26602311564559261 0 0.01128192931255503 -0.27464126756021451 0 0.0057158633005241696 -0.26337829885565528 0 0.0066437179820165657 -0.2861171845936395 0 0.01908241754038794 -0.28073467218482329 0 0.01128192931255503 -0.27464126756021451 0 0.019908913466960752 -0.27058631964059482 0 0.01128192931255503 -0.27464126756021451 0 0.0057158633005241696 -0.26337829885565528 0 -0.002848760243290064 -0.27761611820401882 0 0.0066437179820165657 -0.2861171845936395 0 0.01128192931255503 -0.27464126756021451 0 0.016145176335298529 -0.25210595968411048 0 0.0057158633005241696 -0.26337829885565528 0 0.0054759062840018038 -0.25064707341720888 0 0.021199614426200629 -0.26114166245967918 0 0.019908913466960752 -0.27058631964059482 0 0.0057158633005241696 -0.26337829885565528 0 0.021199614426200629 -0.26114166245967918 0 0.016145176335298529 -0.25210595968411048 0 0.0057158633005241696 -0.26337829885565528 0 -0.0009620894167222515 -0.25496392916579452 0 0.0057158633005241696 -0.26337829885565528 0 0.0054759062840018038 -0.25064707341720888 0 -0.0009620894167222515 -0.25496392916579452 0 -0.0029313858115674811 -0.24854412401401971 0 0.0054759062840018038 -0.25064707341720888 0 0.0054759062840018038 -0.25064707341720888 0 0.0026199421412959989 -0.2430643023623929 0 0.011589873569895199 -0.24127835128668559 0 -0.0029313858115674811 -0.24854412401401971 0 0.0054759062840018038 -0.25064707341720888 0 0.0026199421412959989 -0.2430643023623929 0 0.016145176335298529 -0.25210595968411048 0 0.0054759062840018038 -0.25064707341720888 0 0.011589873569895199 -0.24127835128668559 0 0.011589873569895199 -0.24127835128668559 0 0.010668172172219499 -0.2272828987723072 0 0.020574075722817331 -0.2351284197632682 0 0.0026199421412959989 -0.2430643023623929 0 0.011589873569895199 -0.24127835128668559 0 0.0017465435191736189 -0.23378549097037141 0 -0.00080535468136348092 -0.21995366459000901 0 0.010668172172219499 -0.2272828987723072 0 0.01016515501406726 -0.20926501301563591 0 -0.00080535468136348092 -0.21995366459000901 0 0.0017465435191736189 -0.23378549097037141 0 0.010668172172219499 -0.2272828987723072 0 0.010668172172219499 -0.2272828987723072 0 0.02170661161633574 -0.22145314359659171 0 0.01016515501406726 -0.20926501301563591 0 0.011589873569895199 -0.24127835128668559 0 0.0017465435191736189 -0.23378549097037141 0 0.010668172172219499 -0.2272828987723072 0 0.010668172172219499 -0.2272828987723072 0 0.02170661161633574 -0.22145314359659171 0 0.020574075722817331 -0.2351284197632682 0 0.02170661161633574 -0.22145314359659171 0 0.02866695829179056 -0.22960637228307629 0 0.036392787169896093 -0.22322562645731159 0 0.02170661161633574 -0.22145314359659171 0 0.02866695829179056 -0.22960637228307629 0 0.020574075722817331 -0.2351284197632682 0 0.02866695829179056 -0.22960637228307629 0 0.020574075722817331 -0.2351284197632682 0 0.032071787069821417 -0.24054619649286721 0 0.022195152742869501 -0.2444300013669817 0 0.020574075722817331 -0.2351284197632682 0 0.032071787069821417 -0.24054619649286721 0 0.03069464768829987 -0.25176037071845259 0 0.022195152742869501 -0.2444300013669817 0 0.032071787069821417 -0.24054619649286721 0 0.03069464768829987 -0.25176037071845259 0 0.016145176335298529 -0.25210595968411048 0 0.022195152742869501 -0.2444300013669817 0 0.016145176335298529 -0.25210595968411048 0 0.011589873569895199 -0.24127835128668559 0 0.022195152742869501 -0.2444300013669817 0 0.011589873569895199 -0.24127835128668559 0 0.022195152742869501 -0.2444300013669817 0 0.020574075722817331 -0.2351284197632682 0 -0.003739977245034012 -0.19168309442994089 0 0.010514116253606281 -0.1925853606064957 0 0.01016515501406726 -0.20926501301563591 0 0.010514116253606281 -0.1925853606064957 0 0.01016515501406726 -0.20926501301563591 0 0.018596641755985681 -0.20049862993462389 0 0.02170661161633574 -0.22145314359659171 0 0.01016515501406726 -0.20926501301563591 0 0.028304225500431591 -0.20785134554231141 0 0.01016515501406726 -0.20926501301563591 0 0.028304225500431591 -0.20785134554231141 0 0.018596641755985681 -0.20049862993462389 0 0.02170661161633574 -0.22145314359659171 0 0.028304225500431591 -0.20785134554231141 0 0.036392787169896093 -0.22322562645731159 0 0.028304225500431591 -0.20785134554231141 0 0.018596641755985681 -0.20049862993462389 0 0.02540307025583758 -0.19229280057405279 0 0.010514116253606281 -0.1925853606064957 0 0.018596641755985681 -0.20049862993462389 0 0.02540307025583758 -0.19229280057405279 0 0.010514116253606281 -0.1925853606064957 0 0.02540307025583758 -0.19229280057405279 0 0.015764016274472759 -0.1812646672695073 0 0.02540307025583758 -0.19229280057405279 0 0.041440672425083092 -0.19607701236864419 0 0.030421272951226121 -0.1778391783376792 0 0.028304225500431591 -0.20785134554231141 0 0.02540307025583758 -0.19229280057405279 0 0.041440672425083092 -0.19607701236864419 0 0.041440672425083092 -0.19607701236864419 0 0.042310424588804782 -0.2140630995529598 0 0.055497750511994078 -0.2086068857692274 0 0.028304225500431591 -0.20785134554231141 0 0.041440672425083092 -0.19607701236864419 0 0.042310424588804782 -0.2140630995529598 0 0.028304225500431591 -0.20785134554231141 0 0.042310424588804782 -0.2140630995529598 0 0.036392787169896093 -0.22322562645731159 0 0.042310424588804782 -0.2140630995529598 0 0.055497750511994078 -0.2086068857692274 0 0.052955454276687589 -0.2198291654371925 0 0.062338921595789062 -0.21792006704763969 0 0.055497750511994078 -0.2086068857692274 0 0.052955454276687589 -0.2198291654371925 0 0.062338921595789062 -0.21792006704763969 0 0.055497750511994078 -0.2086068857692274 0 0.067863046951983474 -0.20503048868511209 0 0.055497750511994078 -0.2086068857692274 0 0.056257937900538298 -0.19577788601322099 0 0.067863046951983474 -0.20503048868511209 0 0.041440672425083092 -0.19607701236864419 0 0.056257937900538298 -0.19577788601322099 0 0.051449240160577621 -0.1762857105508405 0 0.041440672425083092 -0.19607701236864419 0 0.055497750511994078 -0.2086068857692274 0 0.056257937900538298 -0.19577788601322099 0 0.040491861427302538 -0.2355872617630255 0 0.042588116356466379 -0.2448823624008481 0 0.052307832003780613 -0.23884346229351339 0 0.040491861427302538 -0.2355872617630255 0 0.045866106706223042 -0.22907627795895011 0 0.052307832003780613 -0.23884346229351339 0 0.03069464768829987 -0.25176037071845259 0 0.042588116356466379 -0.2448823624008481 0 0.032071787069821417 -0.24054619649286721 0 0.040491861427302538 -0.2355872617630255 0 0.042588116356466379 -0.2448823624008481 0 0.032071787069821417 -0.24054619649286721 0 0.02866695829179056 -0.22960637228307629 0 0.040491861427302538 -0.2355872617630255 0 0.032071787069821417 -0.24054619649286721 0 0.02866695829179056 -0.22960637228307629 0 0.040491861427302538 -0.2355872617630255 0 0.036392787169896093 -0.22322562645731159 0 0.042310424588804782 -0.2140630995529598 0 0.036392787169896093 -0.22322562645731159 0 0.045866106706223042 -0.22907627795895011 0 0.040491861427302538 -0.2355872617630255 0 0.036392787169896093 -0.22322562645731159 0 0.045866106706223042 -0.22907627795895011 0 0.045866106706223042 -0.22907627795895011 0 0.058764067980626958 -0.22947949685718549 0 0.052307832003780613 -0.23884346229351339 0 0.045866106706223042 -0.22907627795895011 0 0.052955454276687589 -0.2198291654371925 0 0.058764067980626958 -0.22947949685718549 0 0.042310424588804782 -0.2140630995529598 0 0.045866106706223042 -0.22907627795895011 0 0.052955454276687589 -0.2198291654371925 0 0.062338921595789062 -0.21792006704763969 0 0.058764067980626958 -0.22947949685718549 0 0.065719467571416057 -0.22489822263154319 0 0.062338921595789062 -0.21792006704763969 0 0.052955454276687589 -0.2198291654371925 0 0.058764067980626958 -0.22947949685718549 0 0.058764067980626958 -0.22947949685718549 0 0.062159259289524899 -0.2368834247622158 0 0.052307832003780613 -0.23884346229351339 0 0.062159259289524899 -0.2368834247622158 0 0.052307832003780613 -0.23884346229351339 0 0.061229972926465738 -0.2445427902389527 0 0.045372505498807933 -0.25408090721008542 0 0.042588116356466379 -0.2448823624008481 0 0.05268811686830014 -0.24901610311096159 0 0.042588116356466379 -0.2448823624008481 0 0.052307832003780613 -0.23884346229351339 0 0.05268811686830014 -0.24901610311096159 0 0.061490933840310687 -0.25382890142296882 0 0.05268811686830014 -0.24901610311096159 0 0.061229972926465738 -0.2445427902389527 0 0.052307832003780613 -0.23884346229351339 0 0.05268811686830014 -0.24901610311096159 0 0.061229972926465738 -0.2445427902389527 0 0.061490933840310687 -0.25382890142296882 0 0.061229972926465738 -0.2445427902389527 0 0.070069103552599196 -0.24823964670048029 0 0.061229972926465738 -0.2445427902389527 0 0.070069103552599196 -0.24823964670048029 0 0.069856411684105391 -0.23913895996007839 0 0.062159259289524899 -0.2368834247622158 0 0.061229972926465738 -0.2445427902389527 0 0.069856411684105391 -0.23913895996007839 0 0.062159259289524899 -0.2368834247622158 0 0.069856411684105391 -0.23913895996007839 0 0.067142239376285745 -0.23139328163069281 0 0.069856411684105391 -0.23913895996007839 0 0.077788170153509889 -0.24196191377257101 0 0.076767606518392539 -0.23187249677345001 0 0.080071368274292315 -0.25145738896057979 0 0.070069103552599196 -0.24823964670048029 0 0.077788170153509889 -0.24196191377257101 0 0.070069103552599196 -0.24823964670048029 0 0.069856411684105391 -0.23913895996007839 0 0.077788170153509889 -0.24196191377257101 0 0.080071368274292315 -0.25145738896057979 0 0.090706365013478091 -0.25245448435890872 0 0.085906732882507178 -0.24385162082211831 0 0.080071368274292315 -0.25145738896057979 0 0.077788170153509889 -0.24196191377257101 0 0.085906732882507178 -0.24385162082211831 0 0.077788170153509889 -0.24196191377257101 0 0.085906732882507178 -0.24385162082211831 0 0.083256636250354649 -0.23616880796388259 0 0.077788170153509889 -0.24196191377257101 0 0.083256636250354649 -0.23616880796388259 0 0.076767606518392539 -0.23187249677345001 0 0.085906732882507178 -0.24385162082211831 0 0.089657973372422345 -0.23730775202069579 0 0.094006026236525903 -0.2441335510050745 0 0.085906732882507178 -0.24385162082211831 0 0.083256636250354649 -0.23616880796388259 0 0.089657973372422345 -0.23730775202069579 0 0.083256636250354649 -0.23616880796388259 0 0.089657973372422345 -0.23730775202069579 0 0.089763789457938253 -0.2306791647953326 0 0.089657973372422345 -0.23730775202069579 0 0.089763789457938253 -0.2306791647953326 0 0.096012267649498176 -0.23702186761809721 0 0.089657973372422345 -0.23730775202069579 0 0.094006026236525903 -0.2441335510050745 0 0.096012267649498176 -0.23702186761809721 0 0.090706365013478091 -0.25245448435890872 0 0.085906732882507178 -0.24385162082211831 0 0.094006026236525903 -0.2441335510050745 0 0.086446736705125371 -0.22420087797706609 0 0.091303359373345411 -0.22339335178318359 0 0.089763789457938253 -0.2306791647953326 0 0.086446736705125371 -0.22420087797706609 0 0.091303359373345411 -0.22339335178318359 0 0.086853981468707001 -0.2185547472363609 0 0.091303359373345411 -0.22339335178318359 0 0.086853981468707001 -0.2185547472363609 0 0.09077468002378962 -0.21857675351640271 0 0.091303359373345411 -0.22339335178318359 0 0.09077468002378962 -0.21857675351640271 0 0.094530837428433365 -0.22086489816084981 0 0.091303359373345411 -0.22339335178318359 0 0.089763789457938253 -0.2306791647953326 0 0.098670227838192195 -0.22970514568366851 0 0.086446736705125371 -0.22420087797706609 0 0.089763789457938253 -0.2306791647953326 0 0.083020570332336119 -0.22791650227557511 0 0.083256636250354649 -0.23616880796388259 0 0.083020570332336119 -0.22791650227557511 0 0.076767606518392539 -0.23187249677345001 0 0.083256636250354649 -0.23616880796388259 0 0.089763789457938253 -0.2306791647953326 0 0.083020570332336119 -0.22791650227557511 0 0.083020570332336119 -0.22791650227557511 0 0.077930889523722374 -0.22519622511208121 0 0.076767606518392539 -0.23187249677345001 0 0.083020570332336119 -0.22791650227557511 0 0.081291982893300085 -0.22046062379487821 0 0.077930889523722374 -0.22519622511208121 0 0.086446736705125371 -0.22420087797706609 0 0.083020570332336119 -0.22791650227557511 0 0.081291982893300085 -0.22046062379487821 0 0.086446736705125371 -0.22420087797706609 0 0.081291982893300085 -0.22046062379487821 0 0.086853981468707001 -0.2185547472363609 0 0.081291982893300085 -0.22046062379487821 0 0.077930889523722374 -0.22519622511208121 0 0.073706539318973169 -0.21796036257100029 0 0.072234091795087663 -0.22574485878751241 0 0.065719467571416057 -0.22489822263154319 0 0.073706539318973169 -0.21796036257100029 0 0.077930889523722374 -0.22519622511208121 0 0.072234091795087663 -0.22574485878751241 0 0.073706539318973169 -0.21796036257100029 0 0.069856411684105391 -0.23913895996007839 0 0.076767606518392539 -0.23187249677345001 0 0.067142239376285745 -0.23139328163069281 0 0.072234091795087663 -0.22574485878751241 0 0.076767606518392539 -0.23187249677345001 0 0.067142239376285745 -0.23139328163069281 0 0.077930889523722374 -0.22519622511208121 0 0.072234091795087663 -0.22574485878751241 0 0.076767606518392539 -0.23187249677345001 0 0.058764067980626958 -0.22947949685718549 0 0.062159259289524899 -0.2368834247622158 0 0.067142239376285745 -0.23139328163069281 0 0.058764067980626958 -0.22947949685718549 0 0.067142239376285745 -0.23139328163069281 0 0.065719467571416057 -0.22489822263154319 0 0.072234091795087663 -0.22574485878751241 0 0.067142239376285745 -0.23139328163069281 0 0.065719467571416057 -0.22489822263154319 0 0.062338921595789062 -0.21792006704763969 0 0.065719467571416057 -0.22489822263154319 0 0.073706539318973169 -0.21796036257100029 0 0.062338921595789062 -0.21792006704763969 0 0.067863046951983474 -0.20503048868511209 0 0.073706539318973169 -0.21796036257100029 0 0.067863046951983474 -0.20503048868511209 0 0.073706539318973169 -0.21796036257100029 0 0.079094442607528917 -0.20913243433380641 0 0.067863046951983474 -0.20503048868511209 0 0.081482512553192915 -0.1953056794767786 0 0.079094442607528917 -0.20913243433380641 0 0.056257937900538298 -0.19577788601322099 0 0.067863046951983474 -0.20503048868511209 0 0.066040058368007956 -0.18964665730407451 0 0.067863046951983474 -0.20503048868511209 0 0.066040058368007956 -0.18964665730407451 0 0.081482512553192915 -0.1953056794767786 0 0.081482512553192915 -0.1953056794767786 0 0.095454742848087734 -0.19451486061966669 0 0.093505174579280592 -0.1731787749771625 0 0.081482512553192915 -0.1953056794767786 0 0.08833530696517819 -0.21036332105093219 0 0.095454742848087734 -0.19451486061966669 0 0.08833530696517819 -0.21036332105093219 0 0.097404311116896569 -0.21585094626217091 0 0.095454742848087734 -0.19451486061966669 0 0.081291982893300085 -0.22046062379487821 0 0.073706539318973169 -0.21796036257100029 0 0.082946926161669862 -0.2149195339015407 0 0.082946926161669862 -0.2149195339015407 0 0.079094442607528917 -0.20913243433380641 0 0.08833530696517819 -0.21036332105093219 0 0.073706539318973169 -0.21796036257100029 0 0.082946926161669862 -0.2149195339015407 0 0.079094442607528917 -0.20913243433380641 0 0.081291982893300085 -0.22046062379487821 0 0.082946926161669862 -0.2149195339015407 0 0.086853981468707001 -0.2185547472363609 0 0.081482512553192915 -0.1953056794767786 0 0.079094442607528917 -0.20913243433380641 0 0.08833530696517819 -0.21036332105093219 0 0.082946926161669862 -0.2149195339015407 0 0.08833530696517819 -0.21036332105093219 0 0.086853981468707001 -0.2185547472363609 0 0.08833530696517819 -0.21036332105093219 0 0.086853981468707001 -0.2185547472363609 0 0.09077468002378962 -0.21857675351640271 0 0.08833530696517819 -0.21036332105093219 0 0.09077468002378962 -0.21857675351640271 0 0.092213447725184278 -0.21529843562297729 0 0.08833530696517819 -0.21036332105093219 0 0.092213447725184278 -0.21529843562297729 0 0.097404311116896569 -0.21585094626217091 0 0.09077468002378962 -0.21857675351640271 0 0.094501608789943028 -0.21679829355882299 0 0.094530837428433365 -0.22086489816084981 0 0.09077468002378962 -0.21857675351640271 0 0.092213447725184278 -0.21529843562297729 0 0.094501608789943028 -0.21679829355882299 0 0.094501608789943028 -0.21679829355882299 0 0.097404311116896569 -0.21585094626217091 0 0.094530837428433365 -0.22086489816084981 0 0.092213447725184278 -0.21529843562297729 0 0.094501608789943028 -0.21679829355882299 0 0.097404311116896569 -0.21585094626217091 0 0.097404311116896569 -0.21585094626217091 0 0.095454742848087734 -0.19451486061966669 0 0.097404311116896569 -0.21585094626217091 0 0.1059898830346106 -0.20430933332548051 0 0.095454742848087734 -0.19451486061966669 0 0.097404311116896569 -0.21585094626217091 0 0.1089347031997706 -0.21297733173581901 0 0.1146171121197104 -0.21980430615730401 0 0.097404311116896569 -0.21585094626217091 0 0.1059898830346106 -0.20430933332548051 0 0.1089347031997706 -0.21297733173581901 0 0.095454742848087734 -0.19451486061966669 0 0.1128143282819509 -0.19216489626002589 0 0.10772522460311169 -0.17968171223372481 0 0.1059898830346106 -0.20430933332548051 0 0.095454742848087734 -0.19451486061966669 0 0.1128143282819509 -0.19216489626002589 0 0.1128143282819509 -0.19216489626002589 0 0.1237689835273371 -0.19605207676116951 0 0.1178461100078927 -0.20838697738218431 0 0.1059898830346106 -0.20430933332548051 0 0.1128143282819509 -0.19216489626002589 0 0.1178461100078927 -0.20838697738218431 0 0.1128143282819509 -0.19216489626002589 0 0.1237689835273371 -0.19605207676116951 0 0.1232013989280239 -0.1819146573535104 0 0.1089347031997706 -0.21297733173581901 0 0.1178461100078927 -0.20838697738218431 0 0.1146171121197104 -0.21980430615730401 0 0.1059898830346106 -0.20430933332548051 0 0.1089347031997706 -0.21297733173581901 0 0.1178461100078927 -0.20838697738218431 0 0.1178461100078927 -0.20838697738218431 0 0.1146171121197104 -0.21980430615730401 0 0.12895394136930069 -0.22163642029703709 0 0.1146171121197104 -0.21980430615730401 0 0.12018370186474731 -0.23305432747703519 0 0.12895394136930069 -0.22163642029703709 0 0.097404311116896569 -0.21585094626217091 0 0.1146171121197104 -0.21980430615730401 0 0.12018370186474731 -0.23305432747703519 0 0.1212054647883809 -0.25073068226796852 0 0.12018370186474731 -0.23305432747703519 0 0.1059281586602189 -0.23527494890652931 0 0.13217397618885759 -0.25462043987800831 0 0.1212054647883809 -0.25073068226796852 0 0.12018370186474731 -0.23305432747703519 0 0.1212054647883809 -0.25073068226796852 0 0.1059281586602189 -0.23527494890652931 0 0.1078238037173969 -0.24832262031645649 0 0.1212054647883809 -0.25073068226796852 0 0.1059281586602189 -0.23527494890652931 0 0.099550463170151926 -0.25262580003909579 0 0.1078238037173969 -0.24832262031645649 0 0.10103467245524091 -0.24298905409433241 0 0.1059281586602189 -0.23527494890652931 0 0.1078238037173969 -0.24832262031645649 0 0.10103467245524091 -0.24298905409433241 0 0.099550463170151926 -0.25262580003909579 0 0.10103467245524091 -0.24298905409433241 0 0.094006026236525903 -0.2441335510050745 0 0.090706365013478091 -0.25245448435890872 0 0.099550463170151926 -0.25262580003909579 0 0.094006026236525903 -0.2441335510050745 0 0.1059281586602189 -0.23527494890652931 0 0.10103467245524091 -0.24298905409433241 0 0.096012267649498176 -0.23702186761809721 0 0.10103467245524091 -0.24298905409433241 0 0.094006026236525903 -0.2441335510050745 0 0.096012267649498176 -0.23702186761809721 0 0.1059281586602189 -0.23527494890652931 0 0.096012267649498176 -0.23702186761809721 0 0.098670227838192195 -0.22970514568366851 0 0.089763789457938253 -0.2306791647953326 0 0.096012267649498176 -0.23702186761809721 0 0.098670227838192195 -0.22970514568366851 0 0.097404311116896569 -0.21585094626217091 0 0.12018370186474731 -0.23305432747703519 0 0.097404311116896569 -0.21585094626217091 0 0.12018370186474731 -0.23305432747703519 0 0.1059281586602189 -0.23527494890652931 0 0.097404311116896569 -0.21585094626217091 0 0.1059281586602189 -0.23527494890652931 0 0.098670227838192195 -0.22970514568366851 0 0.091303359373345411 -0.22339335178318359 0 0.098670227838192195 -0.22970514568366851 0 0.094530837428433365 -0.22086489816084981 0 0.097404311116896569 -0.21585094626217091 0 0.098670227838192195 -0.22970514568366851 0 0.094530837428433365 -0.22086489816084981 0 0.097404311116896569 -0.21585094626217091 0 0.098670227838192195 -0.22970514568366851 0 0.1071373084330472 -0.14482826815459701 0 0.1035248479174861 -0.15311019857333261 0 0.098760878024456711 -0.14050656481393209 0 0.1071373084330472 -0.14482826815459701 0 0.1035248479174861 -0.15311019857333261 0 0.1121477659277255 -0.1503271840913511 0 0.1035248479174861 -0.15311019857333261 0 0.098760878024456711 -0.14050656481393209 0 0.091560400862706559 -0.15189516094014111 0 0.098760878024456711 -0.14050656481393209 0 0.099399694252258627 -0.1328638184600745 0 0.089615627146132512 -0.13061154690311971 0 0.099399694252258627 -0.1328638184600745 0 0.099525338641528904 -0.12611341339503321 0 0.089615627146132512 -0.13061154690311971 0 0.099525338641528904 -0.12611341339503321 0 0.1096969331969164 -0.13422374872821319 0 0.1121708616464093 -0.1216807098986791 0 0.099399694252258627 -0.1328638184600745 0 0.099525338641528904 -0.12611341339503321 0 0.1096969331969164 -0.13422374872821319 0 0.098760878024456711 -0.14050656481393209 0 0.099399694252258627 -0.1328638184600745 0 0.1096969331969164 -0.13422374872821319 0 0.1071373084330472 -0.14482826815459701 0 0.098760878024456711 -0.14050656481393209 0 0.1096969331969164 -0.13422374872821319 0 0.1096969331969164 -0.13422374872821319 0 0.1155243526086871 -0.14484298486410191 0 0.12532898621889721 -0.13663811256420449 0 0.1096969331969164 -0.13422374872821319 0 0.11997683785091839 -0.1276371159963853 0 0.12532898621889721 -0.13663811256420449 0 0.1096969331969164 -0.13422374872821319 0 0.11997683785091839 -0.1276371159963853 0 0.1121708616464093 -0.1216807098986791 0 0.1217036921304827 -0.1482443959076799 0 0.1155243526086871 -0.14484298486410191 0 0.12532898621889721 -0.13663811256420449 0 0.1217036921304827 -0.1482443959076799 0 0.1155243526086871 -0.14484298486410191 0 0.1179114041550178 -0.15136128022523329 0 0.1071373084330472 -0.14482826815459701 0 0.1155243526086871 -0.14484298486410191 0 0.1121477659277255 -0.1503271840913511 0 0.1071373084330472 -0.14482826815459701 0 0.1096969331969164 -0.13422374872821319 0 0.1155243526086871 -0.14484298486410191 0 0.1035248479174861 -0.15311019857333261 0 0.1121477659277255 -0.1503271840913511 0 0.1169082366172023 -0.15609331882735419 0 0.1155243526086871 -0.14484298486410191 0 0.1121477659277255 -0.1503271840913511 0 0.1179114041550178 -0.15136128022523329 0 0.1121477659277255 -0.1503271840913511 0 0.1169082366172023 -0.15609331882735419 0 0.1179114041550178 -0.15136128022523329 0 0.1169082366172023 -0.15609331882735419 0 0.1179114041550178 -0.15136128022523329 0 0.12324902196630889 -0.15465793599018671 0 0.1217036921304827 -0.1482443959076799 0 0.1179114041550178 -0.15136128022523329 0 0.12324902196630889 -0.15465793599018671 0 0.1217036921304827 -0.1482443959076799 0 0.12324902196630889 -0.15465793599018671 0 0.12831016946945831 -0.1492440347933528 0 0.1035248479174861 -0.15311019857333261 0 0.12443417021765769 -0.1709717485187108 0 0.1227471198665283 -0.15880086614903269 0 0.12098675462827781 -0.16200852072179159 0 0.1290045142054978 -0.1612372837293575 0 0.1035248479174861 -0.15311019857333261 0 0.12443417021765769 -0.1709717485187108 0 0.12083528946942131 -0.1711597280255607 0 0.1035248479174861 -0.15311019857333261 0 0.12098675462827781 -0.16200852072179159 0 0.12443417021765769 -0.1709717485187108 0 0.1035248479174861 -0.15311019857333261 0 0.1169082366172023 -0.15609331882735419 0 0.12098675462827781 -0.16200852072179159 0 0.1169082366172023 -0.15609331882735419 0 0.1227471198665283 -0.15880086614903269 0 0.12098675462827781 -0.16200852072179159 0 0.1169082366172023 -0.15609331882735419 0 0.12324902196630889 -0.15465793599018671 0 0.1227471198665283 -0.15880086614903269 0 0.12098675462827781 -0.16200852072179159 0 0.12443417021765769 -0.1709717485187108 0 0.12715697753007521 -0.16591248018761531 0 0.1128143282819509 -0.19216489626002589 0 0.1232013989280239 -0.1819146573535104 0 0.1157139550245927 -0.18029465614444529 0 0.12083528946942131 -0.1711597280255607 0 0.1232013989280239 -0.1819146573535104 0 0.1157139550245927 -0.18029465614444529 0 0.12443417021765769 -0.1709717485187108 0 0.12083528946942131 -0.1711597280255607 0 0.1232013989280239 -0.1819146573535104 0 0.12083528946942131 -0.1711597280255607 0 0.1157139550245927 -0.18029465614444529 0 0.10772522460311169 -0.17968171223372481 0 0.1128143282819509 -0.19216489626002589 0 0.1157139550245927 -0.18029465614444529 0 0.10772522460311169 -0.17968171223372481 0 0.095454742848087734 -0.19451486061966669 0 0.10772522460311169 -0.17968171223372481 0 0.093505174579280592 -0.1731787749771625 0 0.12083528946942131 -0.1711597280255607 0 0.093505174579280592 -0.1731787749771625 0 0.095454742848087734 -0.19451486061966669 0 0.093505174579280592 -0.1731787749771625 0 0.12083528946942131 -0.1711597280255607 0 0.10772522460311169 -0.17968171223372481 0 0.093505174579280592 -0.1731787749771625 0 0.1035248479174861 -0.15311019857333261 0 0.093505174579280592 -0.1731787749771625 0 0.091560400862706559 -0.15189516094014111 0 0.1035248479174861 -0.15311019857333261 0 0.12083528946942131 -0.1711597280255607 0 0.093505174579280592 -0.1731787749771625 0 0.078133883947979807 -0.15717501910519549 0 0.093505174579280592 -0.1731787749771625 0 0.091560400862706559 -0.15189516094014111 0 0.078133883947979807 -0.15717501910519549 0 0.093505174579280592 -0.1731787749771625 0 0.072477207369929117 -0.17473224276400179 0 0.093505174579280592 -0.1731787749771625 0 0.091560400862706559 -0.15189516094014111 0 0.081482512553192915 -0.1953056794767786 0 0.093505174579280592 -0.1731787749771625 0 0.072477207369929117 -0.17473224276400179 0 0.093505174579280592 -0.1731787749771625 0 0.072477207369929117 -0.17473224276400179 0 0.066040058368007956 -0.18964665730407451 0 0.072477207369929117 -0.17473224276400179 0 0.051449240160577621 -0.1762857105508405 0 0.066040058368007956 -0.18964665730407451 0 0.081482512553192915 -0.1953056794767786 0 0.072477207369929117 -0.17473224276400179 0 0.078133883947979807 -0.15717501910519549 0 0.072477207369929117 -0.17473224276400179 0 0.063878974636528515 -0.16401540189567099 0 0.072477207369929117 -0.17473224276400179 0 0.063878974636528515 -0.16401540189567099 0 0.051449240160577621 -0.1762857105508405 0 0.078133883947979807 -0.15717501910519549 0 0.063878974636528515 -0.16401540189567099 0 0.06522271263887458 -0.15305574504012881 0 0.06522271263887458 -0.15305574504012881 0 0.069316279952888193 -0.14186668388360371 0 0.075278834721760557 -0.14616760919767161 0 0.06522271263887458 -0.15305574504012881 0 0.069316279952888193 -0.14186668388360371 0 0.05757515479497001 -0.1486962131740798 0 0.069316279952888193 -0.14186668388360371 0 0.075278834721760557 -0.14616760919767161 0 0.079765110473415279 -0.13788087003968491 0 0.078133883947979807 -0.15717501910519549 0 0.06522271263887458 -0.15305574504012881 0 0.075278834721760557 -0.14616760919767161 0 0.098760878024456711 -0.14050656481393209 0 0.091560400862706559 -0.15189516094014111 0 0.089615627146132512 -0.13061154690311971 0 0.078133883947979807 -0.15717501910519549 0 0.083611330147541921 -0.14459745320402559 0 0.091560400862706559 -0.15189516094014111 0 0.091560400862706559 -0.15189516094014111 0 0.089615627146132512 -0.13061154690311971 0 0.078133883947979807 -0.15717501910519549 0 0.075278834721760557 -0.14616760919767161 0 0.083611330147541921 -0.14459745320402559 0 0.083611330147541921 -0.14459745320402559 0 0.091560400862706559 -0.15189516094014111 0 0.089615627146132512 -0.13061154690311971 0 0.075278834721760557 -0.14616760919767161 0 0.083611330147541921 -0.14459745320402559 0 0.079765110473415279 -0.13788087003968491 0 0.099525338641528904 -0.12611341339503321 0 0.089615627146132512 -0.13061154690311971 0 0.081894058627025895 -0.12584863130967919 0 0.083611330147541921 -0.14459745320402559 0 0.089615627146132512 -0.13061154690311971 0 0.079765110473415279 -0.13788087003968491 0 0.089615627146132512 -0.13061154690311971 0 0.079765110473415279 -0.13788087003968491 0 0.081894058627025895 -0.12584863130967919 0 0.081894058627025895 -0.12584863130967919 0 0.065576399090336079 -0.13067912082877309 0 0.057907204523981459 -0.13951585418161591 0 0.081894058627025895 -0.12584863130967919 0 0.057907204523981459 -0.13951585418161591 0 0.069316279952888193 -0.14186668388360371 0 0.081894058627025895 -0.12584863130967919 0 0.057907204523981459 -0.13951585418161591 0 0.081894058627025895 -0.12584863130967919 0 0.068207364780656948 -0.12563827965844471 0 0.065576399090336079 -0.13067912082877309 0 0.069316279952888193 -0.14186668388360371 0 0.079765110473415279 -0.13788087003968491 0 0.081894058627025895 -0.12584863130967919 0 0.068207364780656948 -0.12563827965844471 0 0.065576399090336079 -0.13067912082877309 0 0.054296968429680029 -0.13171371816535249 0 0.054296968429680029 -0.13171371816535249 0 0.057907204523981459 -0.13951585418161591 0 0.034849001543539322 -0.1503583031021323 0 0.054296968429680029 -0.13171371816535249 0 0.045553716665441668 -0.12681104972785159 0 0.052448498866582129 -0.1166826243517366 0 0.065576399090336079 -0.13067912082877309 0 0.054296968429680029 -0.13171371816535249 0 0.057907204523981459 -0.13951585418161591 0 0.069316279952888193 -0.14186668388360371 0 0.057907204523981459 -0.13951585418161591 0 0.05757515479497001 -0.1486962131740798 0 0.06522271263887458 -0.15305574504012881 0 0.05757515479497001 -0.1486962131740798 0 0.052111829065281459 -0.15882829201818821 0 0.046808539919221563 -0.15014413002933799 0 0.052111829065281459 -0.15882829201818821 0 0.043031393960321331 -0.1571354857308308 0 0.05757515479497001 -0.1486962131740798 0 0.046808539919221563 -0.15014413002933799 0 0.052111829065281459 -0.15882829201818821 0 0.057907204523981459 -0.13951585418161591 0 0.05757515479497001 -0.1486962131740798 0 0.046808539919221563 -0.15014413002933799 0 0.057907204523981459 -0.13951585418161591 0 0.046808539919221563 -0.15014413002933799 0 0.033920350420936912 -0.1531830770535528 0 0.057907204523981459 -0.13951585418161591 0 0.034849001543539322 -0.1503583031021323 0 0.033920350420936912 -0.1531830770535528 0 0.054296968429680029 -0.13171371816535249 0 0.034849001543539322 -0.1503583031021323 0 0.038558521200612962 -0.14006542407622449 0 0.054296968429680029 -0.13171371816535249 0 0.034849001543539322 -0.1503583031021323 0 0.057907204523981459 -0.13951585418161591 0 0.033920350420936912 -0.1531830770535528 0 0.046808539919221563 -0.15014413002933799 0 0.040219483271594643 -0.15466785876887121 0 0.033920350420936912 -0.1531830770535528 0 0.046808539919221563 -0.15014413002933799 0 0.040219483271594643 -0.15466785876887121 0 0.043031393960321331 -0.1571354857308308 0 0.040219483271594643 -0.15466785876887121 0 0.033920350420936912 -0.1531830770535528 0 0.037117648785898759 -0.15820874226176301 0 0.034849001543539322 -0.1503583031021323 0 0.031672068294339203 -0.14528428076340441 0 0.030051573782975471 -0.15027594372919439 0 0.034849001543539322 -0.1503583031021323 0 0.033920350420936912 -0.1531830770535528 0 0.030051573782975471 -0.15027594372919439 0 0.034849001543539322 -0.1503583031021323 0 0.031672068294339203 -0.14528428076340441 0 0.038558521200612962 -0.14006542407622449 0 0.031672068294339203 -0.14528428076340441 0 0.038558521200612962 -0.14006542407622449 0 0.030566093298411881 -0.13865773310914861 0 0.054296968429680029 -0.13171371816535249 0 0.038558521200612962 -0.14006542407622449 0 0.040644455285911409 -0.1338393175667463 0 0.038558521200612962 -0.14006542407622449 0 0.040644455285911409 -0.1338393175667463 0 0.030566093298411881 -0.13865773310914861 0 0.034824944079593127 -0.12500853882757099 0 0.040644455285911409 -0.1338393175667463 0 0.030566093298411881 -0.13865773310914861 0 0.034824944079593127 -0.12500853882757099 0 0.045553716665441668 -0.12681104972785159 0 0.040644455285911409 -0.1338393175667463 0 0.054296968429680029 -0.13171371816535249 0 0.045553716665441668 -0.12681104972785159 0 0.040644455285911409 -0.1338393175667463 0 0.072477207369929117 -0.17473224276400179 0 0.051449240160577621 -0.1762857105508405 0 0.056257937900538298 -0.19577788601322099 0 0.066040058368007956 -0.18964665730407451 0 0.051449240160577621 -0.1762857105508405 0 0.063878974636528515 -0.16401540189567099 0 0.051449240160577621 -0.1762857105508405 0 0.052111829065281459 -0.15882829201818821 0 0.051449240160577621 -0.1762857105508405 0 0.052111829065281459 -0.15882829201818821 0 0.040502396519655252 -0.1663673850483231 0 0.063878974636528515 -0.16401540189567099 0 0.06522271263887458 -0.15305574504012881 0 0.052111829065281459 -0.15882829201818821 0 0.043031393960321331 -0.1571354857308308 0 0.037117648785898759 -0.15820874226176301 0 0.040502396519655252 -0.1663673850483231 0 0.052111829065281459 -0.15882829201818821 0 0.043031393960321331 -0.1571354857308308 0 0.040502396519655252 -0.1663673850483231 0 0.040219483271594643 -0.15466785876887121 0 0.043031393960321331 -0.1571354857308308 0 0.037117648785898759 -0.15820874226176301 0 0.033920350420936912 -0.1531830770535528 0 0.033509818979212957 -0.15868168045615499 0 0.027465449436243041 -0.1628752445715565 0 0.037117648785898759 -0.15820874226176301 0 0.034071859908748191 -0.1623715567021686 0 0.040502396519655252 -0.1663673850483231 0 0.033920350420936912 -0.1531830770535528 0 0.037117648785898759 -0.15820874226176301 0 0.033509818979212957 -0.15868168045615499 0 0.037117648785898759 -0.15820874226176301 0 0.033509818979212957 -0.15868168045615499 0 0.034071859908748191 -0.1623715567021686 0 0.033509818979212957 -0.15868168045615499 0 0.034071859908748191 -0.1623715567021686 0 0.027465449436243041 -0.1628752445715565 0 0.031586668938662611 -0.1691709391612749 0 0.040502396519655252 -0.1663673850483231 0 0.030421272951226121 -0.1778391783376792 0 0.034071859908748191 -0.1623715567021686 0 0.031586668938662611 -0.1691709391612749 0 0.040502396519655252 -0.1663673850483231 0 0.051449240160577621 -0.1762857105508405 0 0.040502396519655252 -0.1663673850483231 0 0.030421272951226121 -0.1778391783376792 0 0.041440672425083092 -0.19607701236864419 0 0.051449240160577621 -0.1762857105508405 0 0.030421272951226121 -0.1778391783376792 0 0.051449240160577621 -0.1762857105508405 0 0.030421272951226121 -0.1778391783376792 0 0.02540307025583758 -0.19229280057405279 0 0.015764016274472759 -0.1812646672695073 0 0.030421272951226121 -0.1778391783376792 0 0.031586668938662611 -0.1691709391612749 0 0.030421272951226121 -0.1778391783376792 0 0.021575687727073561 -0.1734893605992324 0 0.015764016274472759 -0.1812646672695073 0 0.021575687727073561 -0.1734893605992324 0 0.012676990919703311 -0.16924925594887871 0 0.015764016274472759 -0.1812646672695073 0 0.030421272951226121 -0.1778391783376792 0 0.021575687727073561 -0.1734893605992324 0 0.033920350420936912 -0.1531830770535528 0 0.009933496317892726 -0.16685029992549011 0 0.02294500892830088 -0.1542832107784407 0 0.033920350420936912 -0.1531830770535528 0 0.027465449436243041 -0.1628752445715565 0 0.009933496317892726 -0.16685029992549011 0 0.019596439448784399 -0.16744493330375371 0 0.027465449436243041 -0.1628752445715565 0 0.009933496317892726 -0.16685029992549011 0 0.033920350420936912 -0.1531830770535528 0 0.009933496317892726 -0.16685029992549011 0 0.021575687727073561 -0.1734893605992324 0 0.019596439448784399 -0.16744493330375371 0 0.012676990919703311 -0.16924925594887871 0 0.021575687727073561 -0.1734893605992324 0 0.019596439448784399 -0.16744493330375371 0 0.025540403417393751 -0.1677775419388785 0 0.031586668938662611 -0.1691709391612749 0 0.021575687727073561 -0.1734893605992324 0 0.025540403417393751 -0.1677775419388785 0 0.019596439448784399 -0.16744493330375371 0 0.025540403417393751 -0.1677775419388785 0 0.027465449436243041 -0.1628752445715565 0 0.034071859908748191 -0.1623715567021686 0 0.031586668938662611 -0.1691709391612749 0 0.027465449436243041 -0.1628752445715565 0 0.031586668938662611 -0.1691709391612749 0 0.025540403417393751 -0.1677775419388785 0 0.027465449436243041 -0.1628752445715565 0 0.009933496317892726 -0.16685029992549011 0 0.01648447247354291 -0.15404273338364399 0 0.02294500892830088 -0.1542832107784407 0 0.009933496317892726 -0.16685029992549011 0 0.01648447247354291 -0.15404273338364399 0 0.0068311679390763679 -0.1533437069849535 0 0.019596439448784399 -0.16744493330375371 0 0.009933496317892726 -0.16685029992549011 0 0.012676990919703311 -0.16924925594887871 0 0.009933496317892726 -0.16685029992549011 0 0.012676990919703311 -0.16924925594887871 0 0.0034571977838801569 -0.17702496179755631 0 0.009933496317892726 -0.16685029992549011 0 0.012676990919703311 -0.16924925594887871 0 -0.0085976242789068957 -0.177408956520272 0 0.009933496317892726 -0.16685029992549011 0 -0.0085976242789068957 -0.177408956520272 0 0.009933496317892726 -0.16685029992549011 0 0.0034571977838801569 -0.17702496179755631 0 0.015764016274472759 -0.1812646672695073 0 0.012676990919703311 -0.16924925594887871 0 0.0034571977838801569 -0.17702496179755631 0 -0.003739977245034012 -0.19168309442994089 0 0.010514116253606281 -0.1925853606064957 0 0.0034571977838801569 -0.17702496179755631 0 0.010514116253606281 -0.1925853606064957 0 0.015764016274472759 -0.1812646672695073 0 0.0034571977838801569 -0.17702496179755631 0 0.02166725362828328 -0.1398342401410575 0 0.019282665512654749 -0.1297026577714144 0 0.01241268948209219 -0.14437852502616319 0 0.034824944079593127 -0.12500853882757099 0 0.019282665512654749 -0.1297026577714144 0 0.030566093298411881 -0.13865773310914861 0 0.02166725362828328 -0.1398342401410575 0 0.019282665512654749 -0.1297026577714144 0 0.030566093298411881 -0.13865773310914861 0 0.031672068294339203 -0.14528428076340441 0 0.030566093298411881 -0.13865773310914861 0 0.024335151646156381 -0.14706399980032239 0 0.02166725362828328 -0.1398342401410575 0 0.030566093298411881 -0.13865773310914861 0 0.024335151646156381 -0.14706399980032239 0 0.031672068294339203 -0.14528428076340441 0 0.024335151646156381 -0.14706399980032239 0 0.030051573782975471 -0.15027594372919439 0 0.033920350420936912 -0.1531830770535528 0 0.030051573782975471 -0.15027594372919439 0 0.02294500892830088 -0.1542832107784407 0 0.024335151646156381 -0.14706399980032239 0 0.030051573782975471 -0.15027594372919439 0 0.02294500892830088 -0.1542832107784407 0 0.024335151646156381 -0.14706399980032239 0 0.01648447247354291 -0.15404273338364399 0 0.01241268948209219 -0.14437852502616319 0 0.024335151646156381 -0.14706399980032239 0 0.01648447247354291 -0.15404273338364399 0 0.02294500892830088 -0.1542832107784407 0 0.02166725362828328 -0.1398342401410575 0 0.024335151646156381 -0.14706399980032239 0 0.01241268948209219 -0.14437852502616319 0 -0.011505986517222349 -0.14810326960451681 0 0.01241268948209219 -0.14437852502616319 0 0.0068311679390763679 -0.1533437069849535 0 -0.011505986517222349 -0.14810326960451681 0 0.009933496317892726 -0.16685029992549011 0 0.0068311679390763679 -0.1533437069849535 0 -0.011505986517222349 -0.14810326960451681 0 0.01241268948209219 -0.14437852502616319 0 0.0027021066240326768 -0.1317064378292063 0 0.01648447247354291 -0.15404273338364399 0 0.01241268948209219 -0.14437852502616319 0 0.0068311679390763679 -0.1533437069849535 0 0.019282665512654749 -0.1297026577714144 0 0.01241268948209219 -0.14437852502616319 0 0.0027021066240326768 -0.1317064378292063 0 0.019282665512654749 -0.1297026577714144 0 0.0027021066240326768 -0.1317064378292063 0 0.005085065621477718 -0.1151057880332567 0 0.019282665512654749 -0.1297026577714144 0 0.005085065621477718 -0.1151057880332567 0 0.024129304522527751 -0.1089818526354679 0 0.034824944079593127 -0.12500853882757099 0 0.019282665512654749 -0.1297026577714144 0 0.024129304522527751 -0.1089818526354679 0 0.024129304522527751 -0.1089818526354679 0 0.01380815825635252 -0.094132232187142617 0 0.031293966725895003 -0.08518965294817829 0 -0.00044729776891663488 -0.1011528385718463 0 0.005085065621477718 -0.1151057880332567 0 0.01380815825635252 -0.094132232187142617 0 0.005085065621477718 -0.1151057880332567 0 0.024129304522527751 -0.1089818526354679 0 0.01380815825635252 -0.094132232187142617 0 0.01380815825635252 -0.094132232187142617 0 0.0042106568376920582 -0.081118225430045127 0 0.020039989671696231 -0.071989185162356889 0 -0.00044729776891663488 -0.1011528385718463 0 0.01380815825635252 -0.094132232187142617 0 0.0042106568376920582 -0.081118225430045127 0 0.0042106568376920582 -0.081118225430045127 0 0.0052181775422467033 -0.064346337314722044 0 0.020039989671696231 -0.071989185162356889 0 -0.0043762627118289626 -0.071729097412358583 0 0.0042106568376920582 -0.081118225430045127 0 0.0052181775422467033 -0.064346337314722044 0 0.0052181775422467033 -0.064346337314722044 0 0.020039989671696231 -0.071989185162356889 0 0.0052181775422467033 -0.064346337314722044 0 0.020039989671696231 -0.071989185162356889 0 0.017880224012190679 -0.058506375123621113 0 0.020039989671696231 -0.071989185162356889 0 0.017880224012190679 -0.058506375123621113 0 0.035073137211611732 -0.060365082031122411 0 0.020039989671696231 -0.071989185162356889 0 0.031293966725895003 -0.08518965294817829 0 0.035073137211611732 -0.060365082031122411 0 0.01380815825635252 -0.094132232187142617 0 0.020039989671696231 -0.071989185162356889 0 0.031293966725895003 -0.08518965294817829 0 0.031293966725895003 -0.08518965294817829 0 0.050629459546369923 -0.074776417317023003 0 0.042727201812981508 -0.099892478072297022 0 0.050629459546369923 -0.074776417317023003 0 0.042727201812981508 -0.099892478072297022 0 0.031293966725895003 -0.08518965294817829 0 0.050629459546369923 -0.074776417317023003 0 0.035073137211611732 -0.060365082031122411 0 0.050629459546369923 -0.074776417317023003 0 0.058531717279758283 -0.049660356561749108 0 0.072219385832792832 -0.066659644627356851 0 0.050629459546369923 -0.074776417317023003 0 0.042727201812981508 -0.099892478072297022 0 0.069701838591585213 -0.089386546866783212 0 0.059655618646742382 -0.10475769562984739 0 0.052448498866582129 -0.1166826243517366 0 0.042727201812981508 -0.099892478072297022 0 0.059655618646742382 -0.10475769562984739 0 0.042727201812981508 -0.099892478072297022 0 0.069701838591585213 -0.089386546866783212 0 0.054296968429680029 -0.13171371816535249 0 0.052448498866582129 -0.1166826243517366 0 0.073744935315820714 -0.1130691332285727 0 0.059655618646742382 -0.10475769562984739 0 0.052448498866582129 -0.1166826243517366 0 0.073744935315820714 -0.1130691332285727 0 0.034824944079593127 -0.12500853882757099 0 0.045553716665441668 -0.12681104972785159 0 0.052448498866582129 -0.1166826243517366 0 0.034824944079593127 -0.12500853882757099 0 0.052448498866582129 -0.1166826243517366 0 0.042727201812981508 -0.099892478072297022 0 0.034824944079593127 -0.12500853882757099 0 0.024129304522527751 -0.1089818526354679 0 0.042727201812981508 -0.099892478072297022 0 0.034824944079593127 -0.12500853882757099 0 0.042727201812981508 -0.099892478072297022 0 0.024129304522527751 -0.1089818526354679 0 0.031293966725895003 -0.08518965294817829 0 0.042727201812981508 -0.099892478072297022 0 0.034885408484197772 0.0062912350017927032 0 0.01265631079038235 -0.01012693536007268 0 0.042517259973231587 -0.011683923625132649 0 -0.00118246574067416 -0.01324232368796026 0 0.0012074066645448821 -0.00065723147797176382 0 0.01265631079038235 -0.01012693536007268 0 0.01265631079038235 -0.01012693536007268 0 0.02406773205363014 -0.026959444655171291 0 0.0015263381015913891 -0.033415212413580753 0 0.01265631079038235 -0.01012693536007268 0 0.0015263381015913891 -0.033415212413580753 0 -0.00118246574067416 -0.01324232368796026 0 0.01265631079038235 -0.01012693536007268 0 0.0015263381015913891 -0.033415212413580753 0 0.01265631079038235 -0.01012693536007268 0 0.02406773205363014 -0.026959444655171291 0 0.042517259973231587 -0.011683923625132649 0 0.02406773205363014 -0.026959444655171291 0 0.021771409900077709 -0.044354063799483319 0 0.04186734150286768 -0.035217088077587062 0 0.02406773205363014 -0.026959444655171291 0 0.021771409900077709 -0.044354063799483319 0 0.0015263381015913891 -0.033415212413580753 0 0.021771409900077709 -0.044354063799483319 0 0.0015263381015913891 -0.033415212413580753 0 0.007298405735321048 -0.051477207310420908 0 -0.0096036345872028556 -0.056703489467087059 0 0.0052181775422467033 -0.064346337314722044 0 0.007298405735321048 -0.051477207310420908 0 0.0052181775422467033 -0.064346337314722044 0 0.007298405735321048 -0.051477207310420908 0 0.017880224012190679 -0.058506375123621113 0 0.021771409900077709 -0.044354063799483319 0 0.017880224012190679 -0.058506375123621113 0 0.035073137211611732 -0.060365082031122411 0 0.021771409900077709 -0.044354063799483319 0 0.007298405735321048 -0.051477207310420908 0 0.017880224012190679 -0.058506375123621113 0 0.035073137211611732 -0.060365082031122411 0 0.058531717279758283 -0.049660356561749108 0 0.04186734150286768 -0.035217088077587062 0 0.050629459546369923 -0.074776417317023003 0 0.058531717279758283 -0.049660356561749108 0 0.050629459546369923 -0.074776417317023003 0 0.035073137211611732 -0.060365082031122411 0 0.058531717279758283 -0.049660356561749108 0 0.058531717279758283 -0.049660356561749108 0 0.066433975013146629 -0.02454429580647528 0 0.058531717279758283 -0.049660356561749108 0 0.04186734150286768 -0.035217088077587062 0 0.066433975013146629 -0.02454429580647528 0 0.021771409900077709 -0.044354063799483319 0 0.035073137211611732 -0.060365082031122411 0 0.04186734150286768 -0.035217088077587062 0 0.02406773205363014 -0.026959444655171291 0 0.04186734150286768 -0.035217088077587062 0 0.042517259973231587 -0.011683923625132649 0 0.04186734150286768 -0.035217088077587062 0 0.042517259973231587 -0.011683923625132649 0 0.066433975013146629 -0.02454429580647528 0 0.052968053050369737 0.0090809173488315582 0 0.042517259973231587 -0.011683923625132649 0 0.067492943165135169 -0.0019794682467893379 0 0.042517259973231587 -0.011683923625132649 0 0.067492943165135169 -0.0019794682467893379 0 0.066433975013146629 -0.02454429580647528 0 0.087040675587819916 -0.0096101539263870796 0 0.066433975013146629 -0.02454429580647528 0 0.098032226742104309 -0.02831505409649597 0 0.083930998993742512 0.0059737405228527038 0 0.087040675587819916 -0.0096101539263870796 0 0.067492943165135169 -0.0019794682467893379 0 0.083930998993742512 0.0059737405228527038 0 0.098495163759696414 0.0029673617968291321 0 0.087040675587819916 -0.0096101539263870796 0 0.087040675587819916 -0.0096101539263870796 0 0.067492943165135169 -0.0019794682467893379 0 0.066433975013146629 -0.02454429580647528 0 0.066433975013146629 -0.02454429580647528 0 0.080663194565618018 -0.042742664855397232 0 0.098032226742104309 -0.02831505409649597 0 0.080663194565618018 -0.042742664855397232 0 0.099119978598511321 -0.045144617550746849 0 0.098032226742104309 -0.02831505409649597 0 0.058531717279758283 -0.049660356561749108 0 0.066433975013146629 -0.02454429580647528 0 0.080663194565618018 -0.042742664855397232 0 0.058531717279758283 -0.049660356561749108 0 0.080663194565618018 -0.042742664855397232 0 0.072219385832792832 -0.066659644627356851 0 0.080663194565618018 -0.042742664855397232 0 0.091985945990252393 -0.059557823171565508 0 0.072219385832792832 -0.066659644627356851 0 0.080663194565618018 -0.042742664855397232 0 0.091985945990252393 -0.059557823171565508 0 0.099119978598511321 -0.045144617550746849 0 0.091985945990252393 -0.059557823171565508 0 0.109385226414503 -0.056941989317685793 0 0.099119978598511321 -0.045144617550746849 0 0.109385226414503 -0.056941989317685793 0 0.1174221699598199 -0.069046986946925279 0 0.12664898879935529 -0.055605769639440771 0 0.109385226414503 -0.056941989317685793 0 0.1155332992800789 -0.038165556312589707 0 0.12664898879935529 -0.055605769639440771 0 0.1155332992800789 -0.038165556312589707 0 0.12954193793015309 -0.041748568408345607 0 0.12664898879935529 -0.055605769639440771 0 0.1155332992800789 -0.038165556312589707 0 0.1294320674019063 -0.023146095115484211 0 0.12954193793015309 -0.041748568408345607 0 0.109385226414503 -0.056941989317685793 0 0.1155332992800789 -0.038165556312589707 0 0.099119978598511321 -0.045144617550746849 0 0.1155332992800789 -0.038165556312589707 0 0.099119978598511321 -0.045144617550746849 0 0.098032226742104309 -0.02831505409649597 0 0.1155332992800789 -0.038165556312589707 0 0.098032226742104309 -0.02831505409649597 0 0.1112777463759113 -0.012222875866518469 0 0.087040675587819916 -0.0096101539263870796 0 0.098032226742104309 -0.02831505409649597 0 0.1112777463759113 -0.012222875866518469 0 0.1155332992800789 -0.038165556312589707 0 0.1112777463759113 -0.012222875866518469 0 0.1294320674019063 -0.023146095115484211 0 0.1158546052028349 0.0064685721448778594 0 0.13464870039648349 0.00080453217212592717 0 0.1112777463759113 -0.012222875866518469 0 0.098495163759696414 0.0029673617968291321 0 0.087040675587819916 -0.0096101539263870796 0 0.1112777463759113 -0.012222875866518469 0 0.1158546052028349 0.0064685721448778594 0 0.098495163759696414 0.0029673617968291321 0 0.1112777463759113 -0.012222875866518469 0 0.093192902201961414 -0.094424548291792879 0 0.088899626305776192 -0.1113374325741409 0 0.073744935315820714 -0.1130691332285727 0 0.093192902201961414 -0.094424548291792879 0 0.073744935315820714 -0.1130691332285727 0 0.069701838591585213 -0.089386546866783212 0 0.093192902201961414 -0.094424548291792879 0 0.073744935315820714 -0.1130691332285727 0 0.081894058627025895 -0.12584863130967919 0 0.088899626305776192 -0.1113374325741409 0 0.09397493983509804 -0.11322330148444169 0 0.081894058627025895 -0.12584863130967919 0 0.079920122843727764 -0.11786127252462281 0 0.075141871126288284 -0.1211898929860986 0 0.081894058627025895 -0.12584863130967919 0 0.088899626305776192 -0.1113374325741409 0 0.079920122843727764 -0.11786127252462281 0 0.088899626305776192 -0.1113374325741409 0 0.079920122843727764 -0.11786127252462281 0 0.073744935315820714 -0.1130691332285727 0 0.068207364780656948 -0.12563827965844471 0 0.054296968429680029 -0.13171371816535249 0 0.073744935315820714 -0.1130691332285727 0 0.054296968429680029 -0.13171371816535249 0 0.073744935315820714 -0.1130691332285727 0 0.068207364780656948 -0.12563827965844471 0 0.073744935315820714 -0.1130691332285727 0 0.075141871126288284 -0.1211898929860986 0 0.079920122843727764 -0.11786127252462281 0 0.073744935315820714 -0.1130691332285727 0 0.075141871126288284 -0.1211898929860986 0 0.081894058627025895 -0.12584863130967919 0 0.068207364780656948 -0.12563827965844471 0 0.075141871126288284 -0.1211898929860986 0 0.059655618646742382 -0.10475769562984739 0 0.073744935315820714 -0.1130691332285727 0 0.069701838591585213 -0.089386546866783212 0 0.050629459546369923 -0.074776417317023003 0 0.069701838591585213 -0.089386546866783212 0 0.072219385832792832 -0.066659644627356851 0 0.069701838591585213 -0.089386546866783212 0 0.072219385832792832 -0.066659644627356851 0 0.089711563165187497 -0.078251462936863553 0 0.091985945990252393 -0.059557823171565508 0 0.072219385832792832 -0.066659644627356851 0 0.089711563165187497 -0.078251462936863553 0 0.093192902201961414 -0.094424548291792879 0 0.069701838591585213 -0.089386546866783212 0 0.089711563165187497 -0.078251462936863553 0 0.093192902201961414 -0.094424548291792879 0 0.089711563165187497 -0.078251462936863553 0 0.1048667032735431 -0.089595599910983495 0 0.089711563165187497 -0.078251462936863553 0 0.1048667032735431 -0.089595599910983495 0 0.1056935618466131 -0.072691272791708894 0 0.1048667032735431 -0.089595599910983495 0 0.1056935618466131 -0.072691272791708894 0 0.11564058922802831 -0.08068930143821873 0 0.091985945990252393 -0.059557823171565508 0 0.089711563165187497 -0.078251462936863553 0 0.1056935618466131 -0.072691272791708894 0 0.091985945990252393 -0.059557823171565508 0 0.109385226414503 -0.056941989317685793 0 0.1056935618466131 -0.072691272791708894 0 0.1174221699598199 -0.069046986946925279 0 0.12840026197867099 -0.078951386265116219 0 0.12664898879935529 -0.055605769639440771 0 0.109385226414503 -0.056941989317685793 0 0.1056935618466131 -0.072691272791708894 0 0.1174221699598199 -0.069046986946925279 0 0.1056935618466131 -0.072691272791708894 0 0.1174221699598199 -0.069046986946925279 0 0.11564058922802831 -0.08068930143821873 0 0.1174221699598199 -0.069046986946925279 0 0.11564058922802831 -0.08068930143821873 0 0.12840026197867099 -0.078951386265116219 0 0.1048667032735431 -0.089595599910983495 0 0.11564058922802831 -0.08068930143821873 0 0.1191358060176364 -0.092450830711447801 0 0.1191358060176364 -0.092450830711447801 0 0.12840026197867099 -0.078951386265116219 0 0.11564058922802831 -0.08068930143821873 0 0.1191358060176364 -0.092450830711447801 0 0.12840026197867099 -0.078951386265116219 0 0.1058809127300703 -0.11218140843774239 0 0.12023297736745781 -0.1110263554770618 0 0.12986776683311119 -0.098514185565799078 0 0.1058809127300703 -0.11218140843774239 0 0.12986776683311119 -0.098514185565799078 0 0.1048667032735431 -0.089595599910983495 0 0.1191358060176364 -0.092450830711447801 0 0.10987135005660249 -0.1059502751577799 0 0.10987135005660249 -0.1059502751577799 0 0.1058809127300703 -0.11218140843774239 0 0.12986776683311119 -0.098514185565799078 0 0.1191358060176364 -0.092450830711447801 0 0.10987135005660249 -0.1059502751577799 0 0.12986776683311119 -0.098514185565799078 0 0.1191358060176364 -0.092450830711447801 0 0.10987135005660249 -0.1059502751577799 0 0.093192902201961414 -0.094424548291792879 0 0.088899626305776192 -0.1113374325741409 0 0.099225161677519755 -0.1035257336162041 0 0.1048667032735431 -0.089595599910983495 0 0.10987135005660249 -0.1059502751577799 0 0.099225161677519755 -0.1035257336162041 0 0.10987135005660249 -0.1059502751577799 0 0.099225161677519755 -0.1035257336162041 0 0.1058809127300703 -0.11218140843774239 0 0.088899626305776192 -0.1113374325741409 0 0.099225161677519755 -0.1035257336162041 0 0.09397493983509804 -0.11322330148444169 0 0.093192902201961414 -0.094424548291792879 0 0.1048667032735431 -0.089595599910983495 0 0.099225161677519755 -0.1035257336162041 0 0.081894058627025895 -0.12584863130967919 0 0.1058809127300703 -0.11218140843774239 0 0.099525338641528904 -0.12611341339503321 0 0.081894058627025895 -0.12584863130967919 0 0.1058809127300703 -0.11218140843774239 0 0.081894058627025895 -0.12584863130967919 0 0.09397493983509804 -0.11322330148444169 0 0.1058809127300703 -0.11218140843774239 0 0.099225161677519755 -0.1035257336162041 0 0.09397493983509804 -0.11322330148444169 0 0.1058809127300703 -0.11218140843774239 0 0.099525338641528904 -0.12611341339503321 0 0.1058809127300703 -0.11218140843774239 0 0.1121708616464093 -0.1216807098986791 0 0.1058809127300703 -0.11218140843774239 0 0.1121708616464093 -0.1216807098986791 0 0.12023297736745781 -0.1110263554770618 0 0.11997683785091839 -0.1276371159963853 0 0.121067612134044 -0.1214532534018402 0 0.13188977167139071 -0.12546883223523481 0 0.12023297736745781 -0.1110263554770618 0 0.121067612134044 -0.1214532534018402 0 0.13188977167139071 -0.12546883223523481 0 0.11997683785091839 -0.1276371159963853 0 0.1121708616464093 -0.1216807098986791 0 0.121067612134044 -0.1214532534018402 0 0.1121708616464093 -0.1216807098986791 0 0.12023297736745781 -0.1110263554770618 0 0.121067612134044 -0.1214532534018402 0 0.12023297736745781 -0.1110263554770618 0 0.12986776683311119 -0.098514185565799078 0 0.13188977167139071 -0.12546883223523481 0 0.12986776683311119 -0.098514185565799078 0 0.13188977167139071 -0.12546883223523481 0 0.14925441928633251 -0.10969288085116551 0 0.13995942417209239 -0.1034127274713456 0 0.13188977167139071 -0.12546883223523481 0 0.14724036225017881 -0.1245170930860646 0 0.14925441928633251 -0.10969288085116551 0 0.13188977167139071 -0.12546883223523481 0 0.14925441928633251 -0.10969288085116551 0 0.15485465026004211 -0.11932571079310079 0 0.15999890680388329 -0.1096406796162286 0 0.14724036225017881 -0.1245170930860646 0 0.15485465026004211 -0.11932571079310079 0 0.15557261582888751 -0.13003178131142151 0 0.14724036225017881 -0.1245170930860646 0 0.14925441928633251 -0.10969288085116551 0 0.15485465026004211 -0.11932571079310079 0 0.14925441928633251 -0.10969288085116551 0 0.14348993397904131 -0.092765062884646393 0 0.1620153957752187 -0.097165399419701551 0 0.14348993397904131 -0.092765062884646393 0 0.1620153957752187 -0.097165399419701551 0 0.14925441928633251 -0.10969288085116551 0 0.13995942417209239 -0.1034127274713456 0 0.14348993397904131 -0.092765062884646393 0 0.13995942417209239 -0.1034127274713456 0 0.12986776683311119 -0.098514185565799078 0 0.13188977167139071 -0.12546883223523481 0 0.13995942417209239 -0.1034127274713456 0 0.12986776683311119 -0.098514185565799078 0 0.14348993397904131 -0.092765062884646393 0 0.12986776683311119 -0.098514185565799078 0 0.12840026197867099 -0.078951386265116219 0 0.1428482005174804 -0.076716741777837147 0 0.1191358060176364 -0.092450830711447801 0 0.12986776683311119 -0.098514185565799078 0 0.12840026197867099 -0.078951386265116219 0 0.12986776683311119 -0.098514185565799078 0 0.12840026197867099 -0.078951386265116219 0 0.12840026197867099 -0.078951386265116219 0 0.12664898879935529 -0.055605769639440771 0 0.12840026197867099 -0.078951386265116219 0 0.12664898879935529 -0.055605769639440771 0 0.14464694777039611 -0.055277979731059648 0 0.12840026197867099 -0.078951386265116219 0 0.1428482005174804 -0.076716741777837147 0 0.14464694777039611 -0.055277979731059648 0 0.12840026197867099 -0.078951386265116219 0 0.14464694777039611 -0.055277979731059648 0 0.1428482005174804 -0.076716741777837147 0 0.15680899227989839 -0.06637062400294011 0 0.14464694777039611 -0.055277979731059648 0 0.1428482005174804 -0.076716741777837147 0 0.15451703372532541 -0.084469533324270707 0 0.15680899227989839 -0.06637062400294011 0 0.12986776683311119 -0.098514185565799078 0 0.15451703372532541 -0.084469533324270707 0 0.12986776683311119 -0.098514185565799078 0 0.14348993397904131 -0.092765062884646393 0 0.15451703372532541 -0.084469533324270707 0 0.14348993397904131 -0.092765062884646393 0 0.15451703372532541 -0.084469533324270707 0 0.1620153957752187 -0.097165399419701551 0 0.12986776683311119 -0.098514185565799078 0 0.1428482005174804 -0.076716741777837147 0 0.15451703372532541 -0.084469533324270707 0 0.15451703372532541 -0.084469533324270707 0 0.1674193516126988 -0.088794767656503876 0 0.1620153957752187 -0.097165399419701551 0 0.15451703372532541 -0.084469533324270707 0 0.1674193516126988 -0.088794767656503876 0 0.16389165652408541 -0.076485311925560115 0 0.1674193516126988 -0.088794767656503876 0 0.16389165652408541 -0.076485311925560115 0 0.17613181446746839 -0.084287857658230353 0 0.15451703372532541 -0.084469533324270707 0 0.15680899227989839 -0.06637062400294011 0 0.16389165652408541 -0.076485311925560115 0 0.16389165652408541 -0.076485311925560115 0 0.1717227713635387 -0.067009979361705274 0 0.17613181446746839 -0.084287857658230353 0 0.15680899227989839 -0.06637062400294011 0 0.16389165652408541 -0.076485311925560115 0 0.1717227713635387 -0.067009979361705274 0 0.15680899227989839 -0.06637062400294011 0 0.1717227713635387 -0.067009979361705274 0 0.1652446184022294 -0.054500080927008407 0 0.1717227713635387 -0.067009979361705274 0 0.17613181446746839 -0.084287857658230353 0 0.1717227713635387 -0.067009979361705274 0 0.18346211879182289 -0.064955309332027283 0 0.18137547142311691 -0.085525622921553163 0 0.18346211879182289 -0.064955309332027283 0 0.18137547142311691 -0.085525622921553163 0 0.1952329782378138 -0.068464889048657496 0 0.1717227713635387 -0.067009979361705274 0 0.18137547142311691 -0.085525622921553163 0 0.1717227713635387 -0.067009979361705274 0 0.18346211879182289 -0.064955309332027283 0 0.1746283364613696 -0.057560297553190053 0 0.18137547142311691 -0.085525622921553163 0 0.17613181446746839 -0.084287857658230353 0 0.18054085757139629 -0.1015657359547559 0 0.17613181446746839 -0.084287857658230353 0 0.18054085757139629 -0.1015657359547559 0 0.1674193516126988 -0.088794767656503876 0 0.17613181446746839 -0.084287857658230353 0 0.18054085757139629 -0.1015657359547559 0 0.1717227713635387 -0.067009979361705274 0 0.18137547142311691 -0.085525622921553163 0 0.17613181446746839 -0.084287857658230353 0 0.18137547142311691 -0.085525622921553163 0 0.19100769245097829 -0.1040519139747048 0 0.18137547142311691 -0.085525622921553163 0 0.18054085757139629 -0.1015657359547559 0 0.19100769245097829 -0.1040519139747048 0 0.18054085757139629 -0.1015657359547559 0 0.1749190978293893 -0.1165979942053425 0 0.16884250162088479 -0.1080310140379921 0 0.18054085757139629 -0.1015657359547559 0 0.19100769245097829 -0.1040519139747048 0 0.18054085757139629 -0.1015657359547559 0 0.1862357176231304 -0.1238823921021804 0 0.1749190978293893 -0.1165979942053425 0 0.18054085757139629 -0.1015657359547559 0 0.1862357176231304 -0.1238823921021804 0 0.19100769245097829 -0.1040519139747048 0 0.18054085757139629 -0.1015657359547559 0 0.1862357176231304 -0.1238823921021804 0 0.1862357176231304 -0.1238823921021804 0 0.1749190978293893 -0.1165979942053425 0 0.17324983187337631 -0.13165498831909611 0 0.1749190978293893 -0.1165979942053425 0 0.16471491079178111 -0.1205264202314431 0 0.16884250162088479 -0.1080310140379921 0 0.16471491079178111 -0.1205264202314431 0 0.15999890680388329 -0.1096406796162286 0 0.16884250162088479 -0.1080310140379921 0 0.1749190978293893 -0.1165979942053425 0 0.16471491079178111 -0.1205264202314431 0 0.17324983187337631 -0.13165498831909611 0 0.15485465026004211 -0.11932571079310079 0 0.16471491079178111 -0.1205264202314431 0 0.15557261582888751 -0.13003178131142151 0 0.15485465026004211 -0.11932571079310079 0 0.16471491079178111 -0.1205264202314431 0 0.15999890680388329 -0.1096406796162286 0 0.18054085757139629 -0.1015657359547559 0 0.1620153957752187 -0.097165399419701551 0 0.1674193516126988 -0.088794767656503876 0 0.18054085757139629 -0.1015657359547559 0 0.1620153957752187 -0.097165399419701551 0 0.14925441928633251 -0.10969288085116551 0 0.15999890680388329 -0.1096406796162286 0 0.1620153957752187 -0.097165399419701551 0 0.15999890680388329 -0.1096406796162286 0 0.1620153957752187 -0.097165399419701551 0 0.16884250162088479 -0.1080310140379921 0 0.18054085757139629 -0.1015657359547559 0 0.1620153957752187 -0.097165399419701551 0 0.16884250162088479 -0.1080310140379921 0 0.13464870039648349 0.00080453217212592717 0 0.15480995508657039 -0.001084596553268768 0 0.14892696920713289 -0.018041582065753459 0 0.13464870039648349 0.00080453217212592717 0 0.1294320674019063 -0.023146095115484211 0 0.14892696920713289 -0.018041582065753459 0 0.13464870039648349 0.00080453217212592717 0 0.1112777463759113 -0.012222875866518469 0 0.1294320674019063 -0.023146095115484211 0 0.1294320674019063 -0.023146095115484211 0 0.14892696920713289 -0.018041582065753459 0 0.14270131340979469 -0.036531096068384838 0 0.14892696920713289 -0.018041582065753459 0 0.14270131340979469 -0.036531096068384838 0 0.16089363356212191 -0.031604573197003549 0 0.14270131340979469 -0.036531096068384838 0 0.14464694777039611 -0.055277979731059648 0 0.16089363356212191 -0.031604573197003549 0 0.14464694777039611 -0.055277979731059648 0 0.15561449558007559 -0.051164132387281437 0 0.16089363356212191 -0.031604573197003549 0 0.14464694777039611 -0.055277979731059648 0 0.16089363356212191 -0.031604573197003549 0 0.14270131340979469 -0.036531096068384838 0 0.12954193793015309 -0.041748568408345607 0 0.14464694777039611 -0.055277979731059648 0 0.1294320674019063 -0.023146095115484211 0 0.14270131340979469 -0.036531096068384838 0 0.12954193793015309 -0.041748568408345607 0 0.12954193793015309 -0.041748568408345607 0 0.12664898879935529 -0.055605769639440771 0 0.14464694777039611 -0.055277979731059648 0 0.15680899227989839 -0.06637062400294011 0 0.14464694777039611 -0.055277979731059648 0 0.15561449558007559 -0.051164132387281437 0 0.15680899227989839 -0.06637062400294011 0 0.15561449558007559 -0.051164132387281437 0 0.1652446184022294 -0.054500080927008407 0 0.15561449558007559 -0.051164132387281437 0 0.1652446184022294 -0.054500080927008407 0 0.1617942405007988 -0.043199732881276223 0 0.1652446184022294 -0.054500080927008407 0 0.1746283364613696 -0.057560297553190053 0 0.1617942405007988 -0.043199732881276223 0 0.1717227713635387 -0.067009979361705274 0 0.1652446184022294 -0.054500080927008407 0 0.1717227713635387 -0.067009979361705274 0 0.1652446184022294 -0.054500080927008407 0 0.1746283364613696 -0.057560297553190053 0 0.1746283364613696 -0.057560297553190053 0 0.1828119860636557 -0.050363577362968731 0 0.1617942405007988 -0.043199732881276223 0 0.18346211879182289 -0.064955309332027283 0 0.1746283364613696 -0.057560297553190053 0 0.1828119860636557 -0.050363577362968731 0 0.18346211879182289 -0.064955309332027283 0 0.1828119860636557 -0.050363577362968731 0 0.19188844298534441 -0.056659859735039647 0 0.1617942405007988 -0.043199732881276223 0 0.18853740735089011 -0.033706188378118708 0 0.1828119860636557 -0.050363577362968731 0 0.1617942405007988 -0.043199732881276223 0 0.18853740735089011 -0.033706188378118708 0 0.15561449558007559 -0.051164132387281437 0 0.16089363356212191 -0.031604573197003549 0 0.1617942405007988 -0.043199732881276223 0 0.16089363356212191 -0.031604573197003549 0 0.1617942405007988 -0.043199732881276223 0 0.18853740735089011 -0.033706188378118708 0 0.16089363356212191 -0.031604573197003549 0 0.17714031935384769 -0.0079311666629475405 0 0.14892696920713289 -0.018041582065753459 0 0.16089363356212191 -0.031604573197003549 0 0.17714031935384769 -0.0079311666629475405 0 0.16089363356212191 -0.031604573197003549 0 0.17714031935384769 -0.0079311666629475405 0 0.18853740735089011 -0.033706188378118708 0 0.1657030786406338 0.0084270166623369204 0 0.15480995508657039 -0.001084596553268768 0 0.17714031935384769 -0.0079311666629475405 0 0.15480995508657039 -0.001084596553268768 0 0.14892696920713289 -0.018041582065753459 0 0.17714031935384769 -0.0079311666629475405 0 0.21351355446813719 -0.0021103410187178909 0 0.2110126965438916 -0.012672932103663791 0 0.2228246624943325 -0.0092295053444410857 0 0.2110126965438916 -0.012672932103663791 0 0.21911622703360889 -0.015650702578479541 0 0.2228246624943325 -0.0092295053444410857 0 0.21351355446813719 -0.0021103410187178909 0 0.2110126965438916 -0.012672932103663791 0 0.19836939172364151 -0.01016904411482358 0 0.1998105265397013 0.00335350757378736 0 0.21351355446813719 -0.0021103410187178909 0 0.19836939172364151 -0.01016904411482358 0 0.1998105265397013 0.00335350757378736 0 0.17714031935384769 -0.0079311666629475405 0 0.19836939172364151 -0.01016904411482358 0 0.17714031935384769 -0.0079311666629475405 0 0.19836939172364151 -0.01016904411482358 0 0.18853740735089011 -0.033706188378118708 0 0.2110126965438916 -0.012672932103663791 0 0.19836939172364151 -0.01016904411482358 0 0.18853740735089011 -0.033706188378118708 0 0.21528057420098159 -0.024212643874961401 0 0.18853740735089011 -0.033706188378118708 0 0.2110126965438916 -0.012672932103663791 0 0.21528057420098159 -0.024212643874961401 0 0.18853740735089011 -0.033706188378118708 0 0.21528057420098159 -0.024212643874961401 0 0.20886364623554921 -0.031523512657201581 0 0.18853740735089011 -0.033706188378118708 0 0.2110126965438916 -0.012672932103663791 0 0.21528057420098159 -0.024212643874961401 0 0.21911622703360889 -0.015650702578479541 0 0.21528057420098159 -0.024212643874961401 0 0.2158000993154765 -0.027276596113623111 0 0.21360323626451261 -0.02858374534336202 0 0.21528057420098159 -0.024212643874961401 0 0.2158000993154765 -0.027276596113623111 0 0.21995729679401421 -0.029331280632926501 0 0.2158000993154765 -0.027276596113623111 0 0.21503400689837671 -0.030930810510401429 0 0.21995729679401421 -0.029331280632926501 0 0.2158000993154765 -0.027276596113623111 0 0.21503400689837671 -0.030930810510401429 0 0.21360323626451261 -0.02858374534336202 0 0.21528057420098159 -0.024212643874961401 0 0.21360323626451261 -0.02858374534336202 0 0.20886364623554921 -0.031523512657201581 0 0.21503400689837671 -0.030930810510401429 0 0.21360323626451261 -0.02858374534336202 0 0.20886364623554921 -0.031523512657201581 0 0.2128060919330283 -0.035124071741943173 0 0.2180191377477218 -0.035203133534298187 0 0.2167024847658664 -0.043974661413588162 0 0.21503400689837671 -0.030930810510401429 0 0.2128060919330283 -0.035124071741943173 0 0.20886364623554921 -0.031523512657201581 0 0.21503400689837671 -0.030930810510401429 0 0.2128060919330283 -0.035124071741943173 0 0.2180191377477218 -0.035203133534298187 0 0.21503400689837671 -0.030930810510401429 0 0.2180191377477218 -0.035203133534298187 0 0.21995729679401421 -0.029331280632926501 0 0.2167024847658664 -0.043974661413588162 0 0.20890374551960481 -0.040729144831228678 0 0.20897987019450001 -0.050060865146210963 0 0.2128060919330283 -0.035124071741943173 0 0.2167024847658664 -0.043974661413588162 0 0.20890374551960481 -0.040729144831228678 0 0.20890374551960481 -0.040729144831228678 0 0.19655169947710091 -0.043788383486002072 0 0.20897987019450001 -0.050060865146210963 0 0.2128060919330283 -0.035124071741943173 0 0.20890374551960481 -0.040729144831228678 0 0.20886364623554921 -0.031523512657201581 0 0.20890374551960481 -0.040729144831228678 0 0.20886364623554921 -0.031523512657201581 0 0.19655169947710091 -0.043788383486002072 0 0.1828119860636557 -0.050363577362968731 0 0.18853740735089011 -0.033706188378118708 0 0.19655169947710091 -0.043788383486002072 0 0.20886364623554921 -0.031523512657201581 0 0.18853740735089011 -0.033706188378118708 0 0.19655169947710091 -0.043788383486002072 0 0.19655169947710091 -0.043788383486002072 0 0.20138343235632811 -0.055727139445542639 0 0.20897987019450001 -0.050060865146210963 0 0.19655169947710091 -0.043788383486002072 0 0.19188844298534441 -0.056659859735039647 0 0.20138343235632811 -0.055727139445542639 0 0.1828119860636557 -0.050363577362968731 0 0.19655169947710091 -0.043788383486002072 0 0.19188844298534441 -0.056659859735039647 0 0.19188844298534441 -0.056659859735039647 0 0.20138343235632811 -0.055727139445542639 0 0.1952329782378138 -0.068464889048657496 0 0.20138343235632811 -0.055727139445542639 0 0.22670270369963491 -0.067064047377793826 0 0.20138343235632811 -0.055727139445542639 0 0.21577564808412511 -0.056666161138016313 0 0.22670270369963491 -0.067064047377793826 0 0.20138343235632811 -0.055727139445542639 0 0.20897987019450001 -0.050060865146210963 0 0.21577564808412511 -0.056666161138016313 0 0.2167024847658664 -0.043974661413588162 0 0.20897987019450001 -0.050060865146210963 0 0.21577564808412511 -0.056666161138016313 0 0.21577564808412511 -0.056666161138016313 0 0.23694359709532001 -0.061394592404840097 0 0.22670270369963491 -0.067064047377793826 0 0.21577564808412511 -0.056666161138016313 0 0.22648325856373289 -0.049317463857355977 0 0.23694359709532001 -0.061394592404840097 0 0.21577564808412511 -0.056666161138016313 0 0.23694359709532001 -0.061394592404840097 0 0.2167024847658664 -0.043974661413588162 0 0.21577564808412511 -0.056666161138016313 0 0.22648325856373289 -0.049317463857355977 0 0.22648325856373289 -0.049317463857355977 0 0.23694359709532001 -0.061394592404840097 0 0.23716366819637241 -0.046229271507985323 0 0.25811154610651499 -0.066123023671663908 0 0.23694359709532001 -0.061394592404840097 0 0.24870160087168189 -0.052882304334001928 0 0.23694359709532001 -0.061394592404840097 0 0.24870160087168189 -0.052882304334001928 0 0.23716366819637241 -0.046229271507985323 0 0.24870160087168189 -0.052882304334001928 0 0.23716366819637241 -0.046229271507985323 0 0.24731406762381819 -0.035960341631652723 0 0.23716366819637241 -0.046229271507985323 0 0.24731406762381819 -0.035960341631652723 0 0.23342582712955959 -0.033308149953783547 0 0.23342582712955959 -0.033308149953783547 0 0.2258308946769807 -0.038322632822349968 0 0.22548915127375299 -0.027513718828695861 0 0.22648325856373289 -0.049317463857355977 0 0.23716366819637241 -0.046229271507985323 0 0.2258308946769807 -0.038322632822349968 0 0.23716366819637241 -0.046229271507985323 0 0.23342582712955959 -0.033308149953783547 0 0.2258308946769807 -0.038322632822349968 0 0.2180191377477218 -0.035203133534298187 0 0.2167024847658664 -0.043974661413588162 0 0.2258308946769807 -0.038322632822349968 0 0.2167024847658664 -0.043974661413588162 0 0.22648325856373289 -0.049317463857355977 0 0.2258308946769807 -0.038322632822349968 0 0.2180191377477218 -0.035203133534298187 0 0.2258308946769807 -0.038322632822349968 0 0.21995729679401421 -0.029331280632926501 0 0.2258308946769807 -0.038322632822349968 0 0.22548915127375299 -0.027513718828695861 0 0.21995729679401421 -0.029331280632926501 0 0.21528057420098159 -0.024212643874961401 0 0.2313313538768734 -0.018514784978234038 0 0.22829619310998309 -0.01520182636873813 0 0.21528057420098159 -0.024212643874961401 0 0.2313313538768734 -0.018514784978234038 0 0.21528057420098159 -0.024212643874961401 0 0.22548915127375299 -0.027513718828695861 0 0.2313313538768734 -0.018514784978234038 0 0.21528057420098159 -0.024212643874961401 0 0.22548915127375299 -0.027513718828695861 0 0.21995729679401421 -0.029331280632926501 0 0.21528057420098159 -0.024212643874961401 0 0.22829619310998309 -0.01520182636873813 0 0.21528057420098159 -0.024212643874961401 0 0.21911622703360889 -0.015650702578479541 0 0.22829619310998309 -0.01520182636873813 0 0.2313313538768734 -0.018514784978234038 0 0.22829619310998309 -0.01520182636873813 0 0.23342582712955959 -0.033308149953783547 0 0.22548915127375299 -0.027513718828695861 0 0.2313313538768734 -0.018514784978234038 0 0.25508119948702751 -0.010083838205662381 0 0.2313313538768734 -0.018514784978234038 0 0.2482857443068576 -0.021714794414400052 0 0.24731406762381819 -0.035960341631652723 0 0.2313313538768734 -0.018514784978234038 0 0.2482857443068576 -0.021714794414400052 0 0.24731406762381819 -0.035960341631652723 0 0.23342582712955959 -0.033308149953783547 0 0.2313313538768734 -0.018514784978234038 0 0.24731406762381819 -0.035960341631652723 0 0.2313313538768734 -0.018514784978234038 0 0.25508119948702751 -0.010083838205662381 0 0.2313313538768734 -0.018514784978234038 0 0.24138147174972829 -0.0061427828714447699 0 0.25508119948702751 -0.010083838205662381 0 0.2313313538768734 -0.018514784978234038 0 0.24138147174972829 -0.0061427828714447699 0 0.22829619310998309 -0.01520182636873813 0 0.25446675038947358 0.0029162606258486688 0 0.2541426920980116 -0.0036136263454906951 0 0.24138147174972829 -0.0061427828714447699 0 0.25446675038947358 0.0029162606258486688 0 0.24138147174972829 -0.0061427828714447699 0 0.22999165343287109 0.0038227322559807589 0 0.24138147174972829 -0.0061427828714447699 0 0.23189167676904729 -0.0064153040848911828 0 0.22999165343287109 0.0038227322559807589 0 0.23189167676904729 -0.0064153040848911828 0 0.2228246624943325 -0.0092295053444410857 0 0.22999165343287109 0.0038227322559807589 0 0.21351355446813719 -0.0021103410187178909 0 0.2228246624943325 -0.0092295053444410857 0 0.23189167676904729 -0.0064153040848911828 0 0.22829619310998309 -0.01520182636873813 0 0.2228246624943325 -0.0092295053444410857 0 0.2313313538768734 -0.018514784978234038 0 0.24138147174972829 -0.0061427828714447699 0 0.22829619310998309 -0.01520182636873813 0 0.24138147174972829 -0.0061427828714447699 0 0.23189167676904729 -0.0064153040848911828 0 0.22829619310998309 -0.01520182636873813 0 0.21911622703360889 -0.015650702578479541 0 0.22829619310998309 -0.01520182636873813 0 0.2228246624943325 -0.0092295053444410857 0 0.22829619310998309 -0.01520182636873813 0 0.2228246624943325 -0.0092295053444410857 0 0.2084634723971549 -0.097930235578601213 0 0.21737999015654699 -0.1103161024944793 0 0.2275791846540145 -0.10054182369239011 0 0.21737999015654699 -0.1103161024944793 0 0.19100769245097829 -0.1040519139747048 0 0.2084634723971549 -0.097930235578601213 0 0.21140608144591419 -0.084503356370523836 0 0.2275791846540145 -0.10054182369239011 0 0.2084634723971549 -0.097930235578601213 0 0.21737999015654699 -0.1103161024944793 0 0.19100769245097829 -0.1040519139747048 0 0.21737999015654699 -0.1103161024944793 0 0.21277072480774051 -0.1248863227998855 0 0.20025029595199689 -0.1218288277367077 0 0.21737999015654699 -0.1103161024944793 0 0.21277072480774051 -0.1248863227998855 0 0.2239597136694004 -0.1277946194696456 0 0.1862357176231304 -0.1238823921021804 0 0.20025029595199689 -0.1218288277367077 0 0.19100769245097829 -0.1040519139747048 0 0.21737999015654699 -0.1103161024944793 0 0.20025029595199689 -0.1218288277367077 0 0.19100769245097829 -0.1040519139747048 0 0.20025029595199689 -0.1218288277367077 0 0.19100769245097829 -0.1040519139747048 0 0.2084634723971549 -0.097930235578601213 0 0.19100769245097829 -0.1040519139747048 0 0.19624682445825681 -0.08914472739044943 0 0.18137547142311691 -0.085525622921553163 0 0.19100769245097829 -0.1040519139747048 0 0.19624682445825681 -0.08914472739044943 0 0.19624682445825681 -0.08914472739044943 0 0.1952329782378138 -0.068464889048657496 0 0.21140608144591419 -0.084503356370523836 0 0.18137547142311691 -0.085525622921553163 0 0.19624682445825681 -0.08914472739044943 0 0.1952329782378138 -0.068464889048657496 0 0.20138343235632811 -0.055727139445542639 0 0.1952329782378138 -0.068464889048657496 0 0.21149591893834541 -0.070957707586151192 0 0.18346211879182289 -0.064955309332027283 0 0.19188844298534441 -0.056659859735039647 0 0.1952329782378138 -0.068464889048657496 0 0.1952329782378138 -0.068464889048657496 0 0.21140608144591419 -0.084503356370523836 0 0.20138343235632811 -0.055727139445542639 0 0.21149591893834541 -0.070957707586151192 0 0.22670270369963491 -0.067064047377793826 0 0.1952329782378138 -0.068464889048657496 0 0.21149591893834541 -0.070957707586151192 0 0.21140608144591419 -0.084503356370523836 0 0.2084634723971549 -0.097930235578601213 0 0.19624682445825681 -0.08914472739044943 0 0.21140608144591419 -0.084503356370523836 0 0.21149591893834541 -0.070957707586151192 0 0.21140608144591419 -0.084503356370523836 0 0.2227543989520358 -0.079029105688238177 0 0.21140608144591419 -0.084503356370523836 0 0.2275791846540145 -0.10054182369239011 0 0.2227543989520358 -0.079029105688238177 0 0.23449163343577681 -0.083610487294907485 0 0.2275791846540145 -0.10054182369239011 0 0.21140608144591419 -0.084503356370523836 0 0.2227543989520358 -0.079029105688238177 0 0.2275791846540145 -0.10054182369239011 0 0.2227543989520358 -0.079029105688238177 0 0.22670270369963491 -0.067064047377793826 0 0.23449163343577681 -0.083610487294907485 0 0.21149591893834541 -0.070957707586151192 0 0.2227543989520358 -0.079029105688238177 0 0.22670270369963491 -0.067064047377793826 0 0.25202197504294188 -0.078400955310045109 0 0.25811154610651499 -0.066123023671663908 0 0.23694359709532001 -0.061394592404840097 0 0.25202197504294188 -0.078400955310045109 0 0.22670270369963491 -0.067064047377793826 0 0.25202197504294188 -0.078400955310045109 0 0.22670270369963491 -0.067064047377793826 0 0.23449163343577681 -0.083610487294907485 0 0.25202197504294188 -0.078400955310045109 0 0.23694359709532001 -0.061394592404840097 0 0.22670270369963491 -0.067064047377793826 0 0.25811154610651499 -0.066123023671663908 0 0.23694359709532001 -0.061394592404840097 0 0.25202197504294188 -0.078400955310045109 0 0.23449163343577681 -0.083610487294907485 0 0.24624903761231479 -0.086847438891893419 0 0.23449163343577681 -0.083610487294907485 0 0.24292322406264641 -0.096552741650977186 0 0.2275791846540145 -0.10054182369239011 0 0.23449163343577681 -0.083610487294907485 0 0.24624903761231479 -0.086847438891893419 0 0.24292322406264641 -0.096552741650977186 0 0.25304747237378489 -0.090741332181114118 0 0.24624903761231479 -0.086847438891893419 0 0.24292322406264641 -0.096552741650977186 0 0.2275791846540145 -0.10054182369239011 0 0.24375228786211539 -0.116580291014256 0 0.24292322406264641 -0.096552741650977186 0 0.2275791846540145 -0.10054182369239011 0 0.24375228786211539 -0.116580291014256 0 0.25771864553297669 -0.099620140202181948 0 0.24292322406264641 -0.096552741650977186 0 0.24375228786211539 -0.116580291014256 0 0.21737999015654699 -0.1103161024944793 0 0.2275791846540145 -0.10054182369239011 0 0.24375228786211539 -0.116580291014256 0 0.21737999015654699 -0.1103161024944793 0 0.24375228786211539 -0.116580291014256 0 0.2239597136694004 -0.1277946194696456 0 0.21737999015654699 -0.1103161024944793 0 0.24375228786211539 -0.116580291014256 0 0.24375228786211539 -0.116580291014256 0 0.235054631712311 -0.13955626642273861 0 0.24955680073527009 -0.143898101237383 0 0.235054631712311 -0.13955626642273861 0 0.24955680073527009 -0.143898101237383 0 0.23627457688356679 -0.15840319400941011 0 0.25449645062408999 -0.16331052089379791 0 0.24955680073527009 -0.143898101237383 0 0.23627457688356679 -0.15840319400941011 0 0.235054631712311 -0.13955626642273861 0 0.22199130801810529 -0.1478171468904442 0 0.23627457688356679 -0.15840319400941011 0 0.24375228786211539 -0.116580291014256 0 0.235054631712311 -0.13955626642273861 0 0.2239597136694004 -0.1277946194696456 0 0.235054631712311 -0.13955626642273861 0 0.22199130801810529 -0.1478171468904442 0 0.2239597136694004 -0.1277946194696456 0 0.20025029595199689 -0.1218288277367077 0 0.20949289945301761 -0.1396057414987095 0 0.22199130801810529 -0.1478171468904442 0 0.2239597136694004 -0.1277946194696456 0 0.20949289945301761 -0.1396057414987095 0 0.21277072480774051 -0.1248863227998855 0 0.20025029595199689 -0.1218288277367077 0 0.20949289945301761 -0.1396057414987095 0 0.21277072480774051 -0.1248863227998855 0 0.2239597136694004 -0.1277946194696456 0 0.20949289945301761 -0.1396057414987095 0 0.22199130801810529 -0.1478171468904442 0 0.20949289945301761 -0.1396057414987095 0 0.2069794531536403 -0.1537888919124783 0 0.20949289945301761 -0.1396057414987095 0 0.2069794531536403 -0.1537888919124783 0 0.1919305776748628 -0.1461990482496055 0 0.2069794531536403 -0.1537888919124783 0 0.1919305776748628 -0.1461990482496055 0 0.19225769977326759 -0.16432491474026781 0 0.1862357176231304 -0.1238823921021804 0 0.1919305776748628 -0.1461990482496055 0 0.19714487019074359 -0.1333469628700395 0 0.20025029595199689 -0.1218288277367077 0 0.20949289945301761 -0.1396057414987095 0 0.19714487019074359 -0.1333469628700395 0 0.20949289945301761 -0.1396057414987095 0 0.1919305776748628 -0.1461990482496055 0 0.19714487019074359 -0.1333469628700395 0 0.1862357176231304 -0.1238823921021804 0 0.1919305776748628 -0.1461990482496055 0 0.1862357176231304 -0.1238823921021804 0 0.20025029595199689 -0.1218288277367077 0 0.19714487019074359 -0.1333469628700395 0 0.19629081049063871 -0.1815365299480412 0 0.19225769977326759 -0.16432491474026781 0 0.17982600751226671 -0.1762593337595659 0 0.19629081049063871 -0.1815365299480412 0 0.19225769977326759 -0.16432491474026781 0 0.22018657323669569 -0.16775416802968299 0 0.2069794531536403 -0.1537888919124783 0 0.19225769977326759 -0.16432491474026781 0 0.22018657323669569 -0.16775416802968299 0 0.22199130801810529 -0.1478171468904442 0 0.2069794531536403 -0.1537888919124783 0 0.22018657323669569 -0.16775416802968299 0 0.19629081049063871 -0.1815365299480412 0 0.22018657323669569 -0.16775416802968299 0 0.21237941264848451 -0.18810475376770611 0 0.22018657323669569 -0.16775416802968299 0 0.23934418379307471 -0.18436482883247621 0 0.22018657323669569 -0.16775416802968299 0 0.23934418379307471 -0.18436482883247621 0 0.21237941264848451 -0.18810475376770611 0 0.22018657323669569 -0.16775416802968299 0 0.23627457688356679 -0.15840319400941011 0 0.23934418379307471 -0.18436482883247621 0 0.22199130801810529 -0.1478171468904442 0 0.22018657323669569 -0.16775416802968299 0 0.23627457688356679 -0.15840319400941011 0 0.25449645062408999 -0.16331052089379791 0 0.23627457688356679 -0.15840319400941011 0 0.23934418379307471 -0.18436482883247621 0 0.25850179434945381 -0.20097548963526929 0 0.23934418379307471 -0.18436482883247621 0 0.25850179434945381 -0.20097548963526929 0 0.23934418379307471 -0.18436482883247621 0 0.23907695871134879 -0.21289681242661959 0 0.23907695871134879 -0.21289681242661959 0 0.22308479462261119 -0.20217133576560289 0 0.21722062693650279 -0.2226466586169516 0 0.23934418379307471 -0.18436482883247621 0 0.22308479462261119 -0.20217133576560289 0 0.21237941264848451 -0.18810475376770611 0 0.23934418379307471 -0.18436482883247621 0 0.23907695871134879 -0.21289681242661959 0 0.22308479462261119 -0.20217133576560289 0 0.25037283077400019 -0.2416092145933311 0 0.23239962387573149 -0.2337287944253621 0 0.2339549802858914 -0.24933471903745599 0 0.25658827463044448 -0.2222138965281123 0 0.23907695871134879 -0.21289681242661959 0 0.2446094219978813 -0.2276121794933563 0 0.25037283077400019 -0.2416092145933311 0 0.2446094219978813 -0.2276121794933563 0 0.23239962387573149 -0.2337287944253621 0 0.23907695871134879 -0.21289681242661959 0 0.2446094219978813 -0.2276121794933563 0 0.23239962387573149 -0.2337287944253621 0 0.23907695871134879 -0.21289681242661959 0 0.23239962387573149 -0.2337287944253621 0 0.21722062693650279 -0.2226466586169516 0 0.23239962387573149 -0.2337287944253621 0 0.2194561222393229 -0.23682627783696539 0 0.21722062693650279 -0.2226466586169516 0 0.23239962387573149 -0.2337287944253621 0 0.22502312889380549 -0.2426362774769398 0 0.2339549802858914 -0.24933471903745599 0 0.2194561222393229 -0.23682627783696539 0 0.22502312889380549 -0.2426362774769398 0 0.21456577207223029 -0.24270171036535029 0 0.23239962387573149 -0.2337287944253621 0 0.2194561222393229 -0.23682627783696539 0 0.22502312889380549 -0.2426362774769398 0 0.22331750647786899 -0.25281133177650322 0 0.22502312889380549 -0.2426362774769398 0 0.21456577207223029 -0.24270171036535029 0 0.22331750647786899 -0.25281133177650322 0 0.22502312889380549 -0.2426362774769398 0 0.2339549802858914 -0.24933471903745599 0 0.2084475354763706 -0.25511513831035743 0 0.2080714594183444 -0.2424179483002232 0 0.21336353465090491 -0.24693864317134839 0 0.2080714594183444 -0.2424179483002232 0 0.21336353465090491 -0.24693864317134839 0 0.2080714594183444 -0.2424179483002232 0 0.21336353465090491 -0.24693864317134839 0 0.21456577207223029 -0.24270171036535029 0 0.2194561222393229 -0.23682627783696539 0 0.2080714594183444 -0.2424179483002232 0 0.21456577207223029 -0.24270171036535029 0 0.21722062693650279 -0.2226466586169516 0 0.20244123733496699 -0.2260211367091485 0 0.19848523837712481 -0.2136299623964425 0 0.2080714594183444 -0.2424179483002232 0 0.21722062693650279 -0.2226466586169516 0 0.2194561222393229 -0.23682627783696539 0 0.2080714594183444 -0.2424179483002232 0 0.21722062693650279 -0.2226466586169516 0 0.2080714594183444 -0.2424179483002232 0 0.21722062693650279 -0.2226466586169516 0 0.20244123733496699 -0.2260211367091485 0 0.2080714594183444 -0.2424179483002232 0 0.18716213711817259 -0.22455639835484539 0 0.2080714594183444 -0.2424179483002232 0 0.20244123733496699 -0.2260211367091485 0 0.18716213711817259 -0.22455639835484539 0 0.20244123733496699 -0.2260211367091485 0 0.19848523837712481 -0.2136299623964425 0 0.18716213711817259 -0.22455639835484539 0 0.2080714594183444 -0.2424179483002232 0 0.19254414318066221 -0.24961624770678509 0 0.1866817818972302 -0.23981118877977231 0 0.2080714594183444 -0.2424179483002232 0 0.1866817818972302 -0.23981118877977231 0 0.18716213711817259 -0.22455639835484539 0 0.19254414318066221 -0.24961624770678509 0 0.18399505531774341 -0.24981832115951039 0 0.1866817818972302 -0.23981118877977231 0 0.21237941264848451 -0.18810475376770611 0 0.20793523744788639 -0.20366419955677639 0 0.19447652973028121 -0.19759128756789451 0 0.22308479462261119 -0.20217133576560289 0 0.21237941264848451 -0.18810475376770611 0 0.20793523744788639 -0.20366419955677639 0 0.22308479462261119 -0.20217133576560289 0 0.21722062693650279 -0.2226466586169516 0 0.20793523744788639 -0.20366419955677639 0 0.21722062693650279 -0.2226466586169516 0 0.20793523744788639 -0.20366419955677639 0 0.19848523837712481 -0.2136299623964425 0 0.19848523837712481 -0.2136299623964425 0 0.19447652973028121 -0.19759128756789451 0 0.1831457957419608 -0.2071674304332729 0 0.20793523744788639 -0.20366419955677639 0 0.19848523837712481 -0.2136299623964425 0 0.19447652973028121 -0.19759128756789451 0 0.19848523837712481 -0.2136299623964425 0 0.1831457957419608 -0.2071674304332729 0 0.18716213711817259 -0.22455639835484539 0 0.19629081049063871 -0.1815365299480412 0 0.19447652973028121 -0.19759128756789451 0 0.1840061663436266 -0.1900566622106199 0 0.19629081049063871 -0.1815365299480412 0 0.21237941264848451 -0.18810475376770611 0 0.19447652973028121 -0.19759128756789451 0 0.19447652973028121 -0.19759128756789451 0 0.1840061663436266 -0.1900566622106199 0 0.1831457957419608 -0.2071674304332729 0 0.1840061663436266 -0.1900566622106199 0 0.1831457957419608 -0.2071674304332729 0 0.16486725365112659 -0.18785963188663279 0 0.1831457957419608 -0.2071674304332729 0 0.16486725365112659 -0.18785963188663279 0 0.1831457957419608 -0.2071674304332729 0 0.16625281481800089 -0.2066948484094672 0 0.18716213711817259 -0.22455639835484539 0 0.16625281481800089 -0.2066948484094672 0 0.18716213711817259 -0.22455639835484539 0 0.16625281481800089 -0.2066948484094672 0 0.18716213711817259 -0.22455639835484539 0 0.16937657335138201 -0.22198425569814831 0 0.16625281481800089 -0.2066948484094672 0 0.15661990237239229 -0.21733625041789439 0 0.14909823278687431 -0.20687378182447139 0 0.16625281481800089 -0.2066948484094672 0 0.15661990237239229 -0.21733625041789439 0 0.16937657335138201 -0.22198425569814831 0 0.1831457957419608 -0.2071674304332729 0 0.16625281481800089 -0.2066948484094672 0 0.16486725365112659 -0.18785963188663279 0 0.16625281481800089 -0.2066948484094672 0 0.16486725365112659 -0.18785963188663279 0 0.14534349251782941 -0.188833298464089 0 0.17619278994504239 -0.24587918172992959 0 0.18399505531774341 -0.24981832115951039 0 0.1866817818972302 -0.23981118877977231 0 0.17619278994504239 -0.24587918172992959 0 0.17450151464944069 -0.23276490516368609 0 0.16609645978724119 -0.24143951784646769 0 0.17619278994504239 -0.24587918172992959 0 0.1866817818972302 -0.23981118877977231 0 0.17450151464944069 -0.23276490516368609 0 0.17450151464944069 -0.23276490516368609 0 0.18716213711817259 -0.22455639835484539 0 0.16937657335138201 -0.22198425569814831 0 0.1866817818972302 -0.23981118877977231 0 0.17450151464944069 -0.23276490516368609 0 0.18716213711817259 -0.22455639835484539 0 0.15661990237239229 -0.21733625041789439 0 0.1623464977989032 -0.22856887614484861 0 0.15090654410468329 -0.22688320449844629 0 0.15661990237239229 -0.21733625041789439 0 0.16937657335138201 -0.22198425569814831 0 0.1623464977989032 -0.22856887614484861 0 0.17450151464944069 -0.23276490516368609 0 0.1623464977989032 -0.22856887614484861 0 0.16609645978724119 -0.24143951784646769 0 0.17450151464944069 -0.23276490516368609 0 0.16937657335138201 -0.22198425569814831 0 0.1623464977989032 -0.22856887614484861 0 0.1623464977989032 -0.22856887614484861 0 0.16609645978724119 -0.24143951784646769 0 0.1528270009437688 -0.23836283418195289 0 0.16001236861667459 -0.2513654190734112 0 0.16609645978724119 -0.24143951784646769 0 0.1528270009437688 -0.23836283418195289 0 0.16978669848249819 -0.25098739912941831 0 0.17619278994504239 -0.24587918172992959 0 0.16609645978724119 -0.24143951784646769 0 0.16001236861667459 -0.2513654190734112 0 0.16978669848249819 -0.25098739912941831 0 0.16609645978724119 -0.24143951784646769 0 0.1429630926125974 -0.2502577086919005 0 0.16001236861667459 -0.2513654190734112 0 0.1528270009437688 -0.23836283418195289 0 0.1429630926125974 -0.2502577086919005 0 0.1528270009437688 -0.23836283418195289 0 0.13988621804673579 -0.23152362256679451 0 0.1528270009437688 -0.23836283418195289 0 0.15090654410468329 -0.22688320449844629 0 0.13988621804673579 -0.23152362256679451 0 0.1623464977989032 -0.22856887614484861 0 0.1528270009437688 -0.23836283418195289 0 0.15090654410468329 -0.22688320449844629 0 0.15661990237239229 -0.21733625041789439 0 0.15090654410468329 -0.22688320449844629 0 0.1428531013616163 -0.21862443918074129 0 0.15090654410468329 -0.22688320449844629 0 0.13988621804673579 -0.23152362256679451 0 0.1428531013616163 -0.21862443918074129 0 0.12018370186474731 -0.23305432747703519 0 0.12895394136930069 -0.22163642029703709 0 0.13988621804673579 -0.23152362256679451 0 0.12895394136930069 -0.22163642029703709 0 0.13988621804673579 -0.23152362256679451 0 0.1428531013616163 -0.21862443918074129 0 0.1429630926125974 -0.2502577086919005 0 0.12018370186474731 -0.23305432747703519 0 0.1429630926125974 -0.2502577086919005 0 0.12018370186474731 -0.23305432747703519 0 0.13988621804673579 -0.23152362256679451 0 0.13217397618885759 -0.25462043987800831 0 0.1429630926125974 -0.2502577086919005 0 0.12018370186474731 -0.23305432747703519 0 0.16625281481800089 -0.2066948484094672 0 0.14534349251782941 -0.188833298464089 0 0.16625281481800089 -0.2066948484094672 0 0.14534349251782941 -0.188833298464089 0 0.14909823278687431 -0.20687378182447139 0 0.14534349251782941 -0.188833298464089 0 0.14909823278687431 -0.20687378182447139 0 0.1346280568372662 -0.20359450925845249 0 0.15661990237239229 -0.21733625041789439 0 0.14909823278687431 -0.20687378182447139 0 0.1428531013616163 -0.21862443918074129 0 0.14909823278687431 -0.20687378182447139 0 0.1428531013616163 -0.21862443918074129 0 0.1346280568372662 -0.20359450925845249 0 0.1178461100078927 -0.20838697738218431 0 0.12895394136930069 -0.22163642029703709 0 0.1346280568372662 -0.20359450925845249 0 0.12895394136930069 -0.22163642029703709 0 0.1428531013616163 -0.21862443918074129 0 0.1346280568372662 -0.20359450925845249 0 0.14534349251782941 -0.188833298464089 0 0.1346280568372662 -0.20359450925845249 0 0.13128332926409281 -0.18787359724935929 0 0.1237689835273371 -0.19605207676116951 0 0.1178461100078927 -0.20838697738218431 0 0.1346280568372662 -0.20359450925845249 0 0.1237689835273371 -0.19605207676116951 0 0.1346280568372662 -0.20359450925845249 0 0.13128332926409281 -0.18787359724935929 0 0.1237689835273371 -0.19605207676116951 0 0.1232013989280239 -0.1819146573535104 0 0.13128332926409281 -0.18787359724935929 0 0.12443417021765769 -0.1709717485187108 0 0.14534349251782941 -0.188833298464089 0 0.12443417021765769 -0.1709717485187108 0 0.1232013989280239 -0.1819146573535104 0 0.13128332926409281 -0.18787359724935929 0 0.12443417021765769 -0.1709717485187108 0 0.14534349251782941 -0.188833298464089 0 0.13128332926409281 -0.18787359724935929 0 0.12443417021765769 -0.1709717485187108 0 0.14534349251782941 -0.188833298464089 0 0.13540865390058859 -0.1688207667960602 0 0.14534349251782941 -0.188833298464089 0 0.14658871156029241 -0.16855183333999291 0 0.13540865390058859 -0.1688207667960602 0 0.16486725365112659 -0.18785963188663279 0 0.14658871156029241 -0.16855183333999291 0 0.16486725365112659 -0.18785963188663279 0 0.14534349251782941 -0.188833298464089 0 0.14658871156029241 -0.16855183333999291 0 0.14658871156029241 -0.16855183333999291 0 0.13391177650968769 -0.15242347890466901 0 0.14971917460686079 -0.1530450482394467 0 0.14658871156029241 -0.16855183333999291 0 0.14971917460686079 -0.1530450482394467 0 0.16192904395431579 -0.15800089119817939 0 0.14658871156029241 -0.16855183333999291 0 0.13391177650968769 -0.15242347890466901 0 0.12831016946945831 -0.1492440347933528 0 0.14658871156029241 -0.16855183333999291 0 0.12831016946945831 -0.1492440347933528 0 0.14658871156029241 -0.16855183333999291 0 0.13540865390058859 -0.1688207667960602 0 0.1290045142054978 -0.1612372837293575 0 0.14658871156029241 -0.16855183333999291 0 0.1290045142054978 -0.1612372837293575 0 0.12831016946945831 -0.1492440347933528 0 0.13540865390058859 -0.1688207667960602 0 0.12715697753007521 -0.16591248018761531 0 0.1290045142054978 -0.1612372837293575 0 0.12443417021765769 -0.1709717485187108 0 0.13540865390058859 -0.1688207667960602 0 0.12715697753007521 -0.16591248018761531 0 0.12098675462827781 -0.16200852072179159 0 0.12715697753007521 -0.16591248018761531 0 0.1290045142054978 -0.1612372837293575 0 0.12324902196630889 -0.15465793599018671 0 0.1227471198665283 -0.15880086614903269 0 0.1290045142054978 -0.1612372837293575 0 0.13391177650968769 -0.15242347890466901 0 0.12831016946945831 -0.1492440347933528 0 0.12532898621889721 -0.13663811256420449 0 0.12324902196630889 -0.15465793599018671 0 0.1290045142054978 -0.1612372837293575 0 0.12831016946945831 -0.1492440347933528 0 0.1217036921304827 -0.1482443959076799 0 0.12831016946945831 -0.1492440347933528 0 0.12532898621889721 -0.13663811256420449 0 0.13391177650968769 -0.15242347890466901 0 0.13188977167139071 -0.12546883223523481 0 0.13391177650968769 -0.15242347890466901 0 0.13188977167139071 -0.12546883223523481 0 0.1446303542042412 -0.1380662602394005 0 0.13391177650968769 -0.15242347890466901 0 0.13188977167139071 -0.12546883223523481 0 0.12532898621889721 -0.13663811256420449 0 0.11997683785091839 -0.1276371159963853 0 0.13188977167139071 -0.12546883223523481 0 0.12532898621889721 -0.13663811256420449 0 0.1446303542042412 -0.1380662602394005 0 0.15557261582888751 -0.13003178131142151 0 0.1621281360659286 -0.14191921566573409 0 0.14724036225017881 -0.1245170930860646 0 0.13188977167139071 -0.12546883223523481 0 0.1446303542042412 -0.1380662602394005 0 0.14724036225017881 -0.1245170930860646 0 0.1446303542042412 -0.1380662602394005 0 0.15557261582888751 -0.13003178131142151 0 0.13391177650968769 -0.15242347890466901 0 0.1446303542042412 -0.1380662602394005 0 0.14971917460686079 -0.1530450482394467 0 0.1446303542042412 -0.1380662602394005 0 0.14971917460686079 -0.1530450482394467 0 0.1621281360659286 -0.14191921566573409 0 0.1621281360659286 -0.14191921566573409 0 0.17324983187337631 -0.13165498831909611 0 0.17651024624945799 -0.1485415537171802 0 0.14971917460686079 -0.1530450482394467 0 0.1621281360659286 -0.14191921566573409 0 0.16192904395431579 -0.15800089119817939 0 0.1621281360659286 -0.14191921566573409 0 0.17651024624945799 -0.1485415537171802 0 0.16192904395431579 -0.15800089119817939 0 0.16471491079178111 -0.1205264202314431 0 0.15557261582888751 -0.13003178131142151 0 0.1639163736399934 -0.1310331013819237 0 0.15557261582888751 -0.13003178131142151 0 0.1621281360659286 -0.14191921566573409 0 0.1639163736399934 -0.1310331013819237 0 0.1621281360659286 -0.14191921566573409 0 0.1639163736399934 -0.1310331013819237 0 0.17324983187337631 -0.13165498831909611 0 0.16471491079178111 -0.1205264202314431 0 0.1639163736399934 -0.1310331013819237 0 0.17324983187337631 -0.13165498831909611 0 0.1862357176231304 -0.1238823921021804 0 0.1919305776748628 -0.1461990482496055 0 0.17324983187337631 -0.13165498831909611 0 0.1919305776748628 -0.1461990482496055 0 0.17324983187337631 -0.13165498831909611 0 0.17651024624945799 -0.1485415537171802 0 0.1919305776748628 -0.1461990482496055 0 0.19225769977326759 -0.16432491474026781 0 0.17651024624945799 -0.1485415537171802 0 0.19225769977326759 -0.16432491474026781 0 0.17526083145963689 -0.16308053239281189 0 0.17982600751226671 -0.1762593337595659 0 0.19225769977326759 -0.16432491474026781 0 0.17651024624945799 -0.1485415537171802 0 0.17526083145963689 -0.16308053239281189 0 0.17526083145963689 -0.16308053239281189 0 0.17982600751226671 -0.1762593337595659 0 0.16627328335530381 -0.17069773137902189 0 0.1840061663436266 -0.1900566622106199 0 0.16486725365112659 -0.18785963188663279 0 0.17982600751226671 -0.1762593337595659 0 0.19629081049063871 -0.1815365299480412 0 0.1840061663436266 -0.1900566622106199 0 0.17982600751226671 -0.1762593337595659 0 0.16486725365112659 -0.18785963188663279 0 0.14658871156029241 -0.16855183333999291 0 0.16627328335530381 -0.17069773137902189 0 0.16486725365112659 -0.18785963188663279 0 0.17982600751226671 -0.1762593337595659 0 0.16627328335530381 -0.17069773137902189 0 0.14658871156029241 -0.16855183333999291 0 0.16192904395431579 -0.15800089119817939 0 0.16627328335530381 -0.17069773137902189 0 0.17526083145963689 -0.16308053239281189 0 0.16192904395431579 -0.15800089119817939 0 0.16627328335530381 -0.17069773137902189 0 0.17651024624945799 -0.1485415537171802 0 0.17526083145963689 -0.16308053239281189 0 0.16192904395431579 -0.15800089119817939 0 
</DataArray>
</Points>
<Cells>
<DataArray type="UInt32" Name="connectivity" format="ascii">
0 1 2 3 4 5 6 7 8 9 10 11 12 13 14 15 16 17 18 19 20 21 22 23 24 25 26 27 28 29 30 31 32 33 34 35 36 37 38 39 40 41 42 43 44 45 46 47 48 49 50 51 52 53 54 55 56 57 58 59 60 61 62 63 64 65 66 67 68 69 70 71 72 73 74 75 76 77 78 79 80 81 82 83 84 85 86 87 88 89 90 91 92 93 94 95 96 97 98 99 100 101 102 103 104 105 106 107 108 109 110 111 112 113 114 115 116 117 118 119 120 121 122 123 124 125 126 127 128 129 130 131 132 133 134 135 136 137 138 139 140 141 142 143 144 145 146 147 148 149 150 151 152 153 154 155 156 157 158 159 160 161 162 163 164 165 166 167 168 169 170 171 172 173 174 175 176 177 178 179 180 181 182 183 184 185 186 187 188 189 190 191 192 193 194 195 196 197 198 199 200 201 202 203 204 205 206 207 208 209 210 211 212 213 214 215 216 217 218 219 220 221 222 223 224 225 226 227 228 229 230 231 232 233 234 235 236 237 238 239 240 241 242 243 244 245 246 247 248 249 250 251 252 253 254 255 256 257 258 259 260 261 262 263 264 265 266 267 268 269 270 271 272 273 274 275 276 277 278 279 280 281 282 283 284 285 286 287 288 289 290 291 292 293 294 295 296 297 298 299 300 301 302 303 304 305 306 307 308 309 310 311 312 313 314 315 316 317 318 319 320 321 322 323 324 325 326 327 328 329 330 331 332 333 334 335 336 337 338 339 340 341 342 343 344 345 346 347 348 349 350 351 352 353 354 355 356 357 358 359 360 361 362 363 364 365 366 367 368 369 370 371 372 373 374 375 376 377 378 379 380 381 382 383 384 385 386 387 388 389 390 391 392 393 394 395 396 397 398 399 400 401 402 403 404 405 406 407 408 409 410 411 412 413 414 415 416 417 418 419 420 421 422 423 424 425 426 427 428 429 430 431 432 433 434 435 436 437 438 439 440 441 442 443 444 445 446 447 448 449 450 451 452 453 454 455 456 457 458 459 460 461 462 463 464 465 466 467 468 469 470 471 472 473 474 475 476 477 478 479 480 481 482 483 484 485 486 487 488 489 490 491 492 493 494 495 496 497 498 499 500 501 502 503 504 505 506 507 508 509 510 511 512 513 514 515 516 517 518 519 520 521 522 523 524 525 526 527 528 529 530 531 532 533 534 535 536 537 538 539 540 541 542 543 544 545 546 547 548 549 550 551 552 553 554 555 556 557 558 559 560 561 562 563 564 565 566 567 568 569 570 571 572 573 574 575 576 577 578 579 580 581 582 583 584 585 586 587 588 589 590 591 592 593 594 595 596 597 598 599 600 601 602 603 604 605 606 607 608 609 610 611 612 613 614 615 616 617 618 619 620 621 622 623 624 625 626 627 628 629 630 631 632 633 634 635 636 637 638 639 640 641 642 643 644 645 646 647 648 649 650 651 652 653 654 655 656 657 658 659 660 661 662 663 664 665 666 667 668 669 670 671 672 673 674 675 676 677 678 679 680 681 682 683 684 685 686 687 688 689 690 691 692 693 694 695 696 697 698 699 700 701 702 703 704 705 706 707 708 709 710 711 712 713 714 715 716 717 718 719 720 721 722 723 724 725 726 727 728 729 730 731 732 733 734 735 736 737 738 739 740 741 742 743 744 745 746 747 748 749 750 751 752 753 754 755 756 757 758 759 760 761 762 763 764 765 766 767 768 769 770 771 772 773 774 775 776 777 778 779 780 781 782 783 784 785 786 787 788 789 790 791 792 793 794 795 796 797 798 799 800 801 802 803 804 805 806 807 808 809 810 811 812 813 814 815 816 817 818 819 820 821 822 823 824 825 826 827 828 829 830 831 832 833 834 835 836 837 838 839 840 841 842 843 844 845 846 847 848 849 850 851 852 853 854 855 856 857 858 859 860 861 862 863 864 865 866 867 868 869 870 871 872 873 874 875 876 877 878 879 880 881 882 883 884 885 886 887 888 889 890 891 892 893 894 895 896 897 898 899 900 901 902 903 904 905 906 907 908 909 910 911 912 913 914 915 916 917 918 919 920 921 922 923 924 925 926 927 928 929 930 931 932 933 934 935 936 937 938 939 940 941 942 943 944 945 946 947 948 949 950 951 952 953 954 955 956 957 958 959 960 961 962 963 964 965 966 967 968 969 970 971 972 973 974 975 976 977 978 979 980 981 982 983 984 985 986 987 988 989 990 991 992 993 994 995 996 997 998 999 1000 1001 1002 1003 1004 1005 1006 1007 1008 1009 1010 1011 1012 1013 1014 1015 1016 1017 1018 1019 1020 1021 1022 1023 1024 1025 1026 1027 1028 1029 1030 1031 1032 1033 1034 1035 1036 1037 1038 1039 1040 1041 1042 1043 1044 1045 1046 1047 1048 1049 1050 1051 1052 1053 1054 1055 1056 1057 1058 1059 1060 1061 1062 1063 1064 1065 1066 1067 1068 1069 1070 1071 1072 1073 1074 1075 1076 1077 1078 1079 1080 1081 1082 1083 1084 1085 1086 1087 1088 1089 1090 1091 1092 1093 1094 1095 1096 1097 1098 1099 1100 1101 1102 1103 1104 1105 1106 1107 1108 1109 1110 1111 1112 1113 1114 1115 1116 1117 1118 1119 1120 1121 1122 1123 1124 1125 1126 1127 1128 1129 1130 1131 1132 1133 1134 1135 1136 1137 1138 1139 1140 1141 1142 1143 1144 1145 1146 1147 1148 1149 1150 1151 1152 1153 1154 1155 1156 1157 1158 1159 1160 1161 1162 1163 1164 1165 1166 1167 1168 1169 1170 1171 1172 1173 1174 1175 1176 1177 1178 1179 1180 1181 1182 1183 1184 1185 1186 1187 1188 1189 1190 1191 1192 1193 1194 1195 1196 1197 1198 1199 1200 1201 1202 1203 1204 1205 1206 1207 1208 1209 1210 1211 1212 1213 1214 1215 1216 1217 1218 1219 1220 1221 1222 1223 1224 1225 1226 1227 1228 1229 1230 1231 1232 1233 1234 1235 1236 1237 1238 1239 1240 1241 1242 1243 1244 1245 1246 1247 1248 1249 1250 1251 1252 1253 1254 1255 1256 1257 1258 1259 1260 1261 1262 1263 1264 1265 1266 1267 1268 1269 1270 1271 1272 1273 1274 1275 1276 1277 1278 1279 1280 1281 1282 1283 1284 1285 1286 1287 1288 1289 1290 1291 1292 1293 1294 1295 1296 1297 1298 1299 1300 1301 1302 1303 1304 1305 1306 1307 1308 1309 1310 1311 1312 1313 1314 1315 1316 1317 1318 1319 1320 1321 1322 1323 1324 1325 1326 1327 1328 1329 1330 1331 1332 1333 1334 1335 1336 1337 1338 1339 1340 1341 1342 1343 1344 1345 1346 1347 1348 1349 1350 1351 1352 1353 1354 1355 1356 1357 1358 1359 1360 1361 1362 1363 1364 1365 1366 1367 1368 1369 1370 1371 1372 1373 1374 1375 1376 1377 1378 1379 1380 1381 1382 1383 1384 1385 1386 1387 1388 1389 1390 1391 1392 1393 1394 1395 1396 1397 1398 1399 1400 1401 1402 1403 1404 1405 1406 1407 1408 1409 1410 1411 1412 1413 1414 1415 1416 1417 1418 1419 1420 1421 1422 1423 1424 1425 1426 1427 1428 1429 1430 1431 1432 1433 1434 1435 1436 1437 1438 1439 1440 1441 1442 1443 1444 1445 1446 1447 1448 1449 1450 1451 1452 1453 1454 1455 1456 1457 1458 1459 1460 1461 1462 1463 1464 1465 1466 1467 1468 1469 1470 1471 1472 1473 1474 1475 1476 1477 1478 1479 1480 1481 1482 1483 1484 1485 1486 1487 1488 1489 1490 1491 1492 1493 1494 1495 1496 1497 1498 1499 1500 1501 1502 1503 1504 1505 1506 1507 1508 1509 1510 1511 1512 1513 1514 1515 1516 1517 1518 1519 1520 1521 1522 1523 1524 1525 1526 1527 1528 1529 1530 1531 1532 1533 1534 1535 1536 1537 1538 1539 1540 1541 1542 1543 1544 1545 1546 1547 1548 1549 1550 1551 1552 1553 1554 1555 1556 1557 1558 1559 1560 1561 1562 1563 1564 1565 1566 1567 1568 1569 1570 1571 1572 1573 1574 1575 1576 1577 1578 1579 1580 1581 1582 1583 1584 1585 1586 1587 1588 1589 1590 1591 1592 1593 1594 1595 1596 1597 1598 1599 1600 1601 1602 1603 1604 1605 1606 1607 1608 1609 1610 1611 1612 1613 1614 1615 1616 1617 1618 1619 1620 1621 1622 1623 1624 1625 1626 1627 1628 1629 1630 1631 1632 1633 1634 1635 1636 1637 1638 1639 1640 1641 1642 1643 1644 1645 1646 1647 1648 1649 1650 1651 1652 1653 1654 1655 1656 1657 1658 1659 1660 1661 1662 1663 1664 1665 1666 1667 1668 1669 1670 1671 1672 1673 1674 1675 1676 1677 1678 1679 1680 1681 1682 1683 1684 1685 1686 1687 1688 1689 1690 1691 1692 1693 1694 1695 1696 1697 1698 1699 1700 1701 1702 1703 1704 1705 1706 1707 1708 1709 1710 1711 1712 1713 1714 1715 1716 1717 1718 1719 1720 1721 1722 1723 1724 1725 1726 1727 1728 1729 1730 1731 1732 1733 1734 1735 1736 1737 1738 1739 1740 1741 1742 1743 1744 1745 1746 1747 1748 1749 1750 1751 1752 1753 1754 1755 1756 1757 1758 1759 1760 1761 1762 1763 1764 1765 1766 1767 1768 1769 1770 1771 1772 1773 1774 1775 1776 1777 1778 1779 1780 1781 1782 1783 1784 1785 1786 1787 1788 1789 1790 1791 1792 1793 1794 1795 1796 1797 1798 1799 1800 1801 1802 1803 1804 1805 1806 1807 1808 1809 1810 1811 1812 1813 1814 1815 1816 1817 1818 1819 1820 1821 1822 1823 1824 1825 1826 1827 1828 1829 1830 1831 1832 1833 1834 1835 1836 1837 1838 1839 1840 1841 1842 1843 1844 1845 1846 1847 1848 1849 1850 1851 1852 1853 1854 1855 1856 1857 1858 1859 1860 1861 1862 1863 1864 1865 1866 1867 1868 1869 1870 1871 1872 1873 1874 1875 1876 1877 1878 1879 1880 1881 1882 1883 1884 1885 1886 1887 1888 1889 1890 1891 1892 1893 1894 1895 1896 1897 1898 1899 1900 1901 1902 1903 1904 1905 1906 1907 1908 1909 1910 1911 1912 1913 1914 1915 1916 1917 1918 1919 1920 1921 1922 1923 1924 1925 1926 1927 1928 1929 1930 1931 1932 1933 1934 1935 1936 1937 1938 1939 1940 1941 1942 1943 1944 1945 1946 1947 1948 1949 1950 1951 1952 1953 1954 1955 1956 1957 1958 1959 1960 1961 1962 1963 1964 1965 1966 1967 1968 1969 1970 1971 1972 1973 1974 1975 1976 1977 1978 1979 1980 1981 1982 1983 1984 1985 1986 1987 1988 1989 1990 1991 1992 1993 1994 1995 1996 1997 1998 1999 2000 2001 2002 2003 2004 2005 2006 2007 2008 2009 2010 2011 2012 2013 2014 2015 2016 2017 2018 2019 2020 2021 2022 2023 2024 2025 2026 2027 2028 2029 2030 2031 2032 2033 2034 2035 2036 2037 2038 2039 2040 2041 2042 2043 2044 2045 2046 2047 2048 2049 2050 2051 2052 2053 2054 2055 2056 2057 2058 2059 2060 2061 2062 2063 2064 2065 2066 2067 2068 2069 2070 2071 2072 2073 2074 2075 2076 2077 2078 2079 2080 2081 2082 2083 2084 2085 2086 2087 2088 2089 2090 2091 2092 2093 2094 2095 2096 2097 2098 2099 2100 2101 2102 2103 2104 2105 2106 2107 2108 2109 2110 2111 2112 2113 2114 2115 2116 2117 2118 2119 2120 2121 2122 2123 2124 2125 2126 2127 2128 2129 2130 2131 2132 2133 2134 2135 2136 2137 2138 2139 2140 2141 2142 2143 2144 2145 2146 2147 2148 2149 2150 2151 2152 2153 2154 2155 2156 2157 2158 2159 2160 2161 2162 2163 2164 2165 2166 2167 2168 2169 2170 2171 2172 2173 2174 2175 2176 2177 2178 2179 2180 2181 2182 2183 2184 2185 2186 2187 2188 2189 2190 2191 2192 2193 2194 2195 2196 2197 2198 2199 2200 2201 2202 2203 2204 2205 2206 2207 2208 2209 2210 2211 2212 2213 2214 2215 2216 2217 2218 2219 2220 2221 2222 2223 2224 2225 2226 2227 2228 2229 2230 2231 2232 2233 2234 2235 2236 2237 2238 2239 2240 2241 2242 2243 2244 2245 2246 2247 2248 2249 2250 2251 2252 2253 2254 2255 2256 2257 2258 2259 2260 2261 2262 2263 2264 2265 2266 2267 2268 2269 2270 2271 2272 2273 2274 2275 2276 2277 2278 2279 2280 2281 2282 2283 2284 2285 2286 2287 2288 2289 2290 2291 2292 2293 2294 2295 2296 2297 2298 2299 2300 2301 2302 2303 2304 2305 2306 2307 2308 2309 2310 2311 2312 2313 2314 2315 2316 2317 2318 2319 2320 2321 2322 2323 2324 2325 2326 2327 2328 2329 2330 2331 2332 2333 2334 2335 2336 2337 2338 2339 2340 2341 2342 2343 2344 2345 2346 2347 2348 2349 2350 2351 2352 2353 2354 2355 2356 2357 2358 2359 2360 2361 2362 2363 2364 2365 2366 2367 2368 2369 2370 2371 2372 2373 2374 2375 2376 2377 2378 2379 2380 2381 2382 2383 2384 2385 2386 2387 2388 2389 2390 2391 2392 2393 2394 2395 2396 2397 2398 2399 2400 2401 2402 2403 2404 2405 2406 2407 2408 2409 2410 2411 2412 2413 2414 2415 2416 2417 2418 2419 2420 2421 2422 2423 2424 2425 2426 2427 2428 2429 2430 2431 2432 2433 2434 2435 2436 2437 2438 2439 2440 2441 2442 2443 2444 2445 2446 2447 2448 2449 2450 2451 2452 2453 2454 2455 2456 2457 2458 2459 2460 2461 2462 2463 2464 2465 2466 2467 2468 2469 2470 2471 2472 2473 2474 2475 2476 2477 2478 2479 2480 2481 2482 2483 2484 2485 2486 2487 2488 2489 2490 2491 2492 2493 2494 2495 2496 2497 2498 2499 2500 2501 2502 2503 2504 2505 2506 2507 2508 2509 2510 2511 2512 2513 2514 2515 2516 2517 2518 2519 2520 2521 2522 2523 2524 2525 2526 2527 2528 2529 2530 2531 2532 2533 2534 2535 2536 2537 2538 2539 2540 2541 2542 2543 2544 2545 2546 2547 2548 2549 2550 2551 2552 2553 2554 2555 2556 2557 2558 2559 2560 2561 2562 2563 2564 2565 2566 2567 2568 2569 2570 2571 2572 2573 2574 2575 2576 2577 2578 2579 2580 2581 2582 2583 2584 2585 2586 2587 2588 2589 2590 2591 2592 2593 2594 2595 2596 2597 2598 2599 2600 2601 2602 2603 2604 2605 2606 2607 2608 2609 2610 2611 2612 2613 2614 2615 2616 2617 2618 2619 2620 2621 2622 2623 2624 2625 2626 2627 2628 2629 2630 2631 2632 2633 2634 2635 2636 2637 2638 2639 2640 2641 2642 2643 2644 2645 2646 2647 2648 2649 2650 2651 2652 2653 2654 2655 2656 2657 2658 2659 2660 2661 2662 2663 2664 2665 2666 2667 2668 2669 2670 2671 2672 2673 2674 2675 2676 2677 2678 2679 2680 2681 2682 2683 2684 2685 2686 2687 2688 2689 2690 2691 2692 2693 2694 2695 2696 2697 2698 2699 2700 2701 2702 2703 2704 2705 2706 2707 2708 2709 2710 2711 2712 2713 2714 2715 2716 2717 2718 2719 2720 2721 2722 2723 2724 2725 2726 2727 2728 2729 2730 2731 2732 2733 2734 2735 2736 2737 2738 2739 2740 2741 2742 2743 2744 2745 2746 2747 2748 2749 2750 2751 2752 2753 2754 2755 2756 2757 2758 2759 2760 2761 2762 2763 2764 2765 2766 2767 2768 2769 2770 2771 2772 2773 2774 2775 2776 2777 2778 2779 2780 2781 2782 2783 2784 2785 2786 2787 2788 2789 2790 2791 2792 2793 2794 2795 2796 2797 2798 2799 2800 2801 2802 2803 2804 2805 2806 2807 2808 2809 2810 2811 2812 2813 2814 2815 2816 2817 2818 2819 2820 2821 2822 2823 2824 2825 2826 2827 2828 2829 2830 2831 2832 2833 2834 2835 2836 2837 2838 2839 2840 2841 2842 2843 2844 2845 2846 2847 2848 2849 2850 2851 2852 2853 2854 2855 2856 2857 2858 2859 2860 2861 2862 2863 2864 2865 2866 2867 2868 2869 2870 2871 2872 2873 2874 2875 2876 2877 2878 2879 2880 2881 2882 2883 2884 2885 2886 2887 2888 2889 2890 2891 2892 2893 2894 2895 2896 2897 2898 2899 2900 2901 2902 2903 2904 2905 2906 2907 2908 2909 2910 2911 2912 2913 2914 2915 2916 2917 2918 2919 2920 2921 2922 2923 2924 2925 2926 2927 2928 2929 2930 2931 2932 2933 2934 2935 2936 2937 2938 2939 2940 2941 2942 2943 2944 2945 2946 2947 2948 2949 2950 2951 2952 2953 2954 2955 2956 2957 2958 2959 2960 2961 2962 2963 2964 2965 2966 2967 2968 2969 2970 2971 2972 2973 2974 2975 2976 2977 2978 2979 2980 2981 2982 2983 2984 2985 2986 2987 2988 2989 2990 2991 2992 2993 2994 2995 2996 2997 2998 2999 3000 3001 3002 3003 3004 3005 3006 3007 3008 3009 3010 3011 3012 3013 3014 3015 3016 3017 3018 3019 3020 3021 3022 3023 3024 3025 3026 3027 3028 3029 3030 3031 3032 3033 3034 3035 3036 3037 3038 3039 3040 3041 3042 3043 3044 3045 3046 3047 3048 3049 3050 3051 3052 3053 3054 3055 3056 3057 3058 3059 3060 3061 3062 3063 3064 3065 3066 3067 3068 3069 3070 3071 3072 3073 3074 3075 3076 3077 3078 3079 3080 3081 3082 3083 3084 3085 3086 3087 3088 3089 3090 3091 3092 3093 3094 3095 3096 3097 3098 3099 3100 3101 3102 3103 3104 3105 3106 3107 3108 3109 3110 3111 3112 3113 3114 3115 3116 3117 3118 3119 3120 3121 3122 3123 3124 3125 3126 3127 3128 3129 3130 3131 3132 3133 3134 3135 3136 3137 3138 3139 3140 3141 3142 3143 3144 3145 3146 3147 3148 3149 3150 3151 3152 3153 3154 3155 3156 3157 3158 3159 3160 3161 3162 3163 3164 3165 3166 3167 3168 3169 3170 3171 3172 3173 3174 3175 3176 3177 3178 3179 3180 3181 3182 3183 3184 3185 3186 3187 3188 3189 3190 3191 3192 3193 3194 3195 3196 3197 3198 3199 3200 3201 3202 3203 3204 3205 3206 3207 3208 3209 3210 3211 3212 3213 3214 3215 3216 3217 3218 3219 3220 3221 3222 3223 3224 3225 3226 3227 3228 3229 3230 3231 3232 3233 3234 3235 3236 3237 3238 3239 3240 3241 3242 3243 3244 3245 3246 3247 3248 3249 3250 3251 3252 3253 3254 3255 3256 3257 3258 3259 3260 3261 3262 3263 3264 3265 3266 3267 3268 3269 3270 3271 3272 3273 3274 3275 3276 3277 3278 3279 3280 3281 3282 3283 3284 3285 3286 3287 3288 3289 3290 3291 3292 3293 3294 3295 3296 3297 3298 3299 3300 3301 3302 3303 3304 3305 3306 3307 3308 3309 3310 3311 3312 3313 3314 3315 3316 3317 3318 3319 3320 3321 3322 3323 3324 3325 3326 3327 3328 3329 3330 3331 3332 3333 3334 3335 3336 3337 3338 3339 3340 3341 3342 3343 3344 3345 3346 3347 3348 3349 3350 3351 3352 3353 3354 3355 3356 3357 3358 3359 3360 3361 3362 3363 3364 3365 3366 3367 3368 3369 3370 3371 3372 3373 3374 3375 3376 3377 3378 3379 3380 3381 3382 3383 3384 3385 3386 3387 3388 3389 3390 3391 3392 3393 3394 3395 3396 3397 3398 3399 3400 3401 3402 3403 3404 3405 3406 3407 3408 3409 3410 3411 3412 3413 3414 3415 3416 3417 3418 3419 3420 3421 3422 3423 3424 3425 3426 3427 3428 3429 3430 3431 3432 3433 3434 3435 3436 3437 3438 3439 3440 3441 3442 3443 3444 3445 3446 3447 3448 3449 3450 3451 3452 3453 3454 3455 3456 3457 3458 3459 3460 3461 3462 3463 3464 3465 3466 3467 3468 3469 3470 3471 3472 3473 3474 3475 3476 3477 3478 3479 3480 3481 3482 3483 3484 3485 3486 3487 3488 3489 3490 3491 3492 3493 3494 3495 3496 3497 3498 3499 3500 3501 3502 3503 3504 3505 3506 3507 3508 3509 3510 3511 3512 3513 3514 3515 3516 3517 3518 3519 3520 3521 3522 3523 3524 3525 3526 3527 3528 3529 3530 3531 3532 3533 3534 3535 3536 3537 3538 3539 3540 3541 3542 3543 3544 3545 3546 3547 3548 3549 3550 3551 3552 3553 3554 3555 3556 3557 3558 3559 3560 3561 3562 3563 3564 3565 3566 3567 3568 3569 3570 3571 3572 3573 3574 3575 3576 3577 3578 3579 3580 3581 3582 3583 3584 3585 3586 3587 3588 3589 3590 3591 3592 3593 3594 3595 3596 3597 3598 3599 3600 3601 3602 3603 3604 3605 3606 3607 3608 3609 3610 3611 3612 3613 3614 3615 3616 3617 3618 3619 3620 3621 3622 3623 3624 3625 3626 3627 3628 3629 3630 3631 3632 3633 3634 3635 3636 3637 3638 3639 3640 3641 3642 3643 3644 3645 3646 3647 3648 3649 3650 3651 3652 3653 3654 3655 3656 3657 3658 3659 3660 3661 3662 3663 3664 3665 3666 3667 3668 3669 3670 3671 3672 3673 3674 3675 3676 3677 3678 3679 3680 3681 3682 3683 3684 3685 3686 3687 3688 3689 3690 3691 3692 3693 3694 3695 3696 3697 3698 3699 3700 3701 3702 3703 3704 3705 3706 3707 3708 3709 3710 3711 3712 3713 3714 3715 3716 3717 3718 3719 3720 3721 3722 3723 3724 3725 3726 3727 3728 3729 3730 3731 3732 3733 3734 3735 3736 3737 3738 3739 3740 3741 3742 3743 3744 3745 3746 3747 3748 3749 3750 3751 3752 3753 3754 3755 3756 3757 3758 3759 3760 3761 3762 3763 3764 3765 3766 3767 3768 3769 3770 3771 3772 3773 3774 3775 3776 3777 3778 3779 3780 3781 3782 3783 3784 3785 3786 3787 3788 3789 3790 3791 3792 3793 3794 3795 3796 3797 3798 3799 3800 3801 3802 3803 3804 3805 3806 3807 3808 3809 3810 3811 3812 3813 3814 3815 3816 3817 3818 3819 3820 3821 3822 3823 3824 3825 3826 3827 3828 3829 3830 3831 3832 3833 3834 3835 3836 3837 3838 3839 3840 3841 3842 3843 3844 3845 3846 3847 3848 3849 3850 3851 3852 3853 3854 3855 3856 3857 3858 3859 3860 3861 3862 3863 3864 3865 3866 3867 3868 3869 3870 3871 3872 3873 3874 3875 3876 3877 3878 3879 3880 3881 3882 3883 3884 3885 3886 3887 3888 3889 3890 3891 3892 3893 3894 3895 3896 3897 3898 3899 3900 3901 3902 3903 3904 3905 3906 3907 3908 3909 3910 3911 3912 3913 3914 3915 3916 3917 3918 3919 3920 3921 3922 3923 3924 3925 3926 3927 3928 3929 3930 3931 3932 3933 3934 3935 3936 3937 3938 3939 3940 3941 3942 3943 3944 3945 3946 3947 3948 3949 3950 3951 3952 3953 3954 3955 3956 3957 3958 3959 3960 3961 3962 3963 3964 3965 3966 3967 3968 3969 3970 3971 3972 3973 3974 3975 3976 3977 3978 3979 3980 3981 3982 3983 3984 3985 3986 3987 3988 3989 3990 3991 3992 3993 3994 3995 3996 3997 3998 3999 4000 4001 4002 4003 4004 4005 4006 4007 4008 4009 4010 4011 4012 4013 4014 4015 4016 4017 4018 4019 4020 4021 4022 4023 4024 4025 4026 4027 4028 4029 4030 4031 4032 4033 4034 4035 4036 4037 4038 4039 4040 4041 4042 4043 4044 4045 4046 4047 4048 4049 4050 4051 4052 4053 4054 4055 4056 4057 4058 4059 4060 4061 4062 4063 4064 4065 4066 4067 4068 4069 4070 4071 4072 4073 4074 4075 4076 4077 4078 4079 4080 4081 4082 4083 4084 4085 4086 4087 4088 4089 4090 4091 4092 4093 4094 4095 4096 4097 4098 4099 4100 4101 4102 4103 4104 4105 4106 4107 4108 4109 4110 4111 4112 4113 4114 4115 4116 4117 4118 4119 4120 4121 4122 4123 4124 4125 4126 4127 4128 4129 4130 4131 4132 4133 4134 4135 4136 4137 4138 4139 4140 4141 4142 4143 4144 4145 4146 4147 4148 4149 4150 4151 4152 4153 4154 4155 4156 4157 4158 4159 4160 4161 4162 4163 4164 4165 4166 4167 4168 4169 4170 4171 4172 4173 4174 4175 4176 4177 4178 4179 4180 4181 4182 4183 4184 4185 4186 4187 4188 4189 4190 4191 4192 4193 4194 4195 4196 4197 4198 4199 4200 4201 4202 4203 4204 4205 4206 4207 4208 4209 4210 4211 4212 4213 4214 4215 4216 4217 4218 4219 4220 4221 4222 4223 4224 4225 4226 4227 4228 4229 4230 4231 4232 4233 4234 4235 4236 4237 4238 4239 4240 4241 4242 4243 4244 4245 4246 4247 4248 4249 4250 4251 4252 4253 4254 4255 4256 4257 4258 4259 4260 4261 4262 4263 4264 4265 4266 4267 4268 4269 4270 4271 4272 4273 4274 4275 4276 4277 4278 4279 4280 4281 4282 4283 4284 4285 4286 4287 4288 4289 4290 4291 4292 4293 4294 4295 4296 4297 4298 4299 4300 4301 4302 4303 4304 4305 4306 4307 4308 4309 4310 4311 4312 4313 4314 4315 4316 4317 4318 4319 4320 4321 4322 4323 4324 4325 4326 4327 4328 4329 4330 4331 4332 4333 4334 4335 4336 4337 4338 4339 4340 4341 4342 4343 4344 4345 4346 4347 4348 4349 4350 4351 4352 4353 4354 4355 4356 4357 4358 4359 4360 4361 4362 4363 4364 4365 4366 4367 4368 4369 4370 4371 4372 4373 4374 4375 4376 4377 4378 4379 4380 4381 4382 4383 4384 4385 4386 4387 4388 4389 4390 4391 4392 4393 4394 4395 4396 4397 4398 4399 4400 4401 4402 4403 4404 4405 4406 4407 4408 4409 4410 4411 4412 4413 4414 4415 4416 4417 4418 4419 4420 4421 4422 4423 4424 4425 4426 4427 4428 4429 4430 4431 4432 4433 4434 4435 4436 4437 4438 4439 4440 4441 4442 4443 4444 4445 4446 4447 4448 4449 4450 4451 4452 4453 4454 4455 4456 4457 4458 4459 4460 4461 4462 4463 4464 4465 4466 4467 4468 4469 4470 4471 4472 4473 4474 4475 4476 4477 4478 4479 4480 4481 4482 4483 4484 4485 4486 4487 4488 4489 4490 4491 4492 4493 4494 4495 4496 4497 4498 4499 4500 4501 4502 4503 4504 4505 4506 4507 4508 4509 4510 4511 4512 4513 4514 4515 4516 4517 4518 4519 4520 4521 4522 4523 4524 4525 4526 4527 4528 4529 4530 4531 4532 4533 4534 4535 4536 4537 4538 4539 4540 4541 4542 4543 4544 4545 4546 4547 4548 4549 4550 4551 4552 4553 4554 4555 4556 4557 4558 4559 4560 4561 4562 4563 4564 4565 4566 4567 4568 4569 4570 4571 4572 4573 4574 4575 4576 4577 4578 4579 4580 4581 4582 4583 4584 4585 4586 4587 4588 4589 4590 4591 4592 4593 4594 4595 4596 4597 4598 4599 4600 4601 4602 4603 4604 4605 4606 4607 4608 4609 4610 4611 4612 4613 4614 4615 4616 4617 4618 4619 4620 4621 4622 4623 4624 4625 4626 4627 4628 4629 4630 4631 4632 4633 4634 4635 4636 4637 4638 4639 4640 4641 4642 4643 4644 4645 4646 4647 4648 4649 4650 4651 4652 4653 4654 4655 4656 4657 4658 4659 4660 4661 4662 4663 4664 4665 4666 4667 4668 4669 4670 4671 4672 4673 4674 4675 4676 4677 4678 4679 4680 4681 4682 4683 4684 4685 4686 4687 4688 4689 4690 4691 4692 4693 4694 4695 4696 4697 4698 4699 4700 4701 4702 4703 4704 4705 4706 4707 4708 4709 4710 4711 4712 4713 4714 4715 4716 4717 4718 4719 4720 4721 4722 4723 4724 4725 4726 4727 4728 4729 4730 4731 4732 4733 4734 4735 4736 4737 4738 4739 4740 4741 4742 4743 4744 4745 4746 4747 4748 4749 4750 4751 4752 4753 4754 4755 4756 4757 4758 4759 4760 4761 4762 4763 4764 4765 4766 4767 4768 4769 4770 4771 4772 4773 4774 4775 4776 4777 4778 4779 4780 4781 4782 4783 4784 4785 4786 4787 4788 4789 4790 4791 4792 4793 4794 4795 4796 4797 4798 4799 4800 4801 4802 4803 4804 4805 4806 4807 4808 4809 4810 4811 4812 4813 4814 4815 4816 4817 4818 4819 4820 4821 4822 4823 4824 4825 4826 4827 4828 4829 4830 4831 4832 4833 4834 4835 4836 4837 4838 4839 4840 4841 4842 4843 4844 4845 4846 4847 4848 4849 4850 4851 4852 4853 4854 4855 4856 4857 4858 4859 4860 4861 4862 4863 4864 4865 4866 4867 4868 4869 4870 4871 4872 4873 4874 4875 4876 4877 4878 4879 4880 4881 4882 4883 4884 4885 4886 4887 4888 4889 4890 4891 4892 4893 4894 4895 4896 4897 4898 4899 4900 4901 4902 4903 4904 4905 4906 4907 4908 4909 4910 4911 4912 4913 4914 4915 4916 4917 4918 4919 4920 4921 4922 4923 4924 4925 4926 4927 4928 4929 4930 4931 4932 4933 4934 4935 4936 4937 4938 4939 4940 4941 4942 4943 4944 4945 4946 4947 4948 4949 4950 4951 4952 4953 4954 4955 4956 4957 4958 4959 4960 4961 4962 4963 4964 4965 4966 4967 4968 4969 4970 4971 4972 4973 4974 4975 4976 4977 4978 4979 4980 4981 4982 4983 4984 4985 4986 4987 4988 4989 4990 4991 4992 4993 4994 4995 4996 4997 4998 4999 5000 5001 5002 5003 5004 5005 5006 5007 5008 5009 5010 5011 5012 5013 5014 5015 5016 5017 5018 5019 5020 5021 5022 5023 5024 5025 5026 5027 5028 5029 5030 5031 5032 5033 5034 5035 5036 5037 5038 5039 5040 5041 5042 5043 5044 5045 5046 5047 5048 5049 5050 5051 5052 5053 5054 5055 5056 5057 5058 5059 5060 5061 5062 5063 5064 5065 5066 5067 5068 5069 5070 5071 5072 5073 5074 5075 5076 5077 5078 5079 5080 5081 5082 5083 5084 5085 5086 5087 5088 5089 5090 5091 5092 5093 5094 5095 5096 5097 5098 5099 5100 5101 5102 5103 5104 5105 5106 5107 5108 5109 5110 5111 5112 5113 5114 5115 5116 5117 5118 5119 5120 5121 5122 5123 5124 5125 5126 5127 5128 5129 5130 5131 5132 5133 5134 5135 5136 5137 5138 5139 5140 5141 5142 5143 5144 5145 5146 5147 5148 5149 5150 5151 5152 5153 5154 5155 5156 5157 5158 5159 5160 5161 5162 5163 5164 5165 5166 5167 5168 5169 5170 5171 5172 5173 5174 5175 5176 5177 5178 5179 5180 5181 5182 5183 5184 5185 5186 5187 5188 5189 5190 5191 5192 5193 5194 5195 5196 5197 5198 5199 5200 5201 5202 5203 5204 5205 5206 5207 5208 5209 5210 5211 5212 5213 5214 5215 5216 5217 5218 5219 5220 5221 5222 5223 5224 5225 5226 5227 5228 5229 5230 5231 5232 5233 5234 5235 5236 5237 5238 5239 5240 5241 5242 5243 5244 5245 5246 5247 5248 5249 5250 5251 5252 5253 5254 5255 5256 5257 5258 5259 5260 5261 5262 5263 5264 5265 5266 5267 5268 5269 5270 5271 5272 5273 5274 5275 5276 5277 5278 5279 5280 5281 5282 5283 5284 5285 5286 5287 5288 5289 5290 5291 5292 5293 5294 5295 5296 5297 5298 5299 5300 5301 5302 5303 5304 5305 5306 5307 5308 5309 5310 5311 5312 5313 5314 5315 5316 5317 5318 5319 5320 5321 5322 5323 5324 5325 5326 5327 5328 5329 5330 5331 5332 5333 5334 5335 5336 5337 5338 5339 5340 5341 5342 5343 5344 5345 5346 5347 5348 5349 5350 5351 5352 5353 5354 5355 5356 5357 5358 5359 5360 5361 5362 5363 5364 5365 5366 5367 5368 5369 5370 5371 5372 5373 5374 5375 5376 5377 5378 5379 5380 5381 5382 5383 5384 5385 5386 5387 5388 5389 5390 5391 5392 5393 5394 5395 5396 5397 5398 5399 5400 5401 5402 5403 5404 5405 5406 5407 5408 5409 5410 5411 5412 5413 5414 5415 5416 5417 5418 5419 5420 5421 5422 5423 5424 5425 5426 5427 5428 5429 5430 5431 5432 5433 5434 5435 5436 5437 5438 5439 5440 5441 5442 5443 5444 5445 5446 5447 5448 5449 5450 5451 5452 5453 5454 5455 5456 5457 5458 5459 5460 5461 5462 5463 5464 5465 5466 5467 5468 5469 5470 5471 5472 5473 5474 5475 5476 5477 5478 5479 5480 5481 5482 5483 5484 5485 5486 5487 5488 5489 5490 5491 5492 5493 5494 5495 5496 5497 5498 5499 5500 5501 5502 5503 5504 5505 5506 5507 5508 5509 5510 5511 5512 5513 5514 5515 5516 5517 5518 5519 5520 5521 5522 5523 5524 5525 5526 5527 5528 5529 5530 5531 5532 5533 5534 5535 5536 5537 5538 5539 5540 5541 5542 5543 5544 5545 5546 5547 5548 5549 5550 5551 5552 5553 5554 5555 5556 5557 5558 5559 5560 5561 5562 5563 5564 5565 5566 5567 5568 5569 5570 5571 5572 5573 5574 5575 5576 5577 5578 5579 5580 5581 5582 5583 5584 5585 5586 5587 5588 5589 5590 5591 5592 5593 5594 5595 5596 5597 5598 5599 5600 5601 5602 5603 5604 5605 5606 5607 5608 5609 5610 5611 5612 5613 5614 5615 5616 5617 5618 5619 5620 5621 5622 5623 5624 5625 5626 5627 5628 5629 5630 5631 5632 5633 5634 5635 5636 5637 5638 5639 5640 5641 5642 5643 5644 5645 5646 5647 5648 5649 5650 5651 5652 5653 5654 5655 5656 5657 5658 5659 5660 5661 5662 5663 5664 5665 5666 5667 5668 5669 5670 5671 5672 5673 5674 5675 5676 5677 5678 5679 5680 5681 5682 5683 5684 5685 5686 5687 5688 5689 5690 5691 5692 5693 5694 5695 5696 5697 5698 5699 5700 5701 5702 5703 5704 5705 5706 5707 5708 5709 5710 5711 5712 5713 5714 5715 5716 5717 5718 5719 5720 5721 5722 5723 5724 5725 5726 5727 5728 5729 5730 5731 5732 5733 5734 5735 5736 5737 5738 5739 5740 5741 5742 5743 5744 5745 5746 5747 5748 5749 5750 5751 5752 5753 5754 5755 5756 5757 5758 5759 5760 5761 5762 5763 5764 5765 5766 5767 5768 5769 5770 5771 5772 5773 5774 5775 5776 5777 5778 5779 5780 5781 5782 5783 5784 5785 5786 5787 5788 5789 5790 5791 5792 5793 5794 5795 5796 5797 5798 5799 5800 5801 5802 5803 5804 5805 5806 5807 5808 5809 5810 5811 5812 5813 5814 5815 5816 5817 5818 5819 5820 5821 5822 5823 5824 5825 5826 5827 5828 5829 5830 5831 5832 5833 5834 5835 5836 5837 5838 5839 5840 5841 5842 5843 5844 5845 5846 5847 5848 5849 5850 5851 5852 5853 5854 5855 5856 5857 5858 5859 5860 5861 5862 5863 5864 5865 5866 5867 5868 5869 5870 5871 5872 5873 5874 5875 5876 5877 5878 5879 5880 5881 5882 5883 5884 5885 5886 5887 5888 5889 5890 5891 5892 5893 5894 5895 5896 5897 5898 5899 5900 5901 5902 5903 5904 5905 5906 5907 5908 5909 5910 5911 5912 5913 5914 5915 5916 5917 5918 5919 5920 5921 5922 5923 5924 5925 5926 5927 5928 5929 5930 5931 5932 5933 5934 5935 5936 5937 5938 5939 5940 5941 5942 5943 5944 5945 5946 5947 5948 5949 5950 5951 5952 5953 5954 5955 5956 5957 5958 5959 5960 5961 5962 5963 5964 5965 5966 5967 5968 5969 5970 5971 5972 5973 5974 5975 5976 5977 5978 5979 5980 5981 5982 5983 5984 5985 5986 5987 5988 5989 5990 5991 5992 5993 5994 5995 5996 5997 5998 5999 6000 6001 6002 6003 6004 6005 6006 6007 6008 6009 6010 6011 6012 6013 6014 6015 6016 6017 6018 6019 6020 6021 6022 6023 6024 6025 6026 6027 6028 6029 6030 6031 6032 6033 6034 6035 6036 6037 6038 6039 6040 6041 6042 6043 6044 6045 6046 6047 6048 6049 6050 6051 6052 6053 6054 6055 6056 6057 6058 6059 6060 6061 6062 6063 6064 6065 6066 6067 6068 6069 6070 6071 6072 6073 6074 6075 6076 6077 6078 6079 6080 6081 6082 6083 6084 6085 6086 6087 6088 6089 6090 6091 6092 6093 6094 6095 6096 6097 6098 6099 6100 6101 6102 6103 6104 6105 6106 6107 6108 6109 6110 6111 6112 6113 6114 6115 6116 6117 6118 6119 6120 6121 6122 6123 6124 6125 6126 6127 6128 6129 6130 6131 6132 6133 6134 6135 6136 6137 6138 6139 6140 6141 6142 6143 6144 6145 6146 6147 6148 6149 6150 6151 6152 6153 6154 6155 6156 6157 6158 6159 6160 6161 6162 6163 6164 6165 6166 6167 6168 6169 6170 6171 6172 6173 6174 6175 6176 6177 6178 6179 6180 6181 6182 6183 6184 6185 6186 6187 6188 6189 6190 6191 6192 6193 6194 6195 6196 6197 6198 6199 6200 6201 6202 6203 6204 6205 6206 6207 6208 6209 6210 6211 6212 6213 6214 6215 6216 6217 6218 6219 6220 6221 6222 6223 6224 6225 6226 6227 6228 6229 6230 6231 6232 6233 6234 6235 6236 6237 6238 6239 6240 6241 6242 6243 6244 6245 6246 6247 6248 6249 6250 6251 6252 6253 6254 6255 6256 6257 6258 6259 6260 6261 6262 6263 6264 6265 6266 6267 6268 6269 6270 6271 6272 6273 6274 6275 6276 6277 6278 6279 6280 6281 6282 6283 6284 6285 6286 6287 6288 6289 6290 6291 6292 6293 6294 6295 6296 6297 6298 6299 6300 6301 6302 6303 6304 6305 6306 6307 6308 6309 6310 6311 6312 6313 6314 6315 6316 6317 6318 6319 6320 6321 6322 6323 6324 6325 6326 6327 6328 6329 6330 6331 6332 6333 6334 6335 6336 6337 6338 6339 6340 6341 6342 6343 6344 6345 6346 6347 6348 6349 6350 6351 6352 6353 6354 6355 6356 6357 6358 6359 6360 6361 6362 6363 6364 6365 6366 6367 6368 6369 6370 6371 6372 6373 6374 6375 6376 6377 6378 6379 6380 6381 6382 6383 6384 6385 6386 6387 6388 6389 6390 6391 6392 6393 6394 6395 6396 6397 6398 6399 6400 6401 6402 6403 6404 6405 6406 6407 6408 6409 6410 6411 6412 6413 6414 6415 6416 6417 6418 6419 6420 6421 6422 6423 6424 6425 6426 6427 6428 6429 6430 6431 6432 6433 6434 6435 6436 6437 6438 6439 6440 6441 6442 6443 6444 6445 6446 6447 6448 6449 6450 6451 6452 6453 6454 6455 6456 6457 6458 6459 6460 6461 6462 6463 6464 6465 6466 6467 6468 6469 6470 6471 6472 6473 6474 6475 6476 6477 6478 6479 6480 6481 6482 6483 6484 6485 6486 6487 6488 6489 6490 6491 6492 6493 6494 6495 6496 6497 6498 6499 6500 6501 6502 6503 6504 6505 6506 6507 6508 6509 6510 6511 6512 6513 6514 6515 6516 6517 6518 6519 6520 6521 6522 6523 6524 6525 6526 6527 6528 6529 6530 6531 6532 6533 6534 6535 6536 6537 6538 6539 6540 6541 6542 6543 6544 6545 6546 6547 6548 6549 6550 6551 6552 6553 6554 6555 6556 6557 6558 6559 6560 6561 6562 6563 6564 6565 6566 6567 6568 6569 6570 6571 6572 6573 6574 6575 6576 6577 6578 6579 6580 6581 6582 6583 6584 6585 6586 6587 6588 6589 6590 6591 6592 6593 6594 6595 6596 6597 6598 6599 6600 6601 6602 6603 6604 6605 6606 6607 6608 6609 6610 6611 6612 6613 6614 6615 6616 6617 6618 6619 6620 6621 6622 6623 6624 6625 6626 6627 6628 6629 6630 6631 6632 6633 6634 6635 6636 6637 6638 6639 6640 6641 6642 6643 6644 6645 6646 6647 6648 6649 6650 6651 6652 6653 6654 6655 6656 6657 6658 6659 6660 6661 6662 6663 6664 6665 6666 6667 6668 6669 6670 6671 6672 6673 6674 6675 6676 6677 6678 6679 6680 6681 6682 6683 6684 6685 6686 6687 6688 6689 6690 6691 6692 6693 6694 6695 6696 6697 6698 6699 6700 6701 6702 6703 6704 6705 6706 6707 6708 6709 6710 6711 6712 6713 6714 6715 6716 6717 6718 6719 6720 6721 6722 6723 6724 6725 6726 6727 6728 6729 6730 6731 6732 6733 6734 6735 6736 6737 6738 6739 6740 6741 6742 6743 6744 6745 6746 6747 6748 6749 6750 6751 6752 6753 6754 6755 6756 6757 6758 6759 6760 6761 6762 6763 6764 6765 6766 6767 6768 6769 6770 6771 6772 6773 6774 6775 6776 6777 6778 6779 6780 6781 6782 6783 6784 6785 6786 6787 6788 6789 6790 6791 6792 6793 6794 6795 6796 6797 6798 6799 6800 6801 6802 6803 6804 6805 6806 6807 6808 6809 6810 6811 6812 6813 6814 6815 6816 6817 6818 6819 6820 6821 6822 6823 6824 6825 6826 6827 6828 6829 6830 6831 6832 6833 6834 6835 6836 6837 6838 6839 6840 6841 6842 6843 6844 6845 6846 6847 6848 6849 6850 6851 6852 6853 6854 6855 6856 6857 6858 6859 6860 6861 6862 6863 6864 6865 6866 6867 6868 6869 6870 6871 6872 6873 6874 6875 6876 6877 6878 6879 6880 6881 6882 6883 6884 6885 6886 6887 6888 6889 6890 6891 6892 6893 6894 6895 6896 6897 6898 6899 6900 6901 6902 6903 6904 6905 6906 6907 6908 6909 6910 6911 6912 6913 6914 6915 6916 6917 6918 6919 6920 6921 6922 6923 6924 6925 6926 6927 6928 6929 6930 6931 6932 6933 6934 6935 6936 6937 6938 6939 6940 6941 6942 6943 6944 6945 6946 6947 6948 6949 6950 6951 6952 6953 6954 6955 6956 6957 6958 6959 6960 6961 6962 6963 6964 6965 6966 6967 6968 6969 6970 6971 6972 6973 6974 6975 6976 6977 6978 6979 6980 6981 6982 6983 6984 6985 6986 6987 6988 6989 6990 6991 6992 6993 6994 6995 6996 6997 6998 6999 7000 7001 7002 7003 7004 7005 7006 7007 7008 7009 7010 7011 7012 7013 7014 7015 7016 7017 7018 7019 7020 7021 7022 7023 7024 7025 7026 7027 7028 7029 7030 7031 7032 7033 7034 7035 7036 7037 7038 7039 7040 7041 7042 7043 7044 7045 7046 7047 7048 7049 7050 7051 7052 7053 7054 7055 7056 7057 7058 7059 7060 7061 7062 7063 7064 7065 7066 7067 7068 7069 7070 7071 7072 7073 7074 7075 7076 7077 7078 7079 7080 7081 7082 7083 7084 7085 7086 7087 7088 7089 7090 7091 7092 7093 7094 7095 7096 7097 7098 7099 7100 7101 7102 7103 7104 7105 7106 7107 7108 7109 7110 7111 7112 7113 7114 7115 7116 7117 7118 7119 7120 7121 7122 7123 7124 7125 7126 7127 7128 7129 7130 7131 7132 7133 7134 7135 7136 7137 7138 7139 7140 7141 7142 7143 7144 7145 7146 7147 7148 7149 7150 7151 7152 7153 7154 7155 7156 7157 7158 7159 7160 7161 7162 7163 7164 7165 7166 7167 7168 7169 7170 7171 7172 7173 7174 7175 7176 7177 7178 7179 7180 7181 7182 7183 7184 7185 7186 7187 7188 7189 7190 7191 7192 7193 7194 7195 7196 7197 7198 7199 7200 7201 7202 7203 7204 7205 7206 7207 7208 7209 7210 7211 7212 7213 7214 7215 7216 7217 7218 7219 7220 7221 7222 7223 7224 7225 7226 7227 7228 7229 7230 7231 7232 7233 7234 7235 7236 7237 7238 7239 7240 7241 7242 7243 7244 7245 7246 7247 7248 7249 7250 7251 7252 7253 7254 7255 7256 7257 7258 7259 7260 7261 7262 7263 7264 7265 7266 7267 7268 7269 7270 7271 7272 7273 7274 7275 7276 7277 7278 7279 7280 7281 7282 7283 7284 7285 7286 7287 7288 7289 7290 7291 7292 7293 7294 7295 7296 7297 7298 7299 7300 7301 7302 7303 7304 7305 7306 7307 7308 7309 7310 7311 7312 7313 7314 7315 7316 7317 7318 7319 7320 7321 7322 7323 7324 7325 7326 7327 7328 7329 7330 7331 7332 7333 7334 7335 7336 7337 7338 7339 7340 7341 7342 7343 7344 7345 7346 7347 7348 7349 7350 7351 7352 7353 7354 7355 7356 7357 7358 7359 7360 7361 7362 7363 7364 7365 7366 7367 7368 7369 7370 7371 7372 7373 7374 7375 7376 7377 7378 7379 7380 7381 7382 7383 7384 7385 7386 7387 7388 7389 7390 7391 7392 7393 7394 7395 7396 7397 7398 7399 7400 7401 7402 7403 7404 7405 7406 7407 7408 7409 7410 7411 7412 7413 7414 7415 7416 7417 7418 7419 7420 7421 7422 7423 7424 7425 7426 7427 7428 7429 7430 7431 7432 7433 7434 7435 7436 7437 7438 7439 7440 7441 7442 7443 7444 7445 7446 7447 7448 7449 7450 7451 7452 7453 7454 7455 7456 7457 7458 7459 7460 7461 7462 7463 7464 7465 7466 7467 7468 7469 7470 7471 7472 7473 7474 7475 7476 7477 7478 7479 7480 7481 7482 7483 7484 7485 7486 7487 7488 7489 7490 7491 7492 7493 7494 7495 7496 7497 7498 7499 7500 7501 7502 7503 7504 7505 7506 7507 7508 7509 7510 7511 7512 7513 7514 7515 7516 7517 7518 7519 7520 7521 7522 7523 7524 7525 7526 7527 7528 7529 7530 7531 7532 7533 7534 7535 7536 7537 7538 7539 7540 7541 7542 7543 7544 7545 7546 7547 7548 7549 7550 7551 7552 7553 7554 7555 7556 7557 7558 7559 7560 7561 7562 7563 7564 7565 7566 7567 7568 7569 7570 7571 7572 7573 7574 7575 7576 7577 7578 7579 7580 7581 7582 7583 7584 7585 7586 7587 7588 7589 7590 7591 7592 7593 7594 7595 7596 7597 7598 7599 7600 7601 7602 7603 7604 7605 7606 7607 7608 7609 7610 7611 7612 7613 7614 7615 7616 7617 7618 7619 7620 7621 7622 7623 7624 7625 7626 7627 7628 7629 7630 7631 7632 7633 7634 7635 7636 7637 7638 7639 7640 7641 7642 7643 7644 7645 7646 7647 7648 7649 7650 7651 7652 7653 7654 7655 7656 7657 7658 7659 7660 7661 7662 7663 7664 7665 7666 7667 7668 7669 7670 7671 7672 7673 7674 7675 7676 7677 7678 7679 7680 7681 7682 7683 7684 7685 7686 7687 7688 7689 7690 7691 7692 7693 7694 7695 7696 7697 7698 7699 7700 7701 7702 7703 7704 7705 7706 7707 7708 7709 7710 7711 7712 7713 7714 7715 7716 7717 7718 7719 7720 7721 7722 7723 7724 7725 7726 7727 7728 7729 7730 7731 7732 7733 7734 7735 7736 7737 7738 7739 7740 7741 7742 7743 7744 7745 7746 7747 7748 7749 7750 7751 7752 7753 7754 7755 7756 7757 7758 7759 7760 7761 7762 7763 7764 7765 7766 7767 7768 7769 7770 7771 7772 7773 7774 7775 7776 7777 7778 7779 7780 7781 7782 7783 7784 7785 7786 7787 7788 7789 7790 7791 7792 7793 7794 7795 7796 7797 7798 7799 7800 7801 7802 7803 7804 7805 7806 7807 7808 7809 7810 7811 7812 7813 7814 7815 7816 7817 7818 7819 7820 7821 7822 7823 7824 7825 7826 7827 7828 7829 7830 7831 7832 7833 7834 7835 7836 7837 7838 7839 7840 7841 7842 7843 7844 7845 7846 7847 7848 7849 7850 7851 7852 7853 7854 7855 7856 7857 7858 7859 7860 7861 7862 7863 7864 7865 7866 7867 7868 7869 7870 7871 7872 7873 7874 7875 7876 7877 7878 7879 7880 7881 7882 7883 7884 7885 7886 7887 7888 7889 7890 7891 7892 7893 7894 7895 7896 7897 7898 7899 7900 7901 7902 7903 7904 7905 7906 7907 7908 7909 7910 7911 7912 7913 7914 7915 7916 7917 7918 7919 7920 7921 7922 7923 7924 7925 7926 7927 7928 7929 7930 7931 7932 7933 7934 7935 7936 7937 7938 7939 7940 7941 7942 7943 7944 7945 7946 7947 7948 7949 7950 7951 7952 7953 7954 7955 7956 7957 7958 7959 7960 7961 7962 7963 7964 7965 7966 7967 7968 7969 7970 7971 7972 7973 7974 7975 7976 7977 7978 7979 7980 7981 7982 7983 7984 7985 7986 7987 7988 7989 7990 7991 7992 7993 7994 7995 7996 7997 7998 7999 8000 8001 8002 8003 8004 8005 8006 8007 8008 8009 8010 8011 8012 8013 8014 8015 8016 8017 8018 8019 8020 8021 8022 8023 8024 8025 8026 8027 8028 8029 8030 8031 8032 8033 8034 8035 8036 8037 8038 8039 8040 8041 8042 8043 8044 8045 8046 8047 8048 8049 8050 8051 8052 8053 8054 8055 8056 8057 8058 8059 8060 8061 8062 8063 8064 8065 8066 8067 8068 8069 8070 8071 8072 8073 8074 8075 8076 8077 8078 8079 8080 8081 8082 8083 8084 8085 8086 8087 8088 8089 8090 8091 8092 8093 8094 8095 8096 8097 8098 8099 8100 8101 8102 8103 8104 8105 8106 8107 8108 8109 8110 8111 8112 8113 8114 8115 8116 8117 8118 8119 8120 8121 8122 8123 8124 8125 8126 8127 8128 8129 8130 8131 8132 8133 8134 8135 8136 8137 8138 8139 8140 8141 8142 8143 8144 8145 8146 8147 8148 8149 8150 8151 8152 8153 8154 8155 8156 8157 8158 8159 8160 8161 8162 8163 8164 8165 8166 8167 8168 8169 8170 8171 8172 8173 8174 8175 8176 8177 8178 8179 8180 8181 8182 8183 8184 8185 8186 8187 8188 8189 8190 8191 8192 8193 8194 8195 8196 8197 8198 8199 8200 8201 8202 8203 8204 8205 8206 8207 8208 8209 8210 8211 8212 8213 8214 8215 8216 8217 8218 8219 8220 8221 8222 8223 8224 8225 8226 8227 8228 8229 8230 8231 8232 8233 8234 8235 8236 8237 8238 8239 8240 8241 8242 8243 8244 8245 8246 8247 8248 8249 8250 8251 8252 8253 8254 8255 8256 8257 8258 8259 8260 8261 8262 8263 8264 8265 8266 8267 8268 8269 8270 8271 8272 8273 8274 8275 8276 8277 8278 8279 8280 8281 8282 8283 8284 8285 8286 8287 8288 8289 8290 8291 8292 8293 8294 8295 8296 8297 8298 8299 8300 8301 8302 8303 8304 8305 8306 8307 8308 8309 8310 8311 8312 8313 8314 8315 8316 8317 8318 8319 8320 8321 8322 8323 8324 8325 8326 8327 8328 8329 8330 8331 8332 8333 8334 8335 8336 8337 8338 8339 8340 8341 8342 8343 8344 8345 8346 8347 8348 8349 8350 8351 8352 8353 8354 8355 8356 8357 8358 8359 8360 8361 8362 8363 8364 8365 8366 8367 8368 8369 8370 8371 8372 8373 8374 8375 8376 8377 8378 8379 8380 8381 8382 8383 8384 8385 8386 8387 8388 8389 8390 8391 8392 8393 8394 8395 8396 8397 8398 8399 8400 8401 8402 8403 8404 8405 8406 8407 8408 8409 8410 8411 8412 8413 8414 8415 8416 8417 8418 8419 8420 8421 8422 8423 8424 8425 8426 8427 8428 8429 8430 8431 8432 8433 8434 8435 8436 8437 8438 8439 8440 8441 8442 8443 8444 8445 8446 8447 8448 8449 8450 8451 8452 8453 8454 8455 8456 8457 8458 8459 8460 8461 8462 8463 8464 8465 8466 8467 8468 8469 8470 8471 8472 8473 8474 8475 8476 8477 8478 8479 8480 8481 8482 8483 8484 8485 8486 8487 8488 8489 8490 8491 8492 8493 8494 8495 8496 8497 8498 8499 8500 8501 8502 8503 8504 8505 8506 8507 8508 8509 8510 8511 8512 8513 8514 8515 8516 8517 8518 8519 8520 8521 8522 8523 8524 8525 8526 8527 8528 8529 8530 8531 8532 8533 8534 8535 8536 8537 8538 8539 8540 8541 8542 8543 8544 8545 8546 8547 8548 8549 8550 8551 8552 8553 8554 8555 8556 8557 8558 8559 8560 8561 8562 8563 8564 8565 8566 8567 8568 8569 8570 8571 8572 8573 8574 8575 8576 8577 8578 8579 8580 8581 8582 8583 8584 8585 8586 8587 8588 8589 8590 8591 8592 8593 8594 8595 8596 8597 8598 8599 8600 8601 8602 8603 8604 8605 8606 8607 8608 8609 8610 8611 8612 8613 8614 8615 8616 8617 8618 8619 8620 8621 8622 8623 8624 8625 8626 8627 8628 8629 8630 8631 8632 8633 8634 8635 8636 8637 8638 8639 8640 8641 8642 8643 8644 8645 8646 8647 8648 8649 8650 8651 8652 8653 8654 8655 8656 8657 8658 8659 8660 8661 8662 8663 8664 8665 8666 8667 8668 8669 8670 8671 8672 8673 8674 8675 8676 8677 8678 8679 8680 8681 8682 8683 8684 8685 8686 8687 8688 8689 8690 8691 8692 8693 8694 8695 8696 8697 8698 8699 8700 8701 8702 8703 8704 8705 8706 8707 8708 8709 8710 8711 8712 8713 8714 8715 8716 8717 8718 8719 8720 8721 8722 8723 8724 8725 8726 8727 8728 8729 8730 8731 8732 8733 8734 8735 8736 8737 8738 8739 8740 8741 8742 8743 8744 8745 8746 8747 8748 8749 8750 8751 8752 8753 8754 8755 8756 8757 8758 8759 8760 8761 8762 8763 8764 8765 8766 8767 8768 8769 8770 8771 8772 8773 8774 8775 8776 8777 8778 8779 8780 8781 8782 8783 8784 8785 8786 8787 8788 8789 8790 8791 8792 8793 8794 8795 8796 8797 8798 8799 8800 8801 8802 8803 8804 8805 8806 8807 8808 8809 8810 8811 8812 8813 8814 8815 8816 8817 8818 8819 8820 8821 8822 8823 8824 8825 8826 8827 8828 8829 8830 8831 8832 8833 8834 8835 8836 8837 8838 8839 8840 8841 8842 8843 8844 8845 8846 8847 8848 8849 8850 8851 8852 8853 8854 8855 8856 8857 8858 8859 8860 8861 8862 8863 8864 8865 8866 8867 8868 8869 8870 8871 8872 8873 8874 8875 8876 8877 8878 8879 8880 8881 8882 8883 8884 8885 8886 8887 8888 8889 8890 8891 8892 8893 8894 8895 8896 8897 8898 8899 8900 8901 8902 8903 8904 8905 8906 8907 8908 8909 8910 8911 8912 8913 8914 8915 8916 8917 8918 8919 8920 8921 8922 8923 8924 8925 8926 8927 8928 8929 8930 8931 8932 8933 8934 8935 8936 8937 8938 8939 8940 8941 8942 8943 8944 8945 8946 8947 8948 8949 8950 8951 8952 8953 8954 8955 8956 8957 8958 8959 8960 8961 8962 8963 8964 8965 8966 8967 8968 8969 8970 8971 8972 8973 8974 8975 8976 8977 8978 8979 8980 8981 8982 8983 8984 8985 8986 8987 8988 8989 8990 8991 8992 8993 8994 8995 8996 8997 8998 8999 9000 9001 9002 9003 9004 9005 9006 9007 9008 9009 9010 9011 9012 9013 9014 9015 9016 9017 9018 9019 9020 9021 9022 9023 9024 9025 9026 9027 9028 9029 9030 9031 9032 9033 9034 9035 9036 9037 9038 9039 9040 9041 9042 9043 9044 9045 9046 9047 9048 9049 9050 9051 9052 9053 9054 9055 9056 9057 9058 9059 9060 9061 9062 9063 9064 9065 9066 9067 9068 9069 9070 9071 9072 9073 9074 9075 9076 9077 9078 9079 9080 9081 9082 9083 9084 9085 9086 9087 9088 9089 9090 9091 9092 9093 9094 9095 9096 9097 9098 9099 9100 9101 9102 9103 9104 9105 9106 9107 9108 9109 9110 9111 9112 9113 9114 9115 9116 9117 9118 9119 9120 9121 9122 9123 9124 9125 9126 9127 9128 9129 9130 9131 9132 9133 9134 9135 9136 9137 9138 9139 9140 9141 9142 9143 9144 9145 9146 9147 9148 9149 9150 9151 9152 9153 9154 9155 9156 9157 9158 9159 9160 9161 9162 9163 9164 9165 9166 9167 9168 9169 9170 9171 9172 9173 9174 9175 9176 9177 9178 9179 9180 9181 9182 9183 9184 9185 9186 9187 9188 9189 9190 9191 9192 9193 9194 9195 9196 9197 9198 9199 9200 9201 9202 9203 9204 9205 9206 9207 9208 9209 9210 9211 9212 9213 9214 9215 9216 9217 9218 9219 9220 9221 9222 9223 9224 9225 9226 9227 9228 9229 9230 9231 9232 9233 9234 9235 9236 9237 9238 9239 9240 9241 9242 9243 9244 9245 9246 9247 9248 9249 9250 9251 9252 9253 9254 9255 9256 9257 9258 9259 9260 9261 9262 9263 9264 9265 9266 9267 9268 9269 9270 9271 9272 9273 9274 9275 9276 9277 9278 9279 9280 9281 9282 9283 9284 9285 9286 9287 9288 9289 9290 9291 9292 9293 9294 9295 9296 9297 9298 9299 9300 9301 9302 9303 9304 9305 9306 9307 9308 9309 9310 9311 9312 9313 9314 9315 9316 9317 9318 9319 9320 9321 9322 9323 9324 9325 9326 9327 9328 9329 9330 9331 9332 9333 9334 9335 9336 9337 9338 9339 9340 9341 9342 9343 9344 9345 9346 9347 9348 9349 9350 9351 9352 9353 9354 9355 9356 9357 9358 9359 9360 9361 9362 9363 9364 9365 9366 9367 9368 9369 9370 9371 9372 9373 9374 9375 9376 9377 9378 9379 9380 9381 9382 9383 9384 9385 9386 9387 9388 9389 9390 9391 9392 9393 9394 9395 9396 9397 9398 9399 9400 9401 9402 9403 9404 9405 9406 9407 9408 9409 9410 9411 9412 9413 9414 9415 9416 9417 9418 9419 9420 9421 9422 9423 9424 9425 9426 9427 9428 9429 9430 9431 9432 9433 9434 9435 9436 9437 9438 9439 9440 9441 9442 9443 9444 9445 9446 9447 9448 9449 9450 9451 9452 9453 9454 9455 9456 9457 9458 9459 9460 9461 9462 9463 9464 9465 9466 9467 9468 9469 9470 9471 9472 9473 9474 9475 9476 9477 9478 9479 9480 9481 9482 9483 9484 9485 9486 9487 9488 9489 9490 9491 9492 9493 9494 9495 9496 9497 9498 9499 9500 9501 9502 9503 9504 9505 9506 9507 9508 9509 9510 9511 9512 9513 9514 9515 9516 9517 9518 9519 9520 9521 9522 9523 9524 9525 9526 9527 9528 9529 9530 9531 9532 9533 9534 9535 9536 9537 9538 9539 9540 9541 9542 9543 9544 9545 9546 9547 9548 9549 9550 9551 9552 9553 9554 9555 9556 9557 9558 9559 9560 9561 9562 9563 9564 9565 9566 9567 9568 9569 9570 9571 9572 9573 9574 9575 9576 9577 9578 9579 9580 9581 9582 9583 9584 9585 9586 9587 9588 9589 9590 9591 9592 9593 9594 9595 9596 9597 9598 9599 9600 9601 9602 9603 9604 9605 9606 9607 9608 9609 9610 9611 9612 9613 9614 9615 9616 9617 9618 9619 9620 9621 9622 9623 9624 9625 9626 9627 9628 9629 9630 9631 9632 9633 9634 9635 9636 9637 9638 9639 9640 9641 9642 9643 9644 9645 9646 9647 9648 9649 9650 9651 9652 9653 9654 9655 9656 9657 9658 9659 9660 9661 9662 9663 9664 9665 9666 9667 9668 9669 9670 9671 9672 9673 9674 9675 9676 9677 9678 9679 9680 9681 9682 9683 9684 9685 9686 9687 9688 9689 9690 9691 9692 9693 9694 9695 9696 9697 9698 9699 9700 9701 9702 9703 9704 9705 9706 9707 9708 9709 9710 9711 9712 9713 9714 9715 9716 9717 9718 9719 9720 9721 9722 9723 9724 9725 9726 9727 9728 9729 9730 9731 9732 9733 9734 9735 9736 9737 9738 9739 9740 9741 9742 9743 9744 9745 9746 9747 9748 9749 9750 9751 9752 9753 9754 9755 9756 9757 9758 9759 9760 9761 9762 9763 9764 9765 9766 9767 9768 9769 9770 9771 9772 9773 9774 9775 9776 9777 9778 9779 9780 9781 9782 9783 9784 9785 9786 9787 9788 9789 9790 9791 9792 9793 9794 9795 9796 9797 9798 9799 9800 9801 9802 9803 9804 9805 9806 9807 9808 9809 9810 9811 9812 9813 9814 9815 9816 9817 9818 9819 9820 9821 9822 9823 9824 9825 9826 9827 9828 9829 9830 9831 9832 9833 9834 9835 9836 9837 9838 9839 9840 9841 9842 9843 9844 9845 9846 9847 9848 9849 9850 9851 9852 9853 9854 9855 9856 9857 9858 9859 9860 9861 9862 9863 9864 9865 9866 9867 9868 9869 9870 9871 9872 9873 9874 9875 9876 9877 9878 9879 9880 9881 9882 9883 9884 9885 9886 9887 9888 9889 9890 9891 9892 9893 9894 9895 9896 9897 9898 9899 9900 9901 9902 9903 9904 9905 9906 9907 9908 9909 9910 9911 9912 9913 9914 9915 9916 9917 9918 9919 9920 9921 9922 9923 9924 9925 9926 9927 9928 9929 9930 9931 9932 9933 9934 9935 9936 9937 9938 9939 9940 9941 9942 9943 9944 9945 9946 9947 9948 9949 9950 9951 9952 9953 9954 9955 9956 9957 9958 9959 9960 9961 9962 9963 9964 9965 9966 9967 9968 9969 9970 9971 9972 9973 9974 9975 9976 9977 9978 9979 9980 9981 9982 9983 9984 9985 9986 9987 9988 9989 9990 9991 9992 9993 9994 9995 9996 9997 9998 9999 10000 10001 10002 10003 10004 10005 10006 10007 10008 10009 10010 10011 10012 10013 10014 10015 10016 10017 10018 10019 10020 10021 10022 10023 10024 10025 10026 10027 10028 10029 10030 10031 10032 10033 10034 10035 10036 10037 10038 10039 10040 10041 10042 10043 10044 10045 10046 10047 10048 10049 10050 10051 10052 10053 10054 10055 10056 10057 10058 10059 10060 10061 10062 10063 10064 10065 10066 10067 10068 10069 10070 10071 10072 10073 10074 10075 10076 10077 10078 10079 10080 10081 10082 10083 10084 10085 10086 10087 10088 10089 10090 10091 10092 10093 10094 10095 10096 10097 10098 10099 10100 10101 10102 10103 10104 10105 10106 10107 10108 10109 10110 10111 10112 10113 10114 10115 10116 10117 10118 10119 10120 10121 10122 10123 10124 10125 10126 10127 10128 10129 10130 10131 10132 10133 10134 10135 10136 10137 10138 10139 10140 10141 10142 10143 10144 10145 10146 10147 10148 10149 10150 10151 10152 10153 10154 10155 10156 10157 10158 10159 10160 10161 10162 10163 10164 10165 10166 10167 10168 10169 10170 10171 10172 10173 10174 10175 10176 10177 10178 10179 10180 10181 10182 10183 10184 10185 10186 10187 10188 10189 10190 10191 10192 10193 10194 10195 10196 10197 10198 10199 10200 10201 10202 10203 10204 10205 10206 10207 10208 10209 10210 10211 10212 10213 10214 10215 10216 10217 10218 10219 10220 10221 10222 10223 10224 10225 10226 10227 10228 10229 10230 10231 10232 10233 10234 10235 10236 10237 10238 10239 10240 10241 10242 10243 10244 10245 10246 10247 10248 10249 10250 10251 10252 10253 10254 10255 10256 10257 10258 10259 10260 10261 10262 10263 10264 10265 10266 10267 10268 10269 10270 10271 10272 10273 10274 10275 10276 10277 10278 10279 10280 10281 10282 10283 10284 10285 10286 10287 10288 10289 10290 10291 10292 10293 10294 10295 10296 10297 10298 10299 10300 10301 10302 10303 10304 10305 10306 10307 10308 10309 10310 10311 10312 10313 10314 10315 10316 10317 10318 10319 10320 10321 10322 10323 10324 10325 10326 10327 10328 10329 10330 10331 10332 10333 10334 10335 10336 10337 10338 10339 10340 10341 10342 10343 10344 10345 10346 10347 10348 10349 10350 10351 10352 10353 10354 10355 10356 10357 10358 10359 10360 10361 10362 10363 10364 10365 10366 10367 10368 10369 10370 10371 10372 10373 10374 10375 10376 10377 10378 10379 10380 10381 10382 10383 10384 10385 10386 10387 10388 10389 10390 10391 10392 10393 10394 10395 10396 10397 10398 10399 10400 10401 10402 10403 10404 10405 10406 10407 10408 10409 10410 10411 10412 10413 10414 10415 10416 10417 10418 10419 10420 10421 10422 10423 10424 10425 10426 10427 10428 10429 10430 10431 10432 10433 10434 10435 10436 10437 10438 10439 10440 10441 10442 10443 10444 10445 10446 10447 10448 10449 10450 10451 10452 10453 10454 10455 10456 10457 10458 10459 10460 10461 10462 10463 10464 10465 10466 10467 10468 10469 10470 10471 10472 10473 10474 10475 10476 10477 10478 10479 10480 10481 10482 10483 10484 10485 10486 10487 10488 10489 10490 10491 10492 10493 10494 10495 10496 10497 10498 10499 10500 10501 10502 10503 10504 10505 10506 10507 10508 10509 10510 10511 10512 10513 10514 10515 10516 10517 10518 10519 10520 10521 10522 10523 10524 10525 10526 10527 10528 10529 10530 10531 10532 10533 10534 10535 10536 10537 10538 10539 10540 10541 10542 10543 10544 10545 10546 10547 10548 10549 10550 10551 10552 10553 10554 10555 10556 10557 10558 10559 10560 10561 10562 10563 10564 10565 10566 10567 10568 10569 10570 10571 10572 10573 10574 10575 10576 10577 10578 10579 10580 10581 10582 10583 10584 10585 10586 10587 10588 10589 10590 10591 10592 10593 10594 10595 10596 10597 10598 10599 10600 10601 10602 10603 10604 10605 10606 10607 10608 10609 10610 10611 10612 10613 10614 10615 10616 10617 10618 10619 10620 10621 10622 10623 10624 10625 10626 10627 10628 10629 10630 10631 10632 10633 10634 10635 10636 10637 10638 10639 10640 10641 10642 10643 10644 10645 10646 10647 10648 10649 10650 10651 10652 10653 10654 10655 10656 10657 10658 10659 10660 10661 10662 10663 10664 10665 10666 10667 10668 10669 10670 10671 10672 10673 10674 10675 10676 10677 10678 10679 10680 10681 10682 10683 10684 10685 10686 10687 10688 10689 10690 10691 10692 10693 10694 10695 10696 10697 10698 10699 10700 10701 10702 10703 10704 10705 10706 10707 10708 10709 10710 10711 10712 10713 10714 10715 10716 10717 10718 10719 10720 10721 10722 10723 10724 10725 10726 10727 10728 10729 10730 10731 10732 10733 10734 10735 10736 10737 10738 10739 10740 10741 10742 10743 10744 10745 10746 10747 10748 10749 10750 10751 10752 10753 10754 10755 10756 10757 10758 10759 10760 10761 10762 10763 10764 10765 10766 10767 10768 10769 10770 10771 10772 10773 10774 10775 10776 10777 10778 10779 10780 10781 10782 10783 10784 10785 10786 10787 10788 10789 10790 10791 10792 10793 10794 10795 10796 10797 10798 10799 10800 10801 10802 10803 10804 10805 10806 10807 10808 10809 10810 10811 10812 10813 10814 10815 10816 10817 10818 10819 10820 10821 10822 10823 10824 10825 10826 10827 10828 10829 10830 10831 10832 10833 10834 10835 10836 10837 10838 10839 10840 10841 10842 10843 10844 10845 10846 10847 10848 10849 10850 10851 10852 10853 10854 10855 10856 10857 10858 10859 10860 10861 10862 10863 10864 10865 10866 10867 10868 10869 10870 10871 10872 10873 10874 10875 10876 10877 10878 10879 10880 10881 10882 10883 10884 10885 10886 10887 10888 10889 10890 10891 10892 10893 10894 10895 10896 10897 10898 10899 10900 10901 10902 10903 10904 10905 10906 10907 10908 10909 10910 10911 10912 10913 10914 10915 10916 10917 10918 10919 10920 10921 10922 10923 10924 10925 10926 10927 10928 10929 10930 10931 10932 10933 10934 10935 10936 10937 10938 10939 10940 10941 10942 10943 10944 10945 10946 10947 10948 10949 10950 10951 10952 10953 10954 10955 10956 10957 10958 10959 10960 10961 10962 10963 10964 10965 10966 10967 10968 10969 10970 10971 10972 10973 10974 10975 10976 10977 10978 10979 10980 10981 10982 10983 10984 10985 10986 10987 10988 10989 10990 10991 10992 10993 10994 10995 10996 10997 10998 10999 11000 11001 11002 11003 11004 11005 11006 11007 11008 11009 11010 11011 11012 11013 11014 11015 11016 11017 11018 11019 11020 11021 11022 11023 11024 11025 11026 11027 11028 11029 11030 11031 11032 11033 11034 11035 11036 11037 11038 11039 11040 11041 11042 11043 11044 11045 11046 11047 11048 11049 11050 11051 11052 11053 11054 11055 11056 11057 11058 11059 11060 11061 11062 11063 11064 11065 11066 11067 11068 11069 11070 11071 11072 11073 11074 11075 11076 11077 11078 11079 11080 11081 11082 11083 11084 11085 11086 11087 11088 11089 11090 11091 11092 11093 11094 11095 11096 11097 11098 11099 11100 11101 11102 11103 11104 11105 11106 11107 11108 11109 11110 11111 11112 11113 11114 11115 11116 11117 11118 11119 11120 11121 11122 11123 11124 11125 11126 11127 11128 11129 11130 11131 11132 11133 11134 11135 11136 11137 11138 11139 11140 11141 11142 11143 11144 11145 11146 11147 11148 11149 11150 11151 11152 11153 11154 11155 11156 11157 11158 11159 11160 11161 11162 11163 11164 11165 11166 11167 11168 11169 11170 11171 11172 11173 11174 11175 11176 11177 11178 11179 11180 11181 11182 11183 11184 11185 11186 11187 11188 11189 11190 11191 11192 11193 11194 11195 11196 11197 11198 11199 11200 11201 11202 11203 11204 11205 11206 11207 11208 11209 11210 11211 11212 11213 11214 11215 11216 11217 11218 11219 11220 11221 11222 11223 11224 11225 11226 11227 11228 11229 11230 11231 11232 11233 11234 11235 11236 11237 11238 11239 11240 11241 11242 11243 11244 11245 11246 11247 11248 11249 11250 11251 11252 11253 11254 11255 11256 11257 11258 11259 11260 11261 11262 11263 11264 11265 11266 11267 11268 11269 11270 11271 11272 11273 11274 11275 11276 11277 11278 11279 11280 11281 11282 11283 11284 11285 11286 11287 11288 11289 11290 11291 11292 11293 11294 11295 11296 11297 11298 11299 11300 11301 11302 11303 11304 11305 11306 11307 11308 11309 11310 11311 11312 11313 11314 11315 11316 11317 11318 11319 11320 11321 11322 11323 11324 11325 11326 11327 11328 11329 11330 11331 11332 11333 11334 11335 11336 11337 11338 11339 11340 11341 11342 11343 11344 11345 11346 11347 11348 11349 11350 11351 11352 11353 11354 11355 11356 11357 11358 11359 11360 11361 11362 11363 11364 11365 11366 11367 11368 11369 11370 11371 11372 11373 11374 11375 11376 11377 11378 11379 11380 11381 11382 11383 11384 11385 11386 11387 11388 11389 11390 11391 11392 11393 11394 11395 11396 11397 11398 11399 11400 11401 11402 11403 11404 11405 11406 11407 11408 11409 11410 11411 11412 11413 11414 11415 11416 11417 11418 11419 11420 11421 11422 11423 11424 11425 11426 11427 11428 11429 11430 11431 11432 11433 11434 11435 11436 11437 11438 11439 11440 11441 11442 11443 11444 11445 11446 11447 11448 11449 11450 11451 11452 11453 11454 11455 11456 11457 11458 11459 11460 11461 11462 11463 11464 11465 11466 11467 11468 11469 11470 11471 11472 11473 11474 11475 11476 11477 11478 11479 11480 11481 11482 11483 11484 11485 11486 11487 11488 11489 11490 11491 11492 11493 11494 11495 11496 11497 11498 11499 11500 11501 11502 11503 11504 11505 11506 11507 11508 11509 11510 11511 11512 11513 11514 11515 11516 11517 11518 11519 11520 11521 11522 11523 11524 11525 11526 11527 11528 11529 11530 11531 11532 11533 11534 11535 11536 11537 11538 11539 11540 11541 11542 11543 11544 11545 11546 11547 11548 11549 11550 11551 11552 11553 11554 11555 11556 11557 11558 11559 11560 11561 11562 11563 11564 11565 11566 11567 11568 11569 11570 11571 11572 11573 11574 11575 11576 11577 11578 11579 11580 11581 11582 11583 11584 11585 11586 11587 11588 11589 11590 11591 11592 11593 11594 11595 11596 11597 11598 11599 11600 11601 11602 11603 11604 11605 11606 11607 11608 11609 11610 11611 11612 11613 11614 11615 11616 11617 11618 11619 11620 11621 11622 11623 11624 11625 11626 11627 11628 11629 11630 11631 11632 11633 11634 11635 11636 11637 11638 11639 11640 11641 11642 11643 11644 11645 11646 11647 11648 11649 11650 11651 11652 11653 11654 11655 11656 11657 11658 11659 11660 11661 11662 11663 11664 11665 11666 11667 11668 11669 11670 11671 11672 11673 11674 11675 11676 11677 11678 11679 11680 11681 11682 11683 11684 11685 11686 11687 11688 11689 11690 11691 11692 11693 11694 11695 11696 11697 11698 11699 11700 11701 11702 11703 11704 11705 11706 11707 11708 11709 11710 11711 11712 11713 11714 11715 11716 11717 11718 11719 11720 11721 11722 11723 11724 11725 11726 11727 11728 11729 11730 11731 11732 11733 11734 11735 11736 11737 11738 11739 11740 11741 11742 11743 11744 11745 11746 11747 11748 11749 11750 11751 11752 11753 11754 11755 11756 11757 11758 11759 11760 11761 11762 11763 11764 11765 11766 11767 11768 11769 11770 11771 11772 11773 11774 11775 11776 11777 11778 11779 11780 11781 11782 11783 11784 11785 11786 11787 11788 11789 11790 11791 11792 11793 11794 11795 11796 11797 11798 11799 11800 11801 11802 11803 11804 11805 11806 11807 11808 11809 11810 11811 11812 11813 11814 11815 11816 11817 11818 11819 11820 11821 11822 11823 11824 11825 11826 11827 11828 11829 11830 11831 11832 11833 11834 11835 11836 11837 11838 11839 11840 11841 11842 11843 11844 11845 11846 11847 11848 11849 11850 11851 11852 11853 11854 11855 11856 11857 11858 11859 11860 11861 11862 11863 11864 11865 11866 11867 11868 11869 11870 11871 11872 11873 11874 11875 11876 11877 11878 11879 11880 11881 11882 11883 11884 11885 11886 11887 11888 11889 11890 11891 11892 11893 11894 11895 11896 11897 11898 11899 11900 11901 11902 11903 11904 11905 11906 11907 11908 11909 11910 11911 11912 11913 11914 11915 11916 11917 11918 11919 11920 11921 11922 11923 11924 11925 11926 11927 11928 11929 11930 11931 11932 11933 11934 11935 11936 11937 11938 11939 11940 11941 11942 11943 11944 11945 11946 11947 11948 11949 11950 11951 11952 11953 11954 11955 11956 11957 11958 11959 11960 11961 11962 11963 11964 11965 11966 11967 11968 11969 11970 11971 11972 11973 11974 11975 11976 11977 11978 11979 11980 11981 11982 11983 11984 11985 11986 11987 11988 11989 11990 11991 11992 11993 11994 11995 11996 11997 11998 11999 12000 12001 12002 12003 12004 12005 12006 12007 12008 12009 12010 12011 12012 12013 12014 12015 12016 12017 12018 12019 12020 12021 12022 12023 12024 12025 12026 12027 12028 12029 12030 12031 12032 12033 12034 12035 12036 12037 12038 12039 12040 12041 12042 12043 12044 12045 12046 12047 12048 12049 12050 12051 12052 12053 12054 12055 12056 12057 12058 12059 12060 12061 12062 12063 12064 12065 12066 12067 12068 12069 12070 12071 12072 12073 12074 12075 12076 12077 12078 12079 12080 12081 12082 12083 12084 12085 12086 12087 12088 12089 12090 12091 12092 12093 12094 12095 12096 12097 12098 12099 12100 12101 12102 12103 12104 12105 12106 12107 12108 12109 12110 12111 12112 12113 12114 12115 12116 12117 12118 12119 12120 12121 12122 12123 12124 12125 12126 12127 12128 12129 12130 12131 12132 12133 12134 12135 12136 12137 12138 12139 12140 12141 12142 12143 12144 12145 12146 12147 12148 12149 12150 12151 12152 12153 12154 12155 12156 12157 12158 12159 12160 12161 12162 12163 12164 12165 12166 12167 12168 12169 12170 12171 12172 12173 12174 12175 12176 12177 12178 12179 12180 12181 12182 12183 12184 12185 12186 12187 12188 12189 12190 12191 12192 12193 12194 12195 12196 12197 12198 12199 12200 12201 12202 12203 12204 12205 12206 12207 12208 12209 12210 12211 12212 12213 12214 12215 12216 12217 12218 12219 12220 12221 12222 12223 12224 12225 12226 12227 12228 12229 12230 12231 12232 12233 12234 12235 12236 12237 12238 12239 12240 12241 12242 12243 12244 12245 12246 12247 12248 12249 12250 12251 12252 12253 12254 12255 12256 12257 12258 12259 12260 12261 12262 12263 12264 12265 12266 12267 12268 12269 12270 12271 12272 12273 12274 12275 12276 12277 12278 12279 12280 12281 12282 12283 12284 12285 12286 12287 12288 12289 12290 12291 12292 12293 12294 12295 12296 12297 12298 12299 12300 12301 12302 12303 12304 12305 12306 12307 12308 12309 12310 12311 12312 12313 12314 12315 12316 12317 12318 12319 12320 12321 12322 12323 12324 12325 12326 12327 12328 12329 12330 12331 12332 12333 12334 12335 12336 12337 12338 12339 12340 12341 12342 12343 12344 12345 12346 12347 12348 12349 12350 12351 12352 12353 12354 12355 12356 12357 12358 12359 12360 12361 12362 12363 12364 12365 12366 12367 12368 12369 12370 12371 12372 12373 12374 12375 12376 12377 12378 12379 12380 12381 12382 12383 12384 12385 12386 12387 12388 12389 12390 12391 12392 12393 12394 12395 12396 12397 12398 12399 12400 12401 12402 12403 12404 12405 12406 12407 12408 12409 12410 12411 12412 12413 12414 12415 12416 12417 12418 12419 12420 12421 12422 12423 12424 12425 12426 12427 12428 12429 12430 12431 12432 12433 12434 12435 12436 12437 12438 12439 12440 12441 12442 12443 12444 12445 12446 12447 12448 12449 12450 12451 12452 12453 12454 12455 12456 12457 12458 12459 12460 12461 12462 12463 12464 12465 12466 12467 12468 12469 12470 12471 12472 12473 12474 12475 12476 12477 12478 12479 12480 12481 12482 12483 12484 12485 12486 12487 12488 12489 12490 12491 12492 12493 12494 12495 12496 12497 12498 12499 12500 12501 12502 12503 12504 12505 12506 12507 12508 12509 12510 12511 12512 12513 12514 12515 12516 12517 12518 12519 12520 12521 12522 12523 12524 12525 12526 12527 12528 12529 12530 12531 12532 12533 12534 12535 12536 12537 12538 12539 12540 12541 12542 12543 12544 12545 12546 12547 12548 12549 12550 12551 12552 12553 12554 12555 12556 12557 12558 12559 12560 12561 12562 12563 12564 12565 12566 12567 12568 12569 12570 12571 12572 12573 12574 12575 12576 12577 12578 12579 12580 12581 12582 12583 12584 12585 12586 12587 12588 12589 12590 12591 12592 12593 12594 12595 12596 12597 12598 12599 12600 12601 12602 12603 12604 12605 12606 12607 12608 12609 12610 12611 12612 12613 12614 12615 12616 12617 12618 12619 12620 12621 12622 12623 12624 12625 12626 12627 12628 12629 12630 12631 12632 12633 12634 12635 12636 12637 12638 12639 12640 12641 12642 12643 12644 12645 12646 12647 12648 12649 12650 12651 12652 12653 12654 12655 12656 12657 12658 12659 12660 12661 12662 12663 12664 12665 12666 12667 12668 12669 12670 12671 12672 12673 12674 12675 12676 12677 12678 12679 12680 12681 12682 12683 12684 12685 12686 12687 12688 12689 12690 12691 12692 12693 12694 12695 12696 12697 12698 12699 12700 12701 12702 12703 12704 12705 12706 12707 12708 12709 12710 12711 12712 12713 12714 12715 12716 12717 12718 12719 12720 12721 12722 12723 12724 12725 12726 12727 12728 12729 12730 12731 12732 12733 12734 12735 12736 12737 12738 12739 12740 12741 12742 12743 12744 12745 12746 12747 12748 12749 12750 12751 12752 12753 12754 12755 12756 12757 12758 12759 12760 12761 12762 12763 12764 12765 12766 12767 12768 12769 12770 12771 12772 12773 12774 12775 12776 12777 12778 12779 12780 12781 12782 12783 12784 12785 12786 12787 12788 12789 12790 12791 12792 12793 12794 12795 12796 12797 12798 12799 12800 12801 12802 12803 12804 12805 12806 12807 12808 12809 12810 12811 12812 12813 12814 12815 12816 12817 12818 12819 12820 12821 12822 12823 12824 12825 12826 12827 12828 12829 12830 12831 12832 12833 12834 12835 12836 12837 12838 12839 12840 12841 12842 12843 12844 12845 12846 12847 12848 12849 12850 12851 12852 12853 12854 12855 12856 12857 12858 12859 12860 12861 12862 12863 12864 12865 12866 12867 12868 12869 12870 12871 12872 12873 12874 12875 12876 12877 12878 12879 12880 12881 12882 12883 12884 12885 12886 12887 12888 12889 12890 12891 12892 12893 12894 12895 12896 12897 12898 12899 12900 12901 12902 12903 12904 12905 12906 12907 12908 12909 12910 12911 12912 12913 12914 12915 12916 12917 12918 12919 12920 12921 12922 12923 12924 12925 12926 12927 12928 12929 12930 12931 12932 12933 12934 12935 12936 12937 12938 12939 12940 12941 12942 12943 12944 12945 12946 12947 12948 12949 12950 12951 12952 12953 12954 12955 12956 12957 12958 12959 12960 12961 12962 12963 12964 12965 12966 12967 12968 12969 12970 12971 12972 12973 12974 12975 12976 12977 12978 12979 12980 12981 12982 12983 12984 12985 12986 12987 12988 12989 12990 12991 12992 12993 12994 12995 12996 12997 12998 12999 13000 13001 13002 13003 13004 13005 13006 13007 13008 13009 13010 13011 13012 13013 13014 13015 13016 13017 13018 13019 13020 13021 13022 13023 13024 13025 13026 13027 13028 13029 13030 13031 13032 13033 13034 13035 13036 13037 13038 13039 13040 13041 13042 13043 13044 13045 13046 13047 13048 13049 13050 13051 13052 13053 13054 13055 13056 13057 13058 13059 13060 13061 13062 13063 13064 13065 13066 13067 13068 13069 13070 13071 13072 13073 13074 13075 13076 13077 13078 13079 13080 13081 13082 13083 13084 13085 13086 13087 13088 13089 13090 13091 13092 13093 13094 13095 13096 13097 13098 13099 13100 13101 13102 13103 13104 13105 13106 13107 13108 13109 13110 13111 13112 13113 13114 13115 13116 13117 13118 13119 13120 13121 13122 13123 13124 13125 13126 13127 13128 13129 13130 13131 13132 13133 13134 13135 13136 13137 13138 13139 13140 13141 13142 13143 13144 13145 13146 13147 13148 13149 13150 13151 13152 13153 13154 13155 13156 13157 13158 13159 13160 13161 13162 13163 13164 13165 13166 13167 13168 13169 13170 13171 13172 13173 13174 13175 13176 13177 13178 13179 13180 13181 13182 13183 13184 13185 13186 13187 13188 13189 13190 13191 13192 13193 13194 13195 13196 13197 13198 13199 13200 13201 13202 13203 13204 13205 13206 13207 13208 13209 13210 13211 13212 13213 13214 13215 13216 13217 13218 13219 13220 13221 13222 13223 13224 13225 13226 13227 13228 13229 13230 13231 13232 13233 13234 13235 13236 13237 13238 13239 13240 13241 13242 13243 13244 13245 13246 13247 13248 13249 13250 13251 13252 13253 13254 13255 13256 13257 13258 13259 13260 13261 13262 13263 13264 13265 13266 13267 13268 13269 13270 13271 13272 13273 13274 13275 13276 13277 13278 13279 13280 13281 13282 13283 13284 13285 13286 13287 13288 13289 13290 13291 13292 13293 13294 13295 13296 13297 13298 13299 13300 13301 13302 13303 13304 13305 13306 13307 13308 13309 13310 13311 13312 13313 13314 13315 13316 13317 13318 13319 13320 13321 13322 13323 13324 13325 13326 13327 13328 13329 13330 13331 13332 13333 13334 13335 13336 13337 13338 13339 13340 13341 13342 13343 13344 13345 13346 13347 13348 13349 13350 13351 13352 13353 13354 13355 13356 13357 13358 13359 13360 13361 13362 13363 13364 13365 13366 13367 13368 13369 13370 13371 13372 13373 13374 13375 13376 13377 13378 13379 13380 13381 13382 13383 13384 13385 13386 13387 13388 13389 13390 13391 13392 13393 13394 13395 13396 13397 13398 13399 13400 13401 13402 13403 13404 13405 13406 13407 13408 13409 13410 13411 13412 13413 13414 13415 13416 13417 13418 13419 13420 13421 13422 13423 13424 13425 13426 13427 13428 13429 13430 13431 13432 13433 13434 13435 13436 13437 13438 13439 13440 13441 13442 13443 13444 13445 13446 13447 13448 13449 13450 13451 13452 13453 13454 13455 13456 13457 13458 13459 13460 13461 13462 13463 13464 13465 13466 13467 13468 13469 13470 13471 13472 13473 13474 13475 13476 13477 13478 13479 13480 13481 13482 13483 13484 13485 13486 13487 13488 13489 13490 13491 13492 13493 13494 13495 13496 13497 13498 13499 13500 13501 13502 13503 13504 13505 13506 13507 13508 13509 13510 13511 13512 13513 13514 13515 13516 13517 13518 13519 13520 13521 13522 13523 13524 13525 13526 13527 13528 13529 13530 13531 13532 13533 13534 13535 13536 13537 13538 13539 13540 13541 13542 13543 13544 13545 13546 13547 13548 13549 13550 13551 13552 13553 13554 13555 13556 13557 13558 13559 13560 13561 13562 13563 13564 13565 13566 13567 13568 13569 13570 13571 13572 13573 13574 13575 13576 13577 13578 13579 13580 13581 13582 13583 13584 13585 13586 13587 13588 13589 13590 13591 13592 13593 13594 13595 13596 13597 13598 13599 13600 13601 13602 13603 13604 13605 13606 13607 13608 13609 13610 13611 13612 13613 13614 13615 13616 13617 13618 13619 13620 13621 13622 13623 13624 13625 13626 13627 13628 13629 13630 13631 13632 13633 13634 13635 13636 13637 13638 13639 13640 13641 13642 13643 13644 13645 13646 13647 13648 13649 13650 13651 13652 13653 13654 13655 13656 13657 13658 13659 13660 13661 13662 13663 13664 13665 13666 13667 13668 13669 13670 13671 13672 13673 13674 13675 13676 13677 13678 13679 13680 13681 13682 13683 13684 13685 13686 13687 13688 13689 13690 13691 13692 13693 13694 13695 13696 13697 13698 13699 13700 13701 13702 13703 13704 13705 13706 13707 13708 13709 13710 13711 13712 13713 13714 13715 13716 13717 13718 13719 13720 13721 13722 13723 13724 13725 13726 13727 13728 13729 13730 13731 13732 13733 13734 13735 13736 13737 13738 13739 13740 13741 13742 13743 13744 13745 13746 13747 13748 13749 13750 13751 13752 13753 13754 13755 13756 13757 13758 13759 13760 13761 13762 13763 13764 13765 13766 13767 13768 13769 13770 13771 13772 13773 13774 13775 13776 13777 13778 13779 13780 13781 13782 13783 13784 13785 13786 13787 13788 13789 13790 13791 13792 13793 13794 13795 13796 13797 13798 13799 13800 13801 13802 13803 13804 13805 13806 13807 13808 13809 13810 13811 13812 13813 13814 13815 13816 13817 13818 13819 13820 13821 13822 13823 13824 13825 13826 13827 13828 13829 13830 13831 13832 13833 13834 13835 13836 13837 13838 13839 13840 13841 13842 13843 13844 13845 13846 13847 13848 13849 13850 13851 13852 13853 13854 13855 13856 13857 13858 13859 13860 13861 13862 13863 13864 13865 13866 13867 13868 13869 13870 13871 13872 13873 13874 13875 13876 13877 13878 13879 13880 13881 13882 13883 13884 13885 13886 13887 13888 13889 13890 13891 13892 13893 13894 13895 13896 13897 13898 13899 13900 13901 13902 13903 13904 13905 13906 13907 13908 13909 13910 13911 13912 13913 13914 13915 13916 13917 13918 13919 13920 13921 13922 13923 13924 13925 13926 13927 13928 13929 13930 13931 13932 13933 13934 13935 13936 13937 13938 13939 13940 13941 13942 13943 13944 13945 13946 13947 13948 13949 13950 13951 13952 13953 13954 13955 13956 13957 13958 13959 13960 13961 13962 13963 13964 13965 13966 13967 13968 13969 13970 13971 13972 13973 13974 13975 13976 13977 13978 13979 13980 13981 13982 13983 13984 13985 13986 13987 13988 13989 13990 13991 13992 13993 13994 13995 13996 13997 13998 13999 14000 14001 14002 14003 14004 14005 14006 14007 14008 14009 14010 14011 14012 14013 14014 14015 14016 14017 14018 14019 14020 14021 14022 14023 14024 14025 14026 14027 14028 14029 14030 14031 14032 14033 14034 14035 14036 14037 14038 14039 14040 14041 14042 14043 14044 14045 14046 14047 14048 14049 14050 14051 14052 14053 14054 14055 14056 14057 14058 14059 14060 14061 14062 14063 14064 14065 14066 14067 14068 14069 14070 14071 14072 14073 14074 14075 14076 14077 14078 14079 14080 14081 14082 14083 14084 14085 14086 14087 14088 14089 14090 14091 14092 14093 14094 14095 14096 14097 14098 14099 14100 14101 14102 14103 14104 14105 14106 14107 14108 14109 14110 14111 14112 14113 14114 14115 14116 14117 14118 14119 14120 14121 14122 14123 14124 14125 14126 14127 14128 14129 14130 14131 14132 14133 14134 14135 14136 14137 14138 14139 14140 14141 14142 14143 14144 14145 14146 14147 14148 14149 14150 14151 14152 14153 14154 14155 14156 14157 14158 14159 14160 14161 14162 14163 14164 14165 14166 14167 14168 14169 14170 14171 14172 14173 14174 14175 14176 14177 14178 14179 14180 14181 14182 14183 14184 14185 14186 14187 14188 14189 14190 14191 14192 14193 14194 14195 14196 14197 14198 14199 14200 14201 14202 14203 14204 14205 14206 14207 14208 14209 14210 14211 14212 14213 14214 14215 14216 14217 14218 14219 14220 14221 14222 14223 14224 14225 14226 14227 14228 14229 14230 14231 14232 14233 14234 14235 14236 14237 14238 14239 14240 14241 14242 14243 14244 14245 14246 14247 14248 14249 14250 14251 14252 14253 14254 14255 14256 14257 14258 14259 14260 14261 14262 14263 14264 14265 14266 14267 14268 14269 14270 14271 14272 14273 14274 14275 14276 14277 14278 14279 14280 14281 14282 14283 14284 14285 14286 14287 14288 14289 14290 14291 14292 14293 14294 14295 14296 14297 14298 14299 14300 14301 14302 14303 14304 14305 14306 14307 14308 14309 14310 14311 14312 14313 14314 14315 14316 14317 14318 14319 14320 14321 14322 14323 14324 14325 14326 14327 14328 14329 14330 14331 14332 14333 14334 14335 14336 14337 14338 14339 14340 14341 14342 14343 14344 14345 14346 14347 14348 14349 14350 14351 14352 14353 14354 14355 14356 14357 14358 14359 14360 14361 14362 14363 14364 14365 14366 14367 14368 14369 14370 14371 14372 14373 14374 14375 14376 14377 14378 14379 14380 14381 14382 14383 14384 14385 14386 14387 14388 14389 14390 14391 14392 14393 14394 14395 14396 14397 14398 14399 14400 14401 14402 14403 14404 14405 14406 14407 14408 14409 14410 14411 14412 14413 14414 14415 14416 14417 14418 14419 14420 14421 14422 14423 14424 14425 14426 14427 14428 14429 14430 14431 14432 14433 14434 14435 14436 14437 14438 14439 14440 14441 14442 14443 14444 14445 14446 14447 14448 14449 14450 14451 14452 14453 14454 14455 14456 14457 14458 14459 14460 14461 14462 14463 14464 14465 14466 14467 14468 14469 14470 14471 14472 14473 14474 14475 14476 14477 14478 14479 14480 14481 14482 14483 14484 14485 14486 14487 14488 14489 14490 14491 14492 14493 14494 14495 14496 14497 14498 14499 14500 14501 14502 14503 14504 14505 14506 14507 14508 14509 14510 14511 14512 14513 14514 14515 14516 14517 14518 14519 14520 14521 14522 14523 14524 14525 14526 14527 14528 14529 14530 14531 14532 14533 14534 14535 14536 14537 14538 14539 14540 14541 14542 14543 14544 14545 14546 14547 14548 14549 14550 14551 14552 14553 14554 14555 14556 14557 14558 14559 14560 14561 14562 14563 14564 14565 14566 14567 14568 14569 14570 14571 14572 14573 14574 14575 14576 14577 14578 14579 14580 14581 14582 14583 14584 14585 14586 14587 14588 14589 14590 14591 14592 14593 14594 14595 14596 14597 14598 14599 14600 14601 14602 14603 14604 14605 14606 14607 14608 14609 14610 14611 14612 14613 14614 14615 14616 14617 14618 14619 14620 14621 14622 14623 14624 14625 14626 14627 14628 14629 14630 14631 14632 14633 14634 14635 14636 14637 14638 14639 14640 14641 14642 14643 14644 14645 14646 14647 14648 14649 14650 14651 14652 14653 14654 14655 14656 14657 14658 14659 14660 14661 14662 14663 14664 14665 14666 14667 14668 14669 14670 14671 14672 14673 14674 14675 14676 14677 14678 14679 14680 14681 14682 14683 14684 14685 14686 14687 14688 14689 14690 14691 14692 14693 14694 14695 14696 14697 14698 14699 14700 14701 14702 14703 14704 14705 14706 14707 14708 14709 14710 14711 14712 14713 14714 14715 14716 14717 14718 14719 14720 14721 14722 14723 14724 14725 14726 14727 14728 14729 14730 14731 14732 14733 14734 14735 14736 14737 14738 14739 14740 14741 14742 14743 14744 14745 14746 14747 14748 14749 14750 14751 14752 14753 14754 14755 14756 14757 14758 14759 14760 14761 14762 14763 14764 14765 14766 14767 14768 14769 14770 14771 14772 14773 14774 14775 14776 14777 14778 14779 14780 14781 14782 14783 14784 14785 14786 14787 14788 14789 14790 14791 14792 14793 14794 14795 14796 14797 14798 14799 14800 14801 14802 14803 14804 14805 14806 14807 14808 14809 14810 14811 14812 14813 14814 14815 14816 14817 14818 14819 14820 14821 14822 14823 14824 14825 14826 14827 14828 14829 14830 14831 14832 14833 14834 14835 14836 14837 14838 14839 14840 14841 14842 14843 14844 14845 14846 14847 14848 14849 14850 14851 14852 14853 14854 14855 14856 14857 14858 14859 14860 14861 14862 14863 14864 14865 14866 14867 14868 14869 14870 14871 14872 14873 14874 14875 14876 14877 14878 14879 14880 14881 14882 14883 14884 14885 14886 14887 14888 14889 14890 14891 14892 14893 14894 14895 14896 14897 14898 14899 14900 14901 14902 14903 14904 14905 14906 14907 14908 14909 14910 14911 14912 14913 14914 14915 14916 14917 14918 14919 14920 14921 14922 14923 14924 14925 14926 14927 14928 14929 14930 14931 14932 14933 14934 14935 14936 14937 14938 14939 14940 14941 14942 14943 14944 14945 14946 14947 14948 14949 14950 14951 14952 14953 14954 14955 14956 14957 14958 14959 14960 14961 14962 14963 14964 14965 14966 14967 14968 14969 14970 14971 14972 14973 14974 14975 14976 14977 14978 14979 14980 14981 14982 14983 14984 14985 14986 14987 14988 14989 14990 14991 14992 14993 14994 14995 14996 14997 14998 14999 15000 15001 15002 15003 15004 15005 15006 15007 15008 15009 15010 15011 15012 15013 15014 15015 15016 15017 15018 15019 15020 15021 15022 15023 15024 15025 15026 15027 15028 15029 15030 15031 15032 15033 15034 15035 15036 15037 15038 15039 15040 15041 15042 15043 15044 15045 15046 15047 15048 15049 15050 15051 15052 15053 15054 15055 15056 15057 15058 15059 15060 15061 15062 15063 15064 15065 15066 15067 15068 15069 15070 15071 15072 15073 15074 15075 15076 15077 15078 15079 15080 15081 15082 15083 15084 15085 15086 15087 15088 15089 15090 15091 15092 15093 15094 15095 15096 15097 15098 15099 15100 15101 15102 15103 15104 15105 15106 15107 15108 15109 15110 15111 15112 15113 15114 15115 15116 15117 15118 15119 15120 15121 15122 15123 15124 15125 15126 15127 15128 15129 15130 15131 15132 15133 15134 15135 15136 15137 15138 15139 15140 15141 15142 15143 15144 15145 15146 15147 15148 15149 15150 15151 15152 15153 15154 15155 15156 15157 15158 15159 15160 15161 15162 15163 15164 15165 15166 15167 15168 15169 15170 15171 15172 15173 15174 15175 15176 15177 15178 15179 15180 15181 15182 15183 15184 15185 15186 15187 15188 15189 15190 15191 15192 15193 15194 15195 15196 15197 15198 15199 15200 15201 15202 15203 15204 15205 15206 15207 15208 15209 15210 15211 15212 15213 15214 15215 15216 15217 15218 15219 15220 15221 15222 15223 15224 15225 15226 15227 15228 15229 15230 15231 15232 15233 15234 15235 15236 15237 15238 15239 15240 15241 15242 15243 15244 15245 15246 15247 15248 15249 15250 15251 15252 15253 15254 15255 15256 15257 15258 15259 15260 15261 15262 15263 15264 15265 15266 15267 15268 15269 15270 15271 15272 15273 15274 15275 15276 15277 15278 15279 15280 15281 15282 15283 15284 15285 15286 15287 15288 15289 15290 15291 15292 15293 15294 15295 15296 15297 15298 15299 15300 15301 15302 15303 15304 15305 15306 15307 15308 15309 15310 15311 15312 15313 15314 15315 15316 15317 15318 15319 15320 15321 15322 15323 15324 15325 15326 15327 15328 15329 15330 15331 15332 15333 15334 15335 15336 15337 15338 15339 15340 15341 15342 15343 15344 15345 15346 15347 15348 15349 15350 15351 15352 15353 15354 15355 15356 15357 15358 15359 15360 15361 15362 15363 15364 15365 15366 15367 15368 15369 15370 15371 15372 15373 15374 15375 15376 15377 15378 15379 15380 15381 15382 15383 15384 15385 15386 15387 15388 15389 15390 15391 15392 15393 15394 15395 15396 15397 15398 15399 15400 15401 15402 15403 15404 15405 15406 15407 15408 15409 15410 15411 15412 15413 15414 15415 15416 15417 15418 15419 15420 15421 15422 15423 15424 15425 15426 15427 15428 15429 15430 15431 15432 15433 15434 15435 15436 15437 15438 15439 15440 15441 15442 15443 15444 15445 15446 15447 15448 15449 15450 15451 15452 15453 15454 15455 15456 15457 15458 15459 15460 15461 15462 15463 15464 15465 15466 15467 15468 15469 15470 15471 15472 15473 15474 15475 15476 15477 15478 15479 15480 15481 15482 15483 15484 15485 15486 15487 15488 15489 15490 15491 15492 15493 15494 15495 15496 15497 15498 15499 15500 15501 15502 15503 15504 15505 15506 15507 15508 15509 15510 15511 15512 15513 15514 15515 15516 15517 15518 15519 15520 15521 15522 15523 15524 15525 15526 15527 15528 15529 15530 15531 15532 15533 15534 15535 15536 15537 15538 15539 15540 15541 15542 15543 15544 15545 15546 15547 15548 15549 15550 15551 15552 15553 15554 15555 15556 15557 15558 15559 15560 15561 15562 15563 15564 15565 15566 15567 15568 15569 15570 15571 15572 15573 15574 15575 15576 15577 15578 15579 15580 15581 15582 15583 15584 15585 15586 15587 15588 15589 15590 15591 15592 15593 15594 15595 15596 15597 15598 15599 15600 15601 15602 15603 15604 15605 15606 15607 15608 15609 15610 15611 15612 15613 15614 15615 15616 15617 15618 15619 15620 15621 15622 15623 15624 15625 15626 15627 15628 15629 15630 15631 15632 15633 15634 15635 15636 15637 15638 15639 15640 15641 15642 15643 15644 15645 15646 15647 15648 15649 15650 15651 15652 15653 15654 15655 15656 15657 15658 15659 15660 15661 15662 15663 15664 15665 15666 15667 15668 15669 15670 15671 15672 15673 15674 15675 15676 15677 15678 15679 15680 15681 15682 15683 15684 15685 15686 15687 15688 15689 15690 15691 15692 15693 15694 15695 15696 15697 15698 15699 15700 15701 15702 15703 15704 15705 15706 15707 15708 15709 15710 15711 15712 15713 15714 15715 15716 15717 15718 15719 15720 15721 15722 15723 15724 15725 15726 15727 15728 15729 15730 15731 15732 15733 15734 15735 15736 15737 15738 15739 15740 15741 15742 15743 15744 15745 15746 15747 15748 15749 15750 15751 15752 15753 15754 15755 15756 15757 15758 15759 15760 15761 15762 15763 15764 15765 15766 15767 15768 15769 15770 15771 15772 15773 15774 15775 15776 15777 15778 15779 15780 15781 15782 15783 15784 15785 15786 15787 15788 15789 15790 15791 15792 15793 15794 15795 15796 15797 15798 15799 15800 15801 15802 15803 15804 15805 15806 15807 15808 15809 15810 15811 15812 15813 15814 15815 15816 15817 15818 15819 15820 15821 15822 15823 15824 15825 15826 15827 15828 15829 15830 15831 15832 15833 15834 15835 15836 15837 15838 15839 15840 15841 15842 15843 15844 15845 15846 15847 15848 15849 15850 15851 15852 15853 15854 15855 15856 15857 15858 15859 15860 15861 15862 15863 15864 15865 15866 15867 15868 15869 15870 15871 15872 15873 15874 15875 15876 15877 15878 15879 15880 15881 15882 15883 15884 15885 15886 15887 15888 15889 15890 15891 15892 15893 15894 15895 15896 15897 15898 15899 15900 15901 15902 15903 15904 15905 15906 15907 15908 15909 15910 15911 15912 15913 15914 15915 15916 15917 15918 15919 15920 15921 15922 15923 15924 15925 15926 15927 15928 15929 15930 15931 15932 15933 15934 15935 15936 15937 15938 15939 15940 15941 15942 15943 15944 15945 15946 15947 15948 15949 15950 15951 15952 15953 15954 15955 15956 15957 15958 15959 15960 15961 15962 15963 15964 15965 15966 15967 15968 15969 15970 15971 15972 15973 15974 15975 15976 15977 15978 15979 15980 15981 15982 15983 15984 15985 15986 15987 15988 15989 15990 15991 15992 15993 15994 15995 15996 15997 15998 15999 16000 16001 16002 16003 16004 16005 16006 16007 16008 16009 16010 16011 16012 16013 16014 16015 16016 16017 16018 16019 16020 16021 16022 16023 16024 16025 16026 16027 16028 16029 16030 16031 16032 16033 16034 16035 16036 16037 16038 16039 16040 16041 16042 16043 16044 16045 16046 16047 16048 16049 16050 16051 16052 16053 16054 16055 16056 16057 16058 16059 16060 16061 16062 16063 16064 16065 16066 16067 16068 16069 16070 16071 16072 16073 16074 16075 16076 16077 16078 16079 16080 16081 16082 16083 16084 16085 16086 16087 16088 16089 16090 16091 16092 16093 16094 16095 16096 16097 16098 16099 16100 16101 16102 16103 16104 16105 16106 16107 16108 16109 16110 16111 16112 16113 16114 16115 16116 16117 16118 16119 16120 16121 16122 16123 16124 16125 16126 16127 16128 16129 16130 16131 16132 16133 16134 16135 16136 16137 16138 16139 16140 16141 16142 16143 16144 16145 16146 16147 16148 16149 16150 16151 16152 16153 16154 16155 16156 16157 16158 16159 16160 16161 16162 16163 16164 16165 16166 16167 16168 16169 16170 16171 16172 16173 16174 16175 16176 16177 16178 16179 16180 16181 16182 16183 16184 16185 16186 16187 16188 16189 16190 16191 16192 16193 16194 16195 16196 16197 16198 16199 16200 16201 16202 16203 16204 16205 16206 16207 16208 16209 16210 16211 16212 16213 16214 16215 16216 16217 16218 16219 16220 16221 16222 16223 16224 16225 16226 16227 16228 16229 16230 16231 16232 16233 16234 16235 16236 16237 16238 16239 16240 16241 16242 16243 16244 16245 16246 16247 16248 16249 16250 16251 16252 16253 16254 16255 16256 16257 16258 16259 16260 16261 16262 16263 16264 16265 16266 16267 16268 16269 16270 16271 16272 16273 16274 16275 16276 16277 16278 16279 16280 16281 16282 16283 16284 16285 16286 16287 16288 16289 16290 16291 16292 16293 16294 16295 16296 16297 16298 16299 16300 16301 16302 16303 16304 16305 16306 16307 16308 16309 16310 16311 16312 16313 16314 16315 16316 16317 16318 16319 16320 16321 16322 16323 16324 16325 16326 16327 16328 16329 16330 16331 16332 16333 16334 16335 16336 16337 16338 16339 16340 16341 16342 16343 16344 16345 16346 16347 16348 16349 16350 16351 16352 16353 16354 16355 16356 16357 16358 16359 16360 16361 16362 16363 16364 16365 16366 16367 16368 16369 16370 16371 16372 16373 16374 16375 16376 16377 16378 16379 16380 16381 16382 16383 16384 16385 16386 16387 16388 16389 16390 16391 16392 16393 16394 16395 16396 16397 16398 16399 16400 16401 16402 16403 16404 16405 16406 16407 16408 16409 16410 16411 16412 16413 16414 16415 16416 16417 16418 16419 16420 16421 16422 16423 16424 16425 16426 16427 16428 16429 16430 16431 16432 16433 16434 16435 16436 16437 16438 16439 16440 16441 16442 16443 16444 16445 16446 16447 16448 16449 16450 16451 16452 16453 16454 16455 16456 16457 16458 16459 16460 16461 16462 16463 16464 16465 16466 16467 16468 16469 16470 16471 16472 16473 16474 16475 16476 16477 16478 16479 16480 16481 16482 16483 16484 16485 16486 16487 16488 16489 16490 16491 16492 16493 16494 16495 16496 16497 16498 16499 16500 16501 16502 16503 16504 16505 16506 16507 16508 16509 16510 16511 16512 16513 16514 16515 16516 16517 16518 16519 16520 16521 16522 16523 16524 16525 16526 16527 16528 16529 16530 16531 16532 16533 16534 16535 16536 16537 16538 16539 16540 16541 16542 16543 16544 16545 16546 16547 16548 16549 16550 16551 16552 16553 16554 16555 16556 16557 16558 16559 16560 16561 16562 16563 16564 16565 16566 16567 16568 16569 16570 16571 16572 16573 16574 16575 16576 16577 16578 16579 16580 16581 16582 16583 16584 16585 16586 16587 16588 16589 16590 16591 16592 16593 16594 16595 16596 16597 16598 16599 16600 16601 16602 16603 16604 16605 16606 16607 16608 16609 16610 16611 16612 16613 16614 16615 16616 16617 16618 16619 16620 16621 16622 16623 16624 16625 16626 16627 16628 16629 16630 16631 16632 16633 16634 16635 16636 16637 16638 16639 16640 16641 16642 16643 16644 16645 16646 16647 16648 16649 16650 16651 16652 16653 16654 16655 16656 16657 16658 16659 16660 16661 16662 16663 16664 16665 16666 16667 16668 16669 16670 16671 16672 16673 16674 16675 16676 16677 16678 16679 16680 16681 16682 16683 16684 16685 16686 16687 16688 16689 16690 16691 16692 16693 16694 16695 16696 16697 16698 16699 16700 16701 16702 16703 16704 16705 16706 16707 16708 16709 16710 16711 16712 16713 16714 16715 16716 16717 16718 16719 16720 16721 16722 16723 16724 16725 16726 16727 16728 16729 16730 16731 16732 16733 16734 16735 16736 16737 16738 16739 16740 16741 16742 16743 16744 16745 16746 16747 16748 16749 16750 16751 16752 16753 16754 16755 16756 16757 16758 16759 16760 16761 16762 16763 16764 16765 16766 16767 16768 16769 16770 16771 16772 16773 16774 16775 16776 16777 16778 16779 16780 16781 16782 16783 16784 16785 16786 16787 16788 16789 16790 16791 16792 16793 16794 16795 16796 16797 16798 16799 16800 16801 16802 16803 16804 16805 16806 16807 16808 16809 16810 16811 16812 16813 16814 16815 16816 16817 16818 16819 16820 16821 16822 16823 16824 16825 16826 16827 16828 16829 16830 16831 16832 16833 16834 16835 16836 16837 16838 16839 16840 16841 16842 16843 16844 16845 16846 16847 16848 16849 16850 16851 16852 16853 16854 16855 16856 16857 16858 16859 16860 16861 16862 16863 16864 16865 16866 16867 16868 16869 16870 16871 16872 16873 16874 16875 16876 16877 16878 16879 16880 16881 16882 16883 16884 16885 16886 16887 16888 16889 16890 16891 16892 16893 16894 16895 16896 16897 16898 16899 16900 16901 16902 16903 16904 16905 16906 16907 16908 16909 16910 16911 16912 16913 16914 16915 16916 16917 16918 16919 16920 16921 16922 16923 16924 16925 16926 16927 16928 16929 16930 16931 16932 16933 16934 16935 16936 16937 16938 16939 16940 16941 16942 16943 16944 16945 16946 16947 16948 16949 16950 16951 16952 16953 16954 16955 16956 16957 16958 16959 16960 16961 16962 16963 16964 16965 16966 16967 16968 16969 16970 16971 16972 16973 16974 16975 16976 16977 16978 16979 16980 16981 16982 16983 16984 16985 16986 16987 16988 16989 16990 16991 16992 16993 16994 16995 16996 16997 16998 16999 17000 17001 17002 17003 17004 17005 17006 17007 17008 17009 17010 17011 17012 17013 17014 17015 17016 17017 17018 17019 17020 17021 17022 17023 17024 17025 17026 17027 17028 17029 17030 17031 17032 17033 17034 17035 17036 17037 17038 17039 17040 17041 17042 17043 17044 17045 17046 17047 17048 17049 17050 17051 17052 17053 17054 17055 17056 17057 17058 17059 17060 17061 17062 17063 17064 17065 17066 17067 17068 17069 17070 17071 17072 17073 17074 17075 17076 17077 17078 17079 17080 17081 17082 17083 17084 17085 17086 17087 17088 17089 17090 17091 17092 17093 17094 17095 17096 17097 17098 17099 17100 17101 17102 17103 17104 17105 17106 17107 17108 17109 17110 17111 17112 17113 17114 17115 17116 17117 17118 17119 17120 17121 17122 17123 17124 17125 17126 17127 17128 17129 17130 17131 17132 17133 17134 17135 17136 17137 17138 17139 17140 17141 17142 17143 17144 17145 17146 17147 17148 17149 17150 17151 17152 17153 17154 17155 17156 17157 17158 17159 17160 17161 17162 17163 17164 17165 17166 17167 17168 17169 17170 17171 17172 17173 17174 17175 17176 17177 17178 17179 17180 17181 17182 17183 17184 17185 17186 17187 17188 17189 17190 17191 17192 17193 17194 17195 17196 17197 17198 17199 17200 17201 17202 17203 17204 17205 17206 17207 17208 17209 17210 17211 17212 17213 17214 17215 17216 17217 17218 17219 17220 17221 17222 17223 17224 17225 17226 17227 17228 17229 17230 17231 17232 17233 17234 17235 17236 17237 17238 17239 17240 17241 17242 17243 17244 17245 17246 17247 17248 17249 17250 17251 17252 17253 17254 17255 17256 17257 17258 17259 17260 17261 17262 17263 17264 17265 17266 17267 17268 17269 17270 17271 17272 17273 17274 17275 17276 17277 17278 17279 17280 17281 17282 17283 17284 17285 17286 17287 17288 17289 17290 17291 17292 17293 17294 17295 17296 17297 17298 17299 17300 17301 17302 17303 17304 17305 17306 17307 17308 17309 17310 17311 17312 17313 17314 17315 17316 17317 17318 17319 17320 17321 17322 17323 17324 17325 17326 17327 17328 17329 17330 17331 17332 17333 17334 17335 17336 17337 17338 17339 17340 17341 17342 17343 17344 17345 17346 17347 17348 17349 17350 17351 17352 17353 17354 17355 17356 17357 17358 17359 17360 17361 17362 17363 17364 17365 17366 17367 17368 17369 17370 17371 17372 17373 17374 17375 17376 17377 17378 17379 17380 17381 17382 17383 17384 17385 17386 17387 17388 17389 17390 17391 17392 17393 17394 17395 17396 17397 17398 17399 17400 17401 17402 17403 17404 17405 17406 17407 17408 17409 17410 17411 17412 17413 17414 17415 17416 17417 17418 17419 17420 17421 17422 17423 17424 17425 17426 17427 17428 17429 17430 17431 17432 17433 17434 17435 17436 17437 17438 17439 17440 17441 17442 17443 17444 17445 17446 17447 17448 17449 17450 17451 17452 17453 17454 17455 17456 17457 17458 17459 17460 17461 17462 17463 17464 17465 17466 17467 17468 17469 17470 17471 17472 17473 17474 17475 17476 17477 17478 17479 17480 17481 17482 17483 17484 17485 17486 17487 17488 17489 17490 17491 17492 17493 17494 17495 17496 17497 17498 17499 17500 17501 17502 17503 17504 17505 17506 17507 17508 17509 17510 17511 17512 17513 17514 17515 17516 17517 17518 17519 17520 17521 17522 17523 17524 17525 17526 17527 17528 17529 17530 17531 17532 17533 17534 17535 17536 17537 17538 17539 17540 17541 17542 17543 17544 17545 17546 17547 17548 17549 17550 17551 17552 17553 17554 17555 17556 17557 17558 17559 17560 17561 17562 17563 17564 17565 17566 17567 17568 17569 17570 17571 17572 17573 17574 17575 17576 17577 17578 17579 17580 17581 17582 17583 17584 17585 17586 17587 17588 17589 17590 17591 17592 17593 17594 17595 17596 17597 17598 17599 17600 17601 17602 17603 17604 17605 17606 17607 17608 17609 17610 17611 17612 17613 17614 17615 17616 17617 17618 17619 17620 17621 17622 17623 17624 17625 17626 17627 17628 17629 17630 17631 17632 17633 17634 17635 17636 17637 17638 17639 17640 17641 17642 17643 17644 17645 17646 17647 17648 17649 17650 17651 17652 17653 17654 17655 17656 17657 17658 17659 17660 17661 17662 17663 17664 17665 17666 17667 17668 17669 17670 17671 17672 17673 17674 17675 17676 17677 17678 17679 17680 17681 17682 17683 17684 17685 17686 17687 17688 17689 17690 17691 17692 17693 17694 17695 17696 17697 17698 17699 17700 17701 17702 17703 17704 17705 17706 17707 17708 17709 17710 17711 17712 17713 17714 17715 17716 17717 17718 17719 17720 17721 17722 17723 17724 17725 17726 17727 17728 17729 17730 17731 17732 17733 17734 17735 17736 17737 17738 17739 17740 17741 17742 17743 17744 17745 17746 17747 17748 17749 17750 17751 17752 17753 17754 17755 17756 17757 17758 17759 17760 17761 17762 17763 17764 17765 17766 17767 17768 17769 17770 17771 17772 17773 17774 17775 17776 17777 17778 17779 17780 17781 17782 17783 17784 17785 17786 17787 17788 17789 17790 17791 17792 17793 17794 17795 17796 17797 17798 17799 17800 17801 17802 17803 17804 17805 17806 17807 17808 17809 17810 17811 17812 17813 17814 17815 17816 17817 17818 17819 17820 17821 17822 17823 17824 17825 17826 17827 17828 17829 17830 17831 17832 17833 17834 17835 17836 17837 17838 17839 17840 17841 17842 17843 17844 17845 17846 17847 17848 17849 17850 17851 17852 17853 17854 17855 17856 17857 17858 17859 17860 17861 17862 17863 17864 17865 17866 17867 17868 17869 17870 17871 17872 17873 17874 17875 17876 17877 17878 17879 17880 17881 17882 17883 17884 17885 17886 17887 17888 17889 17890 17891 17892 17893 17894 17895 17896 17897 17898 17899 17900 17901 17902 17903 17904 17905 17906 17907 17908 17909 17910 17911 17912 17913 17914 17915 17916 17917 17918 17919 17920 17921 17922 17923 17924 17925 17926 17927 17928 17929 17930 17931 17932 17933 17934 17935 17936 17937 17938 17939 17940 17941 17942 17943 17944 17945 17946 17947 17948 17949 17950 17951 17952 17953 17954 17955 17956 17957 17958 17959 17960 17961 17962 17963 17964 17965 17966 17967 17968 17969 17970 17971 17972 17973 17974 17975 17976 17977 17978 17979 17980 17981 17982 17983 17984 17985 17986 17987 17988 17989 17990 17991 17992 17993 17994 17995 17996 17997 17998 17999 18000 18001 18002 18003 18004 18005 18006 18007 18008 18009 18010 18011 18012 18013 18014 18015 18016 18017 18018 18019 18020 18021 18022 18023 18024 18025 18026 18027 18028 18029 18030 18031 18032 18033 18034 18035 18036 18037 18038 18039 18040 18041 18042 18043 18044 18045 18046 18047 18048 18049 18050 18051 18052 18053 18054 18055 18056 18057 18058 18059 18060 18061 18062 18063 18064 18065 18066 18067 18068 18069 18070 18071 18072 18073 18074 18075 18076 18077 18078 18079 18080 18081 18082 18083 18084 18085 18086 18087 18088 18089 18090 18091 18092 18093 18094 18095 18096 18097 18098 18099 18100 18101 18102 18103 18104 18105 18106 18107 18108 18109 18110 18111 18112 18113 18114 18115 18116 18117 18118 18119 18120 18121 18122 18123 18124 18125 18126 18127 18128 18129 18130 18131 18132 18133 18134 18135 18136 18137 18138 18139 18140 18141 18142 18143 18144 18145 18146 18147 18148 18149 18150 18151 18152 18153 18154 18155 18156 18157 18158 18159 18160 18161 18162 18163 18164 18165 18166 18167 18168 18169 18170 18171 18172 18173 18174 18175 18176 18177 18178 18179 18180 18181 18182 18183 18184 18185 18186 18187 18188 18189 18190 18191 18192 18193 18194 18195 18196 18197 18198 18199 18200 18201 18202 18203 18204 18205 18206 18207 18208 18209 18210 18211 18212 18213 18214 18215 18216 18217 18218 18219 18220 18221 18222 18223 18224 18225 18226 18227 18228 18229 18230 18231 18232 18233 18234 18235 18236 18237 18238 18239 18240 18241 18242 18243 18244 18245 18246 18247 18248 18249 18250 18251 18252 18253 18254 18255 18256 18257 18258 18259 18260 18261 18262 18263 18264 18265 18266 18267 18268 18269 18270 18271 18272 18273 18274 18275 18276 18277 18278 18279 18280 18281 18282 18283 18284 18285 18286 18287 18288 18289 18290 18291 18292 18293 18294 18295 18296 18297 18298 18299 18300 18301 18302 18303 18304 18305 18306 18307 18308 18309 18310 18311 18312 18313 18314 18315 18316 18317 18318 18319 18320 18321 18322 18323 18324 18325 18326 18327 18328 18329 18330 18331 18332 18333 18334 18335 18336 18337 18338 18339 18340 18341 18342 18343 18344 18345 18346 18347 18348 18349 18350 18351 18352 18353 18354 18355 18356 18357 18358 18359 18360 18361 18362 18363 18364 18365 18366 18367 18368 18369 18370 18371 18372 18373 18374 18375 18376 18377 18378 18379 18380 18381 18382 18383 18384 18385 18386 18387 18388 18389 18390 18391 18392 18393 18394 18395 18396 18397 18398 18399 18400 18401 18402 18403 18404 18405 18406 18407 18408 18409 18410 18411 18412 18413 18414 18415 18416 18417 18418 18419 18420 18421 18422 18423 18424 18425 18426 18427 18428 18429 18430 18431 18432 18433 18434 18435 18436 18437 18438 18439 18440 18441 18442 18443 18444 18445 18446 18447 18448 18449 18450 18451 18452 18453 18454 18455 18456 18457 18458 18459 18460 18461 18462 18463 18464 18465 18466 18467 18468 18469 18470 18471 18472 18473 18474 18475 18476 18477 18478 18479 18480 18481 18482 18483 18484 18485 18486 18487 18488 18489 18490 18491 18492 18493 18494 18495 18496 18497 18498 18499 18500 18501 18502 18503 18504 18505 18506 18507 18508 18509 18510 18511 18512 18513 18514 18515 18516 18517 18518 18519 18520 18521 18522 18523 18524 18525 18526 18527 18528 18529 18530 18531 18532 18533 18534 18535 18536 18537 18538 18539 18540 18541 18542 18543 18544 18545 18546 18547 18548 18549 18550 18551 18552 18553 18554 18555 18556 18557 18558 18559 18560 18561 18562 18563 18564 18565 18566 18567 18568 18569 18570 18571 18572 18573 18574 18575 18576 18577 18578 18579 18580 18581 18582 18583 18584 18585 18586 18587 18588 18589 18590 18591 18592 18593 18594 18595 18596 18597 18598 18599 18600 18601 18602 18603 18604 18605 18606 18607 18608 18609 18610 18611 18612 18613 18614 18615 18616 18617 18618 18619 18620 18621 18622 18623 18624 18625 18626 18627 18628 18629 18630 18631 18632 18633 18634 18635 18636 18637 18638 18639 18640 18641 18642 18643 18644 18645 18646 18647 18648 18649 18650 18651 18652 18653 18654 18655 18656 18657 18658 18659 18660 18661 18662 18663 18664 18665 18666 18667 18668 18669 18670 18671 18672 18673 18674 18675 18676 18677 18678 18679 18680 18681 18682 18683 18684 18685 18686 18687 18688 18689 18690 18691 18692 18693 18694 18695 18696 18697 18698 18699 18700 18701 18702 18703 18704 18705 18706 18707 18708 18709 18710 18711 18712 18713 18714 18715 18716 18717 18718 18719 18720 18721 18722 18723 18724 18725 18726 18727 18728 18729 18730 18731 18732 18733 18734 18735 18736 18737 18738 18739 18740 18741 18742 18743 18744 18745 18746 18747 18748 18749 18750 18751 18752 18753 18754 18755 18756 18757 18758 18759 18760 18761 18762 18763 18764 18765 18766 18767 18768 18769 18770 18771 18772 18773 18774 18775 18776 18777 18778 18779 18780 18781 18782 18783 18784 18785 18786 18787 18788 18789 18790 18791 18792 18793 18794 18795 18796 18797 18798 18799 18800 18801 18802 18803 18804 18805 18806 18807 18808 18809 18810 18811 18812 18813 18814 18815 18816 18817 18818 18819 18820 18821 18822 18823 18824 18825 18826 18827 18828 18829 18830 18831 18832 18833 18834 18835 18836 18837 18838 18839 18840 18841 18842 18843 18844 18845 18846 18847 18848 18849 18850 18851 18852 18853 18854 18855 18856 18857 18858 18859 18860 18861 18862 18863 18864 18865 18866 18867 18868 18869 18870 18871 18872 18873 18874 18875 18876 18877 18878 18879 18880 18881 18882 18883 18884 18885 18886 18887 18888 18889 18890 18891 18892 18893 18894 18895 18896 18897 18898 18899 18900 18901 18902 18903 18904 18905 18906 18907 18908 18909 18910 18911 18912 18913 18914 18915 18916 18917 18918 18919 18920 18921 18922 18923 18924 18925 18926 18927 18928 18929 18930 18931 18932 18933 18934 18935 18936 18937 18938 18939 18940 18941 18942 18943 18944 18945 18946 18947 18948 18949 18950 18951 18952 18953 18954 18955 18956 18957 18958 18959 18960 18961 18962 18963 18964 18965 18966 18967 18968 18969 18970 18971 18972 18973 18974 18975 18976 18977 18978 18979 18980 18981 18982 18983 18984 18985 18986 18987 18988 18989 18990 18991 18992 18993 18994 18995 18996 18997 18998 18999 19000 19001 19002 19003 19004 19005 19006 19007 19008 19009 19010 19011 19012 19013 19014 19015 19016 19017 19018 19019 19020 19021 19022 19023 19024 19025 19026 19027 19028 19029 19030 19031 19032 19033 19034 19035 19036 19037 19038 19039 19040 19041 19042 19043 19044 19045 19046 19047 19048 19049 19050 19051 19052 19053 19054 19055 19056 19057 19058 19059 19060 19061 19062 19063 19064 19065 19066 19067 19068 19069 19070 19071 19072 19073 19074 19075 19076 19077 19078 19079 19080 19081 19082 19083 19084 19085 19086 19087 19088 19089 19090 19091 19092 19093 19094 19095 19096 19097 19098 19099 19100 19101 19102 19103 19104 19105 19106 19107 19108 19109 19110 19111 19112 19113 19114 19115 19116 19117 19118 19119 19120 19121 19122 19123 19124 19125 19126 19127 19128 19129 19130 19131 19132 19133 19134 19135 19136 19137 19138 19139 19140 19141 19142 19143 19144 19145 19146 19147 19148 19149 19150 19151 19152 19153 19154 19155 19156 19157 19158 19159 19160 19161 19162 19163 19164 19165 19166 19167 19168 19169 19170 19171 19172 19173 19174 19175 19176 19177 19178 19179 19180 19181 19182 19183 19184 19185 19186 19187 19188 19189 19190 19191 19192 19193 19194 19195 19196 19197 19198 19199 19200 19201 19202 19203 19204 19205 19206 19207 19208 19209 19210 19211 19212 19213 19214 19215 19216 19217 19218 19219 19220 19221 19222 19223 19224 19225 19226 19227 19228 19229 19230 19231 19232 19233 19234 19235 19236 19237 19238 19239 19240 19241 19242 19243 19244 19245 19246 19247 19248 19249 19250 19251 19252 19253 19254 19255 19256 19257 19258 19259 19260 19261 19262 19263 19264 19265 19266 19267 19268 19269 19270 19271 19272 19273 19274 19275 19276 19277 19278 19279 19280 19281 19282 19283 19284 19285 19286 19287 19288 19289 19290 19291 19292 19293 19294 19295 19296 19297 19298 19299 19300 19301 19302 19303 19304 19305 19306 19307 19308 19309 19310 19311 19312 19313 19314 19315 19316 19317 19318 19319 19320 19321 19322 19323 19324 19325 19326 19327 19328 19329 19330 19331 19332 19333 19334 19335 19336 19337 19338 19339 19340 19341 19342 19343 19344 19345 19346 19347 19348 19349 19350 19351 19352 19353 19354 19355 19356 19357 19358 19359 19360 19361 19362 19363 19364 19365 19366 19367 19368 19369 19370 19371 19372 19373 19374 19375 19376 19377 19378 19379 19380 19381 19382 19383 19384 19385 19386 19387 19388 19389 19390 19391 19392 19393 19394 19395 19396 19397 19398 19399 19400 19401 19402 19403 19404 19405 19406 19407 19408 19409 19410 19411 19412 19413 19414 19415 19416 19417 19418 19419 19420 19421 19422 19423 19424 19425 19426 19427 19428 19429 19430 19431 19432 19433 19434 19435 19436 19437 19438 19439 19440 19441 19442 19443 19444 19445 19446 19447 19448 19449 19450 19451 19452 19453 19454 19455 19456 19457 19458 19459 19460 19461 19462 19463 19464 19465 19466 19467 19468 19469 19470 19471 19472 19473 19474 19475 19476 19477 19478 19479 19480 19481 19482 19483 19484 19485 19486 19487 19488 19489 19490 19491 19492 19493 19494 19495 19496 19497 19498 19499 19500 19501 19502 19503 19504 19505 19506 19507 19508 19509 19510 19511 19512 19513 19514 19515 19516 19517 19518 19519 19520 19521 19522 19523 19524 19525 19526 19527 19528 19529 19530 19531 19532 19533 19534 19535 19536 19537 19538 19539 19540 19541 19542 19543 19544 19545 19546 19547 19548 19549 19550 19551 19552 19553 19554 19555 19556 19557 19558 19559 19560 19561 19562 19563 19564 19565 19566 19567 19568 19569 19570 19571 19572 19573 19574 19575 19576 19577 19578 19579 19580 19581 19582 19583 19584 19585 19586 19587 19588 19589 19590 19591 19592 19593 19594 19595 19596 19597 19598 19599 19600 19601 19602 19603 19604 19605 19606 19607 19608 19609 19610 19611 19612 19613 19614 19615 19616 19617 19618 19619 19620 19621 19622 19623 19624 19625 19626 19627 19628 19629 19630 19631 19632 19633 19634 19635 19636 19637 19638 19639 19640 19641 19642 19643 19644 19645 19646 19647 19648 19649 19650 19651 19652 19653 19654 19655 19656 19657 19658 19659 19660 19661 19662 19663 19664 19665 19666 19667 19668 19669 19670 19671 19672 19673 19674 19675 19676 19677 19678 19679 19680 19681 19682 19683 19684 19685 19686 19687 19688 19689 19690 19691 19692 19693 19694 19695 19696 19697 19698 19699 19700 19701 19702 19703 19704 19705 19706 19707 19708 19709 19710 19711 19712 19713 19714 19715 19716 19717 19718 19719 19720 19721 19722 19723 19724 19725 19726 19727 19728 19729 19730 19731 19732 19733 19734 19735 19736 19737 19738 19739 19740 19741 19742 19743 19744 19745 19746 19747 19748 19749 19750 19751 19752 19753 19754 19755 19756 19757 19758 19759 19760 19761 19762 19763 19764 19765 19766 19767 19768 19769 19770 19771 19772 19773 19774 19775 19776 19777 19778 19779 19780 19781 19782 19783 19784 19785 19786 19787 19788 19789 19790 19791 19792 19793 19794 19795 19796 19797 19798 19799 19800 19801 19802 19803 19804 19805 19806 19807 19808 19809 19810 19811 19812 19813 19814 19815 19816 19817 19818 19819 19820 19821 19822 19823 19824 19825 19826 19827 19828 19829 19830 19831 19832 19833 19834 19835 19836 19837 19838 19839 19840 19841 19842 19843 19844 19845 19846 19847 19848 19849 19850 19851 19852 19853 19854 19855 19856 19857 19858 19859 19860 19861 19862 19863 19864 19865 19866 19867 19868 19869 19870 19871 19872 19873 19874 19875 19876 19877 19878 19879 19880 19881 19882 19883 19884 19885 19886 19887 19888 19889 19890 19891 19892 19893 19894 19895 19896 19897 19898 19899 19900 19901 19902 19903 19904 19905 19906 19907 19908 19909 19910 19911 19912 19913 19914 19915 19916 19917 19918 19919 19920 19921 19922 19923 19924 19925 19926 19927 19928 19929 19930 19931 19932 19933 19934 19935 19936 19937 19938 19939 19940 19941 19942 19943 19944 19945 19946 19947 19948 19949 19950 19951 19952 19953 19954 19955 19956 19957 19958 19959 19960 19961 19962 19963 19964 19965 19966 19967 19968 19969 19970 19971 19972 19973 19974 19975 19976 19977 19978 19979 19980 19981 19982 19983 19984 19985 19986 19987 19988 19989 19990 19991 19992 19993 19994 19995 19996 19997 19998 19999 20000 20001 20002 20003 20004 20005 20006 20007 20008 20009 20010 20011 20012 20013 20014 20015 20016 20017 20018 20019 20020 20021 20022 20023 20024 20025 20026 20027 20028 20029 20030 20031 20032 20033 20034 20035 20036 20037 20038 20039 20040 20041 20042 20043 20044 20045 20046 20047 20048 20049 20050 20051 20052 20053 20054 20055 20056 20057 20058 20059 20060 20061 20062 20063 20064 20065 20066 20067 20068 20069 20070 20071 20072 20073 20074 20075 20076 20077 20078 20079 20080 20081 20082 20083 20084 20085 20086 20087 20088 20089 20090 20091 20092 20093 20094 20095 20096 20097 20098 20099 20100 20101 20102 20103 20104 20105 20106 20107 20108 20109 20110 20111 20112 20113 20114 20115 20116 20117 20118 20119 20120 20121 20122 20123 20124 20125 20126 20127 20128 20129 20130 20131 20132 20133 20134 20135 20136 20137 20138 20139 20140 20141 20142 20143 20144 20145 20146 20147 20148 20149 20150 20151 20152 20153 20154 20155 20156 20157 20158 20159 20160 20161 20162 20163 20164 20165 20166 20167 20168 20169 20170 20171 20172 20173 20174 20175 20176 20177 20178 20179 20180 20181 20182 20183 20184 20185 20186 20187 20188 20189 20190 20191 20192 20193 20194 20195 20196 20197 20198 20199 20200 20201 20202 20203 20204 20205 20206 20207 20208 20209 20210 20211 20212 20213 20214 20215 20216 20217 20218 20219 20220 20221 20222 20223 20224 20225 20226 20227 20228 20229 20230 20231 20232 20233 20234 20235 20236 20237 20238 20239 20240 20241 20242 20243 20244 20245 20246 20247 20248 20249 20250 20251 20252 20253 20254 20255 20256 20257 20258 20259 20260 20261 20262 20263 20264 20265 20266 20267 20268 20269 20270 20271 20272 20273 20274 20275 20276 20277 20278 20279 20280 20281 20282 20283 20284 20285 20286 20287 20288 20289 20290 20291 20292 20293 20294 20295 20296 20297 20298 20299 20300 20301 20302 20303 20304 20305 20306 20307 20308 20309 20310 20311 20312 20313 20314 20315 20316 20317 20318 20319 20320 20321 20322 20323 20324 20325 20326 20327 20328 20329 20330 20331 20332 20333 20334 20335 20336 20337 20338 20339 20340 20341 20342 20343 20344 20345 20346 20347 20348 20349 20350 20351 20352 20353 20354 20355 20356 20357 20358 20359 20360 20361 20362 20363 20364 20365 20366 20367 20368 20369 20370 20371 20372 20373 20374 20375 20376 20377 20378 20379 20380 20381 20382 20383 20384 20385 20386 20387 20388 20389 20390 20391 20392 20393 20394 20395 20396 20397 20398 20399 20400 20401 20402 20403 20404 20405 20406 20407 20408 20409 20410 20411 20412 20413 20414 20415 20416 20417 20418 20419 20420 20421 20422 20423 20424 20425 20426 20427 20428 20429 20430 20431 20432 20433 20434 20435 20436 20437 20438 20439 20440 20441 20442 20443 20444 20445 20446 20447 20448 20449 20450 20451 20452 20453 20454 20455 20456 20457 20458 20459 20460 20461 20462 20463 20464 20465 20466 20467 20468 20469 20470 20471 20472 20473 20474 20475 20476 20477 20478 20479 20480 20481 20482 20483 20484 20485 20486 20487 20488 20489 20490 20491 20492 20493 20494 20495 20496 20497 20498 20499 20500 20501 20502 20503 20504 20505 20506 20507 20508 20509 20510 20511 20512 20513 20514 20515 20516 20517 20518 20519 20520 20521 20522 20523 20524 20525 20526 20527 20528 20529 20530 20531 20532 20533 20534 20535 20536 20537 20538 20539 20540 20541 20542 20543 20544 20545 20546 20547 20548 20549 20550 20551 20552 20553 20554 20555 20556 20557 20558 20559 20560 20561 20562 20563 20564 20565 20566 20567 20568 20569 20570 20571 20572 20573 20574 20575 20576 20577 20578 20579 20580 20581 20582 20583 20584 20585 20586 20587 20588 20589 20590 20591 20592 20593 20594 20595 20596 20597 20598 20599 20600 20601 20602 20603 20604 20605 20606 20607 20608 20609 20610 20611 20612 20613 20614 20615 20616 20617 20618 20619 20620 20621 20622 20623 20624 20625 20626 20627 20628 20629 20630 20631 20632 20633 20634 20635 20636 20637 20638 20639 20640 20641 20642 20643 20644 20645 20646 20647 20648 20649 20650 20651 20652 20653 20654 20655 20656 20657 20658 20659 20660 20661 20662 20663 20664 20665 20666 20667 20668 20669 20670 20671 20672 20673 20674 20675 20676 20677 20678 20679 20680 20681 20682 20683 20684 20685 20686 20687 20688 20689 20690 20691 20692 20693 20694 20695 20696 20697 20698 20699 20700 20701 20702 20703 20704 20705 20706 20707 20708 20709 20710 20711 20712 20713 20714 20715 20716 20717 20718 20719 20720 20721 20722 20723 20724 20725 20726 20727 20728 20729 20730 20731 20732 20733 20734 20735 20736 20737 20738 20739 20740 20741 20742 20743 20744 20745 20746 20747 20748 20749 20750 20751 20752 20753 20754 20755 20756 20757 20758 20759 20760 20761 20762 20763 20764 20765 20766 20767 20768 20769 20770 20771 20772 20773 20774 20775 20776 20777 20778 20779 20780 20781 20782 20783 20784 20785 20786 20787 20788 20789 20790 20791 20792 20793 20794 20795 20796 20797 20798 20799 20800 20801 20802 20803 20804 20805 20806 20807 20808 20809 20810 20811 20812 20813 20814 20815 20816 20817 20818 20819 20820 20821 20822 20823 20824 20825 20826 20827 20828 20829 20830 20831 20832 20833 20834 20835 20836 20837 20838 20839 20840 20841 20842 20843 20844 20845 20846 20847 20848 20849 20850 20851 20852 20853 20854 20855 20856 20857 20858 20859 20860 20861 20862 20863 20864 20865 20866 20867 20868 20869 20870 20871 20872 20873 20874 20875 20876 20877 20878 20879 20880 20881 20882 20883 20884 20885 20886 20887 20888 20889 20890 20891 20892 20893 20894 20895 20896 20897 20898 20899 20900 20901 20902 20903 20904 20905 20906 20907 20908 20909 20910 20911 20912 20913 20914 20915 20916 20917 20918 20919 20920 20921 20922 20923 20924 20925 20926 20927 20928 20929 20930 20931 20932 20933 20934 20935 20936 20937 20938 20939 20940 20941 20942 20943 20944 20945 20946 20947 20948 20949 20950 20951 20952 20953 20954 20955 20956 20957 20958 20959 20960 20961 20962 20963 20964 20965 20966 20967 20968 20969 20970 20971 20972 20973 20974 20975 20976 20977 20978 20979 20980 20981 20982 20983 20984 20985 20986 20987 20988 20989 20990 20991 20992 20993 20994 20995 20996 20997 20998 20999 21000 21001 21002 21003 21004 21005 21006 21007 21008 21009 21010 21011 21012 21013 21014 21015 21016 21017 21018 21019 21020 21021 21022 21023 21024 21025 21026 21027 21028 21029 21030 21031 21032 21033 21034 21035 21036 21037 21038 21039 21040 21041 21042 21043 21044 21045 21046 21047 21048 21049 21050 21051 21052 21053 21054 21055 21056 21057 21058 21059 21060 21061 21062 21063 21064 21065 21066 21067 21068 21069 21070 21071 21072 21073 21074 21075 21076 21077 21078 21079 21080 21081 21082 21083 21084 21085 21086 21087 21088 21089 21090 21091 21092 21093 21094 21095 21096 21097 21098 21099 21100 21101 21102 21103 21104 21105 21106 21107 21108 21109 21110 21111 21112 21113 21114 21115 21116 21117 21118 21119 21120 21121 21122 21123 21124 21125 21126 21127 21128 21129 21130 21131 21132 21133 21134 21135 21136 21137 21138 21139 21140 21141 21142 21143 21144 21145 21146 21147 21148 21149 21150 21151 21152 21153 21154 21155 21156 21157 21158 21159 21160 21161 21162 21163 21164 21165 21166 21167 21168 21169 21170 21171 21172 21173 21174 21175 21176 21177 21178 21179 21180 21181 21182 21183 21184 21185 21186 21187 21188 21189 21190 21191 21192 21193 21194 21195 21196 21197 21198 21199 21200 21201 21202 21203 21204 21205 21206 21207 21208 21209 21210 21211 21212 21213 21214 21215 21216 21217 21218 21219 21220 21221 21222 21223 21224 21225 21226 21227 21228 21229 21230 21231 21232 21233 21234 21235 21236 21237 21238 21239 21240 21241 21242 21243 21244 21245 21246 21247 21248 21249 21250 21251 21252 21253 21254 21255 21256 21257 21258 21259 21260 21261 21262 21263 21264 21265 21266 21267 21268 21269 21270 21271 21272 21273 21274 21275 21276 21277 21278 21279 21280 21281 21282 21283 21284 21285 21286 21287 21288 21289 21290 21291 21292 21293 21294 21295 21296 21297 21298 21299 21300 21301 21302 21303 21304 21305 21306 21307 21308 21309 21310 21311 21312 21313 21314 21315 21316 21317 21318 21319 21320 21321 21322 21323 21324 21325 21326 21327 21328 21329 21330 21331 21332 21333 21334 21335 21336 21337 21338 21339 21340 21341 21342 21343 21344 21345 21346 21347 21348 21349 21350 21351 21352 21353 21354 21355 21356 21357 21358 21359 21360 21361 21362 21363 21364 21365 21366 21367 21368 21369 21370 21371 21372 21373 21374 21375 21376 21377 21378 21379 21380 21381 21382 21383 21384 21385 21386 21387 21388 21389 21390 21391 21392 21393 21394 21395 21396 21397 21398 21399 21400 21401 21402 21403 21404 21405 21406 21407 21408 21409 21410 21411 21412 21413 21414 21415 21416 21417 21418 21419 21420 21421 21422 21423 21424 21425 21426 21427 21428 21429 21430 21431 21432 21433 21434 21435 21436 21437 21438 21439 21440 21441 21442 21443 21444 21445 21446 21447 21448 21449 21450 21451 21452 21453 21454 21455 21456 21457 21458 21459 21460 21461 21462 21463 21464 21465 21466 21467 21468 21469 21470 21471 21472 21473 21474 21475 21476 21477 21478 21479 21480 21481 21482 21483 21484 21485 21486 21487 21488 21489 21490 21491 21492 21493 21494 21495 21496 21497 21498 21499 21500 21501 21502 21503 21504 21505 21506 21507 21508 21509 21510 21511 21512 21513 21514 21515 21516 21517 21518 21519 21520 21521 21522 21523 21524 21525 21526 21527 21528 21529 21530 21531 21532 21533 21534 21535 21536 21537 21538 21539 21540 21541 21542 21543 21544 21545 21546 21547 21548 21549 21550 21551 21552 21553 21554 21555 21556 21557 21558 21559 21560 21561 21562 21563 21564 21565 21566 21567 21568 21569 21570 21571 21572 21573 21574 21575 21576 21577 21578 21579 21580 21581 21582 21583 21584 21585 21586 21587 21588 21589 21590 21591 21592 21593 21594 21595 21596 21597 21598 21599 21600 21601 21602 21603 21604 21605 21606 21607 21608 21609 21610 21611 21612 21613 21614 21615 21616 21617 21618 21619 21620 21621 21622 21623 21624 21625 21626 21627 21628 21629 21630 21631 21632 21633 21634 21635 21636 21637 21638 21639 21640 21641 21642 21643 21644 21645 21646 21647 21648 21649 21650 21651 21652 21653 21654 21655 21656 21657 21658 21659 21660 21661 21662 21663 21664 21665 21666 21667 21668 21669 21670 21671 21672 21673 21674 21675 21676 21677 21678 21679 21680 21681 21682 21683 21684 21685 21686 21687 21688 21689 21690 21691 21692 21693 21694 21695 21696 21697 21698 21699 21700 21701 21702 21703 21704 21705 21706 21707 21708 21709 21710 21711 21712 21713 21714 21715 21716 21717 21718 21719 21720 21721 21722 21723 21724 21725 21726 21727 21728 21729 21730 21731 21732 21733 21734 21735 21736 21737 21738 21739 21740 21741 21742 21743 21744 21745 21746 21747 21748 21749 21750 21751 21752 21753 21754 21755 21756 21757 21758 21759 21760 21761 21762 21763 21764 21765 21766 21767 21768 21769 21770 21771 21772 21773 21774 21775 21776 21777 21778 21779 21780 21781 21782 21783 21784 21785 21786 21787 21788 21789 21790 21791 21792 21793 21794 21795 21796 21797 21798 21799 21800 21801 21802 21803 21804 21805 21806 21807 21808 21809 21810 21811 21812 21813 21814 21815 21816 21817 21818 21819 21820 21821 21822 21823 21824 21825 21826 21827 21828 21829 21830 21831 21832 21833 21834 21835 21836 21837 21838 21839 21840 21841 21842 21843 21844 21845 21846 21847 21848 21849 21850 21851 21852 21853 21854 21855 21856 21857 21858 21859 21860 21861 21862 21863 21864 21865 21866 21867 21868 21869 21870 21871 21872 21873 21874 21875 21876 21877 21878 21879 21880 21881 21882 21883 21884 21885 21886 21887 21888 21889 21890 21891 21892 21893 21894 21895 21896 21897 21898 21899 21900 21901 21902 21903 21904 21905 21906 21907 21908 21909 21910 21911 21912 21913 21914 21915 21916 21917 21918 21919 21920 21921 21922 21923 21924 21925 21926 21927 21928 21929 21930 21931 21932 21933 21934 21935 21936 21937 21938 21939 21940 21941 21942 21943 21944 21945 21946 21947 21948 21949 21950 21951 21952 21953 21954 21955 21956 21957 21958 21959 21960 21961 21962 21963 21964 21965 21966 21967 21968 21969 21970 21971 21972 21973 21974 21975 21976 21977 21978 21979 21980 21981 21982 21983 21984 21985 21986 21987 21988 21989 21990 21991 21992 21993 21994 21995 21996 21997 21998 21999 22000 22001 22002 22003 22004 22005 22006 22007 22008 22009 22010 22011 22012 22013 22014 22015 22016 22017 22018 22019 22020 22021 22022 22023 22024 22025 22026 22027 22028 22029 22030 22031 22032 22033 22034 22035 22036 22037 22038 22039 22040 22041 22042 22043 22044 22045 22046 22047 22048 22049 22050 22051 22052 22053 22054 22055 22056 22057 22058 22059 22060 22061 22062 22063 22064 22065 22066 22067 22068 22069 22070 22071 22072 22073 22074 22075 22076 22077 22078 22079 22080 22081 22082 22083 22084 22085 22086 22087 22088 22089 22090 22091 22092 22093 22094 22095 22096 22097 22098 22099 22100 22101 22102 22103 22104 22105 22106 22107 22108 22109 22110 22111 22112 22113 22114 22115 22116 22117 22118 22119 22120 22121 22122 22123 22124 22125 22126 22127 22128 22129 22130 22131 22132 22133 22134 22135 22136 22137 22138 22139 22140 22141 22142 22143 22144 22145 22146 22147 22148 22149 22150 22151 22152 22153 22154 22155 22156 22157 22158 22159 22160 22161 22162 22163 22164 22165 22166 22167 22168 22169 22170 22171 22172 22173 22174 22175 22176 22177 22178 22179 22180 22181 22182 22183 22184 22185 22186 22187 22188 22189 22190 22191 22192 22193 22194 22195 22196 22197 22198 22199 22200 22201 22202 22203 22204 22205 22206 22207 22208 22209 22210 22211 22212 22213 22214 22215 22216 22217 22218 22219 22220 22221 22222 22223 22224 22225 22226 22227 22228 22229 22230 22231 22232 22233 22234 22235 22236 22237 22238 22239 22240 22241 22242 22243 22244 22245 22246 22247 22248 22249 22250 22251 22252 22253 22254 22255 22256 22257 22258 22259 22260 22261 22262 22263 22264 22265 22266 22267 22268 22269 22270 22271 22272 22273 22274 22275 22276 22277 22278 22279 22280 22281 22282 22283 22284 22285 22286 22287 22288 22289 22290 22291 22292 22293 22294 22295 22296 22297 22298 22299 22300 22301 22302 22303 22304 22305 22306 22307 22308 22309 22310 22311 22312 22313 22314 22315 22316 22317 22318 22319 22320 22321 22322 22323 22324 22325 22326 22327 22328 22329 22330 22331 22332 22333 22334 22335 22336 22337 22338 22339 22340 22341 22342 22343 22344 22345 22346 22347 22348 22349 22350 22351 22352 22353 22354 22355 22356 22357 22358 22359 22360 22361 22362 22363 22364 22365 22366 22367 22368 22369 22370 22371 22372 22373 22374 22375 22376 22377 22378 22379 22380 22381 22382 22383 22384 22385 22386 22387 22388 22389 22390 22391 22392 22393 22394 22395 22396 22397 22398 22399 22400 22401 22402 22403 22404 22405 22406 22407 22408 22409 22410 22411 22412 22413 22414 22415 22416 22417 22418 22419 22420 22421 22422 22423 22424 22425 22426 22427 22428 22429 22430 22431 22432 22433 22434 22435 22436 22437 22438 22439 22440 22441 22442 22443 22444 22445 22446 22447 22448 22449 22450 22451 22452 22453 22454 22455 22456 22457 22458 22459 22460 22461 22462 22463 22464 22465 22466 22467 22468 22469 22470 22471 22472 22473 22474 22475 22476 22477 22478 22479 22480 22481 22482 22483 22484 22485 22486 22487 22488 22489 22490 22491 22492 22493 22494 22495 22496 22497 22498 22499 22500 22501 22502 22503 22504 22505 22506 22507 22508 22509 22510 22511 22512 22513 22514 22515 22516 22517 22518 22519 22520 22521 22522 22523 22524 22525 22526 22527 22528 22529 22530 22531 22532 22533 22534 22535 22536 22537 22538 22539 22540 22541 22542 22543 22544 22545 22546 22547 22548 22549 22550 22551 22552 22553 22554 22555 22556 22557 22558 22559 22560 22561 22562 22563 22564 22565 22566 22567 22568 22569 22570 22571 22572 22573 22574 22575 22576 22577 22578 22579 22580 22581 22582 22583 22584 22585 22586 22587 22588 22589 22590 22591 22592 22593 22594 22595 22596 22597 22598 22599 22600 22601 22602 22603 22604 22605 22606 22607 22608 22609 22610 22611 22612 22613 22614 22615 22616 22617 22618 22619 22620 22621 22622 22623 22624 22625 22626 22627 22628 22629 22630 22631 22632 22633 22634 22635 22636 22637 22638 22639 22640 22641 22642 22643 22644 22645 22646 22647 22648 22649 22650 22651 22652 22653 22654 22655 22656 22657 22658 22659 22660 22661 22662 22663 22664 22665 22666 22667 22668 22669 22670 22671 22672 22673 22674 22675 22676 22677 22678 22679 22680 22681 22682 22683 22684 22685 22686 22687 22688 22689 22690 22691 22692 22693 22694 22695 22696 22697 22698 22699 22700 22701 22702 22703 22704 22705 22706 22707 22708 22709 22710 22711 22712 22713 22714 22715 22716 22717 22718 22719 22720 22721 22722 22723 22724 22725 22726 22727 22728 22729 22730 22731 22732 22733 22734 22735 22736 22737 22738 22739 22740 22741 22742 22743 22744 22745 22746 22747 22748 22749 22750 22751 22752 22753 22754 22755 22756 22757 22758 22759 22760 22761 22762 22763 22764 22765 22766 22767 22768 22769 22770 22771 22772 22773 22774 22775 22776 22777 22778 22779 22780 22781 22782 22783 22784 22785 22786 22787 22788 22789 22790 22791 22792 22793 22794 22795 22796 22797 22798 22799 22800 22801 22802 22803 22804 22805 22806 22807 22808 22809 22810 22811 22812 22813 22814 22815 22816 22817 22818 22819 22820 22821 22822 22823 22824 22825 22826 22827 22828 22829 22830 22831 22832 22833 22834 22835 22836 22837 22838 22839 22840 22841 22842 22843 22844 22845 22846 22847 22848 22849 22850 22851 22852 22853 22854 22855 22856 22857 22858 22859 22860 22861 22862 22863 22864 22865 22866 22867 22868 22869 22870 22871 22872 22873 22874 22875 22876 22877 22878 22879 22880 22881 22882 22883 22884 22885 22886 22887 22888 22889 22890 22891 22892 22893 22894 22895 22896 22897 22898 22899 22900 22901 22902 22903 22904 22905 22906 22907 22908 22909 22910 22911 22912 22913 22914 22915 22916 22917 22918 22919 22920 22921 22922 22923 22924 22925 22926 22927 22928 22929 22930 22931 22932 22933 22934 22935 22936 22937 22938 22939 22940 22941 22942 22943 22944 22945 22946 22947 22948 22949 22950 22951 22952 22953 22954 22955 22956 22957 22958 22959 22960 22961 22962 22963 22964 22965 22966 22967 22968 22969 22970 22971 22972 22973 22974 22975 22976 22977 22978 22979 22980 22981 22982 22983 22984 22985 22986 22987 22988 22989 22990 22991 22992 22993 22994 22995 22996 22997 22998 22999 23000 23001 23002 23003 23004 23005 23006 23007 23008 23009 23010 23011 23012 23013 23014 23015 23016 23017 23018 23019 23020 23021 23022 23023 23024 23025 23026 23027 23028 23029 23030 23031 23032 23033 23034 23035 23036 23037 23038 23039 23040 23041 23042 23043 23044 23045 23046 23047 23048 23049 23050 23051 23052 23053 23054 23055 23056 23057 23058 23059 23060 23061 23062 23063 23064 23065 23066 23067 23068 23069 23070 23071 23072 23073 23074 23075 23076 23077 23078 23079 23080 23081 23082 23083 23084 23085 23086 23087 23088 23089 23090 23091 23092 23093 23094 23095 23096 23097 23098 23099 23100 23101 23102 23103 23104 23105 23106 23107 23108 23109 23110 23111 23112 23113 23114 23115 23116 23117 23118 23119 23120 23121 23122 23123 23124 23125 23126 23127 23128 23129 23130 23131 23132 23133 23134 23135 23136 23137 23138 23139 23140 23141 23142 23143 23144 23145 23146 23147 23148 23149 23150 23151 23152 23153 23154 23155 23156 23157 23158 23159 23160 23161 23162 23163 23164 23165 23166 23167 23168 23169 23170 23171 23172 23173 23174 23175 23176 23177 23178 23179 23180 23181 23182 23183 23184 23185 23186 23187 23188 23189 23190 23191 23192 23193 23194 23195 23196 23197 23198 23199 23200 23201 23202 23203 23204 23205 23206 23207 23208 23209 23210 23211 23212 23213 23214 23215 23216 23217 23218 23219 23220 23221 23222 23223 23224 23225 23226 23227 23228 23229 23230 23231 23232 23233 23234 23235 23236 23237 23238 23239 23240 23241 23242 23243 23244 23245 23246 23247 23248 23249 23250 23251 23252 23253 23254 23255 23256 23257 23258 23259 23260 23261 23262 23263 23264 23265 23266 23267 23268 23269 23270 23271 23272 23273 23274 23275 23276 23277 23278 23279 23280 23281 23282 23283 23284 23285 23286 23287 23288 23289 23290 23291 23292 23293 23294 23295 23296 23297 23298 23299 23300 23301 23302 23303 23304 23305 23306 23307 23308 23309 23310 23311 23312 23313 23314 23315 23316 23317 23318 23319 23320 23321 23322 23323 23324 23325 23326 23327 23328 23329 23330 23331 23332 23333 23334 23335 23336 23337 23338 23339 23340 23341 23342 23343 23344 23345 23346 23347 23348 23349 23350 23351 23352 23353 23354 23355 23356 23357 23358 23359 23360 23361 23362 23363 23364 23365 23366 23367 23368 23369 23370 23371 23372 23373 23374 23375 23376 23377 23378 23379 23380 23381 23382 23383 23384 23385 23386 23387 23388 23389 23390 23391 23392 23393 23394 23395 23396 23397 23398 23399 23400 23401 23402 23403 23404 23405 23406 23407 23408 23409 23410 23411 23412 23413 23414 23415 23416 23417 23418 23419 23420 23421 23422 23423 23424 23425 23426 23427 23428 23429 23430 23431 23432 23433 23434 23435 23436 23437 23438 23439 23440 23441 23442 23443 23444 23445 23446 23447 23448 23449 23450 23451 23452 23453 23454 23455 23456 23457 23458 23459 23460 23461 23462 23463 23464 23465 23466 23467 23468 23469 23470 23471 23472 23473 23474 23475 23476 23477 23478 23479 23480 23481 23482 23483 23484 23485 23486 23487 23488 23489 23490 23491 23492 23493 23494 23495 23496 23497 23498 23499 23500 23501 23502 23503 23504 23505 23506 23507 23508 23509 23510 23511 23512 23513 23514 23515 23516 23517 23518 23519 23520 23521 23522 23523 23524 23525 23526 23527 23528 23529 23530 23531 23532 23533 23534 23535 23536 23537 23538 23539 23540 23541 23542 23543 23544 23545 23546 23547 23548 23549 23550 23551 23552 23553 23554 23555 23556 23557 23558 23559 23560 23561 23562 23563 23564 23565 23566 23567 23568 23569 23570 23571 23572 23573 23574 23575 23576 23577 23578 23579 23580 23581 23582 23583 23584 23585 23586 23587 23588 23589 23590 23591 23592 23593 23594 23595 23596 23597 23598 23599 23600 23601 23602 23603 23604 23605 23606 23607 23608 23609 23610 23611 23612 23613 23614 23615 23616 23617 23618 23619 23620 23621 23622 23623 23624 23625 23626 23627 23628 23629 23630 23631 23632 23633 23634 23635 23636 23637 23638 23639 23640 23641 23642 23643 23644 23645 23646 23647 23648 23649 23650 23651 23652 23653 23654 23655 23656 23657 23658 23659 23660 23661 23662 23663 23664 23665 23666 23667 23668 23669 23670 23671 23672 23673 23674 23675 23676 23677 23678 23679 23680 23681 23682 23683 23684 23685 23686 23687 23688 23689 23690 23691 23692 23693 23694 23695 23696 23697 23698 23699 23700 23701 23702 23703 23704 23705 23706 23707 23708 23709 23710 23711 23712 23713 23714 23715 23716 23717 23718 23719 23720 23721 23722 23723 23724 23725 23726 23727 23728 23729 23730 23731 23732 23733 23734 23735 23736 23737 23738 23739 23740 23741 23742 23743 23744 23745 23746 23747 23748 23749 23750 23751 23752 23753 23754 23755 23756 23757 23758 23759 23760 23761 23762 23763 23764 23765 23766 23767 23768 23769 23770 23771 23772 23773 23774 23775 23776 23777 23778 23779 23780 23781 23782 23783 23784 23785 23786 23787 23788 23789 23790 23791 23792 23793 23794 23795 23796 23797 23798 23799 23800 23801 23802 23803 23804 23805 23806 23807 23808 23809 23810 23811 23812 23813 23814 23815 23816 23817 23818 23819 23820 23821 23822 23823 23824 23825 23826 23827 23828 23829 23830 23831 23832 23833 23834 23835 23836 23837 23838 23839 23840 23841 23842 23843 23844 23845 23846 23847 23848 23849 23850 23851 23852 23853 23854 23855 23856 23857 23858 23859 23860 23861 23862 23863 23864 23865 23866 23867 23868 23869 23870 23871 23872 23873 23874 23875 23876 23877 23878 23879 23880 23881 23882 23883 23884 23885 23886 23887 23888 23889 23890 23891 23892 23893 23894 23895 23896 23897 23898 23899 23900 23901 23902 23903 23904 23905 23906 23907 23908 23909 23910 23911 23912 23913 23914 23915 23916 23917 23918 23919 23920 23921 23922 23923 23924 23925 23926 23927 23928 23929 23930 23931 23932 23933 23934 23935 23936 23937 23938 23939 23940 23941 23942 23943 23944 23945 23946 23947 23948 23949 23950 23951 23952 23953 23954 23955 23956 23957 23958 23959 23960 23961 23962 23963 23964 23965 23966 23967 23968 23969 23970 23971 23972 23973 23974 23975 23976 23977 23978 23979 23980 23981 23982 23983 23984 23985 23986 23987 23988 23989 23990 23991 23992 23993 23994 23995 23996 23997 23998 23999 24000 24001 24002 24003 24004 24005 24006 24007 24008 24009 24010 24011 24012 24013 24014 24015 24016 24017 24018 24019 24020 24021 24022 24023 24024 24025 24026 24027 24028 24029 24030 24031 24032 24033 24034 24035 24036 24037 24038 24039 24040 24041 24042 24043 24044 24045 24046 24047 24048 24049 24050 24051 24052 24053 24054 24055 24056 24057 24058 24059 24060 24061 24062 24063 24064 24065 24066 24067 24068 24069 24070 24071 24072 24073 24074 24075 24076 24077 24078 24079 24080 24081 24082 24083 24084 24085 24086 24087 24088 24089 24090 24091 24092 24093 24094 24095 24096 24097 24098 24099 24100 24101 24102 24103 24104 24105 24106 24107 24108 24109 24110 24111 24112 24113 24114 24115 24116 24117 24118 24119 24120 24121 24122 24123 24124 24125 24126 24127 24128 24129 24130 24131 24132 24133 24134 24135 24136 24137 24138 24139 24140 24141 24142 24143 24144 24145 24146 24147 24148 24149 24150 24151 24152 24153 24154 24155 24156 24157 24158 24159 24160 24161 24162 24163 24164 24165 24166 24167 24168 24169 24170 24171 24172 24173 24174 24175 24176 24177 24178 24179 24180 24181 24182 24183 24184 24185 24186 24187 24188 24189 24190 24191 24192 24193 24194 24195 24196 24197 24198 24199 24200 24201 24202 24203 24204 24205 24206 24207 24208 24209 24210 24211 24212 24213 24214 24215 24216 24217 24218 24219 24220 24221 24222 24223 24224 24225 24226 24227 24228 24229 24230 24231 24232 24233 24234 24235 24236 24237 24238 24239 24240 24241 24242 24243 24244 24245 24246 24247 24248 24249 24250 24251 24252 24253 24254 24255 24256 24257 24258 24259 24260 24261 24262 24263 24264 24265 24266 24267 24268 24269 24270 24271 24272 24273 24274 24275 24276 24277 24278 24279 24280 24281 24282 24283 24284 24285 24286 24287 24288 24289 24290 24291 24292 24293 24294 24295 24296 24297 24298 24299 24300 24301 24302 24303 24304 24305 24306 24307 24308 24309 24310 24311 24312 24313 24314 24315 24316 24317 24318 24319 24320 24321 24322 24323 24324 24325 24326 24327 24328 24329 24330 24331 24332 24333 24334 24335 24336 24337 24338 24339 24340 24341 24342 24343 24344 24345 24346 24347 24348 24349 24350 24351 24352 24353 24354 24355 24356 24357 24358 24359 24360 24361 24362 24363 24364 24365 24366 24367 24368 24369 24370 24371 24372 24373 24374 24375 24376 24377 24378 24379 24380 24381 24382 24383 24384 24385 24386 24387 24388 24389 24390 24391 24392 24393 24394 24395 24396 24397 24398 24399 24400 24401 24402 24403 24404 24405 24406 24407 24408 24409 24410 24411 24412 24413 24414 24415 24416 24417 24418 24419 24420 24421 24422 24423 24424 24425 24426 24427 24428 24429 24430 24431 24432 24433 24434 24435 24436 24437 24438 24439 24440 24441 24442 24443 24444 24445 24446 24447 24448 24449 24450 24451 24452 24453 24454 24455 24456 24457 24458 24459 24460 24461 24462 24463 24464 24465 24466 24467 24468 24469 24470 24471 24472 24473 24474 24475 24476 24477 24478 24479 24480 24481 24482 24483 24484 24485 24486 24487 24488 24489 24490 24491 24492 24493 24494 24495 24496 24497 24498 24499 24500 24501 24502 24503 24504 24505 24506 24507 24508 24509 24510 24511 24512 24513 24514 24515 24516 24517 24518 24519 24520 24521 24522 24523 24524 24525 24526 24527 24528 24529 24530 24531 24532 24533 24534 24535 24536 24537 24538 24539 24540 24541 24542 24543 24544 24545 24546 24547 24548 24549 24550 24551 24552 24553 24554 24555 24556 24557 24558 24559 24560 24561 24562 24563 24564 24565 24566 24567 24568 24569 24570 24571 24572 24573 24574 24575 24576 24577 24578 24579 24580 24581 24582 24583 24584 24585 24586 24587 24588 24589 24590 24591 24592 24593 24594 24595 24596 24597 24598 24599 24600 24601 24602 24603 24604 24605 24606 24607 24608 24609 24610 24611 24612 24613 24614 24615 24616 24617 24618 24619 24620 24621 24622 24623 24624 24625 24626 24627 24628 24629 24630 24631 24632 24633 24634 24635 24636 24637 24638 24639 24640 24641 24642 24643 24644 24645 24646 24647 24648 24649 24650 24651 24652 24653 24654 24655 24656 24657 24658 24659 24660 24661 24662 24663 24664 24665 24666 24667 24668 24669 24670 24671 24672 24673 24674 24675 24676 24677 24678 24679 24680 24681 24682 24683 24684 24685 24686 24687 24688 24689 24690 24691 24692 24693 24694 24695 24696 24697 24698 24699 24700 24701 24702 24703 24704 24705 24706 24707 24708 24709 24710 24711 24712 24713 24714 24715 24716 24717 24718 24719 24720 24721 24722 24723 24724 24725 24726 24727 24728 24729 24730 24731 24732 24733 24734 24735 24736 24737 24738 24739 24740 24741 24742 24743 24744 24745 24746 24747 24748 24749 24750 24751 24752 24753 24754 24755 24756 24757 24758 24759 24760 24761 24762 24763 24764 24765 24766 24767 24768 24769 24770 24771 24772 24773 24774 24775 24776 24777 24778 24779 24780 24781 24782 24783 24784 24785 24786 24787 24788 24789 24790 24791 24792 24793 24794 24795 24796 24797 24798 24799 24800 24801 24802 24803 24804 24805 24806 24807 24808 24809 24810 24811 24812 24813 24814 24815 24816 24817 24818 24819 24820 24821 24822 24823 24824 24825 24826 24827 24828 24829 24830 24831 24832 24833 24834 24835 24836 24837 24838 24839 24840 24841 24842 24843 24844 24845 24846 24847 24848 24849 24850 24851 24852 24853 24854 24855 24856 24857 24858 24859 24860 24861 24862 24863 24864 24865 24866 24867 24868 24869 24870 24871 24872 24873 24874 24875 24876 24877 24878 24879 24880 24881 24882 24883 24884 24885 24886 24887 24888 24889 24890 24891 24892 24893 24894 24895 24896 24897 24898 24899 24900 24901 24902 24903 24904 24905 24906 24907 24908 24909 24910 24911 24912 24913 24914 24915 24916 24917 24918 24919 24920 24921 24922 24923 24924 24925 24926 24927 24928 24929 24930 24931 24932 24933 24934 24935 24936 24937 24938 24939 24940 24941 24942 24943 24944 24945 24946 24947 24948 24949 24950 24951 24952 24953 24954 24955 24956 24957 24958 24959 24960 24961 24962 24963 24964 24965 24966 24967 24968 24969 24970 24971 24972 24973 24974 24975 24976 24977 24978 24979 24980 24981 24982 24983 24984 24985 24986 24987 24988 24989 24990 24991 24992 24993 24994 24995 24996 24997 24998 24999 25000 25001 25002 25003 25004 25005 25006 25007 25008 25009 25010 25011 25012 25013 25014 25015 25016 25017 25018 25019 25020 25021 25022 25023 25024 25025 25026 25027 25028 25029 25030 25031 25032 25033 25034 25035 25036 25037 25038 25039 25040 25041 25042 25043 25044 25045 25046 25047 25048 25049 25050 25051 25052 25053 25054 25055 25056 25057 25058 25059 25060 25061 25062 25063 25064 25065 25066 25067 25068 25069 25070 25071 25072 25073 25074 25075 25076 25077 25078 25079 25080 25081 25082 25083 25084 25085 25086 25087 25088 25089 25090 25091 25092 25093 25094 25095 25096 25097 25098 25099 25100 25101 25102 25103 25104 25105 25106 25107 25108 25109 25110 25111 25112 25113 25114 25115 25116 25117 25118 25119 25120 25121 25122 25123 25124 25125 25126 25127 25128 25129 25130 25131 25132 25133 25134 25135 25136 25137 25138 25139 25140 25141 25142 25143 25144 25145 25146 25147 25148 25149 25150 25151 25152 25153 25154 25155 25156 25157 25158 25159 25160 25161 25162 25163 25164 25165 25166 25167 25168 25169 25170 25171 25172 25173 25174 25175 25176 25177 25178 25179 25180 25181 25182 25183 25184 25185 25186 25187 25188 25189 25190 25191 25192 25193 25194 25195 25196 25197 25198 25199 25200 25201 25202 25203 25204 25205 25206 25207 25208 25209 25210 25211 25212 25213 25214 25215 25216 25217 25218 25219 25220 25221 25222 25223 25224 25225 25226 25227 25228 25229 25230 25231 25232 25233 25234 25235 25236 25237 25238 25239 25240 25241 25242 25243 25244 25245 25246 25247 25248 25249 25250 25251 25252 25253 25254 25255 25256 25257 25258 25259 25260 25261 25262 25263 25264 25265 25266 25267 25268 25269 25270 25271 25272 25273 25274 25275 25276 25277 25278 25279 25280 25281 25282 25283 25284 25285 25286 25287 25288 25289 25290 25291 25292 25293 25294 25295 25296 25297 25298 25299 25300 25301 25302 25303 25304 25305 25306 25307 25308 25309 25310 25311 25312 25313 25314 25315 25316 25317 25318 25319 25320 25321 25322 25323 25324 25325 25326 25327 25328 25329 25330 25331 25332 25333 25334 25335 25336 25337 25338 25339 25340 25341 25342 25343 25344 25345 25346 25347 25348 25349 25350 25351 25352 25353 25354 25355 25356 25357 25358 25359 25360 25361 25362 25363 25364 25365 25366 25367 25368 25369 25370 25371 25372 25373 25374 25375 25376 25377 25378 25379 25380 25381 25382 25383 25384 25385 25386 25387 25388 25389 25390 25391 25392 25393 25394 25395 25396 25397 25398 25399 25400 25401 25402 25403 25404 25405 25406 25407 25408 25409 25410 25411 25412 25413 25414 25415 25416 25417 25418 25419 25420 25421 25422 25423 25424 25425 25426 25427 25428 25429 25430 25431 25432 25433 25434 25435 25436 25437 25438 25439 25440 25441 25442 25443 25444 25445 25446 25447 25448 25449 25450 25451 25452 25453 25454 25455 25456 25457 25458 25459 25460 25461 25462 25463 25464 25465 25466 25467 25468 25469 25470 25471 25472 25473 25474 25475 25476 25477 25478 25479 25480 25481 25482 25483 25484 25485 25486 25487 25488 25489 25490 25491 25492 25493 25494 25495 25496 25497 25498 25499 25500 25501 25502 25503 25504 25505 25506 25507 25508 25509 25510 25511 25512 25513 25514 25515 25516 25517 25518 25519 25520 25521 25522 25523 25524 25525 25526 25527 25528 25529 25530 25531 25532 25533 25534 25535 25536 25537 25538 25539 25540 25541 25542 25543 25544 25545 25546 25547 25548 25549 25550 25551 25552 25553 25554 25555 25556 25557 25558 25559 25560 25561 25562 25563 25564 25565 25566 25567 25568 25569 25570 25571 25572 25573 25574 25575 25576 25577 25578 25579 25580 25581 25582 25583 25584 25585 25586 25587 25588 25589 25590 25591 25592 25593 25594 25595 25596 25597 25598 25599 25600 25601 25602 25603 25604 25605 25606 25607 25608 25609 25610 25611 25612 25613 25614 25615 25616 25617 25618 25619 25620 25621 25622 25623 25624 25625 25626 25627 25628 25629 25630 25631 25632 25633 25634 25635 25636 25637 25638 25639 25640 25641 25642 25643 25644 25645 25646 25647 25648 25649 25650 25651 25652 25653 25654 25655 25656 25657 25658 25659 25660 25661 25662 25663 25664 25665 25666 25667 25668 25669 25670 25671 25672 25673 25674 25675 25676 25677 25678 25679 25680 25681 25682 25683 25684 25685 25686 25687 25688 25689 25690 25691 25692 25693 25694 25695 25696 25697 25698 25699 25700 25701 25702 25703 25704 25705 25706 25707 25708 25709 25710 25711 25712 25713 25714 25715 25716 25717 25718 25719 25720 25721 25722 25723 25724 25725 25726 25727 25728 25729 25730 25731 25732 25733 25734 25735 25736 25737 25738 25739 25740 25741 25742 25743 25744 25745 25746 25747 25748 25749 25750 25751 25752 25753 25754 25755 25756 25757 25758 25759 25760 25761 25762 25763 25764 25765 25766 25767 25768 25769 25770 25771 25772 25773 25774 25775 25776 25777 25778 25779 25780 25781 25782 25783 25784 25785 25786 25787 25788 25789 25790 25791 25792 25793 25794 25795 25796 25797 25798 25799 25800 25801 25802 25803 25804 25805 25806 25807 25808 25809 25810 25811 25812 25813 25814 25815 25816 25817 25818 25819 25820 25821 25822 25823 25824 25825 25826 25827 25828 25829 25830 25831 25832 25833 25834 25835 25836 25837 25838 25839 25840 25841 25842 25843 25844 25845 25846 25847 25848 25849 25850 25851 25852 25853 25854 25855 25856 25857 25858 25859 25860 25861 25862 25863 25864 25865 25866 25867 25868 25869 25870 25871 25872 25873 25874 25875 25876 25877 25878 25879 25880 25881 25882 25883 25884 25885 25886 25887 25888 25889 25890 25891 25892 25893 25894 25895 25896 25897 25898 25899 25900 25901 25902 25903 25904 25905 25906 25907 25908 25909 25910 25911 25912 25913 25914 25915 25916 25917 25918 25919 25920 25921 25922 25923 25924 25925 25926 25927 25928 25929 25930 25931 25932 25933 25934 25935 25936 25937 25938 25939 25940 25941 25942 25943 25944 25945 25946 25947 25948 25949 25950 25951 25952 25953 25954 25955 25956 25957 25958 25959 25960 25961 25962 25963 25964 25965 25966 25967 25968 25969 25970 25971 25972 25973 25974 25975 25976 25977 25978 25979 25980 25981 25982 25983 25984 25985 25986 25987 25988 25989 25990 25991 25992 25993 25994 25995 25996 25997 25998 25999 26000 26001 26002 26003 26004 26005 26006 26007 26008 26009 26010 26011 26012 26013 26014 26015 26016 26017 26018 26019 26020 26021 26022 26023 26024 26025 26026 26027 26028 26029 26030 26031 26032 26033 26034 26035 26036 26037 26038 26039 26040 26041 26042 26043 26044 26045 26046 26047 26048 26049 26050 26051 26052 26053 26054 26055 26056 26057 26058 26059 26060 26061 26062 26063 26064 26065 26066 26067 26068 26069 26070 26071 26072 26073 26074 26075 26076 26077 26078 26079 26080 26081 26082 26083 26084 26085 26086 26087 26088 26089 26090 26091 26092 26093 26094 26095 26096 26097 26098 26099 26100 26101 26102 26103 26104 26105 26106 26107 26108 26109 26110 26111 26112 26113 26114 26115 26116 26117 26118 26119 26120 26121 26122 26123 26124 26125 26126 26127 26128 26129 26130 26131 26132 26133 26134 26135 26136 26137 26138 26139 26140 26141 26142 26143 26144 26145 26146 26147 26148 26149 26150 26151 26152 26153 26154 26155 26156 26157 26158 26159 26160 26161 26162 26163 26164 26165 26166 26167 26168 26169 26170 26171 26172 26173 26174 26175 26176 26177 26178 26179 26180 26181 26182 26183 26184 26185 26186 26187 26188 26189 26190 26191 26192 26193 26194 26195 26196 26197 26198 26199 26200 26201 26202 26203 26204 26205 26206 26207 26208 26209 26210 26211 26212 26213 26214 26215 26216 26217 26218 26219 26220 26221 26222 26223 26224 26225 26226 26227 26228 26229 26230 26231 26232 26233 26234 26235 26236 26237 26238 26239 26240 26241 26242 26243 26244 26245 26246 26247 26248 26249 26250 26251 26252 26253 26254 26255 26256 26257 26258 26259 26260 26261 26262 26263 26264 26265 26266 26267 26268 26269 26270 26271 26272 26273 26274 26275 26276 26277 26278 26279 26280 26281 26282 26283 26284 26285 26286 26287 26288 26289 26290 26291 26292 26293 26294 26295 26296 26297 26298 26299 26300 26301 26302 26303 26304 26305 26306 26307 26308 26309 26310 26311 26312 26313 26314 26315 26316 26317 26318 26319 26320 26321 26322 26323 26324 26325 26326 26327 26328 26329 26330 26331 26332 26333 26334 26335 26336 26337 26338 26339 26340 26341 26342 26343 26344 26345 26346 26347 26348 26349 26350 26351 26352 26353 26354 26355 26356 26357 26358 26359 26360 26361 26362 26363 26364 26365 26366 26367 26368 26369 26370 26371 26372 26373 26374 26375 26376 26377 26378 26379 26380 26381 26382 26383 26384 26385 26386 26387 26388 26389 26390 26391 26392 26393 26394 26395 26396 26397 26398 26399 26400 26401 26402 26403 26404 26405 26406 26407 26408 26409 26410 26411 26412 26413 26414 26415 26416 26417 26418 26419 26420 26421 26422 26423 26424 26425 26426 26427 26428 26429 26430 26431 26432 26433 26434 26435 26436 26437 26438 26439 26440 26441 26442 26443 26444 26445 26446 26447 26448 26449 26450 26451 26452 26453 26454 26455 26456 26457 26458 26459 26460 26461 26462 26463 26464 26465 26466 26467 26468 26469 26470 26471 26472 26473 26474 26475 26476 26477 26478 26479 26480 26481 26482 26483 26484 26485 26486 26487 26488 26489 26490 26491 26492 26493 26494 26495 26496 26497 26498 26499 26500 26501 26502 26503 26504 26505 26506 26507 26508 26509 26510 26511 26512 26513 26514 26515 26516 26517 26518 26519 26520 26521 26522 26523 26524 26525 26526 26527 26528 26529 26530 26531 26532 26533 26534 26535 26536 26537 26538 26539 26540 26541 26542 26543 26544 26545 26546 26547 26548 26549 26550 26551 26552 26553 26554 26555 26556 26557 26558 26559 26560 26561 26562 26563 26564 26565 26566 26567 26568 26569 26570 26571 26572 26573 26574 26575 26576 26577 26578 26579 26580 26581 26582 26583 26584 26585 26586 26587 26588 26589 26590 26591 26592 26593 26594 26595 26596 26597 26598 26599 26600 26601 26602 26603 26604 26605 26606 26607 26608 26609 26610 26611 26612 26613 26614 26615 26616 26617 26618 26619 26620 26621 26622 26623 26624 26625 26626 26627 26628 26629 26630 26631 26632 26633 26634 26635 26636 26637 26638 26639 26640 26641 26642 26643 26644 26645 26646 26647 26648 26649 26650 26651 26652 26653 26654 26655 26656 26657 26658 26659 26660 26661 26662 26663 26664 26665 26666 26667 26668 26669 26670 26671 26672 26673 26674 26675 26676 26677 26678 26679 26680 26681 26682 26683 26684 26685 26686 26687 26688 26689 26690 26691 26692 26693 26694 26695 26696 26697 26698 26699 26700 26701 26702 26703 26704 26705 26706 26707 26708 26709 26710 26711 26712 26713 26714 26715 26716 26717 26718 26719 26720 26721 26722 26723 26724 26725 26726 26727 26728 26729 26730 26731 26732 26733 26734 26735 26736 26737 26738 26739 26740 26741 26742 26743 26744 26745 26746 26747 26748 26749 26750 26751 26752 26753 26754 26755 26756 26757 26758 26759 26760 26761 26762 26763 26764 26765 26766 26767 26768 26769 26770 26771 26772 26773 26774 26775 26776 26777 26778 26779 26780 26781 26782 26783 26784 26785 26786 26787 26788 26789 26790 26791 26792 26793 26794 26795 26796 26797 26798 26799 26800 26801 26802 26803 26804 26805 26806 26807 26808 26809 26810 26811 26812 26813 26814 26815 26816 26817 26818 26819 26820 26821 26822 26823 26824 26825 26826 26827 26828 26829 26830 26831 26832 26833 26834 26835 26836 26837 26838 26839 26840 26841 26842 26843 26844 26845 26846 26847 26848 26849 26850 26851 26852 26853 26854 26855 26856 26857 26858 26859 26860 26861 26862 26863 26864 26865 26866 26867 26868 26869 26870 26871 26872 26873 26874 26875 26876 26877 26878 26879 26880 26881 26882 26883 26884 26885 26886 26887 26888 26889 26890 26891 26892 26893 26894 26895 26896 26897 26898 26899 26900 26901 26902 26903 26904 26905 26906 26907 26908 26909 26910 26911 26912 26913 26914 26915 26916 26917 26918 26919 26920 26921 26922 26923 26924 26925 26926 26927 26928 26929 26930 26931 26932 26933 26934 26935 26936 26937 26938 26939 26940 26941 26942 26943 26944 26945 26946 26947 26948 26949 26950 26951 26952 26953 26954 26955 26956 26957 26958 26959 26960 26961 26962 26963 26964 26965 26966 26967 26968 26969 26970 26971 26972 26973 26974 26975 26976 26977 26978 26979 26980 26981 26982 26983 26984 26985 26986 26987 26988 26989 26990 26991 26992 26993 26994 26995 26996 26997 26998 26999 27000 27001 27002 27003 27004 27005 27006 27007 27008 27009 27010 27011 27012 27013 27014 27015 27016 27017 27018 27019 27020 27021 27022 27023 27024 27025 27026 27027 27028 27029 27030 27031 27032 27033 27034 27035 27036 27037 27038 27039 27040 27041 27042 27043 27044 27045 27046 27047 27048 27049 27050 27051 27052 27053 27054 27055 27056 27057 27058 27059 27060 27061 27062 27063 27064 27065 27066 27067 27068 27069 27070 27071 27072 27073 27074 27075 27076 27077 27078 27079 27080 27081 27082 27083 27084 27085 27086 27087 27088 27089 27090 27091 27092 27093 27094 27095 27096 27097 27098 27099 27100 27101 27102 27103 27104 27105 27106 27107 27108 27109 27110 27111 27112 27113 27114 27115 27116 27117 27118 27119 27120 27121 27122 27123 27124 27125 27126 27127 27128 27129 27130 27131 27132 27133 27134 27135 27136 27137 27138 27139 27140 27141 27142 27143 27144 27145 27146 27147 27148 27149 27150 27151 27152 27153 27154 27155 27156 27157 27158 27159 27160 27161 27162 27163 27164 27165 27166 27167 27168 27169 27170 27171 27172 27173 27174 27175 27176 27177 27178 27179 27180 27181 27182 27183 27184 27185 27186 27187 27188 27189 27190 27191 27192 27193 27194 27195 27196 27197 27198 27199 27200 27201 27202 27203 27204 27205 27206 27207 27208 27209 27210 27211 27212 27213 27214 27215 27216 27217 27218 27219 27220 27221 27222 27223 27224 27225 27226 27227 27228 27229 27230 27231 27232 27233 27234 27235 27236 27237 27238 27239 27240 27241 27242 27243 27244 27245 27246 27247 27248 27249 27250 27251 27252 27253 27254 27255 27256 27257 27258 27259 27260 27261 27262 27263 27264 27265 27266 27267 27268 27269 27270 27271 27272 27273 27274 27275 27276 27277 27278 27279 27280 27281 27282 27283 27284 27285 27286 27287 27288 27289 27290 27291 27292 27293 27294 27295 27296 27297 27298 27299 27300 27301 27302 27303 27304 27305 27306 27307 27308 27309 27310 27311 27312 27313 27314 27315 27316 27317 27318 27319 27320 27321 27322 27323 27324 27325 27326 27327 27328 27329 27330 27331 27332 27333 27334 27335 27336 27337 27338 27339 27340 27341 27342 27343 27344 27345 27346 27347 27348 27349 27350 27351 27352 27353 27354 27355 27356 27357 27358 27359 27360 27361 27362 27363 27364 27365 27366 27367 27368 27369 27370 27371 27372 27373 27374 27375 27376 27377 27378 27379 27380 27381 27382 27383 27384 27385 27386 27387 27388 27389 27390 27391 27392 27393 27394 27395 27396 27397 27398 27399 27400 27401 27402 27403 27404 27405 27406 27407 27408 27409 27410 27411 27412 27413 27414 27415 27416 27417 27418 27419 27420 27421 27422 27423 27424 27425 27426 27427 27428 27429 27430 27431 27432 27433 27434 27435 27436 27437 27438 27439 27440 27441 27442 27443 27444 27445 27446 27447 27448 27449 27450 27451 27452 27453 27454 27455 27456 27457 27458 27459 27460 27461 27462 27463 27464 27465 27466 27467 27468 27469 27470 27471 27472 27473 27474 27475 27476 27477 27478 27479 27480 27481 27482 27483 27484 27485 27486 27487 27488 27489 27490 27491 27492 27493 27494 27495 27496 27497 27498 27499 27500 27501 27502 27503 27504 27505 27506 27507 27508 27509 27510 27511 27512 27513 27514 27515 27516 27517 27518 27519 27520 27521 27522 27523 27524 27525 27526 27527 27528 27529 27530 27531 27532 27533 27534 27535 27536 27537 27538 27539 27540 27541 27542 27543 27544 27545 27546 27547 27548 27549 27550 27551 27552 27553 27554 27555 27556 27557 27558 27559 27560 27561 27562 27563 27564 27565 27566 27567 27568 27569 27570 27571 27572 27573 27574 27575 27576 27577 27578 27579 27580 27581 27582 27583 27584 27585 27586 27587 27588 27589 27590 27591 27592 27593 27594 27595 27596 27597 27598 27599 27600 27601 27602 27603 27604 27605 27606 27607 27608 27609 27610 27611 27612 27613 27614 27615 27616 27617 27618 27619 27620 27621 27622 27623 27624 27625 27626 27627 27628 27629 27630 27631 27632 27633 27634 27635 27636 27637 27638 27639 27640 27641 27642 27643 27644 27645 27646 27647 27648 27649 27650 27651 27652 27653 27654 27655 27656 27657 27658 27659 27660 27661 27662 27663 27664 27665 27666 27667 27668 27669 27670 27671 27672 27673 27674 27675 27676 27677 27678 27679 27680 27681 27682 27683 27684 27685 27686 27687 27688 27689 27690 27691 27692 27693 27694 27695 27696 27697 27698 27699 27700 27701 27702 27703 27704 27705 27706 27707 27708 27709 27710 27711 27712 27713 27714 27715 27716 27717 27718 27719 27720 27721 27722 27723 27724 27725 27726 27727 27728 27729 27730 27731 27732 27733 27734 27735 27736 27737 27738 27739 27740 27741 27742 27743 27744 27745 27746 27747 27748 27749 27750 27751 27752 27753 27754 27755 27756 27757 27758 27759 27760 27761 27762 27763 27764 27765 27766 27767 27768 27769 27770 27771 27772 27773 27774 27775 27776 27777 27778 27779 27780 27781 27782 27783 27784 27785 27786 27787 27788 27789 27790 27791 27792 27793 27794 27795 27796 27797 27798 27799 27800 27801 27802 27803 27804 27805 27806 27807 27808 27809 27810 27811 27812 27813 27814 27815 27816 27817 27818 27819 27820 27821 27822 27823 27824 27825 27826 27827 27828 27829 27830 27831 27832 27833 27834 27835 27836 27837 27838 27839 27840 27841 27842 27843 27844 27845 27846 27847 27848 27849 27850 27851 27852 27853 27854 27855 27856 27857 27858 27859 27860 27861 27862 27863 27864 27865 27866 27867 27868 27869 27870 27871 27872 27873 27874 27875 27876 27877 27878 27879 27880 27881 27882 27883 27884 27885 27886 27887 27888 27889 27890 27891 27892 27893 27894 27895 27896 27897 27898 27899 27900 27901 27902 27903 27904 27905 27906 27907 27908 27909 27910 27911 27912 27913 27914 27915 27916 27917 27918 27919 27920 27921 27922 27923 27924 27925 27926 27927 27928 27929 27930 27931 27932 27933 27934 27935 27936 27937 27938 27939 27940 27941 27942 27943 27944 27945 27946 27947 27948 27949 27950 27951 27952 27953 27954 27955 27956 27957 27958 27959 27960 27961 27962 27963 27964 27965 27966 27967 27968 27969 27970 27971 27972 27973 27974 27975 27976 27977 27978 27979 27980 27981 27982 27983 27984 27985 27986 27987 27988 27989 27990 27991 27992 27993 27994 27995 27996 27997 27998 27999 28000 28001 28002 28003 28004 28005 28006 28007 28008 28009 28010 28011 28012 28013 28014 28015 28016 28017 28018 28019 28020 28021 28022 28023 28024 28025 28026 28027 28028 28029 28030 28031 28032 28033 28034 28035 28036 28037 28038 28039 28040 28041 28042 28043 28044 28045 28046 28047 28048 28049 28050 28051 28052 28053 28054 28055 28056 28057 28058 28059 28060 28061 28062 28063 28064 28065 28066 28067 28068 28069 28070 28071 28072 28073 28074 28075 28076 28077 28078 28079 28080 28081 28082 28083 28084 28085 28086 28087 28088 28089 28090 28091 28092 28093 28094 28095 28096 28097 28098 28099 28100 28101 28102 28103 28104 28105 28106 28107 28108 28109 28110 28111 28112 28113 28114 28115 28116 28117 28118 28119 28120 28121 28122 28123 28124 28125 28126 28127 28128 28129 28130 28131 28132 28133 28134 28135 28136 28137 28138 28139 28140 28141 28142 28143 28144 28145 28146 28147 28148 28149 28150 28151 28152 28153 28154 28155 28156 28157 28158 28159 28160 28161 28162 28163 28164 28165 28166 28167 28168 28169 28170 28171 28172 28173 28174 28175 28176 28177 28178 28179 28180 28181 28182 28183 28184 28185 28186 28187 28188 28189 28190 28191 28192 28193 28194 28195 28196 28197 28198 28199 28200 28201 28202 28203 28204 28205 28206 28207 28208 28209 28210 28211 28212 28213 28214 28215 28216 28217 28218 28219 28220 28221 28222 28223 28224 28225 28226 28227 28228 28229 28230 28231 28232 28233 28234 28235 28236 28237 28238 28239 28240 28241 28242 28243 28244 28245 28246 28247 28248 28249 28250 28251 28252 28253 28254 28255 28256 28257 28258 28259 28260 28261 28262 28263 28264 28265 28266 28267 28268 28269 28270 28271 28272 28273 28274 28275 28276 28277 28278 28279 28280 28281 28282 28283 28284 28285 28286 28287 28288 28289 28290 28291 28292 28293 28294 28295 28296 28297 28298 28299 28300 28301 28302 28303 28304 28305 28306 28307 28308 28309 28310 28311 28312 28313 28314 28315 28316 28317 28318 28319 28320 28321 28322 28323 28324 28325 28326 28327 28328 28329 28330 28331 28332 28333 28334 28335 28336 28337 28338 28339 28340 28341 28342 28343 28344 28345 28346 28347 28348 28349 28350 28351 28352 28353 28354 28355 28356 28357 28358 28359 28360 28361 28362 28363 28364 28365 28366 28367 28368 28369 28370 28371 28372 28373 28374 28375 28376 28377 28378 28379 28380 28381 28382 28383 28384 28385 28386 28387 28388 28389 28390 28391 28392 28393 28394 28395 28396 28397 28398 28399 28400 28401 28402 28403 28404 28405 28406 28407 28408 28409 28410 28411 28412 28413 28414 28415 28416 28417 28418 28419 28420 28421 28422 28423 28424 28425 28426 28427 28428 28429 28430 28431 28432 28433 28434 28435 28436 28437 28438 28439 28440 28441 28442 28443 28444 28445 28446 28447 28448 28449 28450 28451 28452 28453 28454 28455 28456 28457 28458 28459 28460 28461 28462 28463 28464 28465 28466 28467 28468 28469 28470 28471 28472 28473 28474 28475 28476 28477 28478 28479 28480 28481 28482 28483 28484 28485 28486 28487 28488 28489 28490 28491 28492 28493 28494 28495 28496 28497 28498 28499 28500 28501 28502 28503 28504 28505 28506 28507 28508 28509 28510 28511 28512 28513 28514 28515 28516 28517 28518 28519 28520 28521 28522 28523 28524 28525 28526 28527 28528 28529 28530 28531 28532 28533 28534 28535 28536 28537 28538 28539 28540 28541 28542 28543 28544 28545 28546 28547 28548 28549 28550 28551 28552 28553 28554 28555 28556 28557 28558 28559 28560 28561 28562 28563 28564 28565 28566 28567 28568 28569 28570 28571 28572 28573 28574 28575 28576 28577 28578 28579 28580 28581 28582 28583 28584 28585 28586 28587 28588 28589 28590 28591 28592 28593 28594 28595 28596 28597 28598 28599 28600 28601 28602 28603 28604 28605 28606 28607 28608 28609 28610 28611 28612 28613 28614 28615 28616 28617 28618 28619 28620 28621 28622 28623 28624 28625 28626 28627 28628 28629 28630 28631 28632 28633 28634 28635 28636 28637 28638 28639 28640 28641 28642 28643 28644 28645 28646 28647 28648 28649 28650 28651 28652 28653 28654 28655 28656 28657 28658 28659 28660 28661 28662 28663 28664 28665 28666 28667 28668 28669 28670 28671 28672 28673 28674 28675 28676 28677 28678 28679 28680 28681 28682 28683 28684 28685 28686 28687 28688 28689 28690 28691 28692 28693 28694 28695 28696 28697 28698 28699 28700 28701 28702 28703 28704 28705 28706 28707 28708 28709 28710 28711 28712 28713 28714 28715 28716 28717 28718 28719 28720 28721 28722 28723 28724 28725 28726 28727 28728 28729 28730 28731 28732 28733 28734 28735 28736 28737 28738 28739 28740 28741 28742 28743 28744 28745 28746 28747 28748 28749 28750 28751 28752 28753 28754 28755 28756 28757 28758 28759 28760 28761 28762 28763 28764 28765 28766 28767 28768 28769 28770 28771 28772 28773 28774 28775 28776 28777 28778 28779 28780 28781 28782 28783 28784 28785 28786 28787 28788 28789 28790 28791 28792 28793 28794 28795 28796 28797 28798 28799 28800 28801 28802 28803 28804 28805 28806 28807 28808 28809 28810 28811 28812 28813 28814 28815 28816 28817 28818 28819 28820 28821 28822 28823 28824 28825 28826 28827 28828 28829 28830 28831 28832 28833 28834 28835 28836 28837 28838 28839 28840 28841 28842 28843 28844 28845 28846 28847 28848 28849 28850 28851 28852 28853 28854 28855 28856 28857 28858 28859 28860 28861 28862 28863 28864 28865 28866 28867 28868 28869 28870 28871 28872 28873 28874 28875 28876 28877 28878 28879 28880 28881 28882 28883 28884 28885 28886 28887 28888 28889 28890 28891 28892 28893 28894 28895 28896 28897 28898 28899 28900 28901 28902 28903 28904 28905 28906 28907 28908 28909 28910 28911 28912 28913 28914 28915 28916 28917 28918 28919 28920 28921 28922 28923 28924 28925 28926 28927 28928 28929 28930 28931 28932 28933 28934 28935 28936 28937 28938 28939 28940 28941 28942 28943 28944 28945 28946 28947 28948 28949 28950 28951 28952 28953 28954 28955 28956 28957 28958 28959 28960 28961 28962 28963 28964 28965 28966 28967 28968 28969 28970 28971 28972 28973 28974 28975 28976 28977 28978 28979 28980 28981 28982 28983 28984 28985 28986 28987 28988 28989 28990 28991 28992 28993 28994 28995 28996 28997 28998 28999 29000 29001 29002 29003 29004 29005 29006 29007 29008 29009 29010 29011 29012 29013 29014 29015 29016 29017 29018 29019 29020 29021 29022 29023 29024 29025 29026 29027 29028 29029 29030 29031 29032 29033 29034 29035 29036 29037 29038 29039 29040 29041 29042 29043 29044 29045 29046 29047 29048 29049 29050 29051 29052 29053 29054 29055 29056 29057 29058 29059 29060 29061 29062 29063 29064 29065 29066 29067 29068 29069 29070 29071 29072 29073 29074 29075 29076 29077 29078 29079 29080 29081 29082 29083 29084 29085 29086 29087 29088 29089 29090 29091 29092 29093 29094 29095 29096 29097 29098 29099 29100 29101 29102 29103 29104 29105 29106 29107 29108 29109 29110 29111 29112 29113 29114 29115 29116 29117 29118 29119 29120 29121 29122 29123 29124 29125 29126 29127 29128 29129 29130 29131 29132 29133 29134 29135 29136 29137 29138 29139 29140 29141 29142 29143 29144 29145 29146 29147 29148 29149 29150 29151 29152 29153 29154 29155 29156 29157 29158 29159 29160 29161 29162 29163 29164 29165 29166 29167 29168 29169 29170 29171 29172 29173 29174 29175 29176 29177 29178 29179 29180 29181 29182 29183 29184 29185 29186 29187 29188 29189 29190 29191 29192 29193 29194 29195 29196 29197 29198 29199 29200 29201 29202 29203 29204 29205 29206 29207 29208 29209 29210 29211 29212 29213 29214 29215 29216 29217 29218 29219 29220 29221 29222 29223 29224 29225 29226 29227 29228 29229 29230 29231 29232 29233 29234 29235 29236 29237 29238 29239 29240 29241 29242 29243 29244 29245 29246 29247 29248 29249 29250 29251 29252 29253 29254 29255 29256 29257 29258 29259 29260 29261 29262 29263 29264 29265 29266 29267 29268 29269 29270 29271 29272 29273 29274 29275 29276 29277 29278 29279 29280 29281 29282 29283 29284 29285 29286 29287 29288 29289 29290 29291 29292 29293 29294 29295 29296 29297 29298 29299 29300 29301 29302 29303 29304 29305 29306 29307 29308 29309 29310 29311 29312 29313 29314 29315 29316 29317 29318 29319 29320 29321 29322 29323 29324 29325 29326 29327 29328 29329 29330 29331 29332 29333 29334 29335 29336 29337 29338 29339 29340 29341 29342 29343 29344 29345 29346 29347 29348 29349 29350 29351 29352 29353 29354 29355 29356 29357 29358 29359 29360 29361 29362 29363 29364 29365 29366 29367 29368 29369 29370 29371 29372 29373 29374 29375 29376 29377 29378 29379 29380 29381 29382 29383 29384 29385 29386 29387 29388 29389 29390 29391 29392 29393 29394 29395 29396 29397 29398 29399 29400 29401 29402 29403 29404 29405 29406 29407 29408 29409 29410 29411 29412 29413 29414 29415 29416 29417 29418 29419 29420 29421 29422 29423 29424 29425 29426 29427 29428 29429 29430 29431 29432 29433 29434 29435 29436 29437 29438 29439 29440 29441 29442 29443 29444 29445 29446 29447 29448 29449 29450 29451 29452 29453 29454 29455 29456 29457 29458 29459 29460 29461 29462 29463 29464 29465 29466 29467 29468 29469 29470 29471 29472 29473 29474 29475 29476 29477 29478 29479 29480 29481 29482 29483 29484 29485 29486 29487 29488 29489 29490 29491 29492 29493 29494 29495 29496 29497 29498 29499 29500 29501 29502 29503 29504 29505 29506 29507 29508 29509 29510 29511 29512 29513 29514 29515 29516 29517 29518 29519 29520 29521 29522 29523 29524 29525 29526 29527 29528 29529 29530 29531 29532 29533 29534 29535 29536 29537 29538 29539 29540 29541 29542 29543 29544 29545 29546 29547 29548 29549 29550 29551 29552 29553 29554 29555 29556 29557 29558 29559 29560 29561 29562 29563 29564 29565 29566 29567 29568 29569 29570 29571 29572 29573 29574 29575 29576 29577 29578 29579 29580 29581 29582 29583 29584 29585 29586 29587 29588 29589 29590 29591 29592 29593 29594 29595 29596 29597 29598 29599 29600 29601 29602 29603 29604 29605 29606 29607 29608 29609 29610 29611 29612 29613 29614 29615 29616 29617 29618 29619 29620 29621 29622 29623 29624 29625 29626 29627 29628 29629 29630 29631 29632 29633 29634 29635 29636 29637 29638 29639 29640 29641 29642 29643 29644 29645 29646 29647 29648 29649 29650 29651 29652 29653 29654 29655 29656 29657 29658 29659 29660 29661 29662 29663 29664 29665 29666 29667 29668 29669 29670 29671 29672 29673 29674 29675 29676 29677 29678 29679 29680 29681 29682 29683 29684 29685 29686 29687 29688 29689 29690 29691 29692 29693 29694 29695 29696 29697 29698 29699 29700 29701 29702 29703 29704 29705 29706 29707 29708 29709 29710 29711 29712 29713 29714 29715 29716 29717 29718 29719 29720 29721 29722 29723 29724 29725 29726 29727 29728 29729 29730 29731 29732 29733 29734 29735 29736 29737 29738 29739 29740 29741 29742 29743 29744 29745 29746 29747 29748 29749 29750 29751 29752 29753 29754 29755 29756 29757 29758 29759 29760 29761 29762 29763 29764 29765 29766 29767 29768 29769 29770 29771 29772 29773 29774 29775 29776 29777 29778 29779 29780 29781 29782 29783 29784 29785 29786 29787 29788 29789 29790 29791 29792 29793 29794 29795 29796 29797 29798 29799 29800 29801 29802 29803 29804 29805 29806 29807 29808 29809 29810 29811 29812 29813 29814 29815 29816 29817 29818 29819 29820 29821 29822 29823 29824 29825 29826 29827 29828 29829 29830 29831 29832 29833 29834 29835 29836 29837 29838 29839 29840 29841 29842 29843 29844 29845 29846 29847 29848 29849 29850 29851 29852 29853 29854 29855 29856 29857 29858 29859 29860 29861 29862 29863 29864 29865 29866 29867 29868 29869 29870 29871 29872 29873 29874 29875 29876 29877 29878 29879 29880 29881 29882 29883 29884 29885 29886 29887 29888 29889 29890 29891 29892 29893 29894 29895 29896 29897 29898 29899 29900 29901 29902 29903 29904 29905 29906 29907 29908 29909 29910 29911 29912 29913 29914 29915 29916 29917 29918 29919 29920 29921 29922 29923 29924 29925 29926 29927 29928 29929 29930 29931 29932 29933 29934 29935 29936 29937 29938 29939 29940 29941 29942 29943 29944 29945 29946 29947 29948 29949 29950 29951 29952 29953 29954 29955 29956 29957 29958 29959 29960 29961 29962 29963 29964 29965 29966 29967 29968 29969 29970 29971 29972 29973 29974 29975 29976 29977 29978 29979 29980 29981 29982 29983 29984 29985 29986 29987 29988 29989 29990 29991 29992 29993 29994 29995 29996 29997 29998 29999 30000 30001 30002 30003 30004 30005 30006 30007 30008 30009 30010 30011 30012 30013 30014 30015 30016 30017 30018 30019 30020 30021 30022 30023 30024 30025 30026 30027 30028 30029 30030 30031 30032 30033 30034 30035 30036 30037 30038 30039 30040 30041 30042 30043 30044 30045 30046 30047 30048 30049 30050 30051 30052 30053 30054 30055 30056 30057 30058 30059 30060 30061 30062 30063 30064 30065 30066 30067 30068 30069 30070 30071 30072 30073 30074 30075 30076 30077 30078 30079 30080 30081 30082 30083 30084 30085 30086 30087 30088 30089 30090 30091 30092 30093 30094 30095 30096 30097 30098 30099 30100 30101 30102 30103 30104 30105 30106 30107 30108 30109 30110 30111 30112 30113 30114 30115 30116 30117 30118 30119 30120 30121 30122 30123 30124 30125 30126 30127 30128 30129 30130 30131 30132 30133 30134 30135 30136 30137 30138 30139 30140 30141 30142 30143 30144 30145 30146 30147 30148 30149 30150 30151 30152 30153 30154 30155 30156 30157 30158 30159 30160 30161 30162 30163 30164 30165 30166 30167 30168 30169 30170 30171 30172 30173 30174 30175 30176 30177 30178 30179 30180 30181 30182 30183 30184 30185 30186 30187 30188 30189 30190 30191 30192 30193 30194 30195 30196 30197 30198 30199 30200 30201 30202 30203 30204 30205 30206 30207 30208 30209 30210 30211 30212 30213 30214 30215 30216 30217 30218 30219 30220 30221 30222 30223 30224 30225 30226 30227 30228 30229 30230 30231 30232 30233 30234 30235 30236 30237 30238 30239 30240 30241 30242 30243 30244 30245 30246 30247 30248 30249 30250 30251 30252 30253 30254 30255 30256 30257 30258 30259 30260 30261 30262 30263 30264 30265 30266 30267 30268 30269 30270 30271 30272 30273 30274 30275 30276 30277 30278 30279 30280 30281 30282 30283 30284 30285 30286 30287 30288 30289 30290 30291 30292 30293 30294 30295 30296 30297 30298 30299 30300 30301 30302 30303 30304 30305 30306 30307 30308 30309 30310 30311 30312 30313 30314 30315 30316 30317 30318 30319 30320 30321 30322 30323 30324 30325 30326 30327 30328 30329 30330 30331 30332 30333 30334 30335 30336 30337 30338 30339 30340 30341 30342 30343 30344 30345 30346 30347 30348 30349 30350 30351 30352 30353 30354 30355 30356 30357 30358 30359 30360 30361 30362 30363 30364 30365 30366 30367 30368 30369 30370 30371 30372 30373 30374 30375 30376 30377 30378 30379 30380 30381 30382 30383 30384 30385 30386 30387 30388 30389 30390 30391 30392 30393 30394 30395 30396 30397 30398 30399 30400 30401 30402 30403 30404 30405 30406 30407 30408 30409 30410 30411 30412 30413 30414 30415 30416 30417 30418 30419 30420 30421 30422 30423 30424 30425 30426 30427 30428 30429 30430 30431 30432 30433 30434 30435 30436 30437 30438 30439 30440 30441 30442 30443 30444 30445 30446 30447 30448 30449 30450 30451 30452 30453 30454 30455 30456 30457 30458 30459 30460 30461 30462 30463 30464 30465 30466 30467 30468 30469 30470 30471 30472 30473 30474 30475 30476 30477 30478 30479 30480 30481 30482 30483 30484 30485 30486 30487 30488 30489 30490 30491 30492 30493 30494 30495 30496 30497 30498 30499 30500 30501 30502 30503 30504 30505 30506 30507 30508 30509 30510 30511 30512 30513 30514 30515 30516 30517 30518 30519 30520 30521 30522 30523 30524 30525 30526 30527 30528 30529 30530 30531 30532 30533 30534 30535 30536 30537 30538 30539 30540 30541 30542 30543 30544 30545 30546 30547 30548 30549 30550 30551 30552 30553 30554 30555 30556 30557 30558 30559 30560 30561 30562 30563 30564 30565 30566 30567 30568 30569 30570 30571 30572 30573 30574 30575 30576 30577 30578 30579 30580 30581 30582 30583 30584 30585 30586 30587 30588 30589 30590 30591 30592 30593 30594 30595 30596 30597 30598 30599 30600 30601 30602 30603 30604 30605 30606 30607 30608 30609 30610 30611 30612 30613 30614 30615 30616 30617 30618 30619 30620 30621 30622 30623 30624 30625 30626 30627 30628 30629 30630 30631 30632 30633 30634 30635 30636 30637 30638 30639 30640 30641 30642 30643 30644 30645 30646 30647 30648 30649 30650 30651 30652 30653 30654 30655 30656 30657 30658 30659 30660 30661 30662 30663 30664 30665 30666 30667 30668 30669 30670 30671 30672 30673 30674 30675 30676 30677 30678 30679 30680 30681 30682 30683 30684 30685 30686 30687 30688 30689 30690 30691 30692 30693 30694 30695 30696 30697 30698 30699 30700 30701 30702 30703 30704 30705 30706 30707 30708 30709 30710 30711 30712 30713 30714 30715 30716 30717 30718 30719 30720 30721 30722 30723 30724 30725 30726 30727 30728 30729 30730 30731 30732 30733 30734 30735 30736 30737 30738 30739 30740 30741 30742 30743 30744 30745 30746 30747 30748 30749 30750 30751 30752 30753 30754 30755 30756 30757 30758 30759 30760 30761 30762 30763 30764 30765 30766 30767 30768 30769 30770 30771 30772 30773 30774 30775 30776 30777 30778 30779 30780 30781 30782 30783 30784 30785 30786 30787 30788 30789 30790 30791 30792 30793 30794 30795 30796 30797 30798 30799 30800 30801 30802 30803 30804 30805 30806 30807 30808 30809 30810 30811 30812 30813 30814 30815 30816 30817 30818 30819 30820 30821 30822 30823 30824 30825 30826 30827 30828 30829 30830 30831 30832 30833 30834 30835 30836 30837 30838 30839 30840 30841 30842 30843 30844 30845 30846 30847 30848 30849 30850 30851 30852 30853 30854 30855 30856 30857 30858 30859 30860 30861 30862 30863 30864 30865 30866 30867 30868 30869 30870 30871 30872 30873 30874 30875 30876 30877 30878 30879 30880 30881 30882 30883 30884 30885 30886 30887 30888 30889 30890 30891 30892 30893 30894 30895 30896 30897 30898 30899 30900 30901 30902 30903 30904 30905 30906 30907 30908 30909 30910 30911 30912 30913 30914 30915 30916 30917 30918 30919 30920 30921 30922 30923 30924 30925 30926 30927 30928 30929 30930 30931 30932 30933 30934 30935 30936 30937 30938 30939 30940 30941 30942 30943 30944 30945 30946 30947 30948 30949 30950 30951 30952 30953 30954 30955 30956 30957 30958 30959 30960 30961 30962 30963 30964 30965 30966 30967 30968 30969 30970 30971 30972 30973 30974 30975 30976 30977 30978 30979 30980 30981 30982 30983 30984 30985 30986 30987 30988 30989 30990 30991 30992 30993 30994 30995 30996 30997 30998 30999 31000 31001 31002 31003 31004 31005 31006 31007 31008 31009 31010 31011 31012 31013 31014 31015 31016 31017 31018 31019 31020 31021 31022 31023 31024 31025 31026 31027 31028 31029 31030 31031 31032 31033 31034 31035 31036 31037 31038 31039 31040 31041 31042 31043 31044 31045 31046 31047 31048 31049 31050 31051 31052 31053 31054 31055 31056 31057 31058 31059 31060 31061 31062 31063 31064 31065 31066 31067 31068 31069 31070 31071 31072 31073 31074 31075 31076 31077 31078 31079 31080 31081 31082 31083 31084 31085 31086 31087 31088 31089 31090 31091 31092 31093 31094 31095 31096 31097 31098 31099 31100 31101 31102 31103 31104 31105 31106 31107 31108 31109 31110 31111 31112 31113 31114 31115 31116 31117 31118 31119 31120 31121 31122 31123 31124 31125 31126 31127 31128 31129 31130 31131 31132 31133 31134 31135 31136 31137 31138 31139 31140 31141 31142 31143 31144 31145 31146 31147 31148 31149 31150 31151 31152 31153 31154 31155 31156 31157 31158 31159 31160 31161 31162 31163 31164 31165 31166 31167 31168 31169 31170 31171 31172 31173 31174 31175 31176 31177 31178 31179 31180 31181 31182 31183 31184 31185 31186 31187 31188 31189 31190 31191 31192 31193 31194 31195 31196 31197 31198 31199 31200 31201 31202 31203 31204 31205 31206 31207 31208 31209 31210 31211 31212 31213 31214 31215 31216 31217 31218 31219 31220 31221 31222 31223 31224 31225 31226 31227 31228 31229 31230 31231 31232 31233 31234 31235 31236 31237 31238 31239 31240 31241 31242 31243 31244 31245 31246 31247 31248 31249 31250 31251 31252 31253 31254 31255 31256 31257 31258 31259 31260 31261 31262 31263 31264 31265 31266 31267 31268 31269 31270 31271 31272 31273 31274 31275 31276 31277 31278 31279 31280 31281 31282 31283 31284 31285 31286 31287 31288 31289 31290 31291 31292 31293 31294 31295 31296 31297 31298 31299 31300 31301 31302 31303 31304 31305 31306 31307 31308 31309 31310 31311 31312 31313 31314 31315 31316 31317 31318 31319 31320 31321 31322 31323 31324 31325 31326 31327 31328 31329 31330 31331 31332 31333 31334 31335 31336 31337 31338 31339 31340 31341 31342 31343 31344 31345 31346 31347 31348 31349 31350 31351 31352 31353 31354 31355 31356 31357 31358 31359 31360 31361 31362 31363 31364 31365 31366 31367 31368 31369 31370 31371 31372 31373 31374 31375 31376 31377 31378 31379 31380 31381 31382 31383 31384 31385 31386 31387 31388 31389 31390 31391 31392 31393 31394 31395 31396 31397 31398 31399 31400 31401 31402 31403 31404 31405 31406 31407 31408 31409 31410 31411 31412 31413 31414 31415 31416 31417 31418 31419 31420 31421 31422 31423 31424 31425 31426 31427 31428 31429 31430 31431 31432 31433 31434 31435 31436 31437 31438 31439 31440 31441 31442 31443 31444 31445 31446 31447 31448 31449 31450 31451 31452 31453 31454 31455 31456 31457 31458 31459 31460 31461 31462 31463 31464 31465 31466 31467 31468 31469 31470 31471 31472 31473 31474 31475 31476 31477 31478 31479 31480 31481 31482 31483 31484 31485 31486 31487 31488 31489 31490 31491 31492 31493 31494 31495 31496 31497 31498 31499 31500 31501 31502 31503 31504 31505 31506 31507 31508 31509 31510 31511 31512 31513 31514 31515 31516 31517 31518 31519 31520 31521 31522 31523 31524 31525 31526 31527 31528 31529 31530 31531 31532 31533 31534 31535 31536 31537 31538 31539 31540 31541 31542 31543 31544 31545 31546 31547 31548 31549 31550 31551 31552 31553 31554 31555 31556 31557 31558 31559 31560 31561 31562 31563 31564 31565 31566 31567 31568 31569 31570 31571 31572 31573 31574 31575 31576 31577 31578 31579 31580 31581 31582 31583 31584 31585 31586 31587 31588 31589 31590 31591 31592 31593 31594 31595 31596 31597 31598 31599 31600 31601 31602 31603 31604 31605 31606 31607 31608 31609 31610 31611 31612 31613 31614 31615 31616 31617 31618 31619 31620 31621 31622 31623 31624 31625 31626 31627 31628 31629 31630 31631 31632 31633 31634 31635 31636 31637 31638 31639 31640 31641 31642 31643 31644 31645 31646 31647 31648 31649 31650 31651 31652 31653 31654 31655 31656 31657 31658 31659 31660 31661 31662 31663 31664 31665 31666 31667 31668 31669 31670 31671 31672 31673 31674 31675 31676 31677 31678 31679 31680 31681 31682 31683 31684 31685 31686 31687 31688 31689 31690 31691 31692 31693 31694 31695 31696 31697 31698 31699 31700 31701 31702 31703 31704 31705 31706 31707 31708 31709 31710 31711 31712 31713 31714 31715 31716 31717 31718 31719 31720 31721 31722 31723 31724 31725 31726 31727 31728 31729 31730 31731 31732 31733 31734 31735 31736 31737 31738 31739 31740 31741 31742 31743 31744 31745 31746 31747 31748 31749 31750 31751 31752 31753 31754 31755 31756 31757 31758 31759 31760 31761 31762 31763 31764 31765 31766 31767 31768 31769 31770 31771 31772 31773 31774 31775 31776 31777 31778 31779 31780 31781 31782 31783 31784 31785 31786 31787 31788 31789 31790 31791 31792 31793 31794 31795 31796 31797 31798 31799 31800 31801 31802 31803 31804 31805 31806 31807 31808 31809 31810 31811 31812 31813 31814 31815 31816 31817 31818 31819 31820 31821 31822 31823 31824 31825 31826 31827 31828 31829 31830 31831 31832 31833 31834 31835 31836 31837 31838 31839 31840 31841 31842 31843 31844 31845 31846 31847 31848 31849 31850 31851 31852 31853 31854 31855 31856 31857 31858 31859 31860 31861 31862 31863 31864 31865 31866 31867 31868 31869 31870 31871 31872 31873 31874 31875 31876 31877 31878 31879 31880 31881 31882 31883 31884 31885 31886 31887 31888 31889 31890 31891 31892 31893 31894 31895 31896 31897 
</DataArray>
<DataArray type="UInt32" Name="offsets" format="ascii">
3 6 9 12 15 17 20 23 26 29 32 35 38 40 43 46 49 52 54 57 60 62 65 68 71 74 76 79 82 85 88 90 93 96 99 102 105 108 111 114 117 120 123 126 129 131 134 137 139 142 145 148 151 154 156 159 162 165 168 171 174 177 179 182 185 188 191 193 196 199 202 205 208 211 214 217 220 222 225 228 230 233 236 238 241 244 247 250 252 255 258 261 264 267 270 273 275 277 279 282 285 287 290 293 296 299 302 304 307 310 313 316 319 322 325 328 331 334 337 340 343 345 348 351 354 356 359 362 365 368 371 374 376 379 382 385 388 391 394 397 400 403 406 409 412 415 418 421 424 427 430 433 436 439 442 445 448 451 453 456 459 462 464 467 470 472 475 478 481 484 487 490 493 496 499 502 505 507 510 513 516 519 522 525 528 531 533 536 539 542 545 548 551 554 557 559 562 565 568 571 574 577 580 583 586 588 591 594 597 600 603 606 609 612 615 618 621 624 627 630 633 636 639 642 645 648 651 654 657 659 662 665 668 670 673 675 678 680 683 686 688 691 694 697 699 702 704 707 709 712 714 716 719 721 724 727 729 732 734 737 740 743 745 748 750 752 755 758 760 763 766 769 771 774 776 778 780 783 785 788 791 794 796 799 801 803 805 808 811 813 815 818 821 824 827 829 832 834 837 840 842 845 848 851 853 856 858 860 862 865 868 871 873 876 878 880 882 884 887 890 893 895 897 900 903 905 907 909 912 914 917 920 923 926 928 931 934 937 940 943 946 949 951 954 957 960 963 966 969 971 973 976 979 982 984 987 990 993 995 998 1000 1003 1005 1007 1010 1013 1016 1019 1021 1024 1027 1029 1032 1035 1038 1041 1043 1046 1048 1051 1054 1057 1060 1063 1065 1067 1070 1073 1076 1079 1082 1085 1088 1091 1093 1096 1099 1102 1104 1107 1110 1112 1115 1117 1120 1123 1126 1129 1132 1135 1138 1141 1144 1147 1150 1152 1155 1157 1160 1162 1165 1168 1171 1173 1176 1178 1181 1183 1186 1189 1192 1195 1198 1201 1203 1206 1208 1211 1214 1217 1219 1222 1225 1228 1230 1233 1235 1237 1240 1243 1246 1249 1251 1254 1257 1260 1263 1265 1267 1270 1273 1275 1278 1280 1283 1285 1287 1290 1293 1296 1298 1301 1304 1307 1310 1312 1315 1318 1321 1324 1327 1330 1333 1336 1339 1342 1345 1347 1350 1353 1356 1359 1361 1364 1367 1370 1372 1375 1377 1379 1381 1384 1387 1390 1392 1394 1397 1399 1402 1405 1407 1410 1413 1416 1419 1421 1424 1427 1430 1433 1436 1439 1442 1445 1448 1451 1454 1456 1458 1461 1464 1466 1469 1472 1475 1477 1480 1483 1486 1489 1492 1495 1497 1500 1503 1506 1508 1511 1514 1517 1519 1522 1525 1528 1531 1534 1537 1540 1543 1546 1549 1552 1554 1557 1560 1563 1565 1568 1571 1574 1577 1580 1583 1586 1588 1591 1594 1597 1600 1603 1605 1608 1611 1614 1617 1620 1623 1626 1629 1632 1635 1638 1641 1644 1647 1650 1653 1656 1659 1662 1664 1667 1670 1673 1676 1678 1681 1684 1686 1689 1692 1695 1698 1701 1704 1707 1709 1712 1715 1718 1721 1724 1727 1730 1733 1735 1738 1740 1743 1746 1748 1751 1754 1757 1759 1762 1765 1767 1770 1773 1776 1778 1781 1783 1786 1789 1791 1794 1796 1799 1802 1805 1808 1811 1814 1817 1820 1823 1826 1829 1832 1835 1838 1841 1844 1847 1850 1853 1856 1859 1862 1864 1867 1869 1872 1874 1877 1880 1883 1886 1889 1892 1895 1898 1901 1904 1907 1910 1913 1916 1919 1921 1924 1927 1930 1933 1936 1939 1942 1945 1948 1950 1953 1956 1959 1962 1965 1968 1971 1974 1977 1980 1983 1986 1989 1992 1995 1998 2001 2004 2007 2010 2013 2016 2019 2022 2025 2028 2031 2034 2037 2039 2042 2045 2047 2050 2053 2056 2058 2060 2063 2065 2068 2071 2074 2077 2080 2082 2085 2088 2091 2094 2097 2099 2102 2105 2108 2111 2114 2117 2120 2123 2126 2129 2132 2135 2138 2141 2144 2147 2150 2153 2156 2159 2162 2165 2168 2171 2174 2177 2180 2183 2186 2189 2192 2195 2198 2201 2204 2207 2210 2213 2216 2219 2222 2225 2228 2231 2234 2237 2240 2243 2246 2248 2251 2254 2257 2260 2263 2266 2269 2272 2275 2278 2281 2284 2287 2290 2293 2295 2298 2301 2304 2307 2309 2312 2315 2318 2321 2324 2327 2330 2333 2336 2339 2342 2345 2348 2351 2354 2357 2360 2363 2366 2369 2372 2375 2378 2381 2384 2387 2390 2392 2395 2398 2400 2403 2405 2407 2409 2411 2414 2417 2419 2422 2425 2428 2431 2434 2437 2440 2443 2446 2449 2452 2455 2458 2461 2464 2467 2470 2472 2475 2478 2480 2483 2485 2488 2491 2494 2497 2499 2502 2504 2507 2510 2513 2516 2518 2521 2524 2527 2529 2532 2535 2538 2541 2544 2546 2549 2551 2554 2557 2559 2561 2564 2566 2569 2572 2575 2578 2581 2584 2587 2590 2593 2596 2599 2601 2604 2607 2610 2612 2615 2618 2621 2623 2626 2629 2631 2633 2635 2638 2641 2644 2647 2650 2653 2656 2659 2662 2665 2668 2670 2673 2676 2679 2682 2685 2688 2691 2694 2696 2698 2700 2703 2706 2709 2712 2715 2718 2721 2724 2726 2728 2731 2734 2737 2739 2742 2745 2747 2750 2753 2756 2759 2762 2765 2768 2771 2774 2777 2780 2782 2785 2788 2791 2794 2797 2800 2803 2806 2808 2811 2814 2817 2820 2823 2826 2829 2832 2835 2838 2840 2843 2845 2847 2849 2852 2855 2858 2861 2864 2867 2870 2872 2874 2877 2879 2882 2885 2888 2891 2894 2896 2899 2901 2903 2906 2909 2912 2914 2917 2919 2922 2925 2928 2931 2933 2936 2939 2942 2945 2948 2951 2954 2957 2960 2963 2966 2969 2972 2975 2978 2981 2984 2986 2989 2992 2995 2997 3000 3003 3006 3009 3012 3014 3017 3020 3023 3026 3029 3032 3034 3037 3039 3042 3045 3048 3051 3054 3057 3060 3063 3065 3068 3071 3074 3076 3079 3082 3085 3088 3091 3094 3097 3100 3103 3106 3109 3112 3115 3118 3121 3124 3127 3130 3133 3136 3139 3142 3145 3148 3151 3153 3155 3157 3160 3163 3166 3169 3171 3174 3177 3180 3183 3185 3188 3191 3194 3197 3200 3203 3206 3208 3211 3214 3217 3220 3223 3226 3229 3232 3234 3237 3240 3243 3246 3249 3252 3255 3258 3261 3264 3267 3270 3272 3275 3278 3281 3284 3287 3290 3292 3295 3298 3301 3304 3307 3310 3313 3316 3318 3321 3324 3327 3329 3332 3335 3338 3341 3344 3347 3350 3353 3356 3359 3362 3365 3367 3370 3373 3376 3379 3382 3385 3388 3391 3394 3397 3400 3403 3406 3409 3412 3415 3418 3421 3424 3427 3430 3433 3436 3439 3442 3445 3448 3451 3454 3457 3460 3463 3466 3469 3472 3475 3478 3481 3484 3487 3490 3493 3496 3499 3502 3505 3508 3510 3513 3516 3519 3522 3525 3528 3531 3534 3537 3540 3543 3546 3549 3552 3555 3558 3561 3564 3567 3570 3573 3576 3579 3582 3584 3587 3590 3593 3596 3599 3602 3605 3608 3611 3614 3616 3619 3622 3624 3627 3630 3633 3636 3639 3642 3645 3648 3651 3653 3656 3658 3661 3664 3667 3670 3672 3675 3678 3680 3683 3685 3688 3691 3694 3697 3700 3702 3705 3708 3711 3714 3717 3720 3723 3726 3728 3731 3734 3737 3740 3743 3746 3749 3752 3755 3758 3761 3764 3767 3770 3772 3775 3777 3779 3782 3785 3788 3791 3794 3796 3799 3802 3805 3808 3811 3814 3817 3820 3823 3826 3829 3832 3835 3838 3841 3843 3846 3849 3852 3855 3858 3861 3864 3867 3870 3873 3876 3879 3882 3885 3888 3891 3893 3896 3899 3902 3905 3908 3910 3912 3915 3918 3920 3923 3926 3929 3932 3935 3938 3941 3944 3947 3950 3952 3955 3958 3961 3964 3967 3970 3973 3976 3979 3981 3984 3986 3989 3992 3995 3998 4001 4003 4006 4009 4012 4015 4017 4020 4023 4026 4028 4031 4034 4037 4039 4042 4045 4047 4050 4053 4056 4059 4062 4065 4068 4071 4074 4077 4080 4083 4086 4089 4092 4095 4097 4100 4103 4106 4109 4112 4115 4118 4120 4123 4126 4129 4132 4135 4138 4141 4144 4147 4150 4153 4156 4159 4162 4165 4168 4171 4174 4177 4180 4183 4186 4189 4192 4195 4198 4201 4203 4206 4209 4212 4215 4217 4220 4223 4226 4228 4231 4234 4237 4240 4243 4246 4249 4252 4255 4257 4260 4262 4265 4268 4271 4274 4277 4280 4283 4286 4289 4292 4295 4298 4301 4304 4307 4310 4313 4316 4318 4320 4323 4326 4329 4331 4334 4337 4339 4342 4345 4347 4350 4353 4356 4358 4361 4364 4366 4369 4372 4375 4378 4381 4384 4387 4390 4393 4396 4399 4402 4405 4408 4411 4414 4417 4420 4423 4426 4428 4431 4433 4436 4439 4442 4445 4448 4451 4454 4457 4460 4463 4466 4468 4471 4473 4476 4479 4482 4484 4487 4490 4493 4496 4499 4501 4504 4507 4510 4513 4516 4519 4521 4524 4527 4530 4533 4536 4539 4542 4545 4548 4551 4554 4556 4559 4562 4565 4568 4571 4574 4577 4580 4582 4585 4588 4591 4593 4596 4599 4601 4604 4607 4610 4613 4616 4618 4621 4624 4627 4630 4633 4636 4639 4642 4645 4647 4650 4653 4655 4658 4660 4663 4665 4667 4669 4672 4674 4677 4680 4683 4686 4689 4692 4694 4697 4700 4703 4706 4709 4712 4714 4717 4720 4723 4726 4729 4732 4735 4737 4740 4743 4746 4749 4751 4754 4757 4760 4763 4766 4768 4771 4773 4776 4779 4782 4785 4788 4791 4794 4797 4800 4803 4805 4808 4811 4814 4817 4820 4823 4826 4828 4831 4834 4837 4840 4843 4846 4849 4851 4854 4856 4859 4862 4865 4868 4871 4874 4877 4880 4882 4885 4888 4891 4893 4895 4898 4901 4904 4907 4910 4912 4914 4917 4919 4922 4925 4927 4930 4933 4935 4938 4941 4944 4947 4950 4953 4956 4959 4961 4964 4967 4970 4973 4976 4978 4981 4984 4987 4990 4992 4995 4998 5000 5003 5006 5009 5012 5015 5018 5021 5024 5027 5030 5033 5036 5039 5042 5045 5048 5051 5054 5057 5060 5063 5066 5069 5072 5075 5078 5081 5084 5087 5090 5093 5096 5099 5102 5105 5108 5111 5114 5117 5120 5123 5125 5128 5131 5133 5136 5139 5142 5145 5148 5150 5153 5156 5159 5162 5164 5167 5170 5173 5176 5179 5182 5185 5188 5191 5194 5197 5200 5203 5206 5209 5212 5215 5218 5221 5224 5227 5230 5233 5236 5238 5241 5244 5247 5249 5252 5255 5258 5261 5264 5267 5269 5272 5275 5278 5281 5284 5287 5290 5293 5296 5299 5302 5304 5307 5309 5311 5314 5317 5319 5322 5325 5328 5331 5334 5337 5340 5343 5346 5349 5352 5354 5357 5360 5362 5365 5368 5371 5374 5377 5380 5383 5386 5389 5392 5395 5398 5401 5404 5407 5409 5412 5415 5418 5421 5424 5427 5430 5432 5435 5437 5440 5443 5446 5449 5451 5454 5456 5459 5462 5465 5468 5471 5474 5477 5480 5483 5485 5488 5491 5494 5497 5500 5503 5506 5509 5512 5515 5518 5521 5524 5527 5530 5533 5536 5538 5541 5544 5547 5550 5553 5556 5559 5562 5565 5568 5571 5574 5577 5580 5583 5586 5589 5592 5595 5598 5601 5604 5607 5610 5613 5615 5617 5620 5623 5626 5629 5632 5635 5638 5641 5644 5647 5650 5652 5655 5658 5661 5664 5666 5669 5672 5675 5678 5680 5683 5686 5689 5692 5695 5698 5701 5704 5706 5709 5712 5715 5718 5721 5724 5727 5730 5733 5735 5738 5741 5744 5747 5750 5753 5756 5759 5762 5765 5768 5771 5774 5777 5780 5783 5786 5789 5792 5795 5797 5800 5803 5806 5809 5812 5815 5818 5821 5824 5827 5830 5833 5836 5839 5841 5844 5846 5849 5852 5855 5858 5861 5864 5867 5870 5872 5875 5878 5880 5883 5886 5889 5892 5895 5898 5901 5904 5907 5910 5913 5916 5919 5922 5925 5928 5931 5934 5937 5940 5943 5946 5949 5952 5955 5958 5961 5964 5967 5970 5973 5976 5979 5982 5985 5988 5990 5993 5996 5998 6001 6004 6007 6010 6012 6015 6017 6020 6023 6025 6028 6030 6033 6036 6039 6042 6045 6047 6050 6053 6056 6059 6062 6065 6068 6071 6074 6077 6080 6083 6085 6088 6091 6094 6096 6099 6102 6105 6108 6111 6114 6117 6120 6123 6125 6128 6131 6134 6137 6139 6141 6144 6147 6150 6153 6156 6159 6162 6165 6167 6170 6173 6176 6179 6182 6184 6187 6190 6193 6195 6198 6201 6204 6206 6209 6212 6215 6218 6220 6223 6226 6229 6232 6235 6238 6241 6244 6247 6250 6253 6256 6259 6262 6264 6267 6270 6273 6276 6279 6282 6284 6287 6289 6291 6294 6296 6299 6301 6304 6307 6310 6313 6315 6318 6321 6324 6327 6329 6332 6335 6338 6341 6344 6347 6350 6353 6356 6358 6361 6364 6367 6370 6373 6376 6379 6382 6385 6388 6391 6394 6397 6400 6402 6405 6408 6411 6413 6416 6419 6422 6424 6427 6429 6432 6435 6438 6441 6444 6447 6450 6453 6456 6459 6462 6465 6468 6471 6474 6477 6479 6482 6485 6488 6491 6494 6497 6499 6502 6505 6508 6511 6514 6517 6520 6523 6526 6529 6532 6535 6538 6541 6544 6547 6550 6553 6555 6558 6561 6564 6567 6570 6573 6576 6579 6582 6585 6588 6591 6594 6597 6600 6603 6606 6609 6612 6615 6618 6621 6624 6627 6630 6633 6636 6639 6642 6645 6648 6651 6654 6657 6659 6662 6665 6668 6671 6673 6676 6679 6682 6685 6688 6691 6694 6696 6699 6702 6705 6708 6711 6714 6717 6720 6723 6725 6728 6731 6733 6736 6739 6742 6745 6748 6750 6753 6756 6759 6761 6764 6767 6769 6772 6775 6778 6781 6784 6787 6790 6793 6796 6799 6802 6805 6808 6811 6814 6817 6820 6823 6826 6829 6831 6834 6837 6840 6843 6846 6849 6852 6855 6858 6861 6863 6865 6868 6870 6873 6876 6879 6882 6885 6887 6890 6893 6896 6899 6901 6904 6907 6910 6913 6916 6918 6921 6923 6926 6929 6931 6934 6937 6940 6943 6946 6949 6952 6955 6957 6960 6963 6966 6969 6972 6975 6977 6980 6983 6986 6989 6992 6995 6997 7000 7003 7006 7009 7011 7014 7017 7019 7022 7024 7027 7030 7032 7035 7038 7041 7044 7047 7050 7052 7055 7058 7061 7064 7066 7069 7072 7075 7078 7081 7084 7087 7090 7092 7094 7097 7100 7103 7106 7109 7112 7115 7118 7120 7123 7126 7129 7132 7135 7138 7140 7143 7146 7149 7152 7155 7158 7161 7163 7166 7169 7172 7174 7177 7180 7183 7186 7189 7192 7195 7198 7201 7204 7207 7210 7212 7215 7218 7221 7224 7226 7229 7232 7234 7237 7240 7243 7246 7248 7251 7254 7257 7259 7261 7264 7267 7270 7272 7275 7278 7281 7283 7286 7289 7292 7295 7298 7301 7304 7307 7310 7312 7315 7318 7321 7323 7326 7329 7332 7335 7338 7341 7344 7347 7350 7353 7356 7359 7361 7364 7366 7369 7372 7374 7377 7380 7382 7385 7388 7391 7394 7397 7400 7403 7405 7408 7411 7414 7417 7420 7422 7425 7427 7430 7433 7436 7438 7440 7443 7445 7447 7450 7452 7455 7458 7461 7464 7467 7470 7472 7475 7477 7480 7483 7486 7489 7492 7495 7498 7501 7504 7507 7510 7513 7516 7518 7521 7524 7526 7529 7531 7534 7537 7539 7542 7545 7548 7550 7552 7555 7558 7560 7563 7566 7569 7572 7575 7578 7581 7584 7587 7590 7593 7596 7599 7602 7605 7608 7611 7614 7617 7620 7623 7626 7629 7631 7633 7636 7638 7641 7643 7646 7649 7651 7653 7656 7659 7661 7664 7667 7669 7672 7675 7677 7680 7682 7685 7688 7691 7694 7696 7699 7702 7705 7708 7710 7713 7715 7717 7720 7722 7725 7728 7730 7732 7735 7738 7741 7743 7746 7749 7752 7755 7757 7759 7762 7765 7768 7771 7774 7776 7779 7782 7785 7788 7791 7794 7797 7800 7803 7806 7809 7811 7814 7816 7819 7821 7824 7827 7829 7832 7834 7837 7840 7843 7846 7849 7852 7855 7858 7860 7863 7866 7868 7871 7874 7877 7880 7882 7885 7888 7891 7894 7897 7900 7903 7906 7909 7912 7915 7918 7920 7923 7926 7929 7932 7935 7938 7941 7944 7947 7950 7953 7955 7958 7961 7964 7967 7970 7973 7975 7978 7980 7983 7986 7988 7991 7994 7997 8000 8003 8006 8009 8012 8015 8018 8021 8024 8027 8030 8033 8036 8039 8041 8043 8046 8049 8052 8054 8057 8060 8062 8065 8068 8071 8074 8077 8080 8083 8086 8089 8092 8095 8098 8101 8104 8107 8110 8113 8116 8119 8122 8125 8128 8131 8134 8137 8139 8141 8144 8147 8150 8153 8156 8159 8162 8165 8168 8171 8174 8176 8179 8182 8185 8188 8191 8194 8197 8200 8203 8206 8209 8212 8215 8218 8221 8224 8227 8230 8233 8236 8239 8242 8245 8248 8251 8254 8257 8260 8263 8266 8269 8272 8275 8277 8280 8283 8286 8289 8292 8294 8297 8300 8302 8305 8308 8310 8312 8315 8318 8321 8324 8327 8330 8333 8336 8339 8342 8345 8348 8351 8353 8356 8359 8361 8364 8367 8370 8373 8376 8379 8381 8384 8387 8389 8392 8395 8398 8401 8404 8407 8410 8413 8416 8419 8422 8425 8428 8430 8433 8436 8439 8442 8445 8448 8451 8453 8456 8459 8462 8465 8468 8471 8474 8477 8480 8483 8486 8489 8491 8494 8497 8499 8502 8505 8508 8511 8514 8517 8520 8523 8526 8529 8532 8535 8538 8541 8544 8547 8550 8553 8556 8559 8561 8564 8567 8569 8572 8574 8577 8580 8583 8585 8588 8591 8593 8596 8598 8601 8604 8607 8609 8612 8615 8618 8621 8623 8626 8629 8632 8635 8638 8641 8644 8646 8649 8652 8655 8657 8660 8663 8666 8669 8672 8675 8678 8681 8684 8687 8690 8693 8695 8698 8701 8704 8707 8710 8713 8716 8719 8721 8724 8727 8730 8733 8736 8739 8742 8745 8748 8751 8754 8756 8759 8762 8765 8768 8771 8774 8777 8780 8783 8786 8789 8792 8795 8798 8801 8804 8807 8810 8813 8815 8817 8820 8823 8826 8828 8831 8834 8837 8840 8843 8846 8849 8852 8855 8858 8861 8864 8866 8869 8872 8875 8878 8881 8884 8887 8890 8893 8895 8898 8901 8904 8907 8910 8913 8916 8919 8922 8925 8928 8931 8934 8937 8940 8943 8945 8948 8950 8953 8956 8959 8962 8965 8967 8970 8973 8976 8979 8981 8984 8987 8990 8992 8995 8998 9001 9003 9006 9009 9012 9015 9018 9021 9024 9027 9030 9032 9035 9038 9041 9043 9046 9049 9051 9054 9057 9060 9063 9066 9069 9071 9074 9077 9080 9083 9086 9089 9092 9095 9097 9100 9103 9106 9108 9111 9114 9117 9120 9123 9126 9129 9132 9135 9138 9141 9144 9147 9150 9153 9156 9159 9162 9165 9168 9171 9174 9177 9180 9183 9186 9189 9191 9194 9197 9200 9203 9206 9209 9212 9214 9217 9220 9223 9226 9229 9232 9235 9238 9241 9244 9247 9250 9253 9256 9259 9262 9265 9268 9271 9274 9277 9280 9283 9286 9289 9291 9294 9296 9299 9302 9305 9308 9311 9314 9316 9319 9322 9325 9327 9330 9333 9335 9338 9341 9344 9347 9350 9353 9356 9359 9362 9365 9368 9371 9373 9376 9379 9382 9385 9388 9390 9393 9396 9399 9402 9405 9408 9411 9414 9417 9420 9423 9426 9429 9431 9434 9437 9440 9442 9445 9448 9451 9454 9457 9460 9463 9466 9469 9472 9475 9478 9480 9482 9485 9488 9491 9494 9496 9499 9502 9505 9508 9511 9514 9517 9520 9523 9525 9527 9530 9533 9536 9539 9542 9544 9547 9550 9553 9556 9559 9561 9564 9567 9570 9573 9576 9578 9581 9583 9586 9589 9592 9595 9597 9600 9602 9605 9607 9609 9612 9615 9618 9621 9624 9627 9630 9632 9634 9637 9640 9643 9646 9649 9652 9654 9656 9658 9661 9663 9665 9668 9671 9674 9676 9679 9682 9685 9688 9691 9693 9695 9697 9700 9702 9705 9708 9711 9713 9716 9718 9720 9723 9726 9729 9732 9735 9738 9741 9743 9745 9748 9751 9753 9755 9757 9760 9763 9766 9769 9772 9775 9778 9781 9784 9787 9790 9793 9796 9799 9802 9805 9808 9811 9814 9817 9820 9823 9826 9829 9832 9835 9838 9841 9844 9847 9850 9853 9856 9859 9862 9865 9868 9871 9874 9877 9879 9882 9885 9888 9891 9894 9897 9900 9903 9906 9909 9911 9914 9917 9920 9923 9926 9929 9931 9934 9937 9939 9942 9945 9948 9951 9954 9957 9960 9963 9966 9969 9972 9975 9978 9980 9983 9985 9988 9991 9994 9997 9999 10002 10005 10008 10010 10013 10016 10018 10021 10024 10027 10029 10032 10035 10037 10040 10043 10046 10049 10052 10054 10057 10060 10063 10066 10069 10072 10075 10077 10080 10083 10086 10089 10092 10095 10098 10100 10103 10106 10108 10111 10114 10117 10120 10122 10125 10127 10130 10133 10136 10139 10142 10144 10147 10150 10153 10156 10158 10161 10164 10167 10170 10173 10176 10178 10180 10183 10186 10189 10192 10195 10197 10200 10203 10205 10208 10211 10214 10217 10220 10223 10226 10229 10232 10235 10237 10240 10243 10246 10249 10252 10255 10258 10261 10264 10267 10270 10273 10276 10279 10282 10285 10288 10291 10293 10296 10299 10302 10305 10308 10311 10313 10316 10319 10322 10325 10328 10331 10334 10336 10338 10341 10344 10347 10350 10352 10355 10358 10361 10364 10367 10370 10373 10375 10378 10381 10383 10386 10388 10390 10392 10395 10398 10401 10404 10407 10410 10412 10415 10418 10421 10424 10427 10429 10432 10435 10438 10441 10443 10446 10449 10452 10454 10457 10460 10463 10465 10468 10471 10474 10477 10480 10483 10486 10489 10492 10495 10498 10501 10504 10507 10510 10513 10516 10519 10522 10525 10528 10531 10534 10537 10540 10542 10545 10548 10551 10554 10557 10560 10563 10565 10568 10570 10573 10576 10579 10582 10585 10588 10590 10593 10596 10598 10601 10604 10607 10609 10612 10615 10617 10620 10623 10626 10629 10632 10634 10637 10640 10643 10645 10647 10650 10653 10656 10659 10662 10665 10668 10671 10674 10677 10680 10683 10685 10688 10691 10694 10697 10700 10703 10706 10709 10712 10714 10717 10720 10723 10726 10729 10731 10733 10736 10739 10742 10745 10748 10751 10754 10757 10760 10762 10765 10768 10771 10774 10777 10780 10783 10786 10788 10791 10794 10797 10800 10803 10806 10809 10812 10815 10818 10821 10824 10827 10830 10833 10836 10839 10842 10844 10847 10850 10853 10856 10858 10861 10863 10866 10868 10871 10874 10877 10880 10883 10886 10889 10892 10895 10898 10901 10904 10907 10910 10913 10916 10919 10921 10924 10927 10930 10933 10936 10938 10941 10944 10947 10949 10951 10954 10957 10960 10963 10966 10968 10971 10974 10977 10980 10982 10985 10988 10991 10994 10997 11000 11003 11006 11008 11011 11014 11017 11020 11023 11026 11029 11031 11034 11037 11040 11043 11046 11049 11052 11055 11058 11060 11063 11066 11069 11072 11075 11078 11081 11084 11087 11090 11093 11096 11099 11102 11105 11108 11111 11114 11116 11119 11122 11125 11128 11131 11134 11137 11140 11143 11146 11149 11152 11155 11157 11160 11163 11166 11169 11172 11175 11177 11180 11183 11185 11188 11191 11193 11196 11199 11202 11205 11208 11211 11214 11217 11220 11223 11226 11229 11232 11235 11238 11241 11244 11247 11250 11253 11256 11259 11262 11265 11268 11271 11273 11276 11278 11281 11283 11285 11288 11291 11294 11296 11299 11302 11305 11308 11311 11314 11317 11320 11323 11325 11327 11330 11332 11335 11338 11341 11344 11347 11350 11353 11356 11359 11362 11365 11368 11371 11374 11376 11379 11381 11383 11386 11388 11391 11394 11397 11400 11403 11406 11409 11412 11415 11417 11419 11422 11425 11428 11431 11434 11437 11440 11443 11446 11449 11452 11455 11458 11461 11464 11467 11470 11473 11476 11479 11482 11485 11487 11490 11493 11496 11499 11502 11504 11507 11510 11513 11516 11519 11521 11524 11527 11530 11532 11535 11538 11541 11544 11547 11550 11553 11556 11559 11561 11564 11567 11570 11573 11575 11578 11581 11584 11587 11590 11593 11595 11598 11601 11604 11607 11610 11613 11616 11618 11621 11624 11627 11630 11632 11635 11638 11641 11644 11647 11650 11653 11656 11659 11662 11664 11667 11670 11673 11676 11678 11681 11684 11687 11689 11692 11695 11698 11701 11704 11706 11709 11712 11715 11718 11721 11724 11727 11730 11733 11736 11739 11742 11745 11748 11750 11752 11755 11758 11760 11763 11766 11769 11772 11775 11778 11781 11783 11786 11789 11792 11795 11798 11801 11803 11806 11809 11812 11815 11818 11821 11824 11827 11830 11833 11836 11839 11842 11845 11848 11851 11854 11857 11860 11863 11866 11869 11872 11874 11877 11880 11883 11886 11889 11892 11895 11898 11900 11903 11906 11909 11912 11914 11917 11920 11923 11926 11929 11931 11934 11936 11939 11941 11944 11947 11950 11953 11956 11959 11962 11964 11967 11970 11973 11975 11978 11981 11984 11987 11990 11992 11995 11998 12001 12004 12007 12009 12012 12014 12017 12020 12022 12025 12027 12030 12033 12036 12039 12042 12044 12047 12050 12053 12055 12058 12061 12064 12067 12070 12073 12076 12079 12082 12085 12087 12090 12093 12096 12099 12102 12105 12108 12111 12114 12117 12120 12123 12126 12129 12132 12135 12138 12141 12144 12147 12150 12153 12155 12158 12161 12164 12167 12170 12173 12176 12179 12182 12185 12188 12191 12194 12197 12200 12203 12206 12209 12211 12214 12217 12220 12222 12225 12228 12231 12234 12237 12240 12242 12245 12248 12251 12253 12255 12258 12260 12263 12265 12267 12270 12272 12275 12278 12280 12283 12286 12288 12290 12293 12296 12299 12302 12305 12308 12311 12314 12316 12319 12321 12324 12327 12330 12333 12336 12339 12342 12345 12348 12351 12354 12357 12360 12363 12366 12369 12372 12375 12378 12381 12384 12387 12389 12392 12395 12398 12401 12404 12407 12410 12413 12415 12418 12421 12423 12426 12429 12431 12433 12436 12439 12441 12444 12447 12450 12453 12456 12459 12462 12465 12468 12471 12474 12477 12480 12483 12486 12489 12492 12495 12498 12501 12504 12507 12510 12513 12516 12519 12522 12525 12528 12531 12534 12537 12540 12543 12546 12549 12552 12555 12558 12560 12563 12565 12568 12571 12574 12577 12580 12583 12586 12589 12592 12595 12598 12601 12604 12607 12610 12613 12616 12619 12622 12625 12628 12631 12634 12637 12640 12643 12646 12649 12652 12655 12658 12661 12664 12667 12670 12673 12676 12679 12682 12685 12687 12690 12693 12695 12698 12701 12704 12707 12710 12712 12715 12717 12720 12723 12725 12728 12731 12734 12737 12740 12743 12745 12748 12751 12754 12757 12760 12763 12766 12769 12772 12775 12778 12780 12783 12786 12788 12790 12793 12795 12798 12801 12803 12806 12809 12812 12815 12817 12820 12823 12826 12829 12832 12835 12838 12841 12844 12846 12849 12851 12854 12857 12860 12863 12866 12869 12872 12874 12877 12879 12882 12885 12888 12891 12894 12897 12900 12903 12906 12908 12911 12913 12916 12919 12922 12925 12928 12931 12934 12937 12940 12943 12945 12948 12951 12954 12956 12959 12962 12964 12967 12970 12972 12975 12978 12981 12984 12986 12989 12992 12995 12997 13000 13003 13006 13009 13012 13015 13018 13021 13024 13027 13030 13033 13036 13039 13041 13044 13047 13050 13053 13056 13059 13061 13064 13066 13069 13071 13074 13077 13080 13082 13085 13088 13091 13094 13097 13100 13103 13106 13108 13111 13114 13117 13120 13123 13125 13128 13131 13133 13136 13139 13142 13145 13148 13151 13154 13157 13160 13162 13165 13168 13171 13173 13176 13179 13182 13185 13188 13191 13193 13196 13199 13202 13205 13208 13211 13214 13217 13220 13223 13226 13229 13232 13235 13238 13241 13244 13247 13250 13253 13256 13259 13262 13265 13268 13271 13274 13277 13280 13283 13286 13288 13291 13294 13297 13300 13303 13305 13308 13311 13313 13315 13318 13321 13324 13327 13329 13332 13335 13338 13341 13344 13346 13349 13352 13355 13358 13361 13364 13367 13370 13373 13376 13379 13382 13385 13388 13391 13394 13396 13399 13402 13405 13408 13411 13414 13417 13420 13422 13424 13427 13430 13433 13436 13439 13442 13444 13447 13450 13453 13456 13458 13461 13464 13467 13470 13473 13476 13479 13482 13485 13488 13491 13494 13497 13500 13503 13506 13509 13512 13515 13518 13521 13524 13527 13530 13532 13535 13538 13540 13543 13546 13549 13552 13555 13558 13561 13564 13567 13570 13573 13576 13579 13582 13585 13588 13591 13594 13597 13600 13603 13606 13609 13612 13615 13618 13621 13623 13626 13628 13631 13634 13637 13640 13643 13645 13648 13651 13654 13657 13660 13663 13666 13669 13672 13675 13678 13681 13684 13687 13690 13693 13696 13699 13702 13705 13707 13709 13712 13714 13717 13720 13723 13726 13729 13732 13735 13738 13741 13744 13747 13750 13753 13756 13759 13762 13764 13767 13770 13773 13775 13778 13781 13784 13787 13790 13793 13796 13799 13802 13805 13808 13811 13814 13816 13819 13822 13825 13828 13831 13834 13837 13840 13843 13846 13849 13852 13855 13858 13861 13864 13867 13870 13873 13876 13879 13882 13884 13887 13890 13893 13896 13899 13902 13905 13908 13911 13914 13917 13920 13923 13925 13928 13930 13933 13936 13938 13940 13943 13946 13949 13952 13955 13958 13961 13964 13967 13970 13973 13976 13979 13982 13985 13988 13991 13994 13997 14000 14002 14005 14008 14010 14013 14016 14019 14021 14024 14027 14030 14033 14036 14039 14041 14044 14047 14050 14052 14055 14058 14061 14064 14067 14070 14073 14076 14078 14081 14084 14086 14089 14092 14094 14097 14099 14102 14105 14108 14111 14113 14115 14118 14121 14123 14125 14128 14131 14133 14136 14139 14142 14145 14147 14150 14153 14155 14157 14160 14162 14165 14168 14171 14174 14177 14180 14183 14186 14189 14192 14195 14198 14201 14204 14207 14210 14213 14216 14219 14222 14224 14227 14230 14233 14236 14238 14241 14244 14247 14250 14252 14254 14257 14260 14263 14266 14269 14272 14275 14278 14281 14284 14287 14290 14292 14295 14298 14301 14303 14306 14309 14312 14315 14318 14321 14324 14326 14329 14332 14335 14337 14340 14343 14345 14347 14350 14353 14356 14358 14361 14364 14367 14369 14372 14375 14378 14381 14384 14387 14390 14393 14396 14399 14402 14405 14408 14411 14414 14417 14420 14423 14425 14428 14431 14434 14437 14440 14443 14446 14449 14452 14455 14458 14461 14464 14467 14470 14473 14476 14479 14481 14483 14486 14489 14492 14495 14498 14500 14502 14505 14507 14510 14513 14516 14519 14522 14525 14528 14531 14534 14536 14539 14542 14545 14547 14550 14553 14556 14559 14562 14565 14568 14571 14574 14577 14580 14583 14586 14589 14591 14594 14597 14600 14603 14606 14609 14612 14614 14617 14620 14622 14625 14628 14631 14634 14637 14640 14642 14645 14648 14651 14654 14656 14659 14662 14665 14668 14671 14674 14676 14679 14682 14685 14688 14691 14694 14697 14700 14702 14704 14707 14710 14713 14715 14717 14720 14723 14726 14729 14732 14734 14737 14740 14743 14746 14749 14752 14754 14757 14760 14763 14766 14768 14771 14774 14777 14780 14783 14785 14788 14791 14794 14797 14799 14802 14805 14808 14811 14814 14817 14820 14823 14826 14829 14832 14835 14838 14841 14844 14847 14850 14853 14856 14859 14862 14865 14868 14871 14874 14876 14879 14882 14885 14888 14890 14893 14895 14898 14900 14903 14906 14908 14911 14914 14916 14919 14922 14924 14927 14930 14933 14936 14939 14942 14944 14947 14950 14952 14955 14957 14959 14961 14964 14967 14969 14972 14974 14976 14979 14982 14985 14987 14990 14992 14995 14998 15001 15004 15007 15010 15012 15015 15018 15021 15023 15026 15029 15032 15035 15038 15041 15044 15046 15049 15052 15055 15057 15060 15062 15064 15067 15070 15073 15076 15079 15082 15085 15087 15090 15093 15096 15099 15102 15105 15108 15111 15113 15115 15118 15121 15124 15127 15129 15132 15135 15137 15140 15143 15146 15148 15151 15154 15157 15159 15161 15164 15167 15170 15173 15175 15178 15181 15184 15187 15190 15192 15194 15197 15200 15203 15206 15209 15212 15215 15218 15221 15224 15227 15230 15233 15236 15239 15242 15245 15248 15251 15254 15257 15260 15263 15266 15269 15272 15275 15278 15281 15284 15287 15289 15292 15295 15298 15300 15303 15306 15309 15312 15315 15318 15321 15324 15327 15330 15333 15336 15339 15342 15345 15347 15350 15352 15354 15357 15360 15362 15365 15368 15371 15374 15377 15380 15383 15386 15389 15392 15395 15398 15401 15404 15407 15410 15413 15416 15419 15422 15425 15428 15431 15433 15436 15439 15441 15443 15446 15449 15452 15455 15458 15461 15464 15466 15469 15472 15475 15477 15480 15483 15486 15489 15491 15493 15496 15499 15502 15505 15508 15511 15514 15516 15519 15522 15525 15528 15530 15533 15536 15539 15542 15544 15547 15550 15553 15556 15559 15562 15565 15568 15571 15574 15577 15580 15583 15586 15589 15592 15595 15598 15601 15603 15606 15609 15612 15615 15618 15621 15624 15627 15630 15633 15636 15639 15642 15645 15648 15651 15653 15656 15659 15662 15664 15667 15670 15673 15676 15679 15682 15685 15688 15691 15693 15696 15699 15702 15705 15708 15711 15714 15717 15720 15723 15726 15729 15732 15735 15738 15741 15744 15747 15750 15753 15756 15758 15761 15764 15767 15770 15773 15776 15779 15782 15785 15788 15791 15794 15797 15800 15803 15806 15809 15811 15814 15817 15820 15823 15826 15828 15831 15834 15837 15840 15843 15846 15849 15852 15855 15858 15861 15864 15867 15870 15873 15876 15879 15882 15885 15888 15891 15894 15897 15900 15903 15906 15909 15911 15914 15917 15919 15922 15925 15928 15930 15933 15936 15939 15942 15945 15948 15951 15954 15957 15960 15963 15966 15969 15972 15975 15977 15980 15982 15985 15988 15991 15994 15997 16000 16003 16006 16009 16011 16014 16017 16020 16023 16026 16029 16032 16035 16038 16040 16042 16045 16048 16051 16054 16057 16060 16063 16066 16069 16072 16075 16078 16081 16084 16087 16090 16093 16096 16099 16102 16105 16108 16111 16114 16117 16120 16123 16126 16129 16132 16135 16138 16141 16144 16147 16150 16153 16156 16159 16162 16165 16168 16171 16174 16177 16180 16183 16186 16189 16192 16195 16198 16201 16204 16207 16210 16213 16216 16219 16222 16225 16228 16231 16234 16237 16240 16243 16246 16249 16252 16255 16257 16260 16263 16266 16269 16272 16275 16277 16280 16283 16286 16289 16292 16295 16298 16301 16304 16306 16309 16311 16314 16317 16320 16323 16326 16329 16332 16335 16338 16341 16344 16347 16350 16353 16356 16359 16362 16365 16368 16371 16374 16377 16380 16383 16386 16389 16392 16395 16398 16401 16404 16407 16410 16413 16415 16418 16421 16424 16426 16428 16431 16434 16437 16440 16443 16446 16449 16452 16455 16458 16461 16464 16467 16470 16473 16476 16479 16482 16485 16488 16491 16494 16496 16498 16501 16504 16507 16510 16513 16516 16519 16522 16524 16527 16530 16533 16536 16539 16542 16544 16547 16550 16553 16556 16559 16561 16564 16567 16570 16573 16575 16578 16581 16584 16586 16589 16592 16595 16597 16600 16603 16605 16608 16611 16614 16617 16620 16623 16626 16629 16632 16635 16638 16641 16644 16646 16649 16652 16655 16658 16661 16664 16667 16670 16672 16675 16678 16681 16684 16687 16690 16693 16696 16699 16702 16705 16707 16710 16713 16716 16718 16721 16724 16727 16730 16732 16735 16738 16741 16744 16747 16750 16753 16756 16758 16761 16763 16766 16769 16771 16774 16777 16780 16783 16786 16788 16791 16794 16797 16800 16803 16806 16809 16812 16815 16818 16821 16824 16826 16829 16832 16835 16838 16841 16844 16847 16850 16853 16855 16858 16861 16864 16867 16870 16873 16875 16878 16881 16884 16887 16890 16893 16896 16898 16901 16904 16907 16910 16913 16915 16918 16921 16924 16927 16930 16933 16936 16939 16942 16945 16948 16951 16954 16957 16960 16963 16966 16969 16972 16975 16978 16981 16984 16987 16990 16993 16996 16999 17002 17005 17008 17011 17014 17017 17020 17023 17026 17029 17032 17035 17038 17041 17044 17047 17050 17053 17056 17058 17061 17063 17066 17069 17072 17075 17078 17081 17084 17087 17090 17093 17096 17099 17102 17105 17107 17110 17113 17116 17119 17122 17125 17128 17131 17134 17137 17140 17143 17146 17149 17152 17154 17157 17160 17162 17165 17167 17170 17173 17176 17179 17182 17184 17187 17190 17193 17196 17199 17202 17205 17208 17211 17214 17217 17220 17223 17226 17229 17232 17235 17238 17241 17244 17246 17249 17252 17255 17258 17261 17264 17267 17270 17273 17276 17279 17281 17284 17286 17289 17292 17294 17297 17299 17302 17305 17308 17311 17314 17317 17320 17322 17325 17327 17330 17333 17336 17339 17341 17344 17347 17350 17353 17355 17357 17360 17363 17365 17368 17371 17374 17377 17380 17383 17386 17389 17392 17395 17398 17401 17404 17407 17410 17413 17415 17418 17421 17424 17427 17430 17433 17436 17439 17442 17445 17448 17451 17454 17457 17459 17462 17464 17467 17470 17473 17476 17479 17482 17485 17487 17490 17492 17495 17498 17501 17504 17507 17510 17513 17516 17519 17521 17523 17526 17529 17532 17534 17537 17540 17543 17546 17548 17551 17553 17556 17559 17561 17564 17566 17568 17570 17573 17576 17578 17581 17584 17587 17589 17591 17593 17596 17599 17602 17605 17608 17611 17614 17617 17620 17623 17626 17628 17631 17634 17637 17640 17643 17646 17648 17651 17654 17657 17659 17662 17665 17668 17671 17674 17677 17680 17683 17685 17688 17691 17694 17696 17699 17702 17705 17708 17711 17714 17717 17720 17723 17726 17729 17732 17735 17738 17741 17744 17747 17750 17753 17756 17759 17762 17765 17768 17771 17774 17777 17780 17783 17786 17789 17792 17795 17798 17801 17804 17807 17810 17813 17816 17819 17822 17825 17828 17831 17834 17837 17840 17843 17846 17849 17852 17855 17858 17861 17864 17867 17870 17873 17876 17878 17881 17884 17887 17890 17893 17895 17898 17901 17904 17907 17909 17912 17915 17918 17920 17923 17926 17929 17932 17935 17938 17941 17944 17947 17950 17953 17956 17959 17962 17965 17968 17971 17974 17977 17980 17983 17986 17989 17992 17995 17998 18001 18004 18007 18010 18013 18016 18019 18022 18025 18028 18031 18034 18037 18040 18042 18045 18048 18050 18053 18056 18059 18062 18065 18068 18071 18073 18076 18079 18082 18085 18088 18091 18094 18097 18100 18103 18106 18108 18111 18114 18116 18119 18121 18124 18127 18130 18132 18135 18138 18141 18144 18147 18150 18153 18156 18158 18161 18164 18167 18170 18172 18175 18178 18181 18184 18186 18189 18191 18194 18197 18200 18203 18206 18209 18212 18215 18218 18221 18224 18227 18229 18232 18234 18237 18240 18243 18246 18249 18252 18255 18258 18261 18264 18267 18270 18273 18275 18278 18281 18284 18287 18290 18293 18296 18299 18302 18304 18307 18310 18313 18315 18318 18321 18324 18327 18330 18333 18336 18339 18342 18345 18348 18351 18354 18357 18360 18363 18366 18369 18372 18375 18378 18381 18384 18387 18390 18393 18396 18399 18402 18405 18408 18411 18414 18417 18420 18422 18425 18428 18430 18433 18436 18439 18442 18444 18447 18450 18453 18456 18459 18462 18465 18468 18471 18474 18477 18480 18483 18486 18489 18491 18494 18497 18500 18503 18506 18509 18512 18515 18518 18520 18523 18525 18528 18531 18534 18537 18540 18543 18546 18548 18551 18554 18557 18560 18563 18566 18569 18572 18575 18578 18581 18584 18587 18590 18592 18595 18598 18601 18604 18607 18610 18613 18616 18619 18622 18625 18627 18630 18633 18636 18639 18642 18645 18648 18651 18654 18657 18660 18663 18666 18669 18672 18675 18678 18681 18684 18687 18690 18693 18696 18698 18701 18703 18706 18709 18712 18715 18718 18721 18723 18726 18728 18731 18734 18737 18739 18742 18745 18748 18750 18753 18756 18759 18761 18764 18767 18769 18772 18775 18778 18781 18784 18787 18790 18792 18795 18798 18801 18804 18807 18810 18813 18815 18818 18821 18824 18827 18830 18833 18836 18839 18842 18845 18848 18851 18854 18856 18859 18862 18865 18868 18871 18874 18877 18880 18882 18885 18888 18891 18894 18897 18900 18903 18906 18909 18912 18915 18918 18921 18924 18927 18930 18933 18936 18939 18942 18944 18947 18950 18953 18956 18959 18962 18965 18968 18971 18974 18977 18980 18983 18986 18989 18992 18995 18998 19001 19004 19007 19010 19013 19016 19019 19022 19025 19028 19031 19034 19037 19040 19043 19046 19049 19052 19055 19058 19061 19064 19067 19070 19073 19076 19079 19082 19085 19088 19091 19094 19096 19099 19101 19104 19107 19110 19112 19115 19118 19120 19122 19125 19127 19130 19133 19136 19139 19142 19145 19148 19151 19154 19157 19160 19163 19166 19169 19172 19175 19178 19181 19184 19187 19190 19193 19196 19199 19202 19205 19208 19211 19214 19217 19220 19223 19226 19229 19232 19234 19237 19240 19243 19246 19248 19251 19254 19256 19259 19262 19265 19267 19270 19273 19276 19279 19281 19284 19286 19288 19291 19294 19297 19300 19302 19305 19308 19311 19313 19316 19319 19322 19324 19327 19330 19333 19336 19339 19342 19344 19347 19350 19353 19356 19359 19362 19365 19368 19371 19374 19377 19380 19383 19386 19389 19392 19395 19398 19401 19404 19406 19409 19412 19415 19418 19421 19424 19427 19430 19433 19436 19439 19442 19445 19448 19451 19454 19457 19460 19462 19465 19468 19470 19473 19476 19478 19481 19484 19487 19490 19493 19496 19499 19502 19505 19508 19511 19513 19516 19519 19522 19525 19527 19530 19533 19536 19539 19541 19544 19547 19550 19552 19555 19558 19561 19564 19567 19570 19573 19576 19579 19582 19585 19588 19591 19594 19597 19600 19603 19606 19609 19612 19615 19618 19621 19624 19627 19629 19632 19635 19638 19641 19644 19647 19650 19653 19655 19658 19661 19664 19666 19669 19672 19675 19678 19681 19684 19687 19690 19693 19696 19699 19702 19705 19708 19711 19714 19717 19720 19723 19726 19729 19732 19735 19738 19740 19743 19746 19749 19751 19754 19757 19760 19763 19766 19769 19772 19775 19777 19780 19783 19785 19788 19791 19794 19797 19799 19802 19805 19808 19811 19814 19817 19820 19822 19825 19827 19830 19833 19835 19838 19841 19843 19845 19848 19851 19854 19857 19860 19863 19866 19869 19872 19875 19878 19881 19884 19887 19890 19893 19896 19899 19902 19905 19908 19910 19913 19916 19919 19922 19924 19927 19930 19933 19936 19939 19942 19945 19948 19951 19954 19957 19960 19963 19965 19968 19971 19973 19976 19979 19982 19985 19988 19991 19994 19997 20000 20003 20006 20009 20012 20015 20018 20021 20024 20027 20030 20033 20036 20039 20042 20045 20048 20051 20054 20057 20060 20063 20066 20069 20072 20075 20078 20081 20084 20087 20090 20093 20096 20099 20102 20105 20108 20111 20114 20117 20120 20123 20126 20129 20132 20135 20138 20141 20144 20147 20150 20153 20156 20159 20162 20165 20168 20171 20174 20177 20180 20183 20186 20189 20192 20195 20198 20201 20204 20207 20210 20213 20216 20219 20222 20225 20228 20231 20234 20237 20240 20243 20246 20249 20252 20255 20258 20261 20264 20267 20270 20273 20276 20279 20282 20285 20288 20291 20294 20297 20300 20303 20306 20309 20312 20315 20318 20321 20324 20327 20330 20333 20336 20339 20342 20345 20348 20351 20354 20357 20359 20362 20365 20368 20371 20374 20377 20380 20382 20385 20388 20391 20394 20397 20400 20403 20406 20409 20411 20414 20416 20419 20422 20425 20427 20430 20433 20435 20438 20441 20444 20447 20450 20453 20456 20459 20462 20465 20468 20471 20474 20477 20480 20483 20486 20489 20492 20495 20498 20501 20504 20507 20510 20513 20516 20519 20522 20525 20528 20531 20534 20537 20540 20543 20546 20548 20551 20554 20556 20558 20561 20564 20566 20569 20572 20574 20577 20580 20583 20585 20588 20591 20594 20597 20600 20603 20606 20609 20612 20614 20617 20620 20623 20626 20629 20632 20634 20637 20640 20643 20646 20649 20652 20655 20658 20661 20664 20667 20670 20673 20676 20679 20682 20685 20688 20691 20694 20697 20700 20703 20706 20709 20712 20715 20718 20721 20724 20727 20729 20732 20735 20738 20741 20744 20747 20750 20753 20756 20759 20762 20765 20768 20771 20774 20777 20780 20783 20786 20789 20792 20795 20798 20801 20804 20807 20810 20813 20816 20819 20822 20825 20828 20831 20834 20837 20840 20843 20846 20849 20852 20855 20858 20861 20864 20867 20869 20872 20874 20877 20880 20883 20886 20888 20891 20894 20897 20900 20902 20905 20908 20911 20914 20916 20919 20922 20925 20928 20931 20934 20937 20940 20942 20945 20948 20950 20953 20955 20958 20961 20964 20967 20969 20972 20975 20977 20979 20982 20985 20988 20991 20994 20997 20999 21002 21005 21008 21011 21014 21017 21020 21023 21026 21029 21031 21033 21036 21039 21042 21045 21048 21050 21053 21056 21058 21061 21064 21067 21070 21072 21075 21078 21080 21083 21086 21089 21092 21095 21098 21101 21104 21107 21110 21113 21116 21119 21122 21125 21128 21131 21134 21137 21140 21143 21146 21149 21152 21155 21158 21161 21164 21167 21169 21172 21174 21177 21180 21183 21186 21189 21192 21195 21198 21201 21204 21207 21210 21213 21215 21218 21221 21224 21227 21229 21231 21234 21237 21240 21243 21246 21249 21252 21255 21258 21261 21264 21267 21270 21273 21276 21279 21282 21285 21288 21291 21294 21297 21300 21303 21306 21309 21312 21315 21318 21321 21324 21327 21330 21333 21336 21339 21342 21345 21348 21351 21354 21357 21359 21362 21365 21368 21370 21373 21376 21379 21382 21385 21388 21391 21394 21397 21400 21403 21406 21409 21412 21415 21418 21421 21424 21427 21430 21432 21435 21438 21440 21443 21446 21449 21452 21455 21458 21461 21464 21467 21469 21472 21475 21478 21481 21484 21486 21489 21492 21495 21498 21501 21503 21506 21508 21511 21514 21517 21520 21523 21526 21529 21532 21535 21538 21541 21544 21547 21549 21552 21555 21558 21560 21562 21565 21568 21571 21574 21577 21580 21583 21586 21588 21591 21594 21596 21599 21602 21604 21606 21609 21612 21615 21618 21621 21623 21626 21629 21632 21635 21638 21641 21644 21646 21649 21652 21654 21656 21659 21662 21665 21668 21671 21674 21676 21678 21681 21684 21687 21689 21692 21695 21698 21701 21704 21707 21710 21712 21715 21718 21721 21724 21727 21730 21733 21736 21739 21742 21745 21748 21751 21754 21757 21760 21763 21766 21769 21772 21775 21778 21781 21784 21787 21790 21792 21795 21798 21801 21804 21807 21810 21813 21815 21818 21821 21824 21827 21830 21833 21836 21839 21842 21845 21848 21850 21853 21856 21859 21862 21865 21868 21871 21874 21876 21879 21882 21885 21888 21891 21894 21897 21900 21903 21906 21909 21912 21915 21918 21921 21924 21926 21929 21932 21935 21937 21940 21943 21946 21949 21952 21954 21957 21960 21963 21966 21969 21972 21975 21978 21981 21984 21987 21990 21993 21996 21998 22001 22004 22007 22010 22012 22015 22018 22020 22023 22026 22029 22032 22035 22037 22040 22043 22046 22049 22052 22055 22058 22061 22064 22067 22070 22073 22076 22079 22081 22084 22086 22089 22092 22095 22097 22100 22102 22105 22107 22110 22113 22116 22119 22122 22125 22127 22129 22132 22135 22138 22141 22144 22147 22149 22152 22154 22157 22160 22163 22166 22169 22172 22175 22178 22181 22184 22187 22190 22193 22196 22199 22202 22205 22207 22210 22213 22216 22218 22220 22223 22226 22229 22232 22235 22237 22240 22243 22245 22247 22250 22253 22256 22259 22262 22265 22268 22271 22274 22277 22280 22283 22286 22289 22292 22295 22298 22301 22304 22307 22310 22313 22316 22319 22322 22325 22328 22331 22334 22337 22340 22343 22346 22349 22352 22355 22358 22361 22364 22367 22370 22373 22376 22379 22381 22384 22387 22389 22391 22393 22396 22399 22402 22405 22408 22411 22413 22416 22419 22422 22425 22428 22431 22434 22437 22440 22442 22445 22448 22451 22453 22456 22459 22462 22465 22468 22471 22474 22477 22480 22483 22486 22489 22492 22495 22498 22501 22504 22507 22510 22513 22515 22518 22521 22524 22527 22529 22532 22535 22538 22541 22544 22547 22550 22553 22556 22559 22562 22565 22568 22571 22574 22577 22580 22583 22586 22589 22592 22595 22598 22601 22604 22607 22610 22613 22616 22619 22622 22625 22628 22631 22633 22636 22638 22641 22644 22647 22650 22653 22656 22659 22662 22664 22667 22670 22673 22675 22678 22680 22683 22686 22689 22692 22695 22698 22701 22704 22706 22709 22712 22715 22718 22720 22723 22726 22729 22732 22734 22737 22740 22743 22746 22749 22752 22755 22757 22760 22763 22766 22769 22771 22774 22777 22780 22783 22786 22789 22792 22795 22798 22801 22804 22807 22810 22813 22816 22819 22822 22825 22828 22831 22834 22837 22840 22843 22846 22849 22852 22855 22858 22861 22864 22867 22870 22873 22876 22879 22882 22885 22888 22891 22894 22897 22900 22903 22906 22909 22911 22914 22917 22920 22923 22925 22927 22930 22933 22935 22937 22940 22943 22946 22949 22952 22955 22958 22961 22964 22967 22970 22973 22976 22979 22982 22985 22988 22991 22994 22996 22999 23002 23005 23007 23009 23012 23015 23018 23021 23024 23027 23030 23033 23036 23039 23042 23045 23048 23051 23054 23057 23060 23063 23066 23069 23072 23075 23078 23081 23084 23087 23090 23092 23095 23098 23101 23104 23107 23110 23113 23115 23118 23121 23124 23127 23130 23133 23136 23139 23142 23145 23148 23151 23154 23157 23160 23162 23165 23168 23171 23174 23177 23180 23183 23186 23188 23191 23193 23195 23198 23201 23204 23207 23210 23213 23216 23219 23222 23225 23228 23231 23233 23236 23239 23242 23245 23248 23251 23254 23257 23260 23263 23266 23269 23272 23275 23278 23281 23284 23287 23289 23292 23295 23298 23300 23303 23306 23309 23312 23315 23318 23321 23324 23326 23329 23332 23335 23338 23341 23344 23347 23350 23353 23356 23359 23362 23365 23368 23371 23373 23376 23379 23382 23384 23387 23390 23393 23396 23399 23402 23405 23408 23411 23414 23417 23420 23423 23426 23429 23432 23435 23438 23441 23444 23447 23450 23453 23456 23459 23462 23465 23468 23471 23474 23477 23480 23483 23485 23488 23490 23493 23496 23499 23502 23505 23508 23511 23514 23516 23519 23522 23525 23528 23531 23534 23537 23540 23543 23545 23548 23551 23553 23556 23559 23562 23565 23568 23570 23573 23576 23579 23582 23584 23587 23590 23593 23596 23598 23601 23604 23607 23609 23612 23614 23617 23620 23622 23625 23628 23631 23634 23637 23640 23643 23646 23649 23652 23655 23658 23661 23664 23666 23669 23672 23674 23677 23679 23682 23685 23688 23690 23693 23696 23698 23701 23704 23707 23710 23712 23715 23717 23720 23723 23726 23729 23732 23735 23737 23740 23742 23745 23748 23751 23754 23757 23759 23762 23765 23768 23771 23773 23776 23779 23782 23785 23788 23791 23793 23796 23799 23802 23805 23808 23811 23814 23817 23820 23823 23826 23829 23832 23835 23838 23841 23844 23847 23850 23853 23856 23859 23862 23865 23868 23871 23874 23877 23880 23883 23886 23889 23892 23894 23896 23899 23902 23905 23908 23911 23914 23917 23920 23923 23926 23928 23931 23934 23936 23938 23941 23943 23946 23949 23952 23955 23958 23961 23964 23966 23969 23972 23975 23978 23981 23984 23987 23990 23993 23996 23999 24002 24004 24007 24010 24013 24016 24018 24021 24024 24027 24030 24033 24036 24039 24042 24045 24048 24051 24054 24056 24059 24062 24065 24068 24071 24074 24077 24080 24083 24086 24089 24092 24095 24098 24101 24104 24107 24109 24112 24115 24118 24121 24124 24126 24129 24132 24135 24137 24140 24143 24146 24149 24152 24155 24157 24160 24162 24165 24168 24171 24173 24176 24179 24182 24185 24188 24191 24194 24197 24200 24202 24205 24208 24210 24213 24216 24219 24222 24225 24228 24231 24233 24236 24239 24242 24245 24248 24251 24254 24257 24260 24263 24266 24269 24272 24274 24277 24280 24282 24285 24288 24291 24294 24297 24300 24302 24305 24308 24311 24314 24317 24320 24322 24325 24328 24331 24334 24337 24340 24343 24345 24348 24351 24354 24357 24360 24363 24366 24369 24372 24375 24378 24381 24384 24387 24390 24393 24396 24399 24402 24405 24408 24411 24413 24416 24419 24422 24425 24428 24431 24434 24437 24440 24443 24445 24448 24451 24454 24457 24459 24461 24464 24467 24470 24473 24475 24478 24481 24484 24487 24490 24493 24496 24499 24502 24504 24507 24510 24513 24516 24519 24522 24525 24528 24531 24534 24537 24539 24542 24545 24548 24550 24553 24556 24559 24561 24564 24567 24570 24573 24576 24579 24582 24585 24588 24591 24594 24597 24599 24602 24605 24608 24611 24614 24616 24619 24622 24624 24627 24630 24633 24636 24639 24642 24645 24648 24651 24654 24657 24660 24663 24666 24668 24671 24674 24677 24680 24683 24686 24689 24691 24694 24697 24700 24702 24705 24708 24711 24714 24717 24719 24722 24725 24728 24731 24734 24737 24740 24743 24746 24748 24751 24754 24757 24760 24763 24766 24769 24772 24774 24777 24780 24783 24786 24789 24791 24794 24797 24800 24803 24806 24809 24812 24814 24817 24820 24823 24826 24829 24832 24835 24838 24841 24844 24847 24850 24853 24856 24859 24862 24865 24868 24871 24874 24877 24880 24883 24886 24889 24892 24895 24898 24901 24904 24907 24910 24913 24916 24919 24922 24925 24928 24931 24934 24937 24940 24943 24946 24949 24952 24955 24958 24960 24963 24966 24969 24972 24975 24978 24981 24983 24986 24989 24992 24995 24998 25001 25004 25007 25010 25013 25016 25019 25022 25025 25028 25031 25034 25037 25040 25043 25046 25049 25051 25053 25056 25059 25061 25063 25066 25069 25072 25075 25078 25081 25084 25086 25089 25092 25095 25098 25101 25104 25107 25110 25113 25116 25119 25122 25125 25128 25130 25133 25136 25139 25142 25145 25148 25151 25154 25156 25159 25162 25164 25167 25170 25173 25175 25178 25181 25184 25187 25190 25193 25196 25199 25202 25205 25208 25211 25214 25217 25220 25223 25226 25229 25232 25235 25238 25241 25244 25247 25250 25253 25256 25259 25261 25264 25267 25270 25273 25276 25279 25282 25285 25287 25290 25293 25296 25299 25302 25305 25307 25309 25312 25315 25318 25321 25323 25326 25329 25331 25334 25337 25339 25342 25345 25348 25351 25354 25357 25359 25362 25365 25368 25371 25374 25377 25380 25383 25385 25388 25391 25394 25397 25400 25403 25406 25409 25412 25415 25418 25420 25423 25426 25428 25431 25434 25437 25440 25443 25446 25449 25451 25454 25457 25460 25462 25465 25467 25470 25472 25475 25478 25481 25484 25487 25490 25493 25496 25499 25502 25505 25508 25511 25514 25517 25520 25523 25525 25528 25530 25533 25536 25539 25542 25545 25548 25551 25554 25557 25560 25562 25565 25568 25571 25574 25577 25580 25583 25585 25588 25591 25594 25596 25599 25601 25603 25606 25609 25611 25614 25617 25620 25623 25625 25628 25631 25634 25636 25639 25642 25645 25647 25650 25652 25654 25657 25660 25663 25666 25669 25672 25674 25677 25680 25683 25686 25689 25692 25695 25698 25700 25702 25704 25707 25709 25712 25715 25717 25719 25722 25725 25727 25730 25733 25736 25739 25742 25745 25748 25751 25754 25757 25760 25762 25765 25768 25771 25774 25777 25780 25783 25786 25789 25792 25795 25798 25801 25803 25805 25808 25811 25814 25817 25819 25822 25825 25828 25830 25833 25836 25839 25842 25845 25847 25849 25852 25855 25858 25860 25863 25866 25869 25872 25875 25878 25881 25884 25887 25890 25893 25896 25899 25902 25905 25907 25910 25913 25916 25918 25921 25924 25927 25929 25932 25935 25938 25941 25944 25947 25949 25952 25955 25958 25961 25964 25966 25969 25972 25975 25978 25981 25984 25987 25990 25992 25995 25998 26001 26004 26007 26010 26013 26016 26019 26021 26024 26027 26030 26033 26035 26038 26040 26043 26046 26048 26051 26053 26056 26059 26062 26065 26068 26071 26073 26076 26078 26080 26083 26086 26089 26092 26095 26098 26101 26104 26106 26109 26111 26114 26116 26119 26121 26124 26127 26130 26133 26136 26139 26142 26145 26148 26151 26154 26156 26159 26162 26165 26167 26170 26173 26176 26179 26182 26185 26188 26191 26193 26196 26199 26202 26205 26208 26211 26214 26217 26220 26222 26225 26228 26231 26234 26236 26239 26242 26244 26247 26250 26253 26256 26259 26262 26265 26268 26271 26273 26276 26279 26282 26284 26287 26290 26293 26296 26299 26302 26305 26308 26311 26314 26317 26320 26323 26326 26329 26332 26335 26338 26341 26343 26346 26349 26352 26355 26358 26361 26364 26367 26370 26373 26375 26378 26381 26384 26387 26390 26393 26396 26399 26402 26405 26408 26411 26414 26417 26420 26423 26426 26429 26432 26435 26438 26441 26444 26447 26450 26453 26456 26459 26462 26465 26468 26471 26474 26477 26480 26483 26486 26489 26492 26495 26498 26501 26504 26507 26510 26512 26514 26517 26520 26523 26526 26529 26532 26535 26538 26541 26544 26547 26550 26553 26555 26557 26560 26563 26566 26568 26571 26574 26576 26579 26582 26585 26587 26590 26593 26596 26598 26601 26604 26607 26610 26613 26616 26619 26622 26624 26627 26630 26632 26635 26637 26639 26642 26645 26648 26651 26654 26657 26659 26662 26664 26666 26668 26671 26674 26676 26679 26682 26684 26686 26689 26692 26695 26698 26701 26704 26707 26710 26713 26716 26719 26722 26725 26728 26731 26734 26737 26740 26743 26746 26749 26751 26754 26757 26760 26763 26766 26769 26772 26775 26778 26780 26783 26786 26789 26792 26795 26798 26801 26803 26805 26808 26811 26814 26817 26820 26823 26826 26829 26832 26835 26838 26841 26844 26847 26850 26853 26856 26859 26862 26865 26868 26871 26874 26876 26879 26881 26884 26887 26890 26893 26896 26899 26902 26904 26907 26910 26913 26915 26917 26920 26923 26925 26928 26931 26934 26937 26939 26942 26945 26948 26950 26953 26956 26959 26961 26964 26967 26970 26973 26976 26979 26982 26985 26988 26990 26992 26995 26998 27001 27004 27007 27009 27012 27015 27017 27019 27021 27024 27027 27030 27033 27036 27038 27041 27044 27047 27050 27053 27056 27059 27062 27065 27067 27070 27072 27075 27078 27081 27084 27087 27090 27093 27096 27099 27102 27105 27108 27111 27114 27117 27120 27123 27126 27129 27132 27135 27138 27141 27144 27146 27149 27152 27155 27158 27160 27162 27165 27168 27171 27173 27176 27179 27182 27185 27188 27191 27194 27197 27200 27203 27206 27209 27212 27215 27218 27221 27223 27226 27229 27232 27234 27237 27240 27242 27245 27248 27251 27254 27257 27260 27263 27266 27269 27272 27275 27278 27281 27283 27286 27289 27291 27294 27297 27300 27302 27305 27307 27310 27312 27315 27317 27319 27321 27324 27327 27330 27333 27336 27339 27342 27345 27347 27350 27353 27356 27359 27362 27365 27368 27371 27373 27376 27379 27381 27384 27387 27390 27393 27396 27399 27402 27405 27408 27411 27414 27417 27420 27423 27426 27429 27432 27435 27438 27441 27444 27446 27449 27452 27455 27458 27461 27464 27467 27470 27473 27476 27478 27481 27483 27486 27489 27491 27494 27496 27499 27501 27504 27507 27509 27512 27514 27517 27520 27522 27525 27528 27531 27533 27536 27539 27542 27545 27548 27551 27554 27557 27560 27563 27566 27569 27572 27575 27578 27581 27584 27587 27590 27593 27596 27599 27602 27605 27608 27611 27614 27617 27620 27623 27626 27629 27632 27635 27638 27641 27644 27647 27650 27653 27656 27659 27662 27665 27668 27671 27674 27677 27680 27683 27686 27689 27692 27695 27698 27701 27704 27707 27710 27713 27716 27718 27721 27724 27726 27729 27732 27735 27738 27741 27744 27746 27748 27751 27754 27757 27760 27763 27766 27769 27772 27775 27778 27781 27784 27787 27790 27793 27796 27799 27802 27804 27807 27810 27813 27815 27818 27821 27824 27827 27830 27833 27836 27839 27842 27845 27848 27851 27854 27857 27860 27863 27865 27868 27871 27874 27877 27880 27883 27886 27888 27891 27894 27897 27900 27903 27906 27909 27912 27914 27917 27919 27922 27925 27928 27931 27934 27937 27940 27943 27946 27949 27952 27955 27958 27961 27964 27967 27969 27972 27975 27978 27981 27984 27987 27990 27992 27995 27998 28001 28004 28006 28009 28012 28015 28018 28021 28024 28027 28029 28032 28035 28037 28039 28042 28045 28047 28050 28053 28056 28059 28062 28065 28067 28070 28073 28076 28079 28082 28085 28088 28091 28094 28096 28099 28102 28104 28107 28110 28112 28115 28118 28120 28123 28126 28129 28132 28135 28137 28140 28143 28146 28149 28152 28155 28158 28161 28163 28166 28169 28172 28175 28178 28181 28184 28186 28189 28192 28195 28198 28201 28204 28207 28210 28213 28216 28219 28222 28224 28227 28230 28233 28236 28239 28242 28245 28247 28249 28252 28254 28257 28259 28262 28265 28268 28271 28274 28277 28280 28283 28286 28289 28292 28295 28298 28301 28304 28306 28309 28311 28314 28317 28320 28323 28326 28329 28332 28335 28337 28340 28342 28345 28347 28350 28352 28355 28357 28360 28363 28365 28368 28371 28374 28377 28380 28382 28385 28388 28391 28394 28397 28400 28403 28406 28408 28411 28414 28417 28420 28423 28425 28428 28431 28433 28436 28438 28440 28443 28446 28449 28452 28455 28458 28461 28464 28466 28469 28472 28475 28478 28481 28484 28487 28490 28493 28496 28499 28502 28505 28507 28510 28513 28516 28519 28522 28525 28528 28530 28533 28536 28539 28541 28544 28547 28550 28553 28556 28559 28562 28565 28568 28571 28574 28577 28580 28583 28586 28589 28592 28594 28597 28600 28603 28606 28609 28612 28615 28617 28620 28623 28625 28628 28631 28634 28637 28640 28643 28646 28649 28652 28655 28658 28661 28664 28667 28670 28672 28675 28678 28681 28684 28686 28689 28692 28695 28698 28701 28704 28707 28710 28713 28716 28719 28722 28725 28728 28731 28734 28737 28740 28743 28746 28749 28752 28755 28758 28761 28763 28766 28769 28772 28775 28778 28781 28783 28786 28789 28792 28795 28798 28801 28804 28807 28810 28812 28814 28817 28820 28823 28825 28828 28830 28833 28836 28839 28842 28845 28848 28851 28854 28857 28860 28863 28866 28869 28872 28875 28877 28880 28883 28886 28889 28892 28895 28898 28901 28904 28907 28910 28913 28915 28917 28920 28923 28926 28929 28932 28935 28938 28941 28943 28946 28949 28951 28954 28957 28959 28961 28964 28967 28970 28973 28976 28979 28982 28984 28987 28990 28993 28996 28999 29002 29005 29008 29011 29013 29016 29019 29022 29024 29027 29030 29033 29036 29039 29041 29044 29047 29050 29053 29056 29059 29062 29065 29068 29071 29074 29077 29079 29082 29085 29088 29090 29093 29096 29099 29101 29104 29107 29110 29113 29116 29119 29122 29125 29128 29131 29134 29137 29140 29143 29146 29149 29152 29155 29158 29161 29164 29167 29170 29173 29176 29179 29182 29185 29188 29191 29194 29197 29199 29202 29205 29208 29211 29214 29217 29220 29223 29226 29229 29232 29235 29238 29241 29244 29247 29250 29253 29256 29259 29262 29265 29268 29271 29273 29276 29278 29281 29284 29286 29289 29292 29295 29298 29301 29304 29307 29310 29313 29315 29318 29321 29324 29327 29330 29333 29336 29339 29342 29345 29348 29351 29354 29357 29359 29362 29365 29368 29371 29373 29376 29379 29382 29384 29387 29390 29393 29396 29399 29402 29405 29408 29411 29414 29417 29420 29423 29426 29429 29432 29435 29438 29441 29444 29447 29450 29453 29456 29459 29462 29465 29468 29471 29474 29477 29480 29483 29486 29489 29492 29495 29498 29501 29504 29507 29510 29513 29516 29519 29522 29525 29528 29531 29534 29537 29540 29543 29546 29549 29552 29555 29558 29561 29564 29567 29570 29573 29576 29579 29582 29585 29588 29591 29594 29597 29600 29603 29606 29609 29612 29615 29618 29621 29624 29627 29630 29633 29636 29639 29642 29645 29648 29651 29654 29657 29660 29663 29666 29669 29672 29675 29678 29681 29684 29687 29690 29693 29696 29699 29702 29705 29708 29711 29714 29717 29720 29723 29726 29729 29732 29735 29738 29741 29744 29747 29750 29753 29756 29759 29762 29765 29768 29771 29774 29777 29780 29783 29786 29789 29792 29795 29798 29801 29804 29807 29810 29813 29816 29819 29822 29825 29828 29831 29834 29837 29840 29843 29846 29849 29852 29855 29858 29861 29864 29867 29870 29873 29876 29879 29882 29885 29888 29891 29894 29897 29900 29903 29906 29909 29912 29915 29918 29921 29924 29927 29930 29933 29936 29939 29942 29945 29948 29951 29953 29956 29959 29962 29965 29968 29971 29974 29977 29980 29983 29986 29989 29992 29995 29998 30001 30003 30006 30009 30012 30015 30018 30021 30024 30027 30029 30032 30035 30038 30041 30043 30046 30049 30052 30055 30058 30061 30064 30067 30070 30073 30076 30079 30082 30085 30088 30091 30094 30097 30100 30103 30106 30109 30111 30114 30117 30120 30123 30126 30129 30132 30135 30138 30141 30144 30147 30150 30152 30154 30157 30160 30163 30166 30169 30171 30174 30176 30179 30182 30185 30188 30191 30194 30197 30200 30203 30206 30209 30211 30214 30217 30220 30223 30226 30229 30232 30234 30237 30240 30243 30246 30249 30252 30255 30258 30261 30264 30267 30270 30273 30276 30279 30281 30283 30286 30289 30292 30295 30298 30301 30304 30307 30310 30313 30316 30319 30321 30324 30327 30330 30333 30336 30339 30342 30345 30348 30351 30354 30357 30360 30363 30366 30369 30371 30374 30377 30380 30383 30386 30389 30392 30394 30397 30400 30403 30406 30409 30412 30415 30418 30421 30424 30426 30428 30431 30434 30437 30440 30443 30446 30449 30452 30455 30458 30461 30464 30467 30470 30473 30476 30479 30482 30485 30488 30491 30494 30497 30500 30503 30506 30509 30512 30515 30518 30520 30523 30526 30529 30532 30535 30537 30540 30543 30546 30549 30552 30555 30558 30561 30564 30567 30569 30572 30575 30578 30581 30583 30586 30589 30592 30595 30598 30601 30604 30607 30610 30613 30615 30618 30620 30623 30626 30629 30632 30635 30638 30641 30644 30647 30650 30653 30656 30659 30662 30665 30668 30671 30674 30677 30680 30683 30686 30689 30692 30695 30698 30701 30704 30707 30710 30713 30715 30718 30721 30724 30727 30730 30732 30735 30738 30741 30744 30747 30750 30753 30756 30759 30762 30765 30768 30771 30774 30777 30780 30783 30786 30788 30791 30794 30796 30799 30802 30805 30807 30810 30813 30816 30819 30822 30824 30827 30830 30833 30836 30839 30842 30845 30848 30851 30854 30856 30859 30862 30865 30868 30871 30874 30876 30879 30882 30885 30888 30891 30893 30895 30898 30901 30903 30906 30909 30911 30914 30917 30920 30923 30926 30929 30932 30935 30938 30941 30943 30946 30949 30951 30954 30957 30959 30962 30965 30967 30970 30973 30975 30978 30981 30983 30986 30989 30992 30995 30998 31001 31003 31006 31009 31012 31015 31018 31021 31024 31027 31030 31033 31036 31038 31041 31044 31047 31050 31053 31056 31059 31061 31064 31067 31070 31073 31075 31078 31081 31084 31086 31089 31092 31095 31098 31101 31104 31107 31110 31113 31116 31119 31121 31124 31127 31130 31133 31136 31139 31142 31145 31148 31151 31154 31157 31160 31163 31166 31169 31172 31175 31178 31181 31184 31187 31190 31193 31195 31198 31201 31204 31207 31210 31212 31215 31218 31221 31224 31227 31230 31233 31236 31239 31242 31245 31248 31251 31254 31256 31259 31262 31264 31267 31269 31272 31275 31278 31281 31283 31286 31288 31290 31293 31295 31298 31301 31304 31307 31310 31313 31316 31318 31321 31323 31326 31329 31332 31335 31338 31341 31343 31346 31349 31352 31355 31358 31361 31363 31366 31369 31372 31375 31377 31380 31383 31386 31389 31392 31394 31397 31400 31402 31405 31408 31411 31414 31416 31419 31422 31425 31428 31430 31433 31436 31439 31442 31445 31448 31450 31453 31456 31459 31462 31465 31468 31471 31474 31477 31479 31482 31485 31488 31491 31494 31497 31499 31502 31505 31508 31511 31513 31516 31519 31522 31525 31528 31531 31534 31537 31540 31543 31546 31549 31552 31555 31558 31561 31563 31566 31569 31572 31574 31577 31580 31582 31585 31588 31591 31594 31597 31600 31603 31606 31609 31612 31615 31618 31621 31624 31627 31630 31632 31635 31637 31640 31643 31646 31649 31652 31655 31658 31661 31664 31667 31670 31673 31676 31679 31682 31685 31688 31691 31694 31697 31700 31703 31706 31709 31712 31715 31717 31720 31723 31725 31728 31731 31734 31737 31740 31743 31746 31749 31752 31755 31757 31760 31763 31766 31769 31771 31774 31777 31780 31783 31785 31788 31791 31794 31797 31800 31803 31806 31809 31812 31814 31817 31820 31823 31826 31829 31832 31835 31838 31841 31844 31847 31850 31853 31856 31859 31862 31865 31868 31871 31874 31877 31880 31883 31886 31889 31892 31895 31898 
</DataArray>
<DataArray type="UInt32" Name="types" format="ascii">
5 5 5 5 5 3 5 5 5 5 5 5 5 3 5 5 5 5 3 5 5 3 5 5 5 5 3 5 5 5 5 3 5 5 5 5 5 5 5 5 5 5 5 5 5 3 5 5 3 5 5 5 5 5 3 5 5 5 5 5 5 5 3 5 5 5 5 3 5 5 5 5 5 5 5 5 5 3 5 5 3 5 5 3 5 5 5 5 3 5 5 5 5 5 5 5 3 3 3 5 5 3 5 5 5 5 5 3 5 5 5 5 5 5 5 5 5 5 5 5 5 3 5 5 5 3 5 5 5 5 5 5 3 5 5 5 5 5 5 5 5 5 5 5 5 5 5 5 5 5 5 5 5 5 5 5 5 5 3 5 5 5 3 5 5 3 5 5 5 5 5 5 5 5 5 5 5 3 5 5 5 5 5 5 5 5 3 5 5 5 5 5 5 5 5 3 5 5 5 5 5 5 5 5 5 3 5 5 5 5 5 5 5 5 5 5 5 5 5 5 5 5 5 5 5 5 5 5 5 3 5 5 5 3 5 3 5 3 5 5 3 5 5 5 3 5 3 5 3 5 3 3 5 3 5 5 3 5 3 5 5 5 3 5 3 3 5 5 3 5 5 5 3 5 3 3 3 5 3 5 5 5 3 5 3 3 3 5 5 3 3 5 5 5 5 3 5 3 5 5 3 5 5 5 3 5 3 3 3 5 5 5 3 5 3 3 3 3 5 5 5 3 3 5 5 3 3 3 5 3 5 5 5 5 3 5 5 5 5 5 5 5 3 5 5 5 5 5 5 3 3 5 5 5 3 5 5 5 3 5 3 5 3 3 5 5 5 5 3 5 5 3 5 5 5 5 3 5 3 5 5 5 5 5 3 3 5 5 5 5 5 5 5 5 3 5 5 5 3 5 5 3 5 3 5 5 5 5 5 5 5 5 5 5 5 3 5 3 5 3 5 5 5 3 5 3 5 3 5 5 5 5 5 5 3 5 3 5 5 5 3 5 5 5 3 5 3 3 5 5 5 5 3 5 5 5 5 3 3 5 5 3 5 3 5 3 3 5 5 5 3 5 5 5 5 3 5 5 5 5 5 5 5 5 5 5 5 3 5 5 5 5 3 5 5 5 3 5 3 3 3 5 5 5 3 3 5 3 5 5 3 5 5 5 5 3 5 5 5 5 5 5 5 5 5 5 5 3 3 5 5 3 5 5 5 3 5 5 5 5 5 5 3 5 5 5 3 5 5 5 3 5 5 5 5 5 5 5 5 5 5 5 3 5 5 5 3 5 5 5 5 5 5 5 3 5 5 5 5 5 3 5 5 5 5 5 5 5 5 5 5 5 5 5 5 5 5 5 5 5 3 5 5 5 5 3 5 5 3 5 5 5 5 5 5 5 3 5 5 5 5 5 5 5 5 3 5 3 5 5 3 5 5 5 3 5 5 3 5 5 5 3 5 3 5 5 3 5 3 5 5 5 5 5 5 5 5 5 5 5 5 5 5 5 5 5 5 5 5 5 5 3 5 3 5 3 5 5 5 5 5 5 5 5 5 5 5 5 5 5 5 3 5 5 5 5 5 5 5 5 5 3 5 5 5 5 5 5 5 5 5 5 5 5 5 5 5 5 5 5 5 5 5 5 5 5 5 5 5 5 5 3 5 5 3 5 5 5 3 3 5 3 5 5 5 5 5 3 5 5 5 5 5 3 5 5 5 5 5 5 5 5 5 5 5 5 5 5 5 5 5 5 5 5 5 5 5 5 5 5 5 5 5 5 5 5 5 5 5 5 5 5 5 5 5 5 5 5 5 5 5 5 5 3 5 5 5 5 5 5 5 5 5 5 5 5 5 5 5 3 5 5 5 5 3 5 5 5 5 5 5 5 5 5 5 5 5 5 5 5 5 5 5 5 5 5 5 5 5 5 5 5 3 5 5 3 5 3 3 3 3 5 5 3 5 5 5 5 5 5 5 5 5 5 5 5 5 5 5 5 5 3 5 5 3 5 3 5 5 5 5 3 5 3 5 5 5 5 3 5 5 5 3 5 5 5 5 5 3 5 3 5 5 3 3 5 3 5 5 5 5 5 5 5 5 5 5 5 3 5 5 5 3 5 5 5 3 5 5 3 3 3 5 5 5 5 5 5 5 5 5 5 5 3 5 5 5 5 5 5 5 5 3 3 3 5 5 5 5 5 5 5 5 3 3 5 5 5 3 5 5 3 5 5 5 5 5 5 5 5 5 5 5 3 5 5 5 5 5 5 5 5 3 5 5 5 5 5 5 5 5 5 5 3 5 3 3 3 5 5 5 5 5 5 5 3 3 5 3 5 5 5 5 5 3 5 3 3 5 5 5 3 5 3 5 5 5 5 3 5 5 5 5 5 5 5 5 5 5 5 5 5 5 5 5 5 3 5 5 5 3 5 5 5 5 5 3 5 5 5 5 5 5 3 5 3 5 5 5 5 5 5 5 5 3 5 5 5 3 5 5 5 5 5 5 5 5 5 5 5 5 5 5 5 5 5 5 5 5 5 5 5 5 5 3 3 3 5 5 5 5 3 5 5 5 5 3 5 5 5 5 5 5 5 3 5 5 5 5 5 5 5 5 3 5 5 5 5 5 5 5 5 5 5 5 5 3 5 5 5 5 5 5 3 5 5 5 5 5 5 5 5 3 5 5 5 3 5 5 5 5 5 5 5 5 5 5 5 5 3 5 5 5 5 5 5 5 5 5 5 5 5 5 5 5 5 5 5 5 5 5 5 5 5 5 5 5 5 5 5 5 5 5 5 5 5 5 5 5 5 5 5 5 5 5 5 5 3 5 5 5 5 5 5 5 5 5 5 5 5 5 5 5 5 5 5 5 5 5 5 5 5 3 5 5 5 5 5 5 5 5 5 5 3 5 5 3 5 5 5 5 5 5 5 5 5 3 5 3 5 5 5 5 3 5 5 3 5 3 5 5 5 5 5 3 5 5 5 5 5 5 5 5 3 5 5 5 5 5 5 5 5 5 5 5 5 5 5 3 5 3 3 5 5 5 5 5 3 5 5 5 5 5 5 5 5 5 5 5 5 5 5 5 3 5 5 5 5 5 5 5 5 5 5 5 5 5 5 5 5 3 5 5 5 5 5 3 3 5 5 3 5 5 5 5 5 5 5 5 5 5 3 5 5 5 5 5 5 5 5 5 3 5 3 5 5 5 5 5 3 5 5 5 5 3 5 5 5 3 5 5 5 3 5 5 3 5 5 5 5 5 5 5 5 5 5 5 5 5 5 5 5 3 5 5 5 5 5 5 5 3 5 5 5 5 5 5 5 5 5 5 5 5 5 5 5 5 5 5 5 5 5 5 5 5 5 5 5 3 5 5 5 5 3 5 5 5 3 5 5 5 5 5 5 5 5 5 3 5 3 5 5 5 5 5 5 5 5 5 5 5 5 5 5 5 5 5 5 3 3 5 5 5 3 5 5 3 5 5 3 5 5 5 3 5 5 3 5 5 5 5 5 5 5 5 5 5 5 5 5 5 5 5 5 5 5 5 3 5 3 5 5 5 5 5 5 5 5 5 5 5 3 5 3 5 5 5 3 5 5 5 5 5 3 5 5 5 5 5 5 3 5 5 5 5 5 5 5 5 5 5 5 3 5 5 5 5 5 5 5 5 3 5 5 5 3 5 5 3 5 5 5 5 5 3 5 5 5 5 5 5 5 5 5 3 5 5 3 5 3 5 3 3 3 5 3 5 5 5 5 5 5 3 5 5 5 5 5 5 3 5 5 5 5 5 5 5 3 5 5 5 5 3 5 5 5 5 5 3 5 3 5 5 5 5 5 5 5 5 5 5 3 5 5 5 5 5 5 5 3 5 5 5 5 5 5 5 3 5 3 5 5 5 5 5 5 5 5 3 5 5 5 3 3 5 5 5 5 5 3 3 5 3 5 5 3 5 5 3 5 5 5 5 5 5 5 5 3 5 5 5 5 5 3 5 5 5 5 3 5 5 3 5 5 5 5 5 5 5 5 5 5 5 5 5 5 5 5 5 5 5 5 5 5 5 5 5 5 5 5 5 5 5 5 5 5 5 5 5 5 5 5 5 3 5 5 3 5 5 5 5 5 3 5 5 5 5 3 5 5 5 5 5 5 5 5 5 5 5 5 5 5 5 5 5 5 5 5 5 5 5 5 3 5 5 5 3 5 5 5 5 5 5 3 5 5 5 5 5 5 5 5 5 5 5 3 5 3 3 5 5 3 5 5 5 5 5 5 5 5 5 5 5 3 5 5 3 5 5 5 5 5 5 5 5 5 5 5 5 5 5 5 3 5 5 5 5 5 5 5 3 5 3 5 5 5 5 3 5 3 5 5 5 5 5 5 5 5 5 3 5 5 5 5 5 5 5 5 5 5 5 5 5 5 5 5 5 3 5 5 5 5 5 5 5 5 5 5 5 5 5 5 5 5 5 5 5 5 5 5 5 5 5 3 3 5 5 5 5 5 5 5 5 5 5 5 3 5 5 5 5 3 5 5 5 5 3 5 5 5 5 5 5 5 5 3 5 5 5 5 5 5 5 5 5 3 5 5 5 5 5 5 5 5 5 5 5 5 5 5 5 5 5 5 5 5 3 5 5 5 5 5 5 5 5 5 5 5 5 5 5 3 5 3 5 5 5 5 5 5 5 5 3 5 5 3 5 5 5 5 5 5 5 5 5 5 5 5 5 5 5 5 5 5 5 5 5 5 5 5 5 5 5 5 5 5 5 5 5 5 5 5 3 5 5 3 5 5 5 5 3 5 3 5 5 3 5 3 5 5 5 5 5 3 5 5 5 5 5 5 5 5 5 5 5 5 3 5 5 5 3 5 5 5 5 5 5 5 5 5 3 5 5 5 5 3 3 5 5 5 5 5 5 5 5 3 5 5 5 5 5 3 5 5 5 3 5 5 5 3 5 5 5 5 3 5 5 5 5 5 5 5 5 5 5 5 5 5 5 3 5 5 5 5 5 5 3 5 3 3 5 3 5 3 5 5 5 5 3 5 5 5 5 3 5 5 5 5 5 5 5 5 5 3 5 5 5 5 5 5 5 5 5 5 5 5 5 5 3 5 5 5 3 5 5 5 3 5 3 5 5 5 5 5 5 5 5 5 5 5 5 5 5 5 5 3 5 5 5 5 5 5 3 5 5 5 5 5 5 5 5 5 5 5 5 5 5 5 5 5 5 3 5 5 5 5 5 5 5 5 5 5 5 5 5 5 5 5 5 5 5 5 5 5 5 5 5 5 5 5 5 5 5 5 5 5 3 5 5 5 5 3 5 5 5 5 5 5 5 3 5 5 5 5 5 5 5 5 5 3 5 5 3 5 5 5 5 5 3 5 5 5 3 5 5 3 5 5 5 5 5 5 5 5 5 5 5 5 5 5 5 5 5 5 5 5 3 5 5 5 5 5 5 5 5 5 5 3 3 5 3 5 5 5 5 5 3 5 5 5 5 3 5 5 5 5 5 3 5 3 5 5 3 5 5 5 5 5 5 5 5 3 5 5 5 5 5 5 3 5 5 5 5 5 5 3 5 5 5 5 3 5 5 3 5 3 5 5 3 5 5 5 5 5 5 3 5 5 5 5 3 5 5 5 5 5 5 5 5 3 3 5 5 5 5 5 5 5 5 3 5 5 5 5 5 5 3 5 5 5 5 5 5 5 3 5 5 5 3 5 5 5 5 5 5 5 5 5 5 5 5 3 5 5 5 5 3 5 5 3 5 5 5 5 3 5 5 5 3 3 5 5 5 3 5 5 5 3 5 5 5 5 5 5 5 5 5 3 5 5 5 3 5 5 5 5 5 5 5 5 5 5 5 5 3 5 3 5 5 3 5 5 3 5 5 5 5 5 5 5 3 5 5 5 5 5 3 5 3 5 5 5 3 3 5 3 3 5 3 5 5 5 5 5 5 3 5 3 5 5 5 5 5 5 5 5 5 5 5 5 5 3 5 5 3 5 3 5 5 3 5 5 5 3 3 5 5 3 5 5 5 5 5 5 5 5 5 5 5 5 5 5 5 5 5 5 5 5 5 5 5 3 3 5 3 5 3 5 5 3 3 5 5 3 5 5 3 5 5 3 5 3 5 5 5 5 3 5 5 5 5 3 5 3 3 5 3 5 5 3 3 5 5 5 3 5 5 5 5 3 3 5 5 5 5 5 3 5 5 5 5 5 5 5 5 5 5 5 3 5 3 5 3 5 5 3 5 3 5 5 5 5 5 5 5 5 3 5 5 3 5 5 5 5 3 5 5 5 5 5 5 5 5 5 5 5 5 3 5 5 5 5 5 5 5 5 5 5 5 3 5 5 5 5 5 5 3 5 3 5 5 3 5 5 5 5 5 5 5 5 5 5 5 5 5 5 5 5 5 3 3 5 5 5 3 5 5 3 5 5 5 5 5 5 5 5 5 5 5 5 5 5 5 5 5 5 5 5 5 5 5 5 5 3 3 5 5 5 5 5 5 5 5 5 5 5 3 5 5 5 5 5 5 5 5 5 5 5 5 5 5 5 5 5 5 5 5 5 5 5 5 5 5 5 5 5 5 5 5 5 3 5 5 5 5 5 3 5 5 3 5 5 3 3 5 5 5 5 5 5 5 5 5 5 5 5 5 3 5 5 3 5 5 5 5 5 5 3 5 5 3 5 5 5 5 5 5 5 5 5 5 5 5 5 3 5 5 5 5 5 5 5 3 5 5 5 5 5 5 5 5 5 5 5 5 3 5 5 3 5 5 5 5 5 5 5 5 5 5 5 5 5 5 5 5 5 5 5 5 3 5 5 3 5 3 5 5 5 3 5 5 3 5 3 5 5 5 3 5 5 5 5 3 5 5 5 5 5 5 5 3 5 5 5 3 5 5 5 5 5 5 5 5 5 5 5 5 3 5 5 5 5 5 5 5 5 3 5 5 5 5 5 5 5 5 5 5 5 3 5 5 5 5 5 5 5 5 5 5 5 5 5 5 5 5 5 5 5 3 3 5 5 5 3 5 5 5 5 5 5 5 5 5 5 5 5 3 5 5 5 5 5 5 5 5 5 3 5 5 5 5 5 5 5 5 5 5 5 5 5 5 5 5 3 5 3 5 5 5 5 5 3 5 5 5 5 3 5 5 5 3 5 5 5 3 5 5 5 5 5 5 5 5 5 3 5 5 5 3 5 5 3 5 5 5 5 5 5 3 5 5 5 5 5 5 5 5 3 5 5 5 3 5 5 5 5 5 5 5 5 5 5 5 5 5 5 5 5 5 5 5 5 5 5 5 5 5 5 5 3 5 5 5 5 5 5 5 3 5 5 5 5 5 5 5 5 5 5 5 5 5 5 5 5 5 5 5 5 5 5 5 5 5 3 5 3 5 5 5 5 5 5 3 5 5 5 3 5 5 3 5 5 5 5 5 5 5 5 5 5 5 5 3 5 5 5 5 5 3 5 5 5 5 5 5 5 5 5 5 5 5 5 3 5 5 5 3 5 5 5 5 5 5 5 5 5 5 5 5 3 3 5 5 5 5 3 5 5 5 5 5 5 5 5 5 3 3 5 5 5 5 5 3 5 5 5 5 5 3 5 5 5 5 5 3 5 3 5 5 5 5 3 5 3 5 3 3 5 5 5 5 5 5 5 3 3 5 5 5 5 5 5 3 3 3 5 3 3 5 5 5 3 5 5 5 5 5 3 3 3 5 3 5 5 5 3 5 3 3 5 5 5 5 5 5 5 3 3 5 5 3 3 3 5 5 5 5 5 5 5 5 5 5 5 5 5 5 5 5 5 5 5 5 5 5 5 5 5 5 5 5 5 5 5 5 5 5 5 5 5 5 5 5 3 5 5 5 5 5 5 5 5 5 5 3 5 5 5 5 5 5 3 5 5 3 5 5 5 5 5 5 5 5 5 5 5 5 5 3 5 3 5 5 5 5 3 5 5 5 3 5 5 3 5 5 5 3 5 5 3 5 5 5 5 5 3 5 5 5 5 5 5 5 3 5 5 5 5 5 5 5 3 5 5 3 5 5 5 5 3 5 3 5 5 5 5 5 3 5 5 5 5 3 5 5 5 5 5 5 3 3 5 5 5 5 5 3 5 5 3 5 5 5 5 5 5 5 5 5 5 3 5 5 5 5 5 5 5 5 5 5 5 5 5 5 5 5 5 5 3 5 5 5 5 5 5 3 5 5 5 5 5 5 5 3 3 5 5 5 5 3 5 5 5 5 5 5 5 3 5 5 3 5 3 3 3 5 5 5 5 5 5 3 5 5 5 5 5 3 5 5 5 5 3 5 5 5 3 5 5 5 3 5 5 5 5 5 5 5 5 5 5 5 5 5 5 5 5 5 5 5 5 5 5 5 5 5 3 5 5 5 5 5 5 5 3 5 3 5 5 5 5 5 5 3 5 5 3 5 5 5 3 5 5 3 5 5 5 5 5 3 5 5 5 3 3 5 5 5 5 5 5 5 5 5 5 5 5 3 5 5 5 5 5 5 5 5 5 3 5 5 5 5 5 3 3 5 5 5 5 5 5 5 5 5 3 5 5 5 5 5 5 5 5 3 5 5 5 5 5 5 5 5 5 5 5 5 5 5 5 5 5 5 3 5 5 5 5 3 5 3 5 3 5 5 5 5 5 5 5 5 5 5 5 5 5 5 5 5 5 3 5 5 5 5 5 3 5 5 5 3 3 5 5 5 5 5 3 5 5 5 5 3 5 5 5 5 5 5 5 5 3 5 5 5 5 5 5 5 3 5 5 5 5 5 5 5 5 5 3 5 5 5 5 5 5 5 5 5 5 5 5 5 5 5 5 5 5 3 5 5 5 5 5 5 5 5 5 5 5 5 5 3 5 5 5 5 5 5 3 5 5 3 5 5 3 5 5 5 5 5 5 5 5 5 5 5 5 5 5 5 5 5 5 5 5 5 5 5 5 5 5 3 5 3 5 3 3 5 5 5 3 5 5 5 5 5 5 5 5 5 3 3 5 3 5 5 5 5 5 5 5 5 5 5 5 5 5 5 3 5 3 3 5 3 5 5 5 5 5 5 5 5 5 3 3 5 5 5 5 5 5 5 5 5 5 5 5 5 5 5 5 5 5 5 5 5 5 3 5 5 5 5 5 3 5 5 5 5 5 3 5 5 5 3 5 5 5 5 5 5 5 5 5 3 5 5 5 5 3 5 5 5 5 5 5 3 5 5 5 5 5 5 5 3 5 5 5 5 3 5 5 5 5 5 5 5 5 5 5 3 5 5 5 5 3 5 5 5 3 5 5 5 5 5 3 5 5 5 5 5 5 5 5 5 5 5 5 5 5 3 3 5 5 3 5 5 5 5 5 5 5 3 5 5 5 5 5 5 3 5 5 5 5 5 5 5 5 5 5 5 5 5 5 5 5 5 5 5 5 5 5 5 3 5 5 5 5 5 5 5 5 3 5 5 5 5 3 5 5 5 5 5 3 5 3 5 3 5 5 5 5 5 5 5 3 5 5 5 3 5 5 5 5 5 3 5 5 5 5 5 3 5 3 5 5 3 5 3 5 5 5 5 5 3 5 5 5 3 5 5 5 5 5 5 5 5 5 5 3 5 5 5 5 5 5 5 5 5 5 5 5 5 5 5 5 5 5 5 5 5 5 3 5 5 5 5 5 5 5 5 5 5 5 5 5 5 5 5 5 5 3 5 5 5 3 5 5 5 5 5 5 3 5 5 5 3 3 5 3 5 3 3 5 3 5 5 3 5 5 3 3 5 5 5 5 5 5 5 5 3 5 3 5 5 5 5 5 5 5 5 5 5 5 5 5 5 5 5 5 5 5 5 5 5 3 5 5 5 5 5 5 5 5 3 5 5 3 5 5 3 3 5 5 3 5 5 5 5 5 5 5 5 5 5 5 5 5 5 5 5 5 5 5 5 5 5 5 5 5 5 5 5 5 5 5 5 5 5 5 5 5 5 5 3 5 3 5 5 5 5 5 5 5 5 5 5 5 5 5 5 5 5 5 5 5 5 5 5 5 5 5 5 5 5 5 5 5 5 5 5 5 5 5 5 5 5 3 5 5 3 5 5 5 5 5 3 5 3 5 5 3 5 5 5 5 5 5 3 5 5 5 5 5 5 5 5 5 5 5 3 5 5 3 3 5 3 5 5 3 5 5 5 5 3 5 5 5 5 5 5 5 5 5 3 5 3 5 5 5 5 5 5 5 3 5 3 5 5 5 5 5 5 5 5 5 3 5 3 5 5 5 5 5 5 5 5 5 5 3 5 5 5 3 5 5 3 5 5 3 5 5 5 5 3 5 5 5 3 5 5 5 5 5 5 5 5 5 5 5 5 5 5 3 5 5 5 5 5 5 3 5 3 5 3 5 5 5 3 5 5 5 5 5 5 5 5 3 5 5 5 5 5 3 5 5 3 5 5 5 5 5 5 5 5 5 3 5 5 5 3 5 5 5 5 5 5 3 5 5 5 5 5 5 5 5 5 5 5 5 5 5 5 5 5 5 5 5 5 5 5 5 5 5 5 5 5 5 5 3 5 5 5 5 5 3 5 5 3 3 5 5 5 5 3 5 5 5 5 5 3 5 5 5 5 5 5 5 5 5 5 5 5 5 5 5 5 3 5 5 5 5 5 5 5 5 3 3 5 5 5 5 5 5 3 5 5 5 5 3 5 5 5 5 5 5 5 5 5 5 5 5 5 5 5 5 5 5 5 5 5 5 5 5 3 5 5 3 5 5 5 5 5 5 5 5 5 5 5 5 5 5 5 5 5 5 5 5 5 5 5 5 5 5 5 3 5 3 5 5 5 5 5 3 5 5 5 5 5 5 5 5 5 5 5 5 5 5 5 5 5 5 5 5 3 3 5 3 5 5 5 5 5 5 5 5 5 5 5 5 5 5 5 5 3 5 5 5 3 5 5 5 5 5 5 5 5 5 5 5 5 5 3 5 5 5 5 5 5 5 5 5 5 5 5 5 5 5 5 5 5 5 5 5 5 3 5 5 5 5 5 5 5 5 5 5 5 5 5 3 5 3 5 5 3 3 5 5 5 5 5 5 5 5 5 5 5 5 5 5 5 5 5 5 5 5 3 5 5 3 5 5 5 3 5 5 5 5 5 5 3 5 5 5 3 5 5 5 5 5 5 5 5 3 5 5 3 5 5 3 5 3 5 5 5 5 3 3 5 5 3 3 5 5 3 5 5 5 5 3 5 5 3 3 5 3 5 5 5 5 5 5 5 5 5 5 5 5 5 5 5 5 5 5 5 5 3 5 5 5 5 3 5 5 5 5 3 3 5 5 5 5 5 5 5 5 5 5 5 5 3 5 5 5 3 5 5 5 5 5 5 5 3 5 5 5 3 5 5 3 3 5 5 5 3 5 5 5 3 5 5 5 5 5 5 5 5 5 5 5 5 5 5 5 5 5 5 3 5 5 5 5 5 5 5 5 5 5 5 5 5 5 5 5 5 5 3 3 5 5 5 5 5 3 3 5 3 5 5 5 5 5 5 5 5 5 3 5 5 5 3 5 5 5 5 5 5 5 5 5 5 5 5 5 5 3 5 5 5 5 5 5 5 3 5 5 3 5 5 5 5 5 5 3 5 5 5 5 3 5 5 5 5 5 5 3 5 5 5 5 5 5 5 5 3 3 5 5 5 3 3 5 5 5 5 5 3 5 5 5 5 5 5 3 5 5 5 5 3 5 5 5 5 5 3 5 5 5 5 3 5 5 5 5 5 5 5 5 5 5 5 5 5 5 5 5 5 5 5 5 5 5 5 5 5 3 5 5 5 5 3 5 3 5 3 5 5 3 5 5 3 5 5 3 5 5 5 5 5 5 3 5 5 3 5 3 3 3 5 5 3 5 3 3 5 5 5 3 5 3 5 5 5 5 5 5 3 5 5 5 3 5 5 5 5 5 5 5 3 5 5 5 3 5 3 3 5 5 5 5 5 5 5 3 5 5 5 5 5 5 5 5 3 3 5 5 5 5 3 5 5 3 5 5 5 3 5 5 5 3 3 5 5 5 5 3 5 5 5 5 5 3 3 5 5 5 5 5 5 5 5 5 5 5 5 5 5 5 5 5 5 5 5 5 5 5 5 5 5 5 5 5 5 5 3 5 5 5 3 5 5 5 5 5 5 5 5 5 5 5 5 5 5 5 3 5 3 3 5 5 3 5 5 5 5 5 5 5 5 5 5 5 5 5 5 5 5 5 5 5 5 5 5 5 3 5 5 3 3 5 5 5 5 5 5 5 3 5 5 5 3 5 5 5 5 3 3 5 5 5 5 5 5 5 3 5 5 5 5 3 5 5 5 5 3 5 5 5 5 5 5 5 5 5 5 5 5 5 5 5 5 5 5 5 3 5 5 5 5 5 5 5 5 5 5 5 5 5 5 5 5 3 5 5 5 3 5 5 5 5 5 5 5 5 5 3 5 5 5 5 5 5 5 5 5 5 5 5 5 5 5 5 5 5 5 5 5 3 5 5 5 5 5 5 5 5 5 5 5 5 5 5 5 5 5 3 5 5 5 5 5 3 5 5 5 5 5 5 5 5 5 5 5 5 5 5 5 5 5 5 5 5 5 5 5 5 5 5 5 3 5 5 3 5 5 5 3 5 5 5 5 5 5 5 5 5 5 5 5 5 5 5 3 5 3 5 5 5 5 5 5 5 5 5 3 5 5 5 5 5 5 5 5 5 3 3 5 5 5 5 5 5 5 5 5 5 5 5 5 5 5 5 5 5 5 5 5 5 5 5 5 5 5 5 5 5 5 5 5 5 5 5 5 5 5 5 5 5 5 5 5 5 5 5 5 5 5 5 5 5 5 5 5 5 5 5 5 5 5 5 5 5 5 5 5 5 5 3 5 5 5 5 5 5 3 5 5 5 5 5 5 5 5 5 3 5 3 5 5 5 5 5 5 5 5 5 5 5 5 5 5 5 5 5 5 5 5 5 5 5 5 5 5 5 5 5 5 5 5 5 5 3 5 5 5 3 3 5 5 5 5 5 5 5 5 5 5 5 5 5 5 5 5 5 5 5 5 5 5 3 3 5 5 5 5 5 5 5 5 3 5 5 5 5 5 5 3 5 5 5 5 5 3 5 5 5 5 3 5 5 5 3 5 5 5 3 5 5 3 5 5 5 5 5 5 5 5 5 5 5 5 5 3 5 5 5 5 5 5 5 5 3 5 5 5 5 5 5 5 5 5 5 5 3 5 5 5 3 5 5 5 5 3 5 5 5 5 5 5 5 5 3 5 3 5 5 3 5 5 5 5 5 3 5 5 5 5 5 5 5 5 5 5 5 5 3 5 5 5 5 5 5 5 5 5 3 5 5 5 5 5 5 3 5 5 5 5 5 5 5 3 5 5 5 5 5 3 5 5 5 5 5 5 5 5 5 5 5 5 5 5 5 5 5 5 5 5 5 5 5 5 5 5 5 5 5 5 5 5 5 5 5 5 5 5 5 5 5 5 5 5 5 5 5 3 5 3 5 5 5 5 5 5 5 5 5 5 5 5 5 5 3 5 5 5 5 5 5 5 5 5 5 5 5 5 5 5 3 5 5 3 5 3 5 5 5 5 5 3 5 5 5 5 5 5 5 5 5 5 5 5 5 5 5 5 5 5 5 5 3 5 5 5 5 5 5 5 5 5 5 5 3 5 3 5 5 3 5 3 5 5 5 5 5 5 5 3 5 3 5 5 5 5 3 5 5 5 5 3 3 5 5 3 5 5 5 5 5 5 5 5 5 5 5 5 5 5 5 5 3 5 5 5 5 5 5 5 5 5 5 5 5 5 5 3 5 3 5 5 5 5 5 5 5 3 5 3 5 5 5 5 5 5 5 5 5 3 3 5 5 5 3 5 5 5 5 3 5 3 5 5 3 5 3 3 3 5 5 3 5 5 5 3 3 3 5 5 5 5 5 5 5 5 5 5 5 3 5 5 5 5 5 5 3 5 5 5 3 5 5 5 5 5 5 5 5 3 5 5 5 3 5 5 5 5 5 5 5 5 5 5 5 5 5 5 5 5 5 5 5 5 5 5 5 5 5 5 5 5 5 5 5 5 5 5 5 5 5 5 5 5 5 5 5 5 5 5 5 5 5 5 5 5 5 5 5 5 5 5 5 5 3 5 5 5 5 5 3 5 5 5 5 3 5 5 5 3 5 5 5 5 5 5 5 5 5 5 5 5 5 5 5 5 5 5 5 5 5 5 5 5 5 5 5 5 5 5 5 5 5 5 5 5 5 5 5 5 3 5 5 3 5 5 5 5 5 5 5 3 5 5 5 5 5 5 5 5 5 5 5 3 5 5 3 5 3 5 5 5 3 5 5 5 5 5 5 5 5 3 5 5 5 5 3 5 5 5 5 3 5 3 5 5 5 5 5 5 5 5 5 5 5 5 3 5 3 5 5 5 5 5 5 5 5 5 5 5 5 5 3 5 5 5 5 5 5 5 5 5 3 5 5 5 3 5 5 5 5 5 5 5 5 5 5 5 5 5 5 5 5 5 5 5 5 5 5 5 5 5 5 5 5 5 5 5 5 5 5 5 3 5 5 3 5 5 5 5 3 5 5 5 5 5 5 5 5 5 5 5 5 5 5 5 3 5 5 5 5 5 5 5 5 5 3 5 3 5 5 5 5 5 5 5 3 5 5 5 5 5 5 5 5 5 5 5 5 5 5 3 5 5 5 5 5 5 5 5 5 5 5 3 5 5 5 5 5 5 5 5 5 5 5 5 5 5 5 5 5 5 5 5 5 5 5 3 5 3 5 5 5 5 5 5 3 5 3 5 5 5 3 5 5 5 3 5 5 5 3 5 5 3 5 5 5 5 5 5 5 3 5 5 5 5 5 5 5 3 5 5 5 5 5 5 5 5 5 5 5 5 5 3 5 5 5 5 5 5 5 5 3 5 5 5 5 5 5 5 5 5 5 5 5 5 5 5 5 5 5 5 5 3 5 5 5 5 5 5 5 5 5 5 5 5 5 5 5 5 5 5 5 5 5 5 5 5 5 5 5 5 5 5 5 5 5 5 5 5 5 5 5 5 5 5 5 5 5 5 5 5 5 5 3 5 3 5 5 5 3 5 5 3 3 5 3 5 5 5 5 5 5 5 5 5 5 5 5 5 5 5 5 5 5 5 5 5 5 5 5 5 5 5 5 5 5 5 5 5 5 5 3 5 5 5 5 3 5 5 3 5 5 5 3 5 5 5 5 3 5 3 3 5 5 5 5 3 5 5 5 3 5 5 5 3 5 5 5 5 5 5 3 5 5 5 5 5 5 5 5 5 5 5 5 5 5 5 5 5 5 5 5 3 5 5 5 5 5 5 5 5 5 5 5 5 5 5 5 5 5 5 3 5 5 3 5 5 3 5 5 5 5 5 5 5 5 5 5 5 3 5 5 5 5 3 5 5 5 5 3 5 5 5 3 5 5 5 5 5 5 5 5 5 5 5 5 5 5 5 5 5 5 5 5 5 5 5 5 5 3 5 5 5 5 5 5 5 5 3 5 5 5 3 5 5 5 5 5 5 5 5 5 5 5 5 5 5 5 5 5 5 5 5 5 5 5 5 3 5 5 5 3 5 5 5 5 5 5 5 5 3 5 5 3 5 5 5 5 3 5 5 5 5 5 5 5 3 5 3 5 5 3 5 5 3 3 5 5 5 5 5 5 5 5 5 5 5 5 5 5 5 5 5 5 5 5 5 3 5 5 5 5 3 5 5 5 5 5 5 5 5 5 5 5 5 5 3 5 5 3 5 5 5 5 5 5 5 5 5 5 5 5 5 5 5 5 5 5 5 5 5 5 5 5 5 5 5 5 5 5 5 5 5 5 5 5 5 5 5 5 5 5 5 5 5 5 5 5 5 5 5 5 5 5 5 5 5 5 5 5 5 5 5 5 5 5 5 5 5 5 5 5 5 5 5 5 5 5 5 5 5 5 5 5 5 5 5 5 5 5 5 5 5 5 5 5 5 5 5 5 5 5 5 5 5 5 5 5 5 5 5 5 5 5 5 5 5 5 5 5 5 5 5 5 5 5 5 5 3 5 5 5 5 5 5 5 3 5 5 5 5 5 5 5 5 5 3 5 3 5 5 5 3 5 5 3 5 5 5 5 5 5 5 5 5 5 5 5 5 5 5 5 5 5 5 5 5 5 5 5 5 5 5 5 5 5 5 5 5 5 5 5 5 3 5 5 3 3 5 5 3 5 5 3 5 5 5 3 5 5 5 5 5 5 5 5 5 3 5 5 5 5 5 5 3 5 5 5 5 5 5 5 5 5 5 5 5 5 5 5 5 5 5 5 5 5 5 5 5 5 5 5 5 5 5 5 3 5 5 5 5 5 5 5 5 5 5 5 5 5 5 5 5 5 5 5 5 5 5 5 5 5 5 5 5 5 5 5 5 5 5 5 5 5 5 5 5 5 5 5 5 5 5 3 5 3 5 5 5 5 3 5 5 5 5 3 5 5 5 5 3 5 5 5 5 5 5 5 5 3 5 5 3 5 3 5 5 5 5 3 5 5 3 3 5 5 5 5 5 5 3 5 5 5 5 5 5 5 5 5 5 3 3 5 5 5 5 5 3 5 5 3 5 5 5 5 3 5 5 3 5 5 5 5 5 5 5 5 5 5 5 5 5 5 5 5 5 5 5 5 5 5 5 5 5 5 5 5 5 3 5 3 5 5 5 5 5 5 5 5 5 5 5 5 5 3 5 5 5 5 3 3 5 5 5 5 5 5 5 5 5 5 5 5 5 5 5 5 5 5 5 5 5 5 5 5 5 5 5 5 5 5 5 5 5 5 5 5 5 5 5 5 5 5 3 5 5 5 3 5 5 5 5 5 5 5 5 5 5 5 5 5 5 5 5 5 5 5 5 3 5 5 3 5 5 5 5 5 5 5 5 5 3 5 5 5 5 5 3 5 5 5 5 5 3 5 3 5 5 5 5 5 5 5 5 5 5 5 5 5 3 5 5 5 3 3 5 5 5 5 5 5 5 5 3 5 5 3 5 5 3 3 5 5 5 5 5 3 5 5 5 5 5 5 5 3 5 5 3 3 5 5 5 5 5 5 3 3 5 5 5 3 5 5 5 5 5 5 5 3 5 5 5 5 5 5 5 5 5 5 5 5 5 5 5 5 5 5 5 5 5 5 5 5 5 5 3 5 5 5 5 5 5 5 3 5 5 5 5 5 5 5 5 5 5 5 3 5 5 5 5 5 5 5 5 3 5 5 5 5 5 5 5 5 5 5 5 5 5 5 5 5 3 5 5 5 3 5 5 5 5 5 3 5 5 5 5 5 5 5 5 5 5 5 5 5 5 3 5 5 5 5 3 5 5 3 5 5 5 5 5 3 5 5 5 5 5 5 5 5 5 5 5 5 5 5 3 5 3 5 5 5 3 5 3 5 3 5 5 5 5 5 5 3 3 5 5 5 5 5 5 3 5 3 5 5 5 5 5 5 5 5 5 5 5 5 5 5 5 5 5 3 5 5 5 3 3 5 5 5 5 5 3 5 5 3 3 5 5 5 5 5 5 5 5 5 5 5 5 5 5 5 5 5 5 5 5 5 5 5 5 5 5 5 5 5 5 5 5 5 5 5 5 5 5 5 5 5 5 5 5 3 5 5 3 3 3 5 5 5 5 5 5 3 5 5 5 5 5 5 5 5 5 3 5 5 5 3 5 5 5 5 5 5 5 5 5 5 5 5 5 5 5 5 5 5 5 5 3 5 5 5 5 3 5 5 5 5 5 5 5 5 5 5 5 5 5 5 5 5 5 5 5 5 5 5 5 5 5 5 5 5 5 5 5 5 5 5 3 5 3 5 5 5 5 5 5 5 5 3 5 5 5 3 5 3 5 5 5 5 5 5 5 5 3 5 5 5 5 3 5 5 5 5 3 5 5 5 5 5 5 5 3 5 5 5 5 3 5 5 5 5 5 5 5 5 5 5 5 5 5 5 5 5 5 5 5 5 5 5 5 5 5 5 5 5 5 5 5 5 5 5 5 5 5 5 5 5 5 5 5 5 5 5 3 5 5 5 5 3 3 5 5 3 3 5 5 5 5 5 5 5 5 5 5 5 5 5 5 5 5 5 5 5 3 5 5 5 3 3 5 5 5 5 5 5 5 5 5 5 5 5 5 5 5 5 5 5 5 5 5 5 5 5 5 5 5 3 5 5 5 5 5 5 5 3 5 5 5 5 5 5 5 5 5 5 5 5 5 5 5 3 5 5 5 5 5 5 5 5 3 5 3 3 5 5 5 5 5 5 5 5 5 5 5 5 3 5 5 5 5 5 5 5 5 5 5 5 5 5 5 5 5 5 5 3 5 5 5 3 5 5 5 5 5 5 5 5 3 5 5 5 5 5 5 5 5 5 5 5 5 5 5 5 3 5 5 5 3 5 5 5 5 5 5 5 5 5 5 5 5 5 5 5 5 5 5 5 5 5 5 5 5 5 5 5 5 5 5 5 5 5 3 5 3 5 5 5 5 5 5 5 5 3 5 5 5 5 5 5 5 5 5 3 5 5 3 5 5 5 5 5 3 5 5 5 5 3 5 5 5 5 3 5 5 5 3 5 3 5 5 3 5 5 5 5 5 5 5 5 5 5 5 5 5 5 3 5 5 3 5 3 5 5 5 3 5 5 3 5 5 5 5 3 5 3 5 5 5 5 5 5 3 5 3 5 5 5 5 5 3 5 5 5 5 3 5 5 5 5 5 5 3 5 5 5 5 5 5 5 5 5 5 5 5 5 5 5 5 5 5 5 5 5 5 5 5 5 5 5 5 5 5 5 5 5 3 3 5 5 5 5 5 5 5 5 5 5 3 5 5 3 3 5 3 5 5 5 5 5 5 5 3 5 5 5 5 5 5 5 5 5 5 5 5 3 5 5 5 5 3 5 5 5 5 5 5 5 5 5 5 5 5 3 5 5 5 5 5 5 5 5 5 5 5 5 5 5 5 5 5 3 5 5 5 5 5 3 5 5 5 3 5 5 5 5 5 5 3 5 3 5 5 5 3 5 5 5 5 5 5 5 5 5 3 5 5 3 5 5 5 5 5 5 5 3 5 5 5 5 5 5 5 5 5 5 5 5 5 3 5 5 3 5 5 5 5 5 5 3 5 5 5 5 5 5 3 5 5 5 5 5 5 5 3 5 5 5 5 5 5 5 5 5 5 5 5 5 5 5 5 5 5 5 5 5 5 3 5 5 5 5 5 5 5 5 5 5 3 5 5 5 5 3 3 5 5 5 5 3 5 5 5 5 5 5 5 5 5 3 5 5 5 5 5 5 5 5 5 5 5 3 5 5 5 3 5 5 5 3 5 5 5 5 5 5 5 5 5 5 5 5 3 5 5 5 5 5 3 5 5 3 5 5 5 5 5 5 5 5 5 5 5 5 5 5 3 5 5 5 5 5 5 5 3 5 5 5 3 5 5 5 5 5 3 5 5 5 5 5 5 5 5 5 3 5 5 5 5 5 5 5 5 3 5 5 5 5 5 3 5 5 5 5 5 5 5 3 5 5 5 5 5 5 5 5 5 5 5 5 5 5 5 5 5 5 5 5 5 5 5 5 5 5 5 5 5 5 5 5 5 5 5 5 5 5 5 5 5 5 5 5 5 5 5 5 3 5 5 5 5 5 5 5 3 5 5 5 5 5 5 5 5 5 5 5 5 5 5 5 5 5 5 5 5 5 5 3 3 5 5 3 3 5 5 5 5 5 5 5 3 5 5 5 5 5 5 5 5 5 5 5 5 5 5 3 5 5 5 5 5 5 5 5 3 5 5 3 5 5 5 3 5 5 5 5 5 5 5 5 5 5 5 5 5 5 5 5 5 5 5 5 5 5 5 5 5 5 5 5 3 5 5 5 5 5 5 5 5 3 5 5 5 5 5 5 3 3 5 5 5 5 3 5 5 3 5 5 3 5 5 5 5 5 5 3 5 5 5 5 5 5 5 5 3 5 5 5 5 5 5 5 5 5 5 5 3 5 5 3 5 5 5 5 5 5 5 3 5 5 5 3 5 3 5 3 5 5 5 5 5 5 5 5 5 5 5 5 5 5 5 5 5 3 5 3 5 5 5 5 5 5 5 5 5 5 3 5 5 5 5 5 5 5 3 5 5 5 3 5 3 3 5 5 3 5 5 5 5 3 5 5 5 3 5 5 5 3 5 3 3 5 5 5 5 5 5 3 5 5 5 5 5 5 5 5 3 3 3 5 3 5 5 3 3 5 5 3 5 5 5 5 5 5 5 5 5 5 5 3 5 5 5 5 5 5 5 5 5 5 5 5 5 3 3 5 5 5 5 3 5 5 5 3 5 5 5 5 5 3 3 5 5 5 3 5 5 5 5 5 5 5 5 5 5 5 5 5 5 5 3 5 5 5 3 5 5 5 3 5 5 5 5 5 5 3 5 5 5 5 5 3 5 5 5 5 5 5 5 5 3 5 5 5 5 5 5 5 5 5 3 5 5 5 5 3 5 3 5 5 3 5 3 5 5 5 5 5 5 3 5 3 3 5 5 5 5 5 5 5 5 3 5 3 5 3 5 3 5 5 5 5 5 5 5 5 5 5 5 3 5 5 5 3 5 5 5 5 5 5 5 5 3 5 5 5 5 5 5 5 5 5 3 5 5 5 5 3 5 5 3 5 5 5 5 5 5 5 5 5 3 5 5 5 3 5 5 5 5 5 5 5 5 5 5 5 5 5 5 5 5 5 5 5 3 5 5 5 5 5 5 5 5 5 5 3 5 5 5 5 5 5 5 5 5 5 5 5 5 5 5 5 5 5 5 5 5 5 5 5 5 5 5 5 5 5 5 5 5 5 5 5 5 5 5 5 5 5 5 5 5 3 3 5 5 5 5 5 5 5 5 5 5 5 5 5 3 3 5 5 5 3 5 5 3 5 5 5 3 5 5 5 3 5 5 5 5 5 5 5 5 3 5 5 3 5 3 3 5 5 5 5 5 5 3 5 3 3 3 5 5 3 5 5 3 3 5 5 5 5 5 5 5 5 5 5 5 5 5 5 5 5 5 5 5 5 5 3 5 5 5 5 5 5 5 5 5 3 5 5 5 5 5 5 5 3 3 5 5 5 5 5 5 5 5 5 5 5 5 5 5 5 5 5 5 5 5 5 5 5 3 5 3 5 5 5 5 5 5 5 3 5 5 5 3 3 5 5 3 5 5 5 5 3 5 5 5 3 5 5 5 3 5 5 5 5 5 5 5 5 5 3 3 5 5 5 5 5 3 5 5 3 3 3 5 5 5 5 5 3 5 5 5 5 5 5 5 5 5 3 5 3 5 5 5 5 5 5 5 5 5 5 5 5 5 5 5 5 5 5 5 5 5 5 5 5 3 5 5 5 5 3 3 5 5 5 3 5 5 5 5 5 5 5 5 5 5 5 5 5 5 5 5 3 5 5 5 3 5 5 3 5 5 5 5 5 5 5 5 5 5 5 5 5 3 5 5 3 5 5 5 3 5 3 5 3 5 3 3 3 5 5 5 5 5 5 5 5 3 5 5 5 5 5 5 5 5 3 5 5 3 5 5 5 5 5 5 5 5 5 5 5 5 5 5 5 5 5 5 5 5 5 3 5 5 5 5 5 5 5 5 5 5 3 5 3 5 5 3 5 3 5 3 5 5 3 5 3 5 5 3 5 5 5 3 5 5 5 5 5 5 5 5 5 5 5 5 5 5 5 5 5 5 5 5 5 5 5 5 5 5 5 5 5 5 5 5 5 5 5 5 5 5 5 5 5 5 5 5 5 5 5 5 5 5 5 5 5 5 5 5 5 5 5 5 5 3 5 5 3 5 5 5 5 5 5 3 3 5 5 5 5 5 5 5 5 5 5 5 5 5 5 5 5 5 5 3 5 5 5 3 5 5 5 5 5 5 5 5 5 5 5 5 5 5 5 5 3 5 5 5 5 5 5 5 3 5 5 5 5 5 5 5 5 3 5 3 5 5 5 5 5 5 5 5 5 5 5 5 5 5 5 5 3 5 5 5 5 5 5 5 3 5 5 5 5 3 5 5 5 5 5 5 5 3 5 5 3 3 5 5 3 5 5 5 5 5 5 3 5 5 5 5 5 5 5 5 5 3 5 5 3 5 5 3 5 5 3 5 5 5 5 5 3 5 5 5 5 5 5 5 5 3 5 5 5 5 5 5 5 3 5 5 5 5 5 5 5 5 5 5 5 5 3 5 5 5 5 5 5 5 3 3 5 3 5 3 5 5 5 5 5 5 5 5 5 5 5 5 5 5 5 3 5 3 5 5 5 5 5 5 5 5 3 5 3 5 3 5 3 5 3 5 5 3 5 5 5 5 5 3 5 5 5 5 5 5 5 5 3 5 5 5 5 5 3 5 5 3 5 3 3 5 5 5 5 5 5 5 5 3 5 5 5 5 5 5 5 5 5 5 5 5 5 3 5 5 5 5 5 5 5 3 5 5 5 3 5 5 5 5 5 5 5 5 5 5 5 5 5 5 5 5 5 3 5 5 5 5 5 5 5 3 5 5 3 5 5 5 5 5 5 5 5 5 5 5 5 5 5 5 3 5 5 5 5 3 5 5 5 5 5 5 5 5 5 5 5 5 5 5 5 5 5 5 5 5 5 5 5 5 5 3 5 5 5 5 5 5 3 5 5 5 5 5 5 5 5 5 3 3 5 5 5 3 5 3 5 5 5 5 5 5 5 5 5 5 5 5 5 5 5 3 5 5 5 5 5 5 5 5 5 5 5 5 3 3 5 5 5 5 5 5 5 5 3 5 5 3 5 5 3 3 5 5 5 5 5 5 5 3 5 5 5 5 5 5 5 5 5 3 5 5 5 3 5 5 5 5 5 3 5 5 5 5 5 5 5 5 5 5 5 5 3 5 5 5 3 5 5 5 3 5 5 5 5 5 5 5 5 5 5 5 5 5 5 5 5 5 5 5 5 5 5 5 5 5 5 5 5 5 5 5 5 3 5 5 5 5 5 5 5 5 5 5 5 5 5 5 5 5 5 5 5 5 5 5 5 5 3 5 3 5 5 3 5 5 5 5 5 5 5 5 5 3 5 5 5 5 5 5 5 5 5 5 5 5 5 5 3 5 5 5 5 3 5 5 5 3 5 5 5 5 5 5 5 5 5 5 5 5 5 5 5 5 5 5 5 5 5 5 5 5 5 5 5 5 5 5 5 5 5 5 5 5 5 5 5 5 5 5 5 5 5 5 5 5 5 5 5 5 5 5 5 5 5 5 5 5 5 5 5 5 5 5 5 5 5 5 5 5 5 5 5 5 5 5 5 5 5 5 5 5 5 5 5 5 5 5 5 5 5 5 5 5 5 5 5 5 5 5 5 5 5 5 5 5 5 5 5 5 5 5 5 5 5 5 5 5 5 5 5 5 5 5 5 5 5 5 5 5 5 5 5 5 5 5 5 5 5 5 5 5 5 5 5 5 5 5 5 5 5 5 5 5 5 5 5 5 5 5 5 5 5 5 5 5 5 5 5 5 5 5 5 5 5 5 5 5 5 5 5 5 5 5 5 5 5 3 5 5 5 5 5 5 5 5 5 5 5 5 5 5 5 5 3 5 5 5 5 5 5 5 5 3 5 5 5 5 3 5 5 5 5 5 5 5 5 5 5 5 5 5 5 5 5 5 5 5 5 5 5 3 5 5 5 5 5 5 5 5 5 5 5 5 5 3 3 5 5 5 5 5 3 5 3 5 5 5 5 5 5 5 5 5 5 5 3 5 5 5 5 5 5 5 3 5 5 5 5 5 5 5 5 5 5 5 5 5 5 5 3 3 5 5 5 5 5 5 5 5 5 5 5 5 3 5 5 5 5 5 5 5 5 5 5 5 5 5 5 5 5 3 5 5 5 5 5 5 5 3 5 5 5 5 5 5 5 5 5 5 3 3 5 5 5 5 5 5 5 5 5 5 5 5 5 5 5 5 5 5 5 5 5 5 5 5 5 5 5 5 5 5 3 5 5 5 5 5 3 5 5 5 5 5 5 5 5 5 5 3 5 5 5 5 3 5 5 5 5 5 5 5 5 5 5 3 5 3 5 5 5 5 5 5 5 5 5 5 5 5 5 5 5 5 5 5 5 5 5 5 5 5 5 5 5 5 5 5 5 3 5 5 5 5 5 3 5 5 5 5 5 5 5 5 5 5 5 5 5 5 5 5 5 5 3 5 5 3 5 5 5 3 5 5 5 5 5 3 5 5 5 5 5 5 5 5 5 5 3 5 5 5 5 5 5 3 5 5 5 5 5 3 3 5 5 3 5 5 3 5 5 5 5 5 5 5 5 5 5 3 5 5 3 5 5 3 5 5 3 5 5 3 5 5 3 5 5 5 5 5 5 3 5 5 5 5 5 5 5 5 5 5 5 3 5 5 5 5 5 5 5 3 5 5 5 5 3 5 5 5 3 5 5 5 5 5 5 5 5 5 5 5 3 5 5 5 5 5 5 5 5 5 5 5 5 5 5 5 5 5 5 5 5 5 5 5 5 3 5 5 5 5 5 3 5 5 5 5 5 5 5 5 5 5 5 5 5 5 3 5 5 3 5 3 5 5 5 5 3 5 3 3 5 3 5 5 5 5 5 5 5 3 5 3 5 5 5 5 5 5 3 5 5 5 5 5 5 3 5 5 5 5 3 5 5 5 5 5 3 5 5 3 5 5 5 5 3 5 5 5 5 3 5 5 5 5 5 5 3 5 5 5 5 5 5 5 5 5 3 5 5 5 5 5 5 3 5 5 5 5 3 5 5 5 5 5 5 5 5 5 5 5 5 5 5 5 5 3 5 5 5 3 5 5 3 5 5 5 5 5 5 5 5 5 5 5 5 5 5 5 5 3 5 3 5 5 5 5 5 5 5 5 5 5 5 5 5 5 5 5 5 5 5 5 5 5 5 5 5 5 3 5 5 3 5 5 5 5 5 5 5 5 5 5 3 5 5 5 5 3 5 5 5 5 3 5 5 5 5 5 5 5 5 5 3 5 5 5 5 5 5 5 5 5 5 5 5 5 5 5 5 5 5 5 5 5 5 5 5 5 5 5 5 
</DataArray>
</Cells>
<PointData Scalars="" Vectors="displacement," Tensors="">
<DataArray type="Float64" Name="displacement" NumberOfComponents="3" format="ascii">
1.6994505044575848e-06 0.03499679962725618 0 0.00017031408898312029 0.032722062839948156 0 -3.5981523622808345e-06 0.029500836547642396 0 1.6994505044575848e-06 0.03499679962725618 0 0.00015685322014849889 0.034200754651609565 0 0.00017031408898312029 0.032722062839948156 0 1.6994505044575848e-06 0.03499679962725618 0 0.00015685322014849889 0.034200754651609565 0 -6.1128346669860117e-09 0.034999144805655059 0 0.00015685322014849889 0.034200754651609565 0 -6.1128346669860117e-09 0.034999144805655059 0 8.6346166765298554e-05 0.034200987635595648 0 -6.1128346669860117e-09 0.034999144805655059 0 8.6346166765298554e-05 0.034200987635595648 0 6.8087400753349627e-05 0.034765032996279172 0 0.00029872127023219274 0.032056495540918703 0 -1.1718184453750544e-05 0.031145238626542872 0 8.6346166765298554e-05 0.034200987635595648 0 -0.00039422744609200728 0.034170571312504706 0 -0.00042510415579816423 0.034364804529573169 0 8.6346166765298554e-05 0.034200987635595648 0 -0.00042510415579816423 0.034364804529573169 0 -0.00020856056334682147 0.034585052907070452 0 0.00015685322014849889 0.034200754651609565 0 8.6346166765298554e-05 0.034200987635595648 0 0.00017031408898312029 0.032722062839948156 0 8.6346166765298554e-05 0.034200987635595648 0 0.00017031408898312029 0.032722062839948156 0 -0.00062319080789939628 0.033378321754803909 0 0.00017031408898312029 0.032722062839948156 0 -0.001324376241575894 0.031624609195041203 0 -0.00062319080789939628 0.033378321754803909 0 0.00017031408898312029 0.032722062839948156 0 -3.5981523622808345e-06 0.029500836547642396 0 -0.001324376241575894 0.031624609195041203 0 -1.9803301088674997e-06 0.029489653566670333 0 -0.0003012917606731077 0.027194167328571418 0 8.3569004661787845e-07 0.02757204728370222 0 -1.2344187502519472e-06 0.029491528524978383 0 -0.00052018731570153541 0.028963696126116656 0 8.3569004661787845e-07 0.02757204728370222 0 7.9407752537116369e-05 0.02648889508378497 0 0.0001676214880805258 0.02578151391591051 0 8.3569004661787845e-07 0.02757204728370222 0 2.5483204910345711e-07 0.025651173631593555 0 0.0001676214880805258 0.02578151391591051 0 -0.0003012917606731077 0.027194167328571418 0 8.3569004661787845e-07 0.02757204728370222 0 7.9407752537116369e-05 0.02648889508378497 0 -0.0003012917606731077 0.027194167328571418 0 7.9407752537116369e-05 0.02648889508378497 0 -0.00013214983569077355 0.026230656037456005 0 -0.00052018731570153541 0.028963696126116656 0 -0.00076615711903149956 0.027902041574017215 0 7.9407752537116369e-05 0.02648889508378497 0 0.00020627895535862989 0.026003390869082883 0 -0.00013214983569077355 0.026230656037456005 0 7.9407752537116369e-05 0.02648889508378497 0 0.00020627895535862989 0.026003390869082883 0 0.0001676214880805258 0.02578151391591051 0 -0.00055077323696427216 0.025344076233967106 0 -0.00076615711903149956 0.027902041574017215 0 -0.00080546635304329806 0.020389290556921198 0 -0.00053883873745578831 0.020659332758066157 0 -0.00019213724319279107 0.020526937172827102 0 -0.00080546635304329806 0.020389290556921198 0 -0.00053883873745578831 0.020659332758066157 0 -0.00082351026617045716 0.020704736939455383 0 -0.00053883873745578831 0.020659332758066157 0 -0.00019213724319279107 0.020526937172827102 0 -0.00045941681709208755 0.021009778549621643 0 -0.00056105177284147974 0.034243984381890753 0 -0.0004954950949895724 0.034330482171419117 0 -0.00053229251148233681 0.034291312317484571 0 -0.00076615711903149956 0.027902041574017215 0 -0.00066473277681849908 0.027604292548250468 0 -0.0004954950949895724 0.034330482171419117 0 -0.00053229251148233681 0.034291312317484571 0 -0.00054359830299957352 0.03432572953341604 0 -0.00045941681709208755 0.021009778549621643 0 -0.00082351026617045716 0.020704736939455383 0 -0.0009094551967710904 0.021021750995798196 0 -0.00053883873745578831 0.020659332758066157 0 -0.00045941681709208755 0.021009778549621643 0 -0.00082351026617045716 0.020704736939455383 0 -0.00056105177284147974 0.034243984381890753 0 -0.00039422744609200728 0.034170571312504706 0 -0.00053229251148233681 0.034291312317484571 0 -0.00076615711903149956 0.027902041574017215 0 -1.1718184453750544e-05 0.031145238626542872 0 -0.001324376241575894 0.031624609195041203 0 -0.0020440334199055797 0.032797134683029132 0 -0.00062319080789939628 0.033378321754803909 0 -0.00053229251148233681 0.034291312317484571 0 -0.00042510415579816423 0.034364804529573169 0 -0.00053669822385559612 0.034349818882224659 0 -0.00053229251148233681 0.034291312317484571 0 -0.00053669822385559612 0.034349818882224659 0 -0.00054359830299957352 0.03432572953341604 0 -0.00039422744609200728 0.034170571312504706 0 -0.00053229251148233681 0.034291312317484571 0 -0.00042510415579816423 0.034364804529573169 0 -0.00042510415579816423 0.034364804529573169 0 -0.00040666283113777879 0.034515088426720623 0 -0.00020856056334682147 0.034585052907070452 0 -0.00040666283113777879 0.034515088426720623 0 -0.00036670986684125584 0.034685160021741747 0 -0.00020856056334682147 0.034585052907070452 0 -0.00040666283113777879 0.034515088426720623 0 -0.00048288179931278816 0.034494127911013091 0 -0.00047271923885957445 0.034585838820051396 0 -0.00040666283113777879 0.034515088426720623 0 -0.00050102262057920581 0.03441505949154669 0 -0.00048288179931278816 0.034494127911013091 0 -0.00042510415579816423 0.034364804529573169 0 -0.00040666283113777879 0.034515088426720623 0 -0.00050102262057920581 0.03441505949154669 0 -0.00042510415579816423 0.034364804529573169 0 -0.00053669822385559612 0.034349818882224659 0 -0.00050102262057920581 0.03441505949154669 0 -0.00053669822385559612 0.034349818882224659 0 -0.00050102262057920581 0.03441505949154669 0 -0.00059416442258029779 0.034371924908708336 0 -0.00053669822385559612 0.034349818882224659 0 -0.00059416442258029779 0.034371924908708336 0 -0.00054359830299957352 0.03432572953341604 0 -0.00059416442258029779 0.034371924908708336 0 -0.00054359830299957352 0.03432572953341604 0 -0.00055232737804198587 0.034256512805600631 0 -0.0012753503072645404 0.033616963252457645 0 -0.0012882921419398656 0.033524021683992523 0 -0.00059416442258029779 0.034371924908708336 0 -0.0005529713443876565 0.034462941141075842 0 -0.00066512511412435474 0.034643731330709172 0 -0.00059416442258029779 0.034371924908708336 0 -0.00064993700108951157 0.034202504222410723 0 -0.00055232737804198587 0.034256512805600631 0 -0.0012878663726689943 0.033570586867358518 0 -0.0012882921419398656 0.033524021683992523 0 -0.0005529713443876565 0.034462941141075842 0 -0.00047271923885957445 0.034585838820051396 0 -0.00061467126508695489 0.034595237288028921 0 -0.00050102262057920581 0.03441505949154669 0 -0.00048288179931278816 0.034494127911013091 0 -0.0005529713443876565 0.034462941141075842 0 -0.00050102262057920581 0.03441505949154669 0 -0.00059416442258029779 0.034371924908708336 0 -0.0005529713443876565 0.034462941141075842 0 -0.00048288179931278816 0.034494127911013091 0 -0.0005529713443876565 0.034462941141075842 0 -0.00047271923885957445 0.034585838820051396 0 -0.00047271923885957445 0.034585838820051396 0 -0.00061467126508695489 0.034595237288028921 0 -0.00049207622910043343 0.034743232073243431 0 -0.0012882921419398656 0.033524021683992523 0 -0.0010714476911104179 0.033318675115688007 0 -0.00061467126508695489 0.034595237288028921 0 -0.00049207622910043343 0.034743232073243431 0 -0.00063731405837585714 0.034901469849916308 0 -0.00049207622910043343 0.034743232073243431 0 -0.00036670986684125584 0.034685160021741747 0 -0.00038119911211226623 0.034924574533594023 0 -0.00036670986684125584 0.034685160021741747 0 -0.00038119911211226623 0.034924574533594023 0 -0.00020347118133570287 0.034758400349627926 0 -0.00047271923885957445 0.034585838820051396 0 -0.00049207622910043343 0.034743232073243431 0 -0.00036670986684125584 0.034685160021741747 0 -0.00040666283113777879 0.034515088426720623 0 -0.00047271923885957445 0.034585838820051396 0 -0.00036670986684125584 0.034685160021741747 0 -0.0004954950949895724 0.034330482171419117 0 -0.00027942739659362069 0.034196924036224825 0 -0.00046758213090477375 0.03424044154244673 0 -0.00045941681709208755 0.021009778549621643 0 -0.00071638751843148489 0.021511122214676392 0 -0.0009094551967710904 0.021021750995798196 0 -0.00066473277681849908 0.027604292548250468 0 -0.00072521864093439943 0.027422272249422973 0 -0.00027942739659362069 0.034196924036224825 0 -0.00046758213090477375 0.03424044154244673 0 -0.00038675802334231757 0.034114187333441466 0 -0.0004954950949895724 0.034330482171419117 0 -0.00046758213090477375 0.03424044154244673 0 -0.00054359830299957352 0.03432572953341604 0 -0.00046758213090477375 0.03424044154244673 0 -0.00054359830299957352 0.03432572953341604 0 -0.00055232737804198587 0.034256512805600631 0 -0.00064993700108951157 0.034202504222410723 0 -0.00051122726082037393 0.034082609470019648 0 -0.00055526690551184975 0.033831759821749068 0 -0.0012882921419398656 0.033524021683992523 0 -0.0013525857076081636 0.03244955930184306 0 -0.00046758213090477375 0.03424044154244673 0 -0.00055232737804198587 0.034256512805600631 0 -0.00051122726082037393 0.034082609470019648 0 -0.00064993700108951157 0.034202504222410723 0 -0.00055232737804198587 0.034256512805600631 0 -0.00051122726082037393 0.034082609470019648 0 -0.00046758213090477375 0.03424044154244673 0 -0.00051122726082037393 0.034082609470019648 0 -0.00038675802334231757 0.034114187333441466 0 -0.00051122726082037393 0.034082609470019648 0 -0.00038675802334231757 0.034114187333441466 0 -0.00028383366347353587 0.033926813133706359 0 -0.00027942739659362069 0.034196924036224825 0 -0.00028383366347353587 0.033926813133706359 0 -9.143408723847986e-05 0.033910896057454828 0 -0.00027942739659362069 0.034196924036224825 0 -0.00038675802334231757 0.034114187333441466 0 -0.00028383366347353587 0.033926813133706359 0 -0.00028383366347353587 0.033926813133706359 0 -0.00034023184508679381 0.033711103290754718 0 -0.00055526690551184975 0.033831759821749068 0 -0.00028383366347353587 0.033926813133706359 0 -0.00034023184508679381 0.033711103290754718 0 -0.00015102209886240433 0.03367379637698667 0 -0.00051122726082037393 0.034082609470019648 0 -0.00028383366347353587 0.033926813133706359 0 -0.00055526690551184975 0.033831759821749068 0 -0.0013525857076081636 0.03244955930184306 0 -0.0012433761750363342 0.030253576269320768 0 -0.0012874880742435157 0.032371601950699984 0 -0.0015275048191602629 0.031499219155335732 0 -0.00079802382299490316 0.031507541366327878 0 -0.0012874880742435157 0.032371601950699984 0 -0.0015275048191602629 0.031499219155335732 0 -0.0016529665705374737 0.032367073716935868 0 -0.00073986864531219959 0.032408072724683511 0 -0.0012433761750363342 0.030253576269320768 0 -0.00036524472991234994 0.03340265195867019 0 -0.00015102209886240433 0.03367379637698667 0 -4.7955533644039288e-05 0.033390813460146343 0 -0.00034023184508679381 0.033711103290754718 0 -0.00036524472991234994 0.03340265195867019 0 -0.00015102209886240433 0.03367379637698667 0 -0.0012433761750363342 0.030253576269320768 0 -0.00086318811559580255 0.028359680536557203 0 -0.00034023184508679381 0.033711103290754718 0 -0.00055526690551184975 0.033831759821749068 0 -0.00036524472991234994 0.03340265195867019 0 -0.0017775287099257792 0.033236509303054995 0 -0.0012874880742435157 0.032371601950699984 0 -0.0016529665705374737 0.032367073716935868 0 -0.00049207622910043343 0.034743232073243431 0 -0.00038119911211226623 0.034924574533594023 0 -0.00063731405837585714 0.034901469849916308 0 -0.00067203539565357823 0.035169366887005449 0 -0.00038119911211226623 0.034924574533594023 0 -0.00063731405837585714 0.034901469849916308 0 -0.00073986864531219959 0.032408072724683511 0 -0.0010714476911104179 0.033318675115688007 0 -0.00067203539565357823 0.035169366887005449 0 -0.00038119911211226623 0.034924574533594023 0 -0.00030385254313806823 0.035173688234445284 0 -0.00038119911211226623 0.034924574533594023 0 -0.00017423874646316107 0.034961386814323044 0 -0.00030385254313806823 0.035173688234445284 0 -0.00017423874646316107 0.034961386814323044 0 4.2520721274497457e-05 0.035174978722640873 0 -0.00030385254313806823 0.035173688234445284 0 -0.00038119911211226623 0.034924574533594023 0 -0.00017423874646316107 0.034961386814323044 0 -0.00020347118133570287 0.034758400349627926 0 -0.00017423874646316107 0.034961386814323044 0 -5.106772212057169e-05 0.034840669610690898 0 -0.00020347118133570287 0.034758400349627926 0 -4.7718547460880963e-05 0.034869324739612136 0 2.1544589296087214e-05 0.034951927047028125 0 2.2177685910334777e-05 0.034838257938340021 0 -5.1716215604138536e-06 0.034994317342082235 0 -4.1776675910362298e-06 0.034997388671956314 0 -9.292111380090535e-07 0.034997414626214092 0 -6.6943139238995834e-05 0.034893359701188724 0 -6.0351803880653747e-06 0.034962646263373649 0 -6.6943139238995834e-05 0.034893359701188724 0 -6.699766002570325e-05 0.034892919307989337 0 -6.6943139238995834e-05 0.034893359701188724 0 -7.3048888217027891e-05 0.034848828853991973 0 -0.00017423874646316107 0.034961386814323044 0 -5.106772212057169e-05 0.034840669610690898 0 -4.1568412449892861e-06 0.035005951725480378 0 -0.00017423874646316107 0.034961386814323044 0 -4.1568412449892861e-06 0.035005951725480378 0 4.2520721274497457e-05 0.035174978722640873 0 -7.3048888217027891e-05 0.034848828853991973 0 -0.00012181514073541976 0.03466679047801173 0 -4.1776675910362298e-06 0.034997388671956314 0 -2.1089123857256143e-06 0.034998335067181238 0 -3.2910482044731927e-06 0.034999703773931877 0 -2.1089123857256143e-06 0.034998335067181238 0 -9.292111380090535e-07 0.034997414626214092 0 -7.2471919948680021e-07 0.034999620009226046 0 -9.292111380090535e-07 0.034997414626214092 0 -3.5903730205482503e-07 0.03499973689256583 0 -7.2471919948680021e-07 0.034999620009226046 0 -2.1089123857256143e-06 0.034998335067181238 0 -7.2471919948680021e-07 0.034999620009226046 0 -3.2910482044731927e-06 0.034999703773931877 0 -4.1776675910362298e-06 0.034997388671956314 0 -2.1089123857256143e-06 0.034998335067181238 0 -9.292111380090535e-07 0.034997414626214092 0 2.5066208952513663e-08 0.034999943715347592 0 -6.0351803880653747e-06 0.034962646263373649 0 1.5197614287584305e-09 0.034999997686956288 0 -9.292111380090535e-07 0.034997414626214092 0 -3.5903730205482503e-07 0.03499973689256583 0 -5.6853727624018089e-08 0.034999983879315653 0 2.1544589296087214e-05 0.034951927047028125 0 1.4085719729878915e-07 0.03499988095630744 0 2.1544589296087214e-05 0.034951927047028125 0 2.2177685910334777e-05 0.034838257938340021 0 1.4085719729878915e-07 0.03499988095630744 0 2.2177685910334777e-05 0.034838257938340021 0 1.4085719729878915e-07 0.03499988095630744 0 6.8087400753349627e-05 0.034765032996279172 0 -6.1128346669860117e-09 0.034999144805655059 0 1.4085719729878915e-07 0.03499988095630744 0 6.8087400753349627e-05 0.034765032996279172 0 2.2177685910334777e-05 0.034838257938340021 0 6.8087400753349627e-05 0.034765032996279172 0 -2.003017687922108e-06 0.034653790233937276 0 8.6346166765298554e-05 0.034200987635595648 0 6.8087400753349627e-05 0.034765032996279172 0 -2.003017687922108e-06 0.034653790233937276 0 8.6346166765298554e-05 0.034200987635595648 0 -2.003017687922108e-06 0.034653790233937276 0 -0.00020856056334682147 0.034585052907070452 0 -2.003017687922108e-06 0.034653790233937276 0 -0.00020856056334682147 0.034585052907070452 0 -8.0137362507007304e-05 0.034739692099522788 0 -0.00020856056334682147 0.034585052907070452 0 -0.00020347118133570287 0.034758400349627926 0 -8.0137362507007304e-05 0.034739692099522788 0 -0.00036670986684125584 0.034685160021741747 0 -0.00020856056334682147 0.034585052907070452 0 -0.00020347118133570287 0.034758400349627926 0 -4.8362226730177292e-05 0.03488272318549232 0 -0.00020347118133570287 0.034758400349627926 0 -5.5318922631911234e-05 0.034849333936183301 0 -0.00020347118133570287 0.034758400349627926 0 -5.5318922631911234e-05 0.034849333936183301 0 -8.0137362507007304e-05 0.034739692099522788 0 -6.6943139238995834e-05 0.034893359701188724 0 -9.5753938416359637e-05 0.034872509189353439 0 2.2177685910334777e-05 0.034838257938340021 0 -5.5318922631911234e-05 0.034849333936183301 0 -8.0137362507007304e-05 0.034739692099522788 0 -4.7718547460880963e-05 0.034869324739612136 0 2.2177685910334777e-05 0.034838257938340021 0 -5.5318922631911234e-05 0.034849333936183301 0 2.2177685910334777e-05 0.034838257938340021 0 -2.003017687922108e-06 0.034653790233937276 0 -8.0137362507007304e-05 0.034739692099522788 0 -0.0011386683269574696 0.018017990939223873 0 -0.001611333624985462 0.017137978641103037 0 -0.00050496333713622387 0.017563198368904322 0 -0.00059986818515825758 0.017005419107540894 0 -0.00033601708006748918 0.017380564152102033 0 0.00012052769579544611 0.01959263036437519 0 -0.00014687882659680242 0.019549850387911169 0 -7.8273421566520449e-05 0.019677282137730449 0 0.00012052769579544611 0.01959263036437519 0 7.0412472648366981e-05 0.019623608984081588 0 -7.8273421566520449e-05 0.019677282137730449 0 0.00012052769579544611 0.01959263036437519 0 6.9254484389530437e-05 0.019528199221717165 0 7.0412472648366981e-05 0.019623608984081588 0 0.00012052769579544611 0.01959263036437519 0 0.00011156847856470032 0.019318256997675615 0 0.0001806396386255625 0.019660998152636208 0 0.00012052769579544611 0.01959263036437519 0 0.00011156847856470032 0.019318256997675615 0 -0.00014687882659680242 0.019549850387911169 0 -0.0011386683269574696 0.018017990939223873 0 -0.00098110715246673059 0.018178066646932084 0 0.00011156847856470032 0.019318256997675615 0 -0.00014687882659680242 0.019549850387911169 0 -0.00014293884095339951 0.018506692872988822 0 -0.00050496333713622387 0.017563198368904322 0 -0.00014293884095339951 0.018506692872988822 0 -5.3871386310832701e-05 0.017820730669885959 0 -0.00014293884095339951 0.018506692872988822 0 4.096641033660908e-07 0.017968593545974822 0 0.00012253273615218414 0.019266744884946046 0 -0.00014293884095339951 0.018506692872988822 0 4.096641033660908e-07 0.017968593545974822 0 2.1741379632526276e-05 0.017566031791436666 0 4.096641033660908e-07 0.017968593545974822 0 0.00012253273615218414 0.019266744884946046 0 3.6235567762765556e-07 0.019889471341896531 0 0.00011156847856470032 0.019318256997675615 0 -0.00014293884095339951 0.018506692872988822 0 0.00012253273615218414 0.019266744884946046 0 0.00011156847856470032 0.019318256997675615 0 0.00012253273615218414 0.019266744884946046 0 0.0001806396386255625 0.019660998152636208 0 0.0001806396386255625 0.019660998152636208 0 7.5944729808185744e-05 0.020270859980507632 0 2.258484938282567e-05 0.020149649789580188 0 0.00012253273615218414 0.019266744884946046 0 0.0001806396386255625 0.019660998152636208 0 7.5944729808185744e-05 0.020270859980507632 0 3.6235567762765556e-07 0.019889471341896531 0 7.5944729808185744e-05 0.020270859980507632 0 -4.5886813547205754e-07 0.021809981285801531 0 0.00012253273615218414 0.019266744884946046 0 3.6235567762765556e-07 0.019889471341896531 0 7.5944729808185744e-05 0.020270859980507632 0 7.5944729808185744e-05 0.020270859980507632 0 -4.5886813547205754e-07 0.021809981285801531 0 -0.00014811866334377502 0.021047184848751847 0 -0.00014811866334377502 0.021047184848751847 0 2.258484938282567e-05 0.020149649789580188 0 -0.00054953813135854093 0.020386780469474654 0 7.5944729808185744e-05 0.020270859980507632 0 -0.00014811866334377502 0.021047184848751847 0 2.258484938282567e-05 0.020149649789580188 0 2.258484938282567e-05 0.020149649789580188 0 -0.00025800174750229969 0.019919548158101916 0 -0.00054953813135854093 0.020386780469474654 0 -0.00025800174750229969 0.019919548158101916 0 -0.00018397241847861525 0.019595498916187601 0 -0.00049127425511551366 0.019722011317726554 0 -0.00025800174750229969 0.019919548158101916 0 7.8270065779782548e-05 0.019715556253342845 0 -0.00018397241847861525 0.019595498916187601 0 2.258484938282567e-05 0.020149649789580188 0 -0.00025800174750229969 0.019919548158101916 0 7.8270065779782548e-05 0.019715556253342845 0 0.00012052769579544611 0.01959263036437519 0 0.0001806396386255625 0.019660998152636208 0 7.8270065779782548e-05 0.019715556253342845 0 0.0001806396386255625 0.019660998152636208 0 2.258484938282567e-05 0.020149649789580188 0 7.8270065779782548e-05 0.019715556253342845 0 0.00012052769579544611 0.01959263036437519 0 7.8270065779782548e-05 0.019715556253342845 0 6.9254484389530437e-05 0.019528199221717165 0 7.8270065779782548e-05 0.019715556253342845 0 6.9254484389530437e-05 0.019528199221717165 0 -0.00018397241847861525 0.019595498916187601 0 6.9254484389530437e-05 0.019528199221717165 0 -0.00018397241847861525 0.019595498916187601 0 -0.00022563222071212853 0.019311622003868566 0 -0.00018397241847861525 0.019595498916187601 0 -0.00060362727519457982 0.019399586500974376 0 -0.00022563222071212853 0.019311622003868566 0 -0.00018397241847861525 0.019595498916187601 0 -0.00049127425511551366 0.019722011317726554 0 -0.00060362727519457982 0.019399586500974376 0 -0.0012965583934223374 0.019228755598013729 0 -0.0012678096138090849 0.019341800994483287 0 -0.00062711567479941494 0.019210859052239324 0 -0.0012727356963985739 0.019170339923613239 0 -0.00092027295783486619 0.019855288604655998 0 -0.00049127425511551366 0.019722011317726554 0 -0.00060362727519457982 0.019399586500974376 0 -0.00092027295783486619 0.019855288604655998 0 -0.0011265638047839174 0.020330237866565258 0 -0.001117736859525641 0.020342683472174973 0 -0.0010332489591878536 0.020342775308349961 0 -0.0015795159619955447 0.020196018221292258 0 -0.0014762259482029177 0.020284649543369667 0 -0.0011265638047839174 0.020330237866565258 0 -0.001117736859525641 0.020342683472174973 0 -0.001139306792763342 0.020362533708277827 0 -0.001117736859525641 0.020342683472174973 0 -0.0010332489591878536 0.020342775308349961 0 -0.0010908404322210515 0.0203508741964235 0 -0.0015795159619955447 0.020196018221292258 0 -0.0014264086910231765 0.020226043202903922 0 -0.0012727356963985739 0.019170339923613239 0 -0.0010332489591878536 0.020342775308349961 0 -0.00092027295783486619 0.019855288604655998 0 -0.001117736859525641 0.020342683472174973 0 -0.0011162971835651434 0.020356372815351104 0 -0.0011290870192318301 0.020371343687588014 0 -0.001117736859525641 0.020342683472174973 0 -0.0011162971835651434 0.020356372815351104 0 -0.0010908404322210515 0.0203508741964235 0 -0.0011162971835651434 0.020356372815351104 0 -0.0011357523413971608 0.02037405610928961 0 -0.0011290870192318301 0.020371343687588014 0 -0.0011162971835651434 0.020356372815351104 0 -0.0011357523413971608 0.02037405610928961 0 -0.0010908404322210515 0.0203508741964235 0 -0.0010332489591878536 0.020342775308349961 0 -0.00064065815909795075 0.020035103337945882 0 -0.00054953813135854093 0.020386780469474654 0 -0.0010332489591878536 0.020342775308349961 0 -0.00092027295783486619 0.019855288604655998 0 -0.00064065815909795075 0.020035103337945882 0 -0.00025800174750229969 0.019919548158101916 0 -0.00049127425511551366 0.019722011317726554 0 -0.00064065815909795075 0.020035103337945882 0 -0.00049127425511551366 0.019722011317726554 0 -0.00092027295783486619 0.019855288604655998 0 -0.00064065815909795075 0.020035103337945882 0 -0.00025800174750229969 0.019919548158101916 0 -0.00064065815909795075 0.020035103337945882 0 -0.00054953813135854093 0.020386780469474654 0 -0.00014811866334377502 0.021047184848751847 0 -0.00054953813135854093 0.020386780469474654 0 -0.0010874374936993196 0.020527320452173425 0 1.6067863883842866e-05 0.022786936190146916 0 -0.00015848874917828842 0.023087391840554351 0 -0.00014811866334377502 0.021047184848751847 0 -0.00010683677886430427 0.022349731735158414 0 -8.0904847090461493e-05 0.023471007377934568 0 -0.0010332489591878536 0.020342775308349961 0 -0.00054953813135854093 0.020386780469474654 0 -0.0010874374936993196 0.020527320452173425 0 -4.5886813547205754e-07 0.021809981285801531 0 3.6657411679520632e-08 0.023730883743724018 0 -5.6760366755377518e-05 0.023104951169580612 0 -4.5886813547205754e-07 0.021809981285801531 0 -0.00010683677886430427 0.022349731735158414 0 -5.6760366755377518e-05 0.023104951169580612 0 -4.5886813547205754e-07 0.021809981285801531 0 -0.00014811866334377502 0.021047184848751847 0 -0.00010683677886430427 0.022349731735158414 0 -0.00010683677886430427 0.022349731735158414 0 -5.6760366755377518e-05 0.023104951169580612 0 -8.0904847090461493e-05 0.023471007377934568 0 -5.6760366755377518e-05 0.023104951169580612 0 -8.0904847090461493e-05 0.023471007377934568 0 6.780625458900608e-05 0.02442260397688694 0 3.6657411679520632e-08 0.023730883743724018 0 -5.6760366755377518e-05 0.023104951169580612 0 6.780625458900608e-05 0.02442260397688694 0 -0.00015848874917828842 0.023087391840554351 0 -0.00036895357044912808 0.023908202004497753 0 -8.0904847090461493e-05 0.023471007377934568 0 0.00011538826497887681 0.025019695521889984 0 6.780625458900608e-05 0.02442260397688694 0 -0.0011357523413971608 0.02037405610928961 0 -0.0010874374936993196 0.020527320452173425 0 -0.0011758624744377284 0.02037724043030938 0 -0.0010332489591878536 0.020342775308349961 0 -0.0010908404322210515 0.0203508741964235 0 -0.0010874374936993196 0.020527320452173425 0 -0.0011357523413971608 0.02037405610928961 0 -0.0010908404322210515 0.0203508741964235 0 -0.0010874374936993196 0.020527320452173425 0 0.00011538826497887681 0.025019695521889984 0 6.780625458900608e-05 0.02442260397688694 0 0.0001676214880805258 0.02578151391591051 0 3.6657411679520632e-08 0.023730883743724018 0 6.780625458900608e-05 0.02442260397688694 0 2.5483204910345711e-07 0.025651173631593555 0 6.780625458900608e-05 0.02442260397688694 0 2.5483204910345711e-07 0.025651173631593555 0 0.0001676214880805258 0.02578151391591051 0 0.00020627895535862989 0.026003390869082883 0 0.00011538826497887681 0.025019695521889984 0 0.0001676214880805258 0.02578151391591051 0 -0.00055077323696427216 0.025344076233967106 0 -0.00036895357044912808 0.023908202004497753 0 -0.00080546635304329806 0.020389290556921198 0 -0.00082351026617045716 0.020704736939455383 0 -0.001074648981524747 0.020472949873132272 0 -0.00080546635304329806 0.020389290556921198 0 -0.0011758624744377284 0.02037724043030938 0 -0.001074648981524747 0.020472949873132272 0 -0.00082351026617045716 0.020704736939455383 0 -0.001074648981524747 0.020472949873132272 0 -0.0010827351815659624 0.020758292203652568 0 -0.0011758624744377284 0.02037724043030938 0 -0.001074648981524747 0.020472949873132272 0 -0.0011370912865785064 0.020401599960339391 0 -0.0011357523413971608 0.02037405610928961 0 -0.0011758624744377284 0.02037724043030938 0 -0.0011370912865785064 0.020401599960339391 0 -0.0011357523413971608 0.02037405610928961 0 -0.0011370912865785064 0.020401599960339391 0 -0.0011290870192318301 0.020371343687588014 0 -0.0011370912865785064 0.020401599960339391 0 -0.0011290870192318301 0.020371343687588014 0 -0.001139306792763342 0.020362533708277827 0 -0.001074648981524747 0.020472949873132272 0 -0.0014685973841565669 0.020783374694674332 0 -0.0010827351815659624 0.020758292203652568 0 -0.001074648981524747 0.020472949873132272 0 -0.0011370912865785064 0.020401599960339391 0 -0.001139306792763342 0.020362533708277827 0 -0.0014063725609783021 0.020283399558191462 0 -0.0014762259482029177 0.020284649543369667 0 -0.0014685973841565669 0.020783374694674332 0 -0.0012391695065640136 0.020934366370218054 0 -0.0010827351815659624 0.020758292203652568 0 -0.001117736859525641 0.020342683472174973 0 -0.0011290870192318301 0.020371343687588014 0 -0.001139306792763342 0.020362533708277827 0 -0.0014685973841565669 0.020783374694674332 0 -0.0015115483105320163 0.020955171646296292 0 -0.0012391695065640136 0.020934366370218054 0 -0.0018065099464479818 0.021073177124475376 0 -0.0014685973841565669 0.020783374694674332 0 -0.0015115483105320163 0.020955171646296292 0 -0.0015115483105320163 0.020955171646296292 0 -0.0013428180596607466 0.021108845050916574 0 -0.0014302761686588309 0.021300164368985859 0 -0.0015115483105320163 0.020955171646296292 0 -0.0013428180596607466 0.021108845050916574 0 -0.0012391695065640136 0.020934366370218054 0 -0.0013428180596607466 0.021108845050916574 0 -0.0012391695065640136 0.020934366370218054 0 -0.0011190962397318986 0.021261091827382339 0 -0.0012391695065640136 0.020934366370218054 0 -0.0009094551967710904 0.021021750995798196 0 -0.0011190962397318986 0.021261091827382339 0 -0.00082351026617045716 0.020704736939455383 0 -0.0009094551967710904 0.021021750995798196 0 -0.0010827351815659624 0.020758292203652568 0 -0.0012391695065640136 0.020934366370218054 0 -0.0009094551967710904 0.021021750995798196 0 -0.0010827351815659624 0.020758292203652568 0 -0.00071638751843148489 0.021511122214676392 0 -0.0009094551967710904 0.021021750995798196 0 -0.0011190962397318986 0.021261091827382339 0 -0.00071638751843148489 0.021511122214676392 0 -0.0011190962397318986 0.021261091827382339 0 -0.0010844078254002856 0.021627466222531474 0 -0.0011190962397318986 0.021261091827382339 0 -0.0013235026072458162 0.021536728327161501 0 -0.0010844078254002856 0.021627466222531474 0 -0.0015115483105320163 0.020955171646296292 0 -0.0014302761686588309 0.021300164368985859 0 -0.0017374649471077913 0.021475051933146555 0 -0.0013428180596607466 0.021108845050916574 0 -0.0011190962397318986 0.021261091827382339 0 -0.0014302761686588309 0.021300164368985859 0 -0.0014302761686588309 0.021300164368985859 0 -0.0015389338085615779 0.021522157122806456 0 -0.0013235026072458162 0.021536728327161501 0 -0.0014302761686588309 0.021300164368985859 0 -0.0015389338085615779 0.021522157122806456 0 -0.0017374649471077913 0.021475051933146555 0 -0.0011190962397318986 0.021261091827382339 0 -0.0014302761686588309 0.021300164368985859 0 -0.0013235026072458162 0.021536728327161501 0 -0.0013235026072458162 0.021536728327161501 0 -0.0012863592206779659 0.021791747827200728 0 -0.0010844078254002856 0.021627466222531474 0 -0.0012863592206779659 0.021791747827200728 0 -0.00099397210837776496 0.022024900374264932 0 -0.0016046656118165266 0.02203773985634987 0 -0.0013235026072458162 0.021536728327161501 0 -0.0015038047749052403 0.021667625569170575 0 -0.0012863592206779659 0.021791747827200728 0 -0.0015389338085615779 0.021522157122806456 0 -0.0013235026072458162 0.021536728327161501 0 -0.0015038047749052403 0.021667625569170575 0 -0.0015389338085615779 0.021522157122806456 0 -0.0015038047749052403 0.021667625569170575 0 -0.0017010692984247588 0.021630498104879724 0 -0.0016789380027455549 0.02103074199042056 0 -0.001697325424863809 0.021013191099484154 0 -0.0015038047749052403 0.021667625569170575 0 -0.0012863592206779659 0.021791747827200728 0 -0.0016046656118165266 0.02203773985634987 0 -0.0015038047749052403 0.021667625569170575 0 -0.0016046656118165266 0.02203773985634987 0 -0.0016980728965581803 0.021631011452031789 0 -0.00071638751843148489 0.021511122214676392 0 -0.0010844078254002856 0.021627466222531474 0 -0.00099397210837776496 0.022024900374264932 0 -0.00072521864093439943 0.027422272249422973 0 -0.00067967222594653262 0.0267019216994097 0 -0.0012863592206779659 0.021791747827200728 0 -0.0010844078254002856 0.021627466222531474 0 -0.00099397210837776496 0.022024900374264932 0 -0.00059359447988527683 0.027233118100352637 0 -0.00067967222594653262 0.0267019216994097 0 -0.00028383366347353587 0.033926813133706359 0 -1.5577031893667612e-05 0.033913296748436746 0 -0.00015102209886240433 0.03367379637698667 0 -0.00067967222594653262 0.0267019216994097 0 -0.001030837810601766 0.02712178360238833 0 -1.5577031893667612e-05 0.033913296748436746 0 -0.00015102209886240433 0.03367379637698667 0 0.00013126171444623603 0.033651598733729693 0 -0.00015102209886240433 0.03367379637698667 0 0.00013126171444623603 0.033651598733729693 0 -4.7955533644039288e-05 0.033390813460146343 0 -0.00086318811559580255 0.028359680536557203 0 -0.00091045870925376721 0.025910297957943602 0 0.00013126171444623603 0.033651598733729693 0 -4.7955533644039288e-05 0.033390813460146343 0 0.00027735828828664543 0.033380947014898472 0 -0.0007052890280921123 0.025485610845971826 0 -0.0006049374514925732 0.025339231977380573 0 -0.00054000886023283822 0.025622600240030553 0 -0.0019047634146856748 0.0227824541360525 0 -0.0018918531814886132 0.022839859496999921 0 -0.0018770525828589874 0.022807108623746034 0 -0.00097286676796163435 0.025559379761772395 0 -0.0015774635859833297 0.023105184555781755 0 -0.00066466500628145056 0.024518787098059901 0 -0.0010514706446378569 0.024512410768052533 0 -0.00064238907637114047 0.024613748403028268 0 -0.00097286676796163435 0.025559379761772395 0 -0.0014315383393312864 0.024083689682567664 0 -5.4526868513800754e-05 0.026183617836671065 0 -0.00013882635391741774 0.026182490321703281 0 -7.9354661712893084e-05 0.02607630137739687 0 -0.00097286676796163435 0.025559379761772395 0 -0.00091045870925376721 0.025910297957943602 0 -0.0007052890280921123 0.025485610845971826 0 -0.0006049374514925732 0.025339231977380573 0 -0.00062195747205332625 0.025339141709817253 0 -0.001030837810601766 0.02712178360238833 0 -0.00091045870925376721 0.025910297957943602 0 -0.00067967222594653262 0.0267019216994097 0 -0.0015774635859833297 0.023105184555781755 0 -0.00078842982972191031 0.025633237616333574 0 -0.0007052890280921123 0.025485610845971826 0 -0.00054000886023283822 0.025622600240030553 0 -0.0015774635859833297 0.023105184555781755 0 -0.0020225092823050544 0.021353726886959089 0 -0.0018596585330986893 0.022837420591298497 0 -0.0018770525828589874 0.022807108623746034 0 -0.0018422029257918297 0.022795402106006973 0 -0.0018918531814886132 0.022839859496999921 0 -0.0018596585330986893 0.022837420591298497 0 -0.0018770525828589874 0.022807108623746034 0 -0.0014315383393312864 0.024083689682567664 0 -0.002199287415100433 0.020403118512648217 0 -0.0018770525828589874 0.022807108623746034 0 -0.0018862499207602593 0.022781029787942483 0 -0.0018422029257918297 0.022795402106006973 0 -0.0014315383393312864 0.024083689682567664 0 -0.0021977471277938873 0.021066744113905168 0 -0.0019047634146856748 0.0227824541360525 0 -0.0018770525828589874 0.022807108623746034 0 -0.0018862499207602593 0.022781029787942483 0 -0.0015733829569403717 0.022386284605013022 0 -0.0026041536102421018 0.022364624792550733 0 -0.0024540919405800156 0.02201464587295611 0 -0.0022604742328761582 0.019085417054544022 0 -0.0021872985853812732 0.018915196395281865 0 -0.0026268351533498208 0.018916444076767049 0 -0.002199287415100433 0.020403118512648217 0 -0.0021977471277938873 0.021066744113905168 0 -0.0020911068768915968 0.020041270510120248 0 -0.0020883960651881832 0.020033979301288994 0 -0.0020812422735439861 0.020037007741144981 0 -0.0020225092823050544 0.021353726886959089 0 -0.0021977471277938873 0.021066744113905168 0 -0.0020225092823050544 0.021353726886959089 0 -0.0020696308585961679 0.018884521985440484 0 -0.002082055090574437 0.019901763555990347 0 -0.0019775841409247377 0.019989474604180539 0 -0.0018211744016484576 0.019891711498402621 0 -0.0019775841409247377 0.019989474604180539 0 -0.0021461337643056298 0.02005240519722527 0 -0.0019598817561556612 0.020085398874377835 0 -0.0017833853081550611 0.020805033002017703 0 -0.001613121457563845 0.019523311806475954 0 -0.0019775841409247377 0.019989474604180539 0 -0.0019598817561556612 0.020085398874377835 0 -0.0018783970058979154 0.020015733963153159 0 -0.0025647941618812749 0.021465207454668053 0 -0.0022110763156771478 0.022256417575069166 0 -0.002388047219624022 0.022223761027140583 0 -0.0025647941618812749 0.021465207454668053 0 -0.001863320980663704 0.021445323318430971 0 -0.0022110763156771478 0.022256417575069166 0 -0.0020225092823050544 0.021353726886959089 0 -0.0017833853081550611 0.020805033002017703 0 -0.002082055090574437 0.019901763555990347 0 -0.0019775841409247377 0.019989474604180539 0 -0.0021461337643056298 0.02005240519722527 0 -0.0015774635859833297 0.023105184555781755 0 -0.001697325424863809 0.021013191099484154 0 -0.001697325424863809 0.021013191099484154 0 -0.0017130688666993365 0.020804780267372612 0 -0.0017833853081550611 0.020805033002017703 0 -0.0017130688666993365 0.020804780267372612 0 -0.0017209103146174235 0.020630952901735725 0 -0.0020554730502898317 0.020568785086025956 0 -0.0019282782459461396 0.021115415511902602 0 -0.0017833853081550611 0.020805033002017703 0 -0.001697325424863809 0.021013191099484154 0 -0.0018065099464479818 0.021073177124475376 0 -0.0015115483105320163 0.020955171646296292 0 -0.0017202901682295063 0.021439249824272987 0 -0.0018944555090620336 0.020269643915168077 0 -0.0019339215444800061 0.020100315442413395 0 -0.0016743917683611099 0.020082916766506868 0 -0.0019083322704379763 0.020040688112033099 0 -0.0019339215444800061 0.020100315442413395 0 -0.0016743917683611099 0.020082916766506868 0 -0.0017233286930922835 0.020929639802395324 0 -0.0017130688666993365 0.020804780267372612 0 -0.0015389338085615779 0.021522157122806456 0 -0.0017010692984247588 0.021630498104879724 0 -0.0017374649471077913 0.021475051933146555 0 -0.0015795159619955447 0.020196018221292258 0 -0.0017130688666993365 0.020804780267372612 0 -0.0015795159619955447 0.020196018221292258 0 -0.001613121457563845 0.019523311806475954 0 -0.0012965583934223374 0.019228755598013729 0 -0.0015807065737616795 0.019251957683919858 0 -0.00062711567479941494 0.019210859052239324 0 -0.0012727356963985739 0.019170339923613239 0 -0.00053023323232105125 0.018551946287469683 0 -0.00062711567479941494 0.019210859052239324 0 -0.00053023323232105125 0.018551946287469683 0 -0.00033937896071307549 0.018587831809749968 0 -0.001613121457563845 0.019523311806475954 0 -0.0015807065737616795 0.019251957683919858 0 -0.0015807065737616795 0.019251957683919858 0 -0.0015694106286528167 0.01868189979168022 0 -0.00060362727519457982 0.019399586500974376 0 -0.00039945932917249754 0.019015686591781652 0 -0.00022563222071212853 0.019311622003868566 0 -0.0017008660023801339 0.01894952243286183 0 -0.0016955657982407749 0.018950076584497776 0 -0.0016996871088738486 0.018946680496391689 0 -0.00039945932917249754 0.019015686591781652 0 -0.00022563222071212853 0.019311622003868566 0 4.3505974045645618e-05 0.019100814858374341 0 6.9254484389530437e-05 0.019528199221717165 0 -0.00022563222071212853 0.019311622003868566 0 4.3505974045645618e-05 0.019100814858374341 0 -0.0015694106286528167 0.01868189979168022 0 -0.0013560198919276146 0.018002394883710977 0 -0.0020203258542469526 0.017089065718808871 0 -0.0021360236960327409 0.017198245574392541 0 -0.0022347191844486144 0.017047128961884959 0 -0.0014249753158553124 0.018920415879650609 0 -0.0015694106286528167 0.01868189979168022 0 6.9254484389530437e-05 0.019528199221717165 0 8.0624635081598346e-05 0.019576352761548656 0 7.0412472648366981e-05 0.019623608984081588 0 -0.0020203258542469526 0.017089065718808871 0 -0.0021360236960327409 0.017198245574392541 0 -0.0019994432507168766 0.017315035485277405 0 -0.0015694106286528167 0.01868189979168022 0 -0.0019210408500919699 0.018637251584868741 0 -0.0021360236960327409 0.017198245574392541 0 -0.0021240227172563638 0.017305628570855158 0 -0.0019994432507168766 0.017315035485277405 0 -0.0020231531951154015 0.018752311980428427 0 -0.0020701625303268232 0.018852067702116834 0 -0.0021041604141534098 0.018819981939508533 0 -0.0016955657982407749 0.018950076584497776 0 -0.0016996871088738486 0.018946680496391689 0 -0.001696369345011982 0.018943430826294835 0 -0.0017929613821822006 0.019154508101856021 0 -0.0019210408500919699 0.018637251584868741 0 -0.0019775841409247377 0.019989474604180539 0 -0.0018783970058979154 0.020015733963153159 0 -0.0018211744016484576 0.019891711498402621 0 -0.0017929613821822006 0.019154508101856021 0 -0.0020696308585961679 0.018884521985440484 0 -0.001613121457563845 0.019523311806475954 0 -0.0017929613821822006 0.019154508101856021 0 -0.0015807065737616795 0.019251957683919858 0 -0.0017929613821822006 0.019154508101856021 0 -0.0016346091948077771 0.019382096668689616 0 -0.0016119040046728684 0.01938623488435131 0 -0.0015939381772194781 0.019347381501442096 0 -0.0020883960651881832 0.020033979301288994 0 -0.0020812422735439861 0.020037007741144981 0 -0.0020800938320067936 0.020034044817201863 0 -0.0020701625303268232 0.018852067702116834 0 -0.0021011033840570054 0.018852835596287629 0 -0.0021041604141534098 0.018819981939508533 0 -0.0020696308585961679 0.018884521985440484 0 -0.0020868358335257207 0.018484440357899545 0 -0.00184190768080582 0.018785653731008399 0 -0.0017941378966386621 0.018684156305729178 0 -0.0017844759619508321 0.018784015196921185 0 -0.0020696308585961679 0.018884521985440484 0 -0.0021691238768000325 0.018667451441734383 0 -0.0021691238768000325 0.018667451441734383 0 -0.0020868358335257207 0.018484440357899545 0 -0.002199287415100433 0.020403118512648217 0 -0.0025091117053731527 0.017054448241554516 0 -0.0021977471277938873 0.021066744113905168 0 -0.0021691238768000325 0.018667451441734383 0 -0.0021872985853812732 0.018915196395281865 0 -0.0027080634138966215 0.018697534322084534 0 -0.0026268351533498208 0.018916444076767049 0 -0.0022604742328761582 0.019085417054544022 0 -0.0026268351533498208 0.018916444076767049 0 -0.0026718195636762565 0.019075506486683498 0 -0.0027080634138966215 0.018697534322084534 0 -0.0026268351533498208 0.018916444076767049 0 -0.0026775985329244405 0.01902004808384064 0 -0.0021691238768000325 0.018667451441734383 0 -0.0025206794782700955 0.01707190650512147 0 -0.0025480564448105997 0.017147789766826255 0 -0.0025206794782700955 0.01707190650512147 0 -0.0026268351533498208 0.018916444076767049 0 -0.0026770670830545268 0.019020366199650824 0 -0.0026718195636762565 0.019075506486683498 0 -0.0030693584693686914 0.016442670760715254 0 -0.003026874882160923 0.016886134144285102 0 -0.0032813295593113099 0.016882388893613466 0 -0.0025206794782700955 0.01707190650512147 0 -0.002509866396708338 0.016793187991966042 0 -0.0025206794782700955 0.01707190650512147 0 -0.0025091117053731527 0.017054448241554516 0 -0.0025091117053731527 0.017054448241554516 0 -0.002509866396708338 0.016793187991966042 0 -0.0026154910366330323 0.015911336910328241 0 -0.002608617640375593 0.015916782473353482 0 -0.0026042667251320473 0.015913692624442206 0 -0.002509866396708338 0.016793187991966042 0 -0.0028055019177652693 0.013635887156557752 0 -0.0026154910366330323 0.015911336910328241 0 -0.0026042667251320473 0.015913692624442206 0 -0.0026013962127137643 0.015908201898536357 0 -0.0026169366115474471 0.015913209792612296 0 -0.0026154910366330323 0.015911336910328241 0 -0.0026122788454662669 0.015917980504023814 0 -0.0026154910366330323 0.015911336910328241 0 -0.0026122788454662669 0.015917980504023814 0 -0.002608617640375593 0.015916782473353482 0 -0.0026163300089961723 0.015934047188548864 0 -0.0026169366115474471 0.015913209792612296 0 -0.0026122788454662669 0.015917980504023814 0 -0.0021691238768000325 0.018667451441734383 0 -0.0020722309374451653 0.01829023172765611 0 -0.0026186980497538595 0.015925983434264549 0 -0.0026122788454662669 0.015917980504023814 0 -0.0026115197675344011 0.01592192961014292 0 -0.0026122788454662669 0.015917980504023814 0 -0.002608617640375593 0.015916782473353482 0 -0.0026115197675344011 0.01592192961014292 0 -0.002608617640375593 0.015916782473353482 0 -0.002606284210729838 0.015917928890591071 0 -0.0026115197675344011 0.01592192961014292 0 -0.002606284210729838 0.015917928890591071 0 -0.0026017550064983881 0.01591647436414912 0 -0.0026042667251320473 0.015913692624442206 0 -0.002608617640375593 0.015916782473353482 0 -0.002606284210729838 0.015917928890591071 0 -0.0026042667251320473 0.015913692624442206 0 -0.002608141890787727 0.015924471494720385 0 -0.0026191517638823681 0.0159333740294317 0 -0.0025998442397757791 0.015933146424633119 0 -0.002606284210729838 0.015917928890591071 0 -0.002608141890787727 0.015924471494720385 0 -0.0026017550064983881 0.01591647436414912 0 -0.0020868358335257207 0.018484440357899545 0 -0.0023860107200344167 0.016627632032664701 0 -0.0019949998859349221 0.017363818860496608 0 -0.0020375213541294107 0.017347004673244303 0 -0.0021969810388651912 0.017365291349510422 0 -0.002606284210729838 0.015917928890591071 0 -0.002608141890787727 0.015924471494720385 0 -0.0026115197675344011 0.01592192961014292 0 -0.002608141890787727 0.015924471494720385 0 -0.0026115197675344011 0.01592192961014292 0 -0.0026191517638823681 0.0159333740294317 0 -0.0026186980497538595 0.015925983434264549 0 -0.0026115197675344011 0.01592192961014292 0 -0.0026191517638823681 0.0159333740294317 0 -0.0021240227172563638 0.017305628570855158 0 -0.0020375213541294107 0.017347004673244303 0 -0.0019994432507168766 0.017315035485277405 0 -0.0019949998859349221 0.017363818860496608 0 -0.0020375213541294107 0.017347004673244303 0 -0.0019996412560595489 0.017316385241692312 0 -0.0020868358335257207 0.018484440357899545 0 -0.0019210408500919699 0.018637251584868741 0 -0.0019076762921605938 0.018614323292218383 0 -0.0019210408500919699 0.018637251584868741 0 -0.0021240227172563638 0.017305628570855158 0 -0.0020375213541294107 0.017347004673244303 0 -0.0021969810388651912 0.017365291349510422 0 -0.0026017550064983881 0.01591647436414912 0 -0.0025791507211564788 0.015855158700382756 0 -0.0025452107679588276 0.015933322292959285 0 -0.0025998442397757791 0.015933146424633119 0 -0.0026017550064983881 0.01591647436414912 0 -0.0025452107679588276 0.015933322292959285 0 -0.0023860107200344167 0.016627632032664701 0 -0.0026738254169777682 0.014764277625031758 0 -0.0021969810388651912 0.017365291349510422 0 -0.0023989234866929102 0.017367271884463596 0 -0.0022771003280871133 0.01723334130427636 0 -0.002608141890787727 0.015924471494720385 0 -0.0025998442397757791 0.015933146424633119 0 -0.0026017550064983881 0.01591647436414912 0 -0.0026017550064983881 0.01591647436414912 0 -0.0025791507211564788 0.015855158700382756 0 -0.0025936625824932976 0.015854425749669509 0 -0.0028840537715791145 0.014441769170744974 0 -0.0028055019177652693 0.013635887156557752 0 -0.0026017550064983881 0.01591647436414912 0 -0.0026042667251320473 0.015913692624442206 0 -0.0026013962127137643 0.015908201898536357 0 -0.0027608904551120828 0.01313978808913726 0 -0.0028055019177652693 0.013635887156557752 0 -0.0053740978709118656 0.0096866864880722717 0 -0.0042545904157140378 0.010406941745457803 0 -0.0043722946138466685 0.011740489682936683 0 -0.0027608904551120828 0.01313978808913726 0 -0.0024607399994630214 0.011527977004435645 0 -0.0027608904551120828 0.01313978808913726 0 -0.0026738254169777682 0.014764277625031758 0 -0.0053740978709118656 0.0096866864880722717 0 -0.0042545904157140378 0.010406941745457803 0 -0.0031076031325102749 0.0096990294187236491 0 -0.0042545904157140378 0.010406941745457803 0 -0.0035762268782814272 0.011139136897939144 0 -0.0031076031325102749 0.0096990294187236491 0 -0.0042545904157140378 0.010406941745457803 0 -0.0035762268782814272 0.011139136897939144 0 -0.0043722946138466685 0.011740489682936683 0 -0.0050005055621467585 0.01181323425015887 0 -0.0041945940989299912 0.012044290989475364 0 -0.0029375013958936043 0.01176033646317491 0 -0.0026738254169777682 0.014764277625031758 0 -0.0025660293159214895 0.013863942698568592 0 -0.0035762268782814272 0.011139136897939144 0 -0.0043722946138466685 0.011740489682936683 0 -0.00274792355340364 0.011716487204049449 0 -0.0050005055621467585 0.01181323425015887 0 -0.0041945940989299912 0.012044290989475364 0 -0.0042901168899008519 0.013272133855363475 0 -0.0026738254169777682 0.014764277625031758 0 -0.0024771933716068372 0.015205796188258604 0 -0.0023989234866929102 0.017367271884463596 0 -0.0024680859243198794 0.017226191656065752 0 -0.0022771003280871133 0.01723334130427636 0 -0.0024680859243198794 0.017226191656065752 0 -0.0022771003280871133 0.01723334130427636 0 -0.0023573778303252173 0.017128170380332874 0 -0.0043243151756611241 0.013238043533565341 0 -0.0041656933619808418 0.013571534275447382 0 -0.0045468211700802679 0.015581411446980248 0 -0.0041945940989299912 0.012044290989475364 0 -0.0043139239238665786 0.013245957028999372 0 -0.0037135210858662239 0.01267525625022552 0 -0.0025342664229077382 0.014750398856523801 0 -0.0024771933716068372 0.015205796188258604 0 -0.0043139239238665786 0.013245957028999372 0 -0.0041656933619808418 0.013571534275447382 0 -0.0035742623571594807 0.013510851753382113 0 -0.0024771933716068372 0.015205796188258604 0 -0.0024974518772982023 0.015172097697560368 0 -0.0021360236960327409 0.017198245574392541 0 -0.0022771003280871133 0.01723334130427636 0 -0.0022347191844486144 0.017047128961884959 0 -0.0021240227172563638 0.017305628570855158 0 -0.0021969810388651912 0.017365291349510422 0 -0.0022771003280871133 0.01723334130427636 0 -0.0021360236960327409 0.017198245574392541 0 -0.0021240227172563638 0.017305628570855158 0 -0.0022771003280871133 0.01723334130427636 0 -0.0022771003280871133 0.01723334130427636 0 -0.0022347191844486144 0.017047128961884959 0 -0.0023573778303252173 0.017128170380332874 0 -0.0022347191844486144 0.017047128961884959 0 -0.0023573778303252173 0.017128170380332874 0 -0.002449249401671984 0.017006014971954569 0 -0.0024771933716068372 0.015205796188258604 0 -0.001611333624985462 0.017137978641103037 0 -0.0013560198919276146 0.018002394883710977 0 -0.001611333624985462 0.017137978641103037 0 -0.0024680859243198794 0.017226191656065752 0 -0.0023573778303252173 0.017128170380332874 0 -0.002449249401671984 0.017006014971954569 0 -0.0041656933619808418 0.013571534275447382 0 -0.0045468211700802679 0.015581411446980248 0 -0.0038688533805821728 0.014315355636871811 0 -0.0025834371765400686 0.007476200207368975 0 -0.0029157587192889787 0.0078837206786876116 0 -0.0024978062341574031 0.0071529759530475859 0 -0.0025834371765400686 0.007476200207368975 0 -0.0023720694321261735 0.0076468250441720162 0 -0.0022079876838846241 0.0072765172067784101 0 -0.0025834371765400686 0.007476200207368975 0 -0.0023997551535999127 0.0072259651437809472 0 -0.0022079876838846241 0.0072765172067784101 0 -0.0023997551535999127 0.0072259651437809472 0 -0.0023005439624736285 0.0070124938025967051 0 -0.0022079876838846241 0.0072765172067784101 0 -0.0025834371765400686 0.007476200207368975 0 -0.0023997551535999127 0.0072259651437809472 0 -0.0024978062341574031 0.0071529759530475859 0 -0.0026175244486348653 0.0073630523162437683 0 -0.0027481297053601472 0.0071688952528886256 0 -0.0026277800118599637 0.0070401404800416335 0 -0.0025051524176696862 0.0088781645252222902 0 -0.0024353125747041851 0.007944288058303408 0 -0.0031008087247684194 0.0080697009426822855 0 -0.0024978062341574031 0.0071529759530475859 0 -0.00247639467361994 0.0069364574329075701 0 -0.0026175244486348653 0.0073630523162437683 0 -0.0026277800118599637 0.0070401404800416335 0 -0.00247639467361994 0.0069364574329075701 0 -0.0030094825984314805 0.0080923177173150094 0 -0.0031008087247684194 0.0080697009426822855 0 -0.0024978062341574031 0.0071529759530475859 0 -0.001865193862474221 0.012405674399069668 0 -0.0012526288411212365 0.0092943828276209305 0 -0.0030094825984314805 0.0080923177173150094 0 -0.0027371876534431675 0.0085212585566905412 0 -0.0024978062341574031 0.0071529759530475859 0 -0.0031085499975680182 0.0080728306672303123 0 -0.0027371876534431675 0.0085212585566905412 0 -0.0035622265987026599 0.0089580530211763182 0 -0.001865193862474221 0.012405674399069668 0 -0.0021438838454846572 0.013089407501579189 0 -0.0030094825984314805 0.0080923177173150094 0 -0.0031085499975680182 0.0080728306672303123 0 -0.0027371876534431675 0.0085212585566905412 0 -0.0018760011895943716 0.012397181851901555 0 -0.001865193862474221 0.012405674399069668 0 -0.0029157587192889787 0.0078837206786876116 0 -0.0026055388102322837 0.0077453931124199177 0 -0.002538114614423259 0.0080166948804311512 0 -0.0025834371765400686 0.007476200207368975 0 -0.0029157587192889787 0.0078837206786876116 0 -0.0026055388102322837 0.0077453931124199177 0 -0.0025834371765400686 0.007476200207368975 0 -0.0026055388102322837 0.0077453931124199177 0 -0.0023720694321261735 0.0076468250441720162 0 -0.0026055388102322837 0.0077453931124199177 0 -0.0023720694321261735 0.0076468250441720162 0 -0.002538114614423259 0.0080166948804311512 0 -0.0023720694321261735 0.0076468250441720162 0 -0.002538114614423259 0.0080166948804311512 0 -0.002078499094432799 0.0079690137732333893 0 -0.0029157587192889787 0.0078837206786876116 0 -0.002538114614423259 0.0080166948804311512 0 -0.0027640230333976132 0.0085187373834755831 0 -0.002538114614423259 0.0080166948804311512 0 -0.0023321381827214301 0.0085694484449631344 0 -0.002078499094432799 0.0079690137732333893 0 -0.002538114614423259 0.0080166948804311512 0 -0.0027640230333976132 0.0085187373834755831 0 -0.0023321381827214301 0.0085694484449631344 0 -0.0031143358161574075 0.0093039375472656945 0 -0.0027176639242562479 0.0089668396722507003 0 -0.0021403964808195805 0.0093847683576863579 0 -0.0023321381827214301 0.0085694484449631344 0 -0.0027176639242562479 0.0089668396722507003 0 -0.0021403964808195805 0.0093847683576863579 0 -0.0027640230333976132 0.0085187373834755831 0 -0.0023321381827214301 0.0085694484449631344 0 -0.0027176639242562479 0.0089668396722507003 0 -0.0027431532927701865 0.012612792931007841 0 -0.0021438838454846572 0.013089407501579189 0 -0.0026879211262440771 0.012783482619153148 0 -0.0018050521440070401 0.012796270484208186 0 -0.0020451865136210988 0.014095675891070216 0 -0.0028055019177652693 0.013635887156557752 0 -0.0027431532927701865 0.012612792931007841 0 -0.0031143358161574075 0.0093039375472656945 0 -0.0027176639242562479 0.0089668396722507003 0 -0.0032363406628784261 0.0090591966311861644 0 -0.0027608904551120828 0.01313978808913726 0 -0.0027431532927701865 0.012612792931007841 0 -0.0027640230333976132 0.0085187373834755831 0 -0.0027176639242562479 0.0089668396722507003 0 -0.0032363406628784261 0.0090591966311861644 0 -0.0029157587192889787 0.0078837206786876116 0 -0.0027640230333976132 0.0085187373834755831 0 -0.0032363406628784261 0.0090591966311861644 0 -0.0027371876534431675 0.0085212585566905412 0 -0.003015411746440602 0.010094460155698535 0 -0.0035622265987026599 0.0089580530211763182 0 -0.0025051524176696862 0.0088781645252222902 0 -0.0027431532927701865 0.012612792931007841 0 -0.0023156717397963072 0.014846520742704426 0 -0.0028876941023203472 0.015152161261172062 0 -0.0024763539710946354 0.014517787214674321 0 -0.0021438838454846572 0.013089407501579189 0 -0.0020925899033747567 0.013284179934552861 0 -0.002178487379098305 0.014492737645496424 0 -0.0019776135164651844 0.014437114467742327 0 -0.0020642807536463328 0.014253777172466942 0 -0.002509866396708338 0.016793187991966042 0 -0.0021438838454846572 0.013089407501579189 0 -0.002178487379098305 0.014492737645496424 0 -0.0019880486676396706 0.0144912523591403 0 -0.0019776135164651844 0.014437114467742327 0 -0.0027755636665631874 0.015802712666678868 0 -0.0023156717397963072 0.014846520742704426 0 -0.0028876941023203472 0.015152161261172062 0 -0.0028276028994448713 0.015802120906317729 0 -0.0027755636665631874 0.015802712666678868 0 -0.0028876941023203472 0.015152161261172062 0 -0.002295957873462112 0.018799658348605999 0 -0.0017462913600976542 0.01880441341591698 0 -0.0019376880007719985 0.018556695619931039 0 -0.002295957873462112 0.018799658348605999 0 -0.0019376880007719985 0.018556695619931039 0 -0.0020709315695521331 0.018272269138989668 0 -0.0017462913600976542 0.01880441341591698 0 -0.0019376880007719985 0.018556695619931039 0 -0.001795229029161214 0.018275235968101766 0 -0.0025091117053731527 0.017054448241554516 0 -0.0024764104312030113 0.016913223050204068 0 -0.0019376880007719985 0.018556695619931039 0 -0.0020709315695521331 0.018272269138989668 0 -0.001795229029161214 0.018275235968101766 0 -0.0024090995853995201 0.01937907554248524 0 -0.0024642034063961865 0.017026613463605438 0 -0.0013022895342662431 0.022830903129040354 0 -0.0011142223516889072 0.022411826723878647 0 -0.0013500983881499912 0.022543339553749688 0 -0.0028876941023203472 0.015152161261172062 0 -0.0029443126393345507 0.014506216079489851 0 -0.0024763539710946354 0.014517787214674321 0 -0.0020709315695521331 0.018272269138989668 0 -0.001795229029161214 0.018275235968101766 0 -0.0018437338398092497 0.017742937882506939 0 -0.0024764104312030113 0.016913223050204068 0 -0.0024642034063961865 0.017026613463605438 0 -0.001317781428393722 0.022346702221108822 0 -0.0011142223516889072 0.022411826723878647 0 -0.0013500983881499912 0.022543339553749688 0 -0.001317781428393722 0.022346702221108822 0 -0.0011142223516889072 0.022411826723878647 0 -0.0011418158739239328 0.022111125151022266 0 -0.001317781428393722 0.022346702221108822 0 -0.0012809880471535699 0.022085916338251244 0 -0.0011418158739239328 0.022111125151022266 0 -0.0024642034063961865 0.017026613463605438 0 -0.0023289008375348783 0.016513015994813918 0 -0.0030218392815182455 0.015638492811732612 0 -0.0031637240343402422 0.015970037840146743 0 -0.0031970885204593252 0.015605984389405544 0 -0.0024779773664488319 0.015018990615711722 0 -0.0024642034063961865 0.017026613463605438 0 -0.001865193862474221 0.012405674399069668 0 -0.0024779773664488319 0.015018990615711722 0 -0.0020359809438836602 0.014247959033768246 0 -0.0027719045093368222 0.014111491004102913 0 -0.0024763539710946354 0.014517787214674321 0 -0.0020359809438836602 0.014247959033768246 0 -0.0023207351685812453 0.014834098397513377 0 -0.0024763539710946354 0.014517787214674321 0 -0.0027719045093368222 0.014111491004102913 0 -0.0029443126393345507 0.014506216079489851 0 -0.0024763539710946354 0.014517787214674321 0 -0.0029536758855985535 0.007311912257770445 0 -0.0027481297053601472 0.0071688952528886256 0 -0.0028533520242659247 0.0070730541537475725 0 -0.0024779773664488319 0.015018990615711722 0 -0.0017416741233850311 0.012257477495465597 0 -0.0026175244486348653 0.0073630523162437683 0 -0.0029536758855985535 0.007311912257770445 0 -0.0027481297053601472 0.0071688952528886256 0 -0.0027481297053601472 0.0071688952528886256 0 -0.0028533520242659247 0.0070730541537475725 0 -0.0027295445324608592 0.0070091994398193917 0 -0.0027481297053601472 0.0071688952528886256 0 -0.0027295445324608592 0.0070091994398193917 0 -0.0026277800118599637 0.0070401404800416335 0 -0.00099960013115568637 0.021865465475950325 0 -0.0011200294215491333 0.0220073651627745 0 -0.0013263529496697869 0.021712747831822723 0 -0.0024278019770614459 0.016139983595393783 0 -0.0025273784623354141 0.017659889212891407 0 -0.0025273784623354141 0.017659889212891407 0 -0.0023289008375348783 0.016513015994813918 0 -0.0021843192031331025 0.017962176558488811 0 -0.0014256276387407995 0.017078467367355573 0 -0.0022846509409133182 0.016916739720526784 0 -0.0021408878401276174 0.015386730321565737 0 -0.0014952820245901183 0.013879099695636575 0 -0.0028267303051297348 0.014550732370826526 0 -0.0024779773664488319 0.015018990615711722 0 -0.0023289008375348783 0.016513015994813918 0 -0.0021408878401276174 0.015386730321565737 0 -0.0028267303051297348 0.014550732370826526 0 -0.0027581502648200734 0.015271346759453703 0 -0.0024278019770614459 0.016139983595393783 0 -0.0023289008375348783 0.016513015994813918 0 -0.0011200294215491333 0.0220073651627745 0 -0.0013263529496697869 0.021712747831822723 0 -0.001632571249209052 0.021926400709482766 0 -0.0025273784623354141 0.017659889212891407 0 -0.0017775477640693846 0.022418981398366414 0 -0.0017775477640693846 0.022418981398366414 0 -0.0010730155732977642 0.02734700045064492 0 -0.0017536455979118098 0.022107690759761725 0 -0.0020382148598928934 0.022571587885554748 0 -0.002191624800170214 0.022036087185047005 0 -0.0017536455979118098 0.022107690759761725 0 -0.0016617104944252519 0.022581500344322155 0 -0.0020382148598928934 0.022571587885554748 0 -0.001317781428393722 0.022346702221108822 0 -0.0012809880471535699 0.022085916338251244 0 -0.0016617104944252519 0.022581500344322155 0 -0.0025273784623354141 0.017659889212891407 0 -0.0030803933224594635 0.019712569115404501 0 -0.0013283437977144633 0.022178053981963503 0 -0.0017536455979118098 0.022107690759761725 0 -0.0016617104944252519 0.022581500344322155 0 -0.001317781428393722 0.022346702221108822 0 -0.0013500983881499912 0.022543339553749688 0 -0.0016617104944252519 0.022581500344322155 0 -0.0013022895342662431 0.022830903129040354 0 -0.0013500983881499912 0.022543339553749688 0 -0.0016617104944252519 0.022581500344322155 0 -0.0013022895342662431 0.022830903129040354 0 -0.0016617104944252519 0.022581500344322155 0 -0.0017843583986526341 0.022794850011517317 0 -0.002199287415100433 0.020403118512648217 0 -0.0024090995853995201 0.01937907554248524 0 -0.0014723413829973787 0.023219212831037051 0 -0.0013022895342662431 0.022830903129040354 0 -0.0017157719145646823 0.023029243356102621 0 -0.0013022895342662431 0.022830903129040354 0 -0.0017157719145646823 0.023029243356102621 0 -0.0017843583986526341 0.022794850011517317 0 -0.0019607300975702608 0.023216017288733837 0 -0.0014723413829973787 0.023219212831037051 0 -0.0017157719145646823 0.023029243356102621 0 -0.0019607300975702608 0.023216017288733837 0 -0.0019832463847841405 0.023067652251498851 0 -0.0017157719145646823 0.023029243356102621 0 -0.0017157719145646823 0.023029243356102621 0 -0.0019941522101483903 0.022909532943418038 0 -0.0017843583986526341 0.022794850011517317 0 -0.0019832463847841405 0.023067652251498851 0 -0.0017157719145646823 0.023029243356102621 0 -0.0019941522101483903 0.022909532943418038 0 -0.0016617104944252519 0.022581500344322155 0 -0.0017843583986526341 0.022794850011517317 0 -0.0020382148598928934 0.022571587885554748 0 -0.0019941522101483903 0.022909532943418038 0 -0.0017843583986526341 0.022794850011517317 0 -0.0020382148598928934 0.022571587885554748 0 -0.0019941522101483903 0.022909532943418038 0 -0.0020382148598928934 0.022571587885554748 0 -0.002149011826717622 0.022874498544840523 0 -0.0020382148598928934 0.022571587885554748 0 -0.0023089342222975357 0.022786669698404417 0 -0.002443311318855737 0.022474374617763158 0 -0.0020382148598928934 0.022571587885554748 0 -0.0023089342222975357 0.022786669698404417 0 -0.002149011826717622 0.022874498544840523 0 -0.00095062850060638427 0.025016790043615775 0 -0.0010151098986488126 0.025378901709791967 0 -0.0019941522101483903 0.022909532943418038 0 -0.002149011826717622 0.022874498544840523 0 -0.0021553355101722725 0.023095602898250057 0 -0.00098347794623281841 0.027763314142122752 0 -0.0013637781647564799 0.02775310781115517 0 -0.001380307328087902 0.027834084184298041 0 -0.0023089342222975357 0.022786669698404417 0 -0.002149011826717622 0.022874498544840523 0 -0.0021553355101722725 0.023095602898250057 0 -0.0019607300975702608 0.023216017288733837 0 -0.0019832463847841405 0.023067652251498851 0 -0.0021481468703943647 0.023139251332328921 0 -0.0014315383393312864 0.024083689682567664 0 -0.0010151098986488126 0.025378901709791967 0 -0.0010514706446378569 0.024512410768052533 0 -0.00064238907637114047 0.024613748403028268 0 -0.00062443749580392833 0.024690327774668761 0 -0.0013637781647564799 0.02775310781115517 0 -0.001388908094594087 0.027797570012499908 0 -0.001380307328087902 0.027834084184298041 0 -0.0019832463847841405 0.023067652251498851 0 -0.0019941522101483903 0.022909532943418038 0 -0.0021481468703943647 0.023139251332328921 0 -0.00091045870925376721 0.025910297957943602 0 -0.00093697716706092691 0.02563572625470446 0 -0.0019941522101483903 0.022909532943418038 0 -0.0021553355101722725 0.023095602898250057 0 -0.0021427928579647862 0.023146630378182761 0 -0.00097286676796163435 0.025559379761772395 0 -0.00093697716706092691 0.02563572625470446 0 -0.00093697716706092691 0.02563572625470446 0 -0.0010151098986488126 0.025378901709791967 0 -0.0010218975782250465 0.02535607465781578 0 -0.0010151098986488126 0.025378901709791967 0 -0.00098347794623281841 0.027763314142122752 0 -0.001380307328087902 0.027834084184298041 0 -0.00078440063435206934 0.028088484920767473 0 -0.0023089342222975357 0.022786669698404417 0 -0.0021553355101722725 0.023095602898250057 0 -0.0026956903866812544 0.022923291480433899 0 -0.0021553355101722725 0.023095602898250057 0 -0.0021437141245561711 0.023144786098706249 0 -0.0026956903866812544 0.022923291480433899 0 -0.0010151098986488126 0.025378901709791967 0 -0.0012313540985031991 0.028601146328239371 0 -0.0013075804928025731 0.028313408216629202 0 -0.0012313540985031991 0.028601146328239371 0 -0.0023089342222975357 0.022786669698404417 0 -0.002443311318855737 0.022474374617763158 0 -0.0026956903866812544 0.022923291480433899 0 -0.0013075804928025731 0.028313408216629202 0 -0.0010730155732977642 0.02734700045064492 0 -0.00020816075630446265 0.03471026280512865 0 -0.0002375052979818021 0.034752786804873238 0 -0.00018566734569041432 0.034743569085906117 0 -0.0020382148598928934 0.022571587885554748 0 -0.002443311318855737 0.022474374617763158 0 -0.002191624800170214 0.022036087185047005 0 -0.0010730155732977642 0.02734700045064492 0 3.706456622317056e-05 0.030649147882920225 0 -0.0002375052979818021 0.034752786804873238 0 -0.00018516018748537837 0.034778402649302521 0 -0.00018566734569041432 0.034743569085906117 0 1.0686501088147188e-05 0.034816870546932825 0 3.504921749588874e-05 0.034791019606893618 0 -4.0163164019280005e-06 0.034793829964306404 0 4.6357101782131324e-05 0.034811988882613415 0 1.0686501088147188e-05 0.034816870546932825 0 3.504921749588874e-05 0.034791019606893618 0 4.6357101782131324e-05 0.034811988882613415 0 3.504921749588874e-05 0.034791019606893618 0 7.5756766439232512e-05 0.034770306874491674 0 -0.0010730155732977642 0.02734700045064492 0 -0.0014448061004597005 0.027280155975567693 0 3.504921749588874e-05 0.034791019606893618 0 2.9073819950804107e-05 0.034766429875971908 0 7.5756766439232512e-05 0.034770306874491674 0 3.504921749588874e-05 0.034791019606893618 0 2.9073819950804107e-05 0.034766429875971908 0 -4.0163164019280005e-06 0.034793829964306404 0 2.9073819950804107e-05 0.034766429875971908 0 4.495049338100697e-05 0.034736583304684432 0 6.7969902275796272e-05 0.034733867892136665 0 2.9073819950804107e-05 0.034766429875971908 0 4.495049338100697e-05 0.034736583304684432 0 1.5867893720615345e-05 0.034752617036321001 0 4.495049338100697e-05 0.034736583304684432 0 3.3840762752883791e-05 0.034733938583565813 0 6.2026105833988659e-05 0.034716867041945994 0 4.495049338100697e-05 0.034736583304684432 0 1.5867893720615345e-05 0.034752617036321001 0 3.3840762752883791e-05 0.034733938583565813 0 4.495049338100697e-05 0.034736583304684432 0 6.7969902275796272e-05 0.034733867892136665 0 6.4802937647313411e-05 0.034705942571387365 0 6.7969902275796272e-05 0.034733867892136665 0 6.4802937647313411e-05 0.034705942571387365 0 8.9431764624580833e-05 0.034698581331172235 0 2.9073819950804107e-05 0.034766429875971908 0 6.7969902275796272e-05 0.034733867892136665 0 7.5756766439232512e-05 0.034770306874491674 0 -0.0014735067705882422 0.020644294988342689 0 -0.0013496700443585458 0.02081904278605155 0 -0.0018153895320163157 0.021243611357270115 0 6.7969902275796272e-05 0.034733867892136665 0 0.00010341441273810302 0.034720401173289589 0 7.5756766439232512e-05 0.034770306874491674 0 -0.0015678393265846444 0.025494845959232369 0 -0.0014448061004597005 0.027280155975567693 0 -0.0015678393265846444 0.025494845959232369 0 -0.00051669480145379021 0.027603634927170936 0 6.7969902275796272e-05 0.034733867892136665 0 0.00010341441273810302 0.034720401173289589 0 8.9431764624580833e-05 0.034698581331172235 0 -0.0012450169073386485 0.023183991945499586 0 -0.001647523802549532 0.022592760909447344 0 -0.0011972488353905845 0.02244099970843429 0 -0.0015678393265846444 0.025494845959232369 0 -0.00078609625213974898 0.016756170024722936 0 -0.0014828000955320649 0.020628072003704846 0 -0.0010824364749673777 0.020667221580108332 0 -0.0011277691536509067 0.02001034897112066 0 -0.0012450169073386485 0.023183991945499586 0 -0.0011972488353905845 0.02244099970843429 0 -0.0008245491475946566 0.022448062080140222 0 -0.0014828000955320649 0.020628072003704846 0 -0.0013496700443585458 0.02081904278605155 0 -0.0010824364749673777 0.020667221580108332 0 -0.0015678393265846444 0.025494845959232369 0 -0.0017569728124804149 0.025058066268538674 0 -0.0013496700443585458 0.02081904278605155 0 -0.0013845112287575179 0.021263898309780992 0 -0.0010470110683907941 0.021276874155359584 0 -0.0013496700443585458 0.02081904278605155 0 -0.0013845112287575179 0.021263898309780992 0 -0.0018153895320163157 0.021243611357270115 0 -0.0013263529496697869 0.021712747831822723 0 -0.001632571249209052 0.021926400709482766 0 -0.0018153895320163157 0.021243611357270115 0 -0.001632571249209052 0.021926400709482766 0 -0.0021513579744785799 0.021841463055107896 0 -0.0018153895320163157 0.021243611357270115 0 -0.0013263529496697869 0.021712747831822723 0 -0.0013845112287575179 0.021263898309780992 0 -0.0018153895320163157 0.021243611357270115 0 -0.0013263529496697869 0.021712747831822723 0 -0.0013845112287575179 0.021263898309780992 0 -0.0010470110683907941 0.021276874155359584 0 -0.0024278019770614459 0.016139983595393783 0 -0.0021484525915047496 0.014767023159232418 0 -0.00099960013115568637 0.021865465475950325 0 -0.0013263529496697869 0.021712747831822723 0 -0.0010470110683907941 0.021276874155359584 0 -0.0034181218147612165 0.0082065228891531946 0 -0.0032356170246186917 0.007839332761441083 0 -0.0034710109656517938 0.0075095523846664871 0 -0.0032356170246186917 0.007839332761441083 0 -0.0031719979559107392 0.0075967103539756105 0 -0.0034710109656517938 0.0075095523846664871 0 -0.0024278019770614459 0.016139983595393783 0 -0.0013470474579747888 0.010899378787257163 0 -0.0034181218147612165 0.0082065228891531946 0 -0.0032356170246186917 0.007839332761441083 0 -0.0029077062162535961 0.0075962212695555812 0 -0.0014952820245901183 0.013879099695636575 0 -0.0028267303051297348 0.014550732370826526 0 -0.00084994944863158188 0.012370622890441158 0 -0.0028533520242659247 0.0070730541537475725 0 -0.0027295445324608592 0.0070091994398193917 0 -0.0027486484981500501 0.006848235418370088 0 -0.0017416741233850311 0.012257477495465597 0 -0.0013470474579747888 0.010899378787257163 0 -0.0027295445324608592 0.0070091994398193917 0 -0.0027486484981500501 0.006848235418370088 0 -0.002671751288838081 0.0069204263675416017 0 -0.0032356170246186917 0.007839332761441083 0 -0.0030974607255999831 0.0076320640121516504 0 -0.0031719979559107392 0.0075967103539756105 0 -0.0032356170246186917 0.007839332761441083 0 -0.0029077062162535961 0.0075962212695555812 0 -0.0030974607255999831 0.0076320640121516504 0 -0.0030974607255999831 0.0076320640121516504 0 -0.0031719979559107392 0.0075967103539756105 0 -0.0030557063213580656 0.0075090533952770488 0 -0.0029077062162535961 0.0075962212695555812 0 -0.0030974607255999831 0.0076320640121516504 0 -0.0030557063213580656 0.0075090533952770488 0 -0.0030557063213580656 0.0075090533952770488 0 -0.0031538242696503046 0.0074198821682199762 0 -0.0029412256089275425 0.007268675799070274 0 -0.0031719979559107392 0.0075967103539756105 0 -0.0030557063213580656 0.0075090533952770488 0 -0.0031538242696503046 0.0074198821682199762 0 -0.0029077062162535961 0.0075962212695555812 0 -0.0030557063213580656 0.0075090533952770488 0 -0.0029412256089275425 0.007268675799070274 0 -0.0031538242696503046 0.0074198821682199762 0 -0.0029412256089275425 0.007268675799070274 0 -0.0031607341556840808 0.0071261077064567191 0 -0.0031538242696503046 0.0074198821682199762 0 -0.0034710109656517938 0.0075095523846664871 0 -0.0031607341556840808 0.0071261077064567191 0 -0.0034710109656517938 0.0075095523846664871 0 -0.0034798160460656389 0.0068919088716983363 0 -0.0031607341556840808 0.0071261077064567191 0 -0.0021484525915047496 0.014767023159232418 0 -0.0017203004087341092 0.014540270911006393 0 -0.0031719979559107392 0.0075967103539756105 0 -0.0031538242696503046 0.0074198821682199762 0 -0.0034710109656517938 0.0075095523846664871 0 -0.0013496700443585458 0.02081904278605155 0 -0.0010470110683907941 0.021276874155359584 0 -0.0010824364749673777 0.020667221580108332 0 -0.0034798160460656389 0.0068919088716983363 0 -0.0031138674300844119 0.0066764105937347348 0 -0.0031607341556840808 0.0071261077064567191 0 -0.0017203004087341092 0.014540270911006393 0 -0.00078609625213974898 0.016756170024722936 0 -0.0034798160460656389 0.0068919088716983363 0 -0.0031138674300844119 0.0066764105937347348 0 -0.0034892102268077284 0.0063545863770987209 0 -0.0031138674300844119 0.0066764105937347348 0 -0.0028920459751534872 0.0069053952030560953 0 -0.0027210019288684642 0.0064793564654823579 0 -0.0031138674300844119 0.0066764105937347348 0 -0.0027210019288684642 0.0064793564654823579 0 -0.0031302107668600525 0.0063222615576901189 0 -0.0031138674300844119 0.0066764105937347348 0 -0.0028920459751534872 0.0069053952030560953 0 -0.0031607341556840808 0.0071261077064567191 0 -0.0029412256089275425 0.007268675799070274 0 -0.0028920459751534872 0.0069053952030560953 0 -0.0031607341556840808 0.0071261077064567191 0 -0.0028920459751534872 0.0069053952030560953 0 -0.0025317215982377777 0.0069986660745723316 0 -0.0027210019288684642 0.0064793564654823579 0 -0.0029412256089275425 0.007268675799070274 0 -0.0028920459751534872 0.0069053952030560953 0 -0.0025317215982377777 0.0069986660745723316 0 -0.001394060321203668 0.0081843444387404984 0 -0.0014718078012751535 0.0075404357053540172 0 -0.0025317215982377777 0.0069986660745723316 0 -0.0027210019288684642 0.0064793564654823579 0 -0.0021997452229101928 0.0064084974232126177 0 -0.0024347686296824723 0.0065600339635722557 0 -0.0021065081387431589 0.006549960785481701 0 -0.0021997452229101928 0.0064084974232126177 0 -0.0024347686296824723 0.0065600339635722557 0 -0.0022331268729057839 0.0067316702247932937 0 -0.0021065081387431589 0.006549960785481701 0 -0.0024347686296824723 0.0065600339635722557 0 -0.0022331268729057839 0.0067316702247932937 0 -0.0024221716154416988 0.0067934875799362249 0 -0.0029077062162535961 0.0075962212695555812 0 -0.0029412256089275425 0.007268675799070274 0 -0.0025317215982377777 0.0069986660745723316 0 -0.0013470474579747888 0.010899378787257163 0 -0.001394060321203668 0.0081843444387404984 0 -0.0024347686296824723 0.0065600339635722557 0 -0.0024221716154416988 0.0067934875799362249 0 -0.0025772334246899186 0.0068613618520790226 0 -0.0027486484981500501 0.006848235418370088 0 -0.0024347686296824723 0.0065600339635722557 0 -0.0025772334246899186 0.0068613618520790226 0 -0.0024221716154416988 0.0067934875799362249 0 -0.0025772334246899186 0.0068613618520790226 0 -0.002505993151448907 0.0068849335961890428 0 -0.002505993151448907 0.0068849335961890428 0 -0.0026010460215742199 0.0069251348138701556 0 -0.0025532988772810289 0.0069464894851793231 0 -0.0025772334246899186 0.0068613618520790226 0 -0.002505993151448907 0.0068849335961890428 0 -0.0026010460215742199 0.0069251348138701556 0 -0.002505993151448907 0.0068849335961890428 0 -0.0025532988772810289 0.0069464894851793231 0 -0.00247639467361994 0.0069364574329075701 0 -0.0027486484981500501 0.006848235418370088 0 -0.0025772334246899186 0.0068613618520790226 0 -0.002671751288838081 0.0069204263675416017 0 -0.0025772334246899186 0.0068613618520790226 0 -0.0026010460215742199 0.0069251348138701556 0 -0.002671751288838081 0.0069204263675416017 0 -0.0027295445324608592 0.0070091994398193917 0 -0.002671751288838081 0.0069204263675416017 0 -0.0026277800118599637 0.0070401404800416335 0 -0.0026010460215742199 0.0069251348138701556 0 -0.002671751288838081 0.0069204263675416017 0 -0.0026277800118599637 0.0070401404800416335 0 -0.0026010460215742199 0.0069251348138701556 0 -0.0026277800118599637 0.0070401404800416335 0 -0.0025532988772810289 0.0069464894851793231 0 -0.0026277800118599637 0.0070401404800416335 0 -0.0025532988772810289 0.0069464894851793231 0 -0.00247639467361994 0.0069364574329075701 0 -0.0023997551535999127 0.0072259651437809472 0 -0.0024978062341574031 0.0071529759530475859 0 -0.0023005439624736285 0.0070124938025967051 0 -0.0022331268729057839 0.0067316702247932937 0 -0.0024221716154416988 0.0067934875799362249 0 -0.0023005439624736285 0.0070124938025967051 0 -0.0024978062341574031 0.0071529759530475859 0 -0.00247639467361994 0.0069364574329075701 0 -0.0023005439624736285 0.0070124938025967051 0 -0.0024221716154416988 0.0067934875799362249 0 -0.002505993151448907 0.0068849335961890428 0 -0.00247639467361994 0.0069364574329075701 0 -0.0024221716154416988 0.0067934875799362249 0 -0.00247639467361994 0.0069364574329075701 0 -0.0023005439624736285 0.0070124938025967051 0 -9.7698192771442552e-05 0.03490922269800803 0 -0.00020725082646973311 0.034957048649748558 0 -0.00023686384234942434 0.034767387833598236 0 -9.7698192771442552e-05 0.03490922269800803 0 -0.00020725082646973311 0.034957048649748558 0 -1.3681710170554416e-05 0.035017687462430988 0 1.7062778143149627e-05 0.034438441789868483 0 4.6250091274137709e-05 0.033786709590431049 0 -0.00020725082646973311 0.034957048649748558 0 -0.00023686384234942434 0.034767387833598236 0 -0.00041833852902863067 0.034865217220578885 0 -4.3647253415638359e-05 0.034828067306656024 0 -5.1894608921185584e-05 0.034850044121764179 0 -5.8688106999991418e-05 0.034819682564827377 0 -4.3647253415638359e-05 0.034828067306656024 0 -5.1894608921185584e-05 0.034850044121764179 0 -3.237294146193318e-05 0.034885974311504371 0 -5.1894608921185584e-05 0.034850044121764179 0 -3.237294146193318e-05 0.034885974311504371 0 -4.1486512023819599e-05 0.034902145542755315 0 1.7062778143149627e-05 0.034438441789868483 0 9.3645951675744891e-06 0.034779780793724319 0 -4.3647253415638359e-05 0.034828067306656024 0 -3.237294146193318e-05 0.034885974311504371 0 -5.6608709950863112e-06 0.034911026366846981 0 -1.3681710170554416e-05 0.035017687462430988 0 -3.1922462266350664e-07 0.034995539431741843 0 -5.9991875549452731e-06 0.034980453710455738 0 9.3645951675744891e-06 0.034779780793724319 0 6.5279926719648929e-08 0.034999640312684634 0 -3.1922462266350664e-07 0.034995539431741843 0 -4.3827930786186108e-09 0.034999984510090079 0 1.3497099597131968e-08 0.035000013546213356 0 -1.3681710170554416e-05 0.035017687462430988 0 -3.1922462266350664e-07 0.034995539431741843 0 1.3497099597131968e-08 0.035000013546213356 0 -3.1922462266350664e-07 0.034995539431741843 0 -2.9542574271876136e-06 0.034994737890703349 0 -4.3827930786186108e-09 0.034999984510090079 0 -9.7698192771442552e-05 0.03490922269800803 0 -5.9991875549452731e-06 0.034980453710455738 0 -3.7142559271100112e-05 0.034782503248890144 0 -2.9542574271876136e-06 0.034994737890703349 0 -5.9991875549452731e-06 0.034980453710455738 0 1.950498411907252e-06 0.034997513282583992 0 -3.1922462266350664e-07 0.034995539431741843 0 -2.9542574271876136e-06 0.034994737890703349 0 -5.9991875549452731e-06 0.034980453710455738 0 -9.7698192771442552e-05 0.03490922269800803 0 -1.3681710170554416e-05 0.035017687462430988 0 -5.9991875549452731e-06 0.034980453710455738 0 -3.8835468477883179e-05 0.034901051483574641 0 -5.8266193717052362e-05 0.034842916200309805 0 -2.9542574271876136e-06 0.034994737890703349 0 1.950498411907252e-06 0.034997513282583992 0 -6.8946677618645514e-07 0.034999019996390615 0 -2.9542574271876136e-06 0.034994737890703349 0 -2.79170533204263e-09 0.034999998411249365 0 -6.8946677618645514e-07 0.034999019996390615 0 -2.9542574271876136e-06 0.034994737890703349 0 -4.3827930786186108e-09 0.034999984510090079 0 -2.79170533204263e-09 0.034999998411249365 0 1.5197614287584305e-09 0.034999997686956288 0 -2.79170533204263e-09 0.034999998411249365 0 -3.5903730205482503e-07 0.03499973689256583 0 -2.79170533204263e-09 0.034999998411249365 0 -6.8946677618645514e-07 0.034999019996390615 0 -3.5903730205482503e-07 0.03499973689256583 0 1.950498411907252e-06 0.034997513282583992 0 -6.8946677618645514e-07 0.034999019996390615 0 -7.2471919948680021e-07 0.034999620009226046 0 1.950498411907252e-06 0.034997513282583992 0 -7.2471919948680021e-07 0.034999620009226046 0 7.1926418684181791e-07 0.034999322856279463 0 -6.8946677618645514e-07 0.034999019996390615 0 -3.5903730205482503e-07 0.03499973689256583 0 -7.2471919948680021e-07 0.034999620009226046 0 -9.7870744967864981e-05 0.034684804627195732 0 -0.00012181514073541976 0.03466679047801173 0 -3.7142559271100112e-05 0.034782503248890144 0 -8.6999834621624049e-05 0.034587403370169766 0 -0.00023686384234942434 0.034767387833598236 0 -5.8266193717052362e-05 0.034842916200309805 0 -0.00012181514073541976 0.03466679047801173 0 -9.7698192771442552e-05 0.03490922269800803 0 -3.7142559271100112e-05 0.034782503248890144 0 -0.00023686384234942434 0.034767387833598236 0 -8.6999834621624049e-05 0.034587403370169766 0 -0.00023686384234942434 0.034767387833598236 0 -0.00034231815586242354 0.034578681153175438 0 -0.00012181514073541976 0.03466679047801173 0 -0.00034534253114816311 0.033929257410065292 0 -0.00023686384234942434 0.034767387833598236 0 -0.00034231815586242354 0.034578681153175438 0 -0.00047166159348827329 0.034694661089709596 0 -0.00059804368157707715 0.034568498145562399 0 -0.00034231815586242354 0.034578681153175438 0 -0.00047166159348827329 0.034694661089709596 0 -0.00059804368157707715 0.034568498145562399 0 -0.00047166159348827329 0.034694661089709596 0 -0.00062707488398149231 0.034772525891753205 0 -0.00073986864531219959 0.032408072724683511 0 -0.00034534253114816311 0.033929257410065292 0 -0.00047166159348827329 0.034694661089709596 0 -0.00062707488398149231 0.034772525891753205 0 -0.00041833852902863067 0.034865217220578885 0 -0.00011274163171134118 0.034707834302980856 0 -0.00011151577112411579 0.034699300015240166 0 -6.1927491160854032e-05 0.034763840589935896 0 -6.6226132323322966e-05 0.032360535773094709 0 4.6250091274137709e-05 0.033786709590431049 0 -0.00023686384234942434 0.034767387833598236 0 -0.00047166159348827329 0.034694661089709596 0 -0.00041833852902863067 0.034865217220578885 0 -0.00082773506251616544 0.030599642097433342 0 -0.00084336668485287159 0.030625199455549357 0 -0.00079585811205823843 0.030648382296303862 0 -0.00060402775735692851 0.027773462134592062 0 -0.00098347794623281841 0.027763314142122752 0 -0.00078440063435206934 0.028088484920767473 0 -0.0012433761750363342 0.030253576269320768 0 -0.0012313540985031991 0.028601146328239371 0 -0.00079040142767567139 0.030603412156620775 0 -0.00082773506251616544 0.030599642097433342 0 -0.00079585811205823843 0.030648382296303862 0 -0.00073986864531219959 0.032408072724683511 0 -6.6226132323322966e-05 0.032360535773094709 0 -0.00011212811988766601 0.034696489756485427 0 -0.0001580961223194659 0.034700870100084075 0 -0.00013440766762172669 0.034716867078363509 0 -0.00011274163171134118 0.034707834302980856 0 -0.00011212811988766601 0.034696489756485427 0 -0.00013440766762172669 0.034716867078363509 0 -7.0037469641497668e-05 0.03239441648228953 0 -6.6226132323322966e-05 0.032360535773094709 0 -0.00020816075630446265 0.03471026280512865 0 -0.00017953421429867339 0.034651589184943647 0 -0.0001580961223194659 0.034700870100084075 0 -0.0012313540985031991 0.028601146328239371 0 -6.6226132323322966e-05 0.032360535773094709 0 -0.00017953421429867339 0.034651589184943647 0 -0.00011212811988766601 0.034696489756485427 0 -0.0001580961223194659 0.034700870100084075 0 -0.00020816075630446265 0.03471026280512865 0 -0.00018566734569041432 0.034743569085906117 0 -0.0001580961223194659 0.034700870100084075 0 -0.00018566734569041432 0.034743569085906117 0 -0.0001580961223194659 0.034700870100084075 0 -0.00014675119573101566 0.034750655174378392 0 -0.0001580961223194659 0.034700870100084075 0 -0.00014675119573101566 0.034750655174378392 0 -0.00013440766762172669 0.034716867078363509 0 -0.00011274163171134118 0.034707834302980856 0 -0.00011991511839031943 0.034745003380423183 0 -8.7964518940341043e-05 0.034774218383797947 0 -0.00014675119573101566 0.034750655174378392 0 -0.00013440766762172669 0.034716867078363509 0 -0.00011991511839031943 0.034745003380423183 0 -0.00014675119573101566 0.034750655174378392 0 -0.00011991511839031943 0.034745003380423183 0 -0.00011597578907579318 0.034773497950251274 0 -0.00011274163171134118 0.034707834302980856 0 -0.00013440766762172669 0.034716867078363509 0 -0.00011991511839031943 0.034745003380423183 0 -0.00011991511839031943 0.034745003380423183 0 -0.00011597578907579318 0.034773497950251274 0 -8.7964518940341043e-05 0.034774218383797947 0 -0.00014675119573101566 0.034750655174378392 0 -0.00011597578907579318 0.034773497950251274 0 -0.00012598972294943021 0.034804506083694321 0 -0.00011597578907579318 0.034773497950251274 0 -6.3737058813646e-05 0.034817694664634885 0 -0.00012598972294943021 0.034804506083694321 0 -0.00018516018748537837 0.034778402649302521 0 -0.00014675119573101566 0.034750655174378392 0 -0.00012598972294943021 0.034804506083694321 0 -0.00018516018748537837 0.034778402649302521 0 -0.00018566734569041432 0.034743569085906117 0 -0.00014675119573101566 0.034750655174378392 0 -6.1927491160854032e-05 0.034763840589935896 0 -8.7964518940341043e-05 0.034774218383797947 0 -5.8688106999991418e-05 0.034819682564827377 0 -4.3647253415638359e-05 0.034828067306656024 0 -6.1927491160854032e-05 0.034763840589935896 0 -5.8688106999991418e-05 0.034819682564827377 0 -0.00011274163171134118 0.034707834302980856 0 -6.1927491160854032e-05 0.034763840589935896 0 -8.7964518940341043e-05 0.034774218383797947 0 -8.7964518940341043e-05 0.034774218383797947 0 -5.8688106999991418e-05 0.034819682564827377 0 -6.3737058813646e-05 0.034817694664634885 0 -0.00011597578907579318 0.034773497950251274 0 -8.7964518940341043e-05 0.034774218383797947 0 -6.3737058813646e-05 0.034817694664634885 0 -5.8688106999991418e-05 0.034819682564827377 0 -6.3737058813646e-05 0.034817694664634885 0 -6.5300706652307445e-05 0.034814176497908994 0 -6.3737058813646e-05 0.034817694664634885 0 -5.3013053911324388e-05 0.034798800190773874 0 -3.6330924894913525e-05 0.034802768180863315 0 -6.3737058813646e-05 0.034817694664634885 0 -5.3013053911324388e-05 0.034798800190773874 0 -6.5300706652307445e-05 0.034814176497908994 0 -5.3013053911324388e-05 0.034798800190773874 0 -6.5300706652307445e-05 0.034814176497908994 0 -5.7713744987301972e-05 0.034790143753618497 0 -5.6307955008011536e-05 0.034854013274641792 0 -5.7694022375411874e-05 0.034850482883319649 0 -5.5857770559754043e-05 0.034928954587466025 0 -4.2839645545422105e-05 0.034908123671478976 0 -4.6485045582885617e-05 0.034929813640537849 0 3.706456622317056e-05 0.030649147882920225 0 0.00022555589103969182 0.03216629597142677 0 1.0686501088147188e-05 0.034816870546932825 0 -2.5614483424551447e-05 0.034820339428125249 0 -4.0163164019280005e-06 0.034793829964306404 0 0.00024207410496557584 0.032607370997023551 0 0.00022555589103969182 0.03216629597142677 0 -6.3737058813646e-05 0.034817694664634885 0 -2.5614483424551447e-05 0.034820339428125249 0 -3.6330924894913525e-05 0.034802768180863315 0 -2.5614483424551447e-05 0.034820339428125249 0 -3.6330924894913525e-05 0.034802768180863315 0 -4.0163164019280005e-06 0.034793829964306404 0 -5.3013053911324388e-05 0.034798800190773874 0 -3.6330924894913525e-05 0.034802768180863315 0 -3.1574540764233745e-05 0.034790070700771655 0 -3.6330924894913525e-05 0.034802768180863315 0 -4.0163164019280005e-06 0.034793829964306404 0 -3.1574540764233745e-05 0.034790070700771655 0 2.9073819950804107e-05 0.034766429875971908 0 -4.0163164019280005e-06 0.034793829964306404 0 -4.9469623790077887e-06 0.034771816148691986 0 -4.0163164019280005e-06 0.034793829964306404 0 -4.9469623790077887e-06 0.034771816148691986 0 -3.1574540764233745e-05 0.034790070700771655 0 2.9073819950804107e-05 0.034766429875971908 0 -4.9469623790077887e-06 0.034771816148691986 0 1.5867893720615345e-05 0.034752617036321001 0 -5.3013053911324388e-05 0.034798800190773874 0 -3.1574540764233745e-05 0.034790070700771655 0 -4.983724481228865e-05 0.034783601531397319 0 -4.9469623790077887e-06 0.034771816148691986 0 -3.1574540764233745e-05 0.034790070700771655 0 -4.983724481228865e-05 0.034783601531397319 0 -4.983724481228865e-05 0.034783601531397319 0 -1.1069547350855766e-05 0.034756187948053206 0 -5.765567001393282e-05 0.034769010106073993 0 -4.983724481228865e-05 0.034783601531397319 0 -6.5176216648641912e-05 0.034808218136499598 0 -5.765567001393282e-05 0.034769010106073993 0 -4.9469623790077887e-06 0.034771816148691986 0 -4.983724481228865e-05 0.034783601531397319 0 -1.1069547350855766e-05 0.034756187948053206 0 -4.9469623790077887e-06 0.034771816148691986 0 -1.1069547350855766e-05 0.034756187948053206 0 1.5867893720615345e-05 0.034752617036321001 0 -1.1069547350855766e-05 0.034756187948053206 0 1.5867893720615345e-05 0.034752617036321001 0 3.3840762752883791e-05 0.034733938583565813 0 -5.3013053911324388e-05 0.034798800190773874 0 -4.983724481228865e-05 0.034783601531397319 0 -5.7713744987301972e-05 0.034790143753618497 0 -5.7694022375411874e-05 0.034850482883319649 0 -5.7957032779068652e-05 0.034842757984625931 0 -4.983724481228865e-05 0.034783601531397319 0 -5.7713744987301972e-05 0.034790143753618497 0 -6.5176216648641912e-05 0.034808218136499598 0 -4.2839645545422105e-05 0.034908123671478976 0 -5.0010286892436041e-05 0.034904765556814522 0 -6.5176216648641912e-05 0.034808218136499598 0 -5.0010286892436041e-05 0.034904765556814522 0 -2.8207768002074625e-05 0.034949649099683809 0 -2.2527818217158479e-05 0.034952419292148811 0 -5.0010286892436041e-05 0.034904765556814522 0 -2.8207768002074625e-05 0.034949649099683809 0 -4.6485045582885617e-05 0.034929813640537849 0 -4.2839645545422105e-05 0.034908123671478976 0 -5.0010286892436041e-05 0.034904765556814522 0 -4.6485045582885617e-05 0.034929813640537849 0 -5.5857770559754043e-05 0.034928954587466025 0 -4.6485045582885617e-05 0.034929813640537849 0 -2.7771210024370785e-05 0.034930472248579987 0 -2.8207768002074625e-05 0.034949649099683809 0 -4.6485045582885617e-05 0.034929813640537849 0 -2.7771210024370785e-05 0.034930472248579987 0 -3.237294146193318e-05 0.034885974311504371 0 -2.7771210024370785e-05 0.034930472248579987 0 -4.1486512023819599e-05 0.034902145542755315 0 -3.237294146193318e-05 0.034885974311504371 0 -5.6608709950863112e-06 0.034911026366846981 0 -2.7771210024370785e-05 0.034930472248579987 0 -5.2821705768719943e-05 0.034847910468187471 0 -5.6307955008011536e-05 0.034854013274641792 0 -5.1894608921185584e-05 0.034850044121764179 0 -5.8688106999991418e-05 0.034819682564827377 0 -6.5300706652307445e-05 0.034814176497908994 0 -5.1894608921185584e-05 0.034850044121764179 0 -5.5857770559754043e-05 0.034928954587466025 0 -4.1486512023819599e-05 0.034902145542755315 0 -5.5857770559754043e-05 0.034928954587466025 0 -2.7771210024370785e-05 0.034930472248579987 0 -4.1486512023819599e-05 0.034902145542755315 0 -5.6608709950863112e-06 0.034911026366846981 0 2.2527312556902022e-08 0.034999858854262648 0 -7.7615986183015863e-06 0.034966668080987411 0 -5.6608709950863112e-06 0.034911026366846981 0 -2.7771210024370785e-05 0.034930472248579987 0 -7.7615986183015863e-06 0.034966668080987411 0 -2.8207768002074625e-05 0.034949649099683809 0 -2.7771210024370785e-05 0.034930472248579987 0 -7.7615986183015863e-06 0.034966668080987411 0 -7.7615986183015863e-06 0.034966668080987411 0 -1.399311892025153e-08 0.03499997413390421 0 -1.1794087614862957e-05 0.034975493645963987 0 2.2527312556902022e-08 0.034999858854262648 0 -7.7615986183015863e-06 0.034966668080987411 0 -1.399311892025153e-08 0.03499997413390421 0 -1.399311892025153e-08 0.03499997413390421 0 -1.1794087614862957e-05 0.034975493645963987 0 -1.1156660705909614e-08 0.034999948118106215 0 -2.8207768002074625e-05 0.034949649099683809 0 -7.7615986183015863e-06 0.034966668080987411 0 -1.1794087614862957e-05 0.034975493645963987 0 -2.8207768002074625e-05 0.034949649099683809 0 -1.1794087614862957e-05 0.034975493645963987 0 -2.2527818217158479e-05 0.034952419292148811 0 -1.1794087614862957e-05 0.034975493645963987 0 -2.2527818217158479e-05 0.034952419292148811 0 -1.1156660705909614e-08 0.034999948118106215 0 -1.1156660705909614e-08 0.034999948118106215 0 -1.3763373602048177e-05 0.034964530734247032 0 -5.9555990307214971e-09 0.034999954572589587 0 -2.2527818217158479e-05 0.034952419292148811 0 -1.1156660705909614e-08 0.034999948118106215 0 -1.3763373602048177e-05 0.034964530734247032 0 -2.2527818217158479e-05 0.034952419292148811 0 -1.3763373602048177e-05 0.034964530734247032 0 -3.3165563466876495e-05 0.034923964560960828 0 -1.3763373602048177e-05 0.034964530734247032 0 -3.3165563466876495e-05 0.034923964560960828 0 -1.2097538710819835e-05 0.034968816895674146 0 -1.3763373602048177e-05 0.034964530734247032 0 -5.9555990307214971e-09 0.034999954572589587 0 -1.2097538710819835e-05 0.034968816895674146 0 -5.0010286892436041e-05 0.034904765556814522 0 -3.3165563466876495e-05 0.034923964560960828 0 -5.9219168671509455e-05 0.034856951181322524 0 -5.0010286892436041e-05 0.034904765556814522 0 -2.2527818217158479e-05 0.034952419292148811 0 -3.3165563466876495e-05 0.034923964560960828 0 -3.3165563466876495e-05 0.034923964560960828 0 -3.9965447433801721e-05 0.034919965688181252 0 -1.2097538710819835e-05 0.034968816895674146 0 -3.3165563466876495e-05 0.034923964560960828 0 -3.9965447433801721e-05 0.034919965688181252 0 -5.9219168671509455e-05 0.034856951181322524 0 -3.9965447433801721e-05 0.034919965688181252 0 -4.2899214544023189e-05 0.034963292244859556 0 -8.0215135091653918e-05 0.034892828805561195 0 -3.9965447433801721e-05 0.034919965688181252 0 -4.2899214544023189e-05 0.034963292244859556 0 -1.2097538710819835e-05 0.034968816895674146 0 -4.2899214544023189e-05 0.034963292244859556 0 -1.2097538710819835e-05 0.034968816895674146 0 -1.7678350559327785e-05 0.034994195886595268 0 -5.9555990307214971e-09 0.034999954572589587 0 -1.2097538710819835e-05 0.034968816895674146 0 -4.6981634907986281e-10 0.034999973192547759 0 -1.2097538710819835e-05 0.034968816895674146 0 -4.6215955751651575e-06 0.034996342725998622 0 -1.7678350559327785e-05 0.034994195886595268 0 -1.2097538710819835e-05 0.034968816895674146 0 -4.6981634907986281e-10 0.034999973192547759 0 -4.6215955751651575e-06 0.034996342725998622 0 -4.6981634907986281e-10 0.034999973192547759 0 -4.6215955751651575e-06 0.034996342725998622 0 -2.291731025664127e-09 0.035000013127458186 0 -4.6215955751651575e-06 0.034996342725998622 0 -2.291731025664127e-09 0.035000013127458186 0 -2.7720510981829718e-06 0.035003655765109672 0 -4.9605541511960873e-07 0.034999206373321483 0 -9.931493587531456e-05 0.034820667675325587 0 -1.1463110855491907e-10 0.034999999948626744 0 -6.4155387269594974e-09 0.03499977851194086 0 1.5243707349919184e-10 0.034999999514453969 0 -5.234920082490232e-07 0.035000331171384097 0 -7.6659136327049293e-09 0.034999987826044486 0 -4.1359866570162394e-07 0.034999647657488094 0 -9.931493587531456e-05 0.034820667675325587 0 -9.3900268389608984e-08 0.034999415294250116 0 -0.0011311453157805355 0.033958757722147563 0 -0.00092881320412473698 0.03396092685612432 0 -0.00090690424837612462 0.034111969342629535 0 -0.0011311453157805355 0.033958757722147563 0 -0.00092881320412473698 0.03396092685612432 0 -0.00092037369740539867 0.033809223141335651 0 -5.234920082490232e-07 0.035000331171384097 0 -4.1359866570162394e-07 0.034999647657488094 0 2.3294244779523613e-06 0.034999525162020671 0 -9.931493587531456e-05 0.034820667675325587 0 -0.00026168957116171499 0.034615395279482215 0 -9.931493587531456e-05 0.034820667675325587 0 -0.0003770320429052628 0.034620203710828565 0 -4.6215955751651575e-06 0.034996342725998622 0 -2.7720510981829718e-06 0.035003655765109672 0 -1.7678350559327785e-05 0.034994195886595268 0 -0.00034211881714050319 0.034635741869930146 0 -0.0003770320429052628 0.034620203710828565 0 -0.00069094982316788417 0.0342732122951626 0 -0.00090690424837612462 0.034111969342629535 0 -0.00075556386258305707 0.033963865727473223 0 -0.00069094982316788417 0.0342732122951626 0 -0.00075556386258305707 0.033963865727473223 0 -0.00054764797162534687 0.034063816807075015 0 -0.00075556386258305707 0.033963865727473223 0 -0.00055007724387610708 0.033873235720947123 0 -0.00054764797162534687 0.034063816807075015 0 -0.00092881320412473698 0.03396092685612432 0 -0.00075556386258305707 0.033963865727473223 0 -0.00092037369740539867 0.033809223141335651 0 -0.00092881320412473698 0.03396092685612432 0 -0.00090690424837612462 0.034111969342629535 0 -0.00075556386258305707 0.033963865727473223 0 -0.00024007058375620684 0.034468706087178003 0 -0.00026168957116171499 0.034615395279482215 0 1.1407133051801663e-05 0.034994389719064538 0 2.2694963456850466e-06 0.034994653371126123 0 2.3294244779523613e-06 0.034999525162020671 0 -0.00075556386258305707 0.033963865727473223 0 -0.00069832381739420391 0.033658238810267575 0 -0.00092037369740539867 0.033809223141335651 0 -0.00069832381739420391 0.033658238810267575 0 -0.00050597446763637089 0.033674641264308532 0 -0.00055007724387610708 0.033873235720947123 0 -0.00075556386258305707 0.033963865727473223 0 -0.00069832381739420391 0.033658238810267575 0 -0.00055007724387610708 0.033873235720947123 0 -0.00069832381739420391 0.033658238810267575 0 -0.00050597446763637089 0.033674641264308532 0 -0.00047291288202500021 0.033523899321407154 0 -0.00024007058375620684 0.034468706087178003 0 -0.00014962087421130385 0.034388270458568612 0 1.1407133051801663e-05 0.034994389719064538 0 2.2694963456850466e-06 0.034994653371126123 0 6.0569884819480033e-06 0.034986272788425268 0 2.2694963456850466e-06 0.034994653371126123 0 -2.3683325731723688e-06 0.034994610979909274 0 -8.7023123597139269e-07 0.034998828496969225 0 2.2694963456850466e-06 0.034994653371126123 0 -2.3683325731723688e-06 0.034994610979909274 0 6.0569884819480033e-06 0.034986272788425268 0 9.9664843530512834e-09 0.035000018869226851 0 -2.3683325731723688e-06 0.034994610979909274 0 -8.7023123597139269e-07 0.034998828496969225 0 -7.6659136327049293e-09 0.034999987826044486 0 9.9664843530512834e-09 0.035000018869226851 0 -8.7023123597139269e-07 0.034998828496969225 0 -7.6659136327049293e-09 0.034999987826044486 0 -8.7023123597139269e-07 0.034998828496969225 0 -4.1359866570162394e-07 0.034999647657488094 0 -8.7023123597139269e-07 0.034998828496969225 0 -4.1359866570162394e-07 0.034999647657488094 0 2.3294244779523613e-06 0.034999525162020671 0 2.2694963456850466e-06 0.034994653371126123 0 -8.7023123597139269e-07 0.034998828496969225 0 2.3294244779523613e-06 0.034999525162020671 0 -0.00022729347504831887 0.033807947735141126 0 -7.2891984988323263e-05 0.033766483821201239 0 -0.00016623623536436656 0.033684720738491873 0 -7.2891984988323263e-05 0.033766483821201239 0 -6.6788778146107552e-05 0.03366321852524274 0 -0.00016623623536436656 0.033684720738491873 0 -0.00022729347504831887 0.033807947735141126 0 -0.00016623623536436656 0.033684720738491873 0 -0.00027900469379273416 0.033687785502761039 0 -7.2891984988323263e-05 0.033766483821201239 0 -6.6788778146107552e-05 0.03366321852524274 0 4.6689174470897676e-05 0.033681443382898663 0 -7.2891984988323263e-05 0.033766483821201239 0 3.5613886284216677e-05 0.033802635257744726 0 4.6689174470897676e-05 0.033681443382898663 0 -6.6788778146107552e-05 0.03366321852524274 0 -2.0880432786467966e-05 0.033592651931294439 0 4.6689174470897676e-05 0.033681443382898663 0 -6.6788778146107552e-05 0.03366321852524274 0 -2.0880432786467966e-05 0.033592651931294439 0 -0.00013841024829364527 0.03358706767398513 0 -6.6788778146107552e-05 0.03366321852524274 0 -0.00013841024829364527 0.03358706767398513 0 -0.00016623623536436656 0.033684720738491873 0 -0.00016623623536436656 0.033684720738491873 0 -0.00021898248159503753 0.033600330219013937 0 -0.00027900469379273416 0.033687785502761039 0 -0.00013841024829364527 0.03358706767398513 0 -0.00016623623536436656 0.033684720738491873 0 -0.00021898248159503753 0.033600330219013937 0 -0.00013841024829364527 0.03358706767398513 0 -0.00021898248159503753 0.033600330219013937 0 -0.00021443067540159567 0.033536603579761043 0 -0.00021898248159503753 0.033600330219013937 0 -0.00031350925922277856 0.033597227190549854 0 -0.00027109616653760073 0.033537576926200879 0 -0.00031350925922277856 0.033597227190549854 0 -0.00034607211567049706 0.033538084543576402 0 -0.00027109616653760073 0.033537576926200879 0 -0.00031350925922277856 0.033597227190549854 0 -0.00037820099559868442 0.033664513289019392 0 -0.00039690756628834526 0.033589238068532069 0 -0.00031350925922277856 0.033597227190549854 0 -0.00039690756628834526 0.033589238068532069 0 -0.00034607211567049706 0.033538084543576402 0 -0.00031350925922277856 0.033597227190549854 0 -0.00037820099559868442 0.033664513289019392 0 -0.00027900469379273416 0.033687785502761039 0 -0.00021898248159503753 0.033600330219013937 0 -0.00031350925922277856 0.033597227190549854 0 -0.00027900469379273416 0.033687785502761039 0 -0.00039690756628834526 0.033589238068532069 0 -0.00050597446763637089 0.033674641264308532 0 -0.00047291288202500021 0.033523899321407154 0 -0.00037820099559868442 0.033664513289019392 0 -0.00039690756628834526 0.033589238068532069 0 -0.00050597446763637089 0.033674641264308532 0 -0.00050597446763637089 0.033674641264308532 0 -0.00037858494292434825 0.033779329794368818 0 -0.00055007724387610708 0.033873235720947123 0 -0.00037820099559868442 0.033664513289019392 0 -0.00050597446763637089 0.033674641264308532 0 -0.00037858494292434825 0.033779329794368818 0 -0.00022729347504831887 0.033807947735141126 0 -0.00027900469379273416 0.033687785502761039 0 -0.00037858494292434825 0.033779329794368818 0 -0.00037820099559868442 0.033664513289019392 0 -0.00027900469379273416 0.033687785502761039 0 -0.00037858494292434825 0.033779329794368818 0 -0.00022729347504831887 0.033807947735141126 0 -0.00037858494292434825 0.033779329794368818 0 -0.00034595778833974926 0.033991527964893201 0 -0.00037858494292434825 0.033779329794368818 0 -0.00034595778833974926 0.033991527964893201 0 -0.00055007724387610708 0.033873235720947123 0 -0.00034595778833974926 0.033991527964893201 0 -0.00055007724387610708 0.033873235720947123 0 -0.00054764797162534687 0.034063816807075015 0 -0.00069094982316788417 0.0342732122951626 0 -0.00054764797162534687 0.034063816807075015 0 -0.00041735664882552832 0.034221906739841552 0 -0.00034595778833974926 0.033991527964893201 0 -0.00054764797162534687 0.034063816807075015 0 -0.00041735664882552832 0.034221906739841552 0 -0.00034595778833974926 0.033991527964893201 0 -0.00018852553594069538 0.034166269164573687 0 -0.00041735664882552832 0.034221906739841552 0 -0.00018852553594069538 0.034166269164573687 0 -0.00011062731272874847 0.033944669637460644 0 -6.3466936224718863e-05 0.034111401812465345 0 -0.00034595778833974926 0.033991527964893201 0 -0.00018852553594069538 0.034166269164573687 0 -0.00011062731272874847 0.033944669637460644 0 -0.00018852553594069538 0.034166269164573687 0 -6.3466936224718863e-05 0.034111401812465345 0 -7.1506436909322187e-05 0.034275369210771553 0 -0.00022729347504831887 0.033807947735141126 0 -0.00034595778833974926 0.033991527964893201 0 -0.00011062731272874847 0.033944669637460644 0 -0.00022729347504831887 0.033807947735141126 0 -7.2891984988323263e-05 0.033766483821201239 0 -0.00011062731272874847 0.033944669637460644 0 3.5613886284216677e-05 0.033802635257744726 0 1.3222693581801821e-05 0.034009076268889216 0 0.00011885250621046205 0.033818250472224025 0 -0.00011062731272874847 0.033944669637460644 0 3.5613886284216677e-05 0.033802635257744726 0 1.3222693581801821e-05 0.034009076268889216 0 -7.2891984988323263e-05 0.033766483821201239 0 -0.00011062731272874847 0.033944669637460644 0 3.5613886284216677e-05 0.033802635257744726 0 1.3222693581801821e-05 0.034009076268889216 0 0.00011885250621046205 0.033818250472224025 0 0.00012037412838571972 0.034152185301518714 0 -0.00011062731272874847 0.033944669637460644 0 1.3222693581801821e-05 0.034009076268889216 0 -6.3466936224718863e-05 0.034111401812465345 0 1.3222693581801821e-05 0.034009076268889216 0 -6.3466936224718863e-05 0.034111401812465345 0 5.761435805104455e-05 0.034190688239670544 0 1.3222693581801821e-05 0.034009076268889216 0 5.761435805104455e-05 0.034190688239670544 0 0.00012037412838571972 0.034152185301518714 0 0.00091107422363704573 0.032156472880099013 0 0.00075598201152810788 0.03160280125182998 0 5.761435805104455e-05 0.034190688239670544 0 0.00013988121251126063 0.034271007922176806 0 0.00012037412838571972 0.034152185301518714 0 5.761435805104455e-05 0.034190688239670544 0 3.0377707618198402e-05 0.034357383607353575 0 0.0001451798947346458 0.03440621591774292 0 3.0377707618198402e-05 0.034357383607353575 0 3.8559313344828235e-05 0.034467563198270622 0 0.0001451798947346458 0.03440621591774292 0 3.0377707618198402e-05 0.034357383607353575 0 -7.1506436909322187e-05 0.034275369210771553 0 -5.9461298707902047e-05 0.034455565157781524 0 5.761435805104455e-05 0.034190688239670544 0 3.0377707618198402e-05 0.034357383607353575 0 -7.1506436909322187e-05 0.034275369210771553 0 -6.3466936224718863e-05 0.034111401812465345 0 5.761435805104455e-05 0.034190688239670544 0 -7.1506436909322187e-05 0.034275369210771553 0 -0.00018852553594069538 0.034166269164573687 0 -7.1506436909322187e-05 0.034275369210771553 0 -0.00023219217956734107 0.034387850908089677 0 -7.1506436909322187e-05 0.034275369210771553 0 -5.9461298707902047e-05 0.034455565157781524 0 -0.00023219217956734107 0.034387850908089677 0 -5.9461298707902047e-05 0.034455565157781524 0 -5.9176046464632898e-06 0.034564871256324146 0 -0.00012889816699170677 0.034726362051310945 0 -5.9461298707902047e-05 0.034455565157781524 0 -0.00023219217956734107 0.034387850908089677 0 -0.00012889816699170677 0.034726362051310945 0 -5.9176046464632898e-06 0.034564871256324146 0 3.8559313344828235e-05 0.034467563198270622 0 8.5060214063477124e-05 0.034542005597118716 0 -5.9176046464632898e-06 0.034564871256324146 0 1.7040795594477031e-05 0.034645897498499216 0 8.5060214063477124e-05 0.034542005597118716 0 3.8559313344828235e-05 0.034467563198270622 0 0.0001451798947346458 0.03440621591774292 0 8.5060214063477124e-05 0.034542005597118716 0 -5.9461298707902047e-05 0.034455565157781524 0 -5.9176046464632898e-06 0.034564871256324146 0 3.8559313344828235e-05 0.034467563198270622 0 3.0377707618198402e-05 0.034357383607353575 0 -5.9461298707902047e-05 0.034455565157781524 0 3.8559313344828235e-05 0.034467563198270622 0 -0.00034211881714050319 0.034635741869930146 0 -0.00025265611209998216 0.034688431705099033 0 -0.00069094982316788417 0.0342732122951626 0 -0.00041735664882552832 0.034221906739841552 0 -0.00046591567071324792 0.034471664138321229 0 -0.00041735664882552832 0.034221906739841552 0 -0.00023219217956734107 0.034387850908089677 0 -0.00046591567071324792 0.034471664138321229 0 -0.00018852553594069538 0.034166269164573687 0 -0.00041735664882552832 0.034221906739841552 0 -0.00023219217956734107 0.034387850908089677 0 -0.00023219217956734107 0.034387850908089677 0 -0.00046591567071324792 0.034471664138321229 0 -0.00012889816699170677 0.034726362051310945 0 -0.00025265611209998216 0.034688431705099033 0 -0.00019244889559561642 0.034722358999871812 0 -3.9965447433801721e-05 0.034919965688181252 0 -8.0215135091653918e-05 0.034892828805561195 0 -5.9219168671509455e-05 0.034856951181322524 0 -8.0215135091653918e-05 0.034892828805561195 0 -5.9219168671509455e-05 0.034856951181322524 0 -0.00012889816699170677 0.034726362051310945 0 -5.9219168671509455e-05 0.034856951181322524 0 -6.5176216648641912e-05 0.034808218136499598 0 -0.00012889816699170677 0.034726362051310945 0 -5.0010286892436041e-05 0.034904765556814522 0 -5.9219168671509455e-05 0.034856951181322524 0 -6.5176216648641912e-05 0.034808218136499598 0 1.7040795594477031e-05 0.034645897498499216 0 -1.7110189104829757e-05 0.034721648879185919 0 6.2150830180155421e-05 0.03466606704604773 0 1.7040795594477031e-05 0.034645897498499216 0 9.4035059853026415e-05 0.034611983660423305 0 8.5060214063477124e-05 0.034542005597118716 0 1.7040795594477031e-05 0.034645897498499216 0 6.2150830180155421e-05 0.03466606704604773 0 9.4035059853026415e-05 0.034611983660423305 0 -0.00012889816699170677 0.034726362051310945 0 -5.765567001393282e-05 0.034769010106073993 0 -1.7110189104829757e-05 0.034721648879185919 0 -5.9176046464632898e-06 0.034564871256324146 0 1.7040795594477031e-05 0.034645897498499216 0 -0.00012889816699170677 0.034726362051310945 0 1.7040795594477031e-05 0.034645897498499216 0 -0.00012889816699170677 0.034726362051310945 0 -1.7110189104829757e-05 0.034721648879185919 0 -6.5176216648641912e-05 0.034808218136499598 0 -0.00012889816699170677 0.034726362051310945 0 -5.765567001393282e-05 0.034769010106073993 0 -1.1069547350855766e-05 0.034756187948053206 0 -5.765567001393282e-05 0.034769010106073993 0 -1.7110189104829757e-05 0.034721648879185919 0 -1.1069547350855766e-05 0.034756187948053206 0 -1.7110189104829757e-05 0.034721648879185919 0 2.3604412624438659e-05 0.034721861118989526 0 -1.7110189104829757e-05 0.034721648879185919 0 2.3604412624438659e-05 0.034721861118989526 0 6.2150830180155421e-05 0.03466606704604773 0 -1.1069547350855766e-05 0.034756187948053206 0 2.3604412624438659e-05 0.034721861118989526 0 3.3840762752883791e-05 0.034733938583565813 0 3.3840762752883791e-05 0.034733938583565813 0 6.2026105833988659e-05 0.034716867041945994 0 6.0521094319424238e-05 0.034705306799619605 0 2.3604412624438659e-05 0.034721861118989526 0 3.3840762752883791e-05 0.034733938583565813 0 6.0521094319424238e-05 0.034705306799619605 0 4.495049338100697e-05 0.034736583304684432 0 6.2026105833988659e-05 0.034716867041945994 0 6.4802937647313411e-05 0.034705942571387365 0 6.2026105833988659e-05 0.034716867041945994 0 7.5363070336974462e-05 0.03470798552283097 0 6.4802937647313411e-05 0.034705942571387365 0 6.2026105833988659e-05 0.034716867041945994 0 7.5363070336974462e-05 0.03470798552283097 0 7.6042099938237361e-05 0.034703618554266839 0 7.5363070336974462e-05 0.03470798552283097 0 7.6042099938237361e-05 0.034703618554266839 0 0.00010184604710530639 0.034698768896435084 0 6.2026105833988659e-05 0.034716867041945994 0 7.6042099938237361e-05 0.034703618554266839 0 6.0521094319424238e-05 0.034705306799619605 0 7.6042099938237361e-05 0.034703618554266839 0 6.0521094319424238e-05 0.034705306799619605 0 9.1825350552268849e-05 0.034680089827297915 0 7.6042099938237361e-05 0.034703618554266839 0 9.1825350552268849e-05 0.034680089827297915 0 0.00010184604710530639 0.034698768896435084 0 2.3604412624438659e-05 0.034721861118989526 0 6.0521094319424238e-05 0.034705306799619605 0 6.2150830180155421e-05 0.03466606704604773 0 9.1825350552268849e-05 0.034680089827297915 0 9.4035059853026415e-05 0.034611983660423305 0 0.00016717847828571656 0.034552913064622624 0 6.2150830180155421e-05 0.03466606704604773 0 9.1825350552268849e-05 0.034680089827297915 0 9.4035059853026415e-05 0.034611983660423305 0 -0.0005100248461741417 0.030297925095033981 0 0.00030029136352742203 0.030421126798631723 0 6.0521094319424238e-05 0.034705306799619605 0 6.2150830180155421e-05 0.03466606704604773 0 9.1825350552268849e-05 0.034680089827297915 0 9.1825350552268849e-05 0.034680089827297915 0 0.00010184604710530639 0.034698768896435084 0 0.00016717847828571656 0.034552913064622624 0 -0.00011420591805670724 0.028101826161957739 0 0.00011202600877821797 0.027904670343874526 0 -0.00042612695348100995 0.028931252769800832 0 -2.1395551079205209e-05 0.028445338027691794 0 0.00021819400468093685 0.029857462668363598 0 -0.00011420591805670724 0.028101826161957739 0 -0.00023701687107378414 0.026370490207129362 0 -0.00011420591805670724 0.028101826161957739 0 0.00030029136352742203 0.030421126798631723 0 -0.00011420591805670724 0.028101826161957739 0 -0.0005100248461741417 0.030297925095033981 0 -0.00011420591805670724 0.028101826161957739 0 -0.00051669480145379021 0.027603634927170936 0 7.4804904594733278e-05 0.034652403972141178 0 5.8420802508488475e-05 0.034675482535637153 0 6.4802937647313411e-05 0.034705942571387365 0 7.4804904594733278e-05 0.034652403972141178 0 6.4802937647313411e-05 0.034705942571387365 0 8.9431764624580833e-05 0.034698581331172235 0 -0.0005100248461741417 0.030297925095033981 0 -0.00041732324153132477 0.030890118258931416 0 7.5363070336974462e-05 0.03470798552283097 0 0.00010184604710530639 0.034698768896435084 0 6.4802937647313411e-05 0.034705942571387365 0 -0.0020641678273061567 0.021990230824042587 0 -0.001647523802549532 0.022592760909447344 0 -0.0015277315996600677 0.022087163390403747 0 -0.001647523802549532 0.022592760909447344 0 -0.0011972488353905845 0.02244099970843429 0 -0.0015277315996600677 0.022087163390403747 0 -0.0010440421167211874 0.022190593224467484 0 -0.00087492185499764557 0.021931478349299486 0 -0.0008245491475946566 0.022448062080140222 0 -0.0011972488353905845 0.02244099970843429 0 -0.0012445637556715533 0.022157996760098969 0 -0.0010440421167211874 0.022190593224467484 0 -0.0011972488353905845 0.02244099970843429 0 -0.0012445637556715533 0.022157996760098969 0 -0.0015277315996600677 0.022087163390403747 0 -0.0011972488353905845 0.02244099970843429 0 -0.0010440421167211874 0.022190593224467484 0 -0.0008245491475946566 0.022448062080140222 0 -0.00087492185499764557 0.021931478349299486 0 -0.0010695442770958564 0.021667557710493515 0 -0.00078277031206480717 0.021411293864915415 0 -0.0010440421167211874 0.022190593224467484 0 -0.00087492185499764557 0.021931478349299486 0 -0.0011687008878331574 0.021948566168952285 0 -0.0012445637556715533 0.022157996760098969 0 -0.0011687008878331574 0.021948566168952285 0 -0.0015277315996600677 0.022087163390403747 0 -0.0012445637556715533 0.022157996760098969 0 -0.0010440421167211874 0.022190593224467484 0 -0.0011687008878331574 0.021948566168952285 0 -0.0011687008878331574 0.021948566168952285 0 -0.0010695442770958564 0.021667557710493515 0 -0.001352481994111761 0.021758733917159916 0 -0.00087492185499764557 0.021931478349299486 0 -0.0011687008878331574 0.021948566168952285 0 -0.0010695442770958564 0.021667557710493515 0 -0.0020641678273061567 0.021990230824042587 0 -0.0015277315996600677 0.022087163390403747 0 -0.001683534547833583 0.021699919504376618 0 -0.00096422575470762764 0.027059241281851373 0 -0.00043255708411587304 0.026664209760828107 0 -0.00027150249306642224 0.02622367595444159 0 -0.0011687008878331574 0.021948566168952285 0 -0.0015277315996600677 0.022087163390403747 0 -0.001352481994111761 0.021758733917159916 0 -0.0015277315996600677 0.022087163390403747 0 -0.001352481994111761 0.021758733917159916 0 -0.001683534547833583 0.021699919504376618 0 -0.00023701687107378414 0.026370490207129362 0 -0.00047896255090681234 0.025306241917979439 0 -0.001352481994111761 0.021758733917159916 0 -0.001683534547833583 0.021699919504376618 0 -0.0013118139453514759 0.021390045780647821 0 -0.00043255708411587304 0.026664209760828107 0 -0.00027150249306642224 0.02622367595444159 0 8.2163832586533455e-05 0.02624458760587349 0 0.00011202600877821797 0.027904670343874526 0 -0.00047896255090681234 0.025306241917979439 0 -0.0024083573202746573 0.02021607185531522 0 -0.0019003250388118671 0.020238579779740092 0 -0.0017595265726903749 0.019673700566293927 0 -0.00047896255090681234 0.025306241917979439 0 -0.0011526461833726103 0.020524422386229427 0 0.0019841148417010152 0.031429254807947893 0 0.0016484382003349668 0.031411612937049214 0 0.0013481352914960219 0.032150216124465003 0 -0.0010695442770958564 0.021667557710493515 0 -0.0013118139453514759 0.021390045780647821 0 -0.00078277031206480717 0.021411293864915415 0 -0.0010695442770958564 0.021667557710493515 0 -0.001352481994111761 0.021758733917159916 0 -0.0013118139453514759 0.021390045780647821 0 0.00029527346244921166 0.029947471020007863 0 5.7736521169946708e-05 0.030277830090379518 0 1.3364802192751254e-06 0.030316951706507632 0 -0.00047896255090681234 0.025306241917979439 0 -0.0013987033266882505 0.024482416295194646 0 0.0016484382003349668 0.031411612937049214 0 0.0013481352914960219 0.032150216124465003 0 0.00078608673285417532 0.032156362012562043 0 0.00011202600877821797 0.027904670343874526 0 -2.4996298823759617e-05 0.030258585858311694 0 4.3225626831984282e-05 0.030352272575962951 0 0.00015816307334264959 0.030460056529959995 0 2.9240812379540057e-05 0.030498740473874453 0 5.7736521169946708e-05 0.030277830090379518 0 1.3364802192751254e-06 0.030316951706507632 0 -0.00017335947580129226 0.030590035369484861 0 0.00023200356226407205 0.030134146687735175 0 0.00026684895338548664 0.030353009898110853 0 0.00045380992389461571 0.030340737671860577 0 0.00023200356226407205 0.030134146687735175 0 4.3225626831984282e-05 0.030352272575962951 0 0.00026684895338548664 0.030353009898110853 0 0.00011202600877821797 0.027904670343874526 0 -0.00035868113309424663 0.029231435185412203 0 4.3225626831984282e-05 0.030352272575962951 0 0.00026684895338548664 0.030353009898110853 0 0.00015816307334264959 0.030460056529959995 0 0.00026684895338548664 0.030353009898110853 0 0.00038219903125773805 0.030543428509182024 0 0.00015816307334264959 0.030460056529959995 0 0.00026684895338548664 0.030353009898110853 0 0.00045380992389461571 0.030340737671860577 0 0.00038219903125773805 0.030543428509182024 0 0.00032897650340896087 0.030623907580838064 0 0.00062656375338068456 0.032263841269079413 0 0.00045380992389461571 0.030340737671860577 0 0.00062675012992296478 0.030164063990490653 0 0.00068193932264723391 0.03049926015681776 0 0.00013988121251126063 0.034271007922176806 0 0.00017169162926605733 0.03414332230510321 0 0.00012037412838571972 0.034152185301518714 0 0.00013988121251126063 0.034271007922176806 0 0.00019947549194523909 0.034317644478669466 0 0.00017169162926605733 0.03414332230510321 0 0.00013988121251126063 0.034271007922176806 0 0.00019947549194523909 0.034317644478669466 0 0.00017485682303116325 0.03431796987786824 0 0.00029404797060961809 0.030381871937193813 0 2.3796024138376049e-06 0.030385063053849293 0 0.0003862826503550001 0.030939757392218305 0 0.00032897650340896087 0.030623907580838064 0 0.00048928900605779929 0.030773526725512947 0 0.0001451798947346458 0.03440621591774292 0 0.00015801502342317807 0.034487204690588968 0 8.5060214063477124e-05 0.034542005597118716 0 0.00075598201152810788 0.03160280125182998 0 0.00048928900605779929 0.030773526725512947 0 0.00015801502342317807 0.034487204690588968 0 8.5060214063477124e-05 0.034542005597118716 0 0.00016717847828571656 0.034552913064622624 0 9.4035059853026415e-05 0.034611983660423305 0 8.5060214063477124e-05 0.034542005597118716 0 0.00016717847828571656 0.034552913064622624 0 0.00032897650340896087 0.030623907580838064 0 0.00030029136352742203 0.030421126798631723 0 0.00048928900605779929 0.030773526725512947 0 0.00030029136352742203 0.030421126798631723 0 0.00023200356226407205 0.030134146687735175 0 0.00045380992389461571 0.030340737671860577 0 0.00062675012992296478 0.030164063990490653 0 0.00011202600877821797 0.027904670343874526 0 0.00032897650340896087 0.030623907580838064 0 5.4904733358979109e-05 0.029025303966865392 0 -0.00038154930966385138 0.02900159717910843 0 -0.00036544384330797615 0.029100184714002702 0 -0.00020271773548905751 0.029334091334484058 0 5.4904733358979109e-05 0.029025303966865392 0 -0.00036544384330797615 0.029100184714002702 0 -0.0024501466976487346 0.0061013099190419164 0 -0.0023990405130597382 0.0057978808445360254 0 -0.002104925066304681 0.00601446702570437 0 -0.0024501466976487346 0.0061013099190419164 0 -0.0027286430837837735 0.0057572279402247333 0 -0.0023990405130597382 0.0057978808445360254 0 -0.0027210019288684642 0.0064793564654823579 0 -0.0024501466976487346 0.0061013099190419164 0 -0.0021997452229101928 0.0064084974232126177 0 -0.0027210019288684642 0.0064793564654823579 0 -0.0024501466976487346 0.0061013099190419164 0 -0.002888469066541974 0.0060716405335887987 0 -0.0024501466976487346 0.0061013099190419164 0 -0.002888469066541974 0.0060716405335887987 0 -0.0027286430837837735 0.0057572279402247333 0 -0.002888469066541974 0.0060716405335887987 0 -0.0030850790273131076 0.0057320425412254114 0 -0.0027286430837837735 0.0057572279402247333 0 -0.002888469066541974 0.0060716405335887987 0 -0.0031302107668600525 0.0063222615576901189 0 -0.0032785399961983179 0.0060333842616134819 0 -0.002888469066541974 0.0060716405335887987 0 -0.0032785399961983179 0.0060333842616134819 0 -0.0030850790273131076 0.0057320425412254114 0 -0.0027210019288684642 0.0064793564654823579 0 -0.002888469066541974 0.0060716405335887987 0 -0.0031302107668600525 0.0063222615576901189 0 -0.00078609625213974898 0.016756170024722936 0 -0.0010837811036559751 0.015562010709822232 0 -0.0031302107668600525 0.0063222615576901189 0 -0.0034892102268077284 0.0063545863770987209 0 -0.0032785399961983179 0.0060333842616134819 0 -0.0031138674300844119 0.0066764105937347348 0 -0.0031302107668600525 0.0063222615576901189 0 -0.0034892102268077284 0.0063545863770987209 0 -0.00087492185499764557 0.021931478349299486 0 -0.0008245491475946566 0.022448062080140222 0 -0.0005355264615542958 0.021943295985361131 0 -0.0010837811036559751 0.015562010709822232 0 -0.0016372084262614597 0.015678963826052657 0 -0.00087492185499764557 0.021931478349299486 0 -0.0005355264615542958 0.021943295985361131 0 -0.00078277031206480717 0.021411293864915415 0 -0.0005355264615542958 0.021943295985361131 0 -0.00078277031206480717 0.021411293864915415 0 -0.00024938185916537227 0.021434378621062324 0 -0.0019003250388118671 0.020238579779740092 0 -0.0017595265726903749 0.019673700566293927 0 -0.0013890879030831833 0.020262970691694672 0 -0.0011526461833726103 0.020524422386229427 0 -0.0016372084262614597 0.015678963826052657 0 -0.0017595265726903749 0.019673700566293927 0 -0.001073766732103628 0.019706563455037754 0 -0.0013890879030831833 0.020262970691694672 0 -0.0027267522874970585 0.0055498617961984662 0 -0.0028681608305608434 0.0058085795817380097 0 -0.0026269114228554494 0.0058045308099579354 0 -0.001462615871153023 0.013903647929800093 0 -0.0016372084262614597 0.015678963826052657 0 -0.0016372084262614597 0.015678963826052657 0 -0.0024821142889461206 0.012825899157250013 0 -0.0024821142889461206 0.012825899157250013 0 -0.0026109552951122925 0.011963189048111233 0 -0.0027267522874970585 0.0055498617961984662 0 -0.0026269114228554494 0.0058045308099579354 0 -0.0024534626849881396 0.0055632070312688466 0 -0.0027267522874970585 0.0055498617961984662 0 -0.0024534626849881396 0.0055632070312688466 0 -0.0025798978467030846 0.005307002397263139 0 -0.0024534626849881396 0.0055632070312688466 0 -0.0022092745436534202 0.005665558704277626 0 -0.002263481895391271 0.0054418818501299508 0 -0.0024534626849881396 0.0055632070312688466 0 -0.0023784459669002702 0.0053900353374485288 0 -0.002263481895391271 0.0054418818501299508 0 -0.0024534626849881396 0.0055632070312688466 0 -0.0023990405130597382 0.0057978808445360254 0 -0.0022092745436534202 0.005665558704277626 0 -0.0026269114228554494 0.0058045308099579354 0 -0.0024534626849881396 0.0055632070312688466 0 -0.0023990405130597382 0.0057978808445360254 0 -0.0024431267939128642 0.005122357497997939 0 -0.0024154805788655078 0.0051723572230043232 0 -0.0025798978467030846 0.005307002397263139 0 -0.0023307808414034814 0.0051156437248688963 0 -0.0024154805788655078 0.0051723572230043232 0 -0.0023830103461838833 0.0050493272019812383 0 -0.0023307808414034814 0.0051156437248688963 0 -0.0024154805788655078 0.0051723572230043232 0 -0.0023216911738101159 0.0052002357408191795 0 -0.0023307808414034814 0.0051156437248688963 0 -0.0023216911738101159 0.0052002357408191795 0 -0.0022436109427612307 0.0051178319270492418 0 -0.0024431267939128642 0.005122357497997939 0 -0.0024154805788655078 0.0051723572230043232 0 -0.0024060275933772378 0.0051011441429191133 0 -0.0029825989342900632 0.012837561053964013 0 -0.0032211377190492518 0.014171492251133136 0 -0.0024154805788655078 0.0051723572230043232 0 -0.0024223622557147922 0.0052803929646793998 0 -0.0025798978467030846 0.005307002397263139 0 -0.0024154805788655078 0.0051723572230043232 0 -0.0023216911738101159 0.0052002357408191795 0 -0.0024223622557147922 0.0052803929646793998 0 -0.0023216911738101159 0.0052002357408191795 0 -0.0023035297408796275 0.0053050680608836883 0 -0.0024223622557147922 0.0052803929646793998 0 -0.0024534626849881396 0.0055632070312688466 0 -0.0023784459669002702 0.0053900353374485288 0 -0.0025798978467030846 0.005307002397263139 0 -0.0023035297408796275 0.0053050680608836883 0 -0.0023784459669002702 0.0053900353374485288 0 -0.0024223622557147922 0.0052803929646793998 0 -0.0023784459669002702 0.0053900353374485288 0 -0.0024223622557147922 0.0052803929646793998 0 -0.0025798978467030846 0.005307002397263139 0 -0.0023035297408796275 0.0053050680608836883 0 -0.0023784459669002702 0.0053900353374485288 0 -0.002263481895391271 0.0054418818501299508 0 -0.001073766732103628 0.019706563455037754 0 -0.00075451429203858599 0.019147115088585649 0 -0.0011023002304745644 0.019129173083081444 0 -0.001462615871153023 0.013903647929800093 0 -0.0017778412649405077 0.013759274933037727 0 -0.0031459717701010428 0.015967327618982102 0 -0.0025233325676277847 0.022298353743436521 0 -0.0031459717701010428 0.015967327618982102 0 -0.0017778412649405077 0.013759274933037727 0 -0.00043487149572224952 0.018581617192929289 0 -0.00075451429203858599 0.019147115088585649 0 -0.0011023002304745644 0.019129173083081444 0 -0.00019940394263209189 0.033371750230606102 0 -1.2526010851919608e-05 0.033285088719391412 0 5.7984696275002246e-05 0.032899057720049502 0 -1.2526010851919608e-05 0.033285088719391412 0 0.00031625485478909907 0.033228716535262458 0 -1.3849651510747174e-05 0.033503913695655342 0 -1.3546867192979817e-06 0.033587820562023439 0 2.0600743294564241e-05 0.033603384842465736 0 -1.8265260316639618e-05 0.033558951977821876 0 0.00031625485478909907 0.033228716535262458 0 5.7984696275002246e-05 0.032899057720049502 0 0.00040684660071170915 0.032903195833565976 0 -1.2526010851919608e-05 0.033285088719391412 0 0.00031625485478909907 0.033228716535262458 0 5.7984696275002246e-05 0.032899057720049502 0 -0.0017595265726903749 0.019673700566293927 0 -0.001073766732103628 0.019706563455037754 0 -0.0011023002304745644 0.019129173083081444 0 0.00078608673285417532 0.032156362012562043 0 5.7984696275002246e-05 0.032899057720049502 0 0.00040684660071170915 0.032903195833565976 0 -0.0013987033266882505 0.024482416295194646 0 -0.0025233325676277847 0.022298353743436521 0 -0.00010735613074359631 0.031838411172917115 0 -0.00017978278916630649 0.031807889290067788 0 0.0013481352914960219 0.032150216124465003 0 0.00078608673285417532 0.032156362012562043 0 0.00074578064198196599 0.03283946843606992 0 0.00078608673285417532 0.032156362012562043 0 0.00040684660071170915 0.032903195833565976 0 0.00074578064198196599 0.03283946843606992 0 1.3364802192751254e-06 0.030316951706507632 0 -0.000276651657205602 0.030662538094940218 0 -0.00017335947580129226 0.030590035369484861 0 -2.4996298823759617e-05 0.030258585858311694 0 -0.00017978278916630649 0.031807889290067788 0 2.8928219121212489e-05 0.033599694279218287 0 2.0600743294564241e-05 0.033603384842465736 0 5.2811124141451608e-05 0.033626674417212454 0 -1.3546867192979817e-06 0.033587820562023439 0 2.8928219121212489e-05 0.033599694279218287 0 2.0600743294564241e-05 0.033603384842465736 0 -0.00031859845741378547 0.03248359672285861 0 -0.00017978278916630649 0.031807889290067788 0 0.00031625485478909907 0.033228716535262458 0 0.00040684660071170915 0.032903195833565976 0 0.00067906411046184123 0.032862549479425449 0 7.2783737258562215e-06 0.033605447226461083 0 5.5347857034712265e-05 0.033632718013941978 0 5.0643367756976933e-05 0.03367191714039755 0 2.0600743294564241e-05 0.033603384842465736 0 7.2783737258562215e-06 0.033605447226461083 0 5.5347857034712265e-05 0.033632718013941978 0 2.0600743294564241e-05 0.033603384842465736 0 7.2783737258562215e-06 0.033605447226461083 0 -1.8265260316639618e-05 0.033558951977821876 0 7.2783737258562215e-06 0.033605447226461083 0 -1.4163768649206626e-05 0.033666201666089399 0 5.0643367756976933e-05 0.03367191714039755 0 -1.4163768649206626e-05 0.033666201666089399 0 5.0643367756976933e-05 0.03367191714039755 0 4.2463285691334493e-06 0.033775325533087305 0 -1.4163768649206626e-05 0.033666201666089399 0 -8.9483945226846593e-05 0.033567831850206141 0 -7.9995418402082724e-05 0.033772959995542341 0 7.2783737258562215e-06 0.033605447226461083 0 -1.4163768649206626e-05 0.033666201666089399 0 -8.9483945226846593e-05 0.033567831850206141 0 -8.9483945226846593e-05 0.033567831850206141 0 -1.8265260316639618e-05 0.033558951977821876 0 -1.3849651510747174e-05 0.033503913695655342 0 7.2783737258562215e-06 0.033605447226461083 0 -8.9483945226846593e-05 0.033567831850206141 0 -1.8265260316639618e-05 0.033558951977821876 0 -1.3546867192979817e-06 0.033587820562023439 0 -1.8265260316639618e-05 0.033558951977821876 0 -1.3849651510747174e-05 0.033503913695655342 0 -0.00031859845741378547 0.03248359672285861 0 -0.0003622005287648723 0.032688115440742405 0 -0.00019940394263209189 0.033371750230606102 0 -1.2526010851919608e-05 0.033285088719391412 0 -9.2002209672947791e-05 0.033453945853232678 0 -1.2526010851919608e-05 0.033285088719391412 0 -1.3849651510747174e-05 0.033503913695655342 0 -9.2002209672947791e-05 0.033453945853232678 0 -0.00019940394263209189 0.033371750230606102 0 -9.2002209672947791e-05 0.033453945853232678 0 -0.00011447790736854568 0.033453820169815671 0 -9.2002209672947791e-05 0.033453945853232678 0 -8.5560254332733626e-05 0.033479595601675266 0 -0.00011447790736854568 0.033453820169815671 0 -9.2002209672947791e-05 0.033453945853232678 0 -7.3100980522123579e-05 0.033513039201958444 0 -8.5560254332733626e-05 0.033479595601675266 0 -1.3849651510747174e-05 0.033503913695655342 0 -9.2002209672947791e-05 0.033453945853232678 0 -7.3100980522123579e-05 0.033513039201958444 0 -8.9483945226846593e-05 0.033567831850206141 0 -1.3849651510747174e-05 0.033503913695655342 0 -7.3100980522123579e-05 0.033513039201958444 0 -8.9483945226846593e-05 0.033567831850206141 0 -7.3100980522123579e-05 0.033513039201958444 0 -9.0891134459376705e-05 0.033452356612259003 0 -0.0010081143489738204 0.032695129569979949 0 -0.0011652450130926982 0.032387205668208213 0 -8.9483945226846593e-05 0.033567831850206141 0 -9.0891134459376705e-05 0.033452356612259003 0 -0.00016406604388894154 0.033264143646993607 0 -9.0891134459376705e-05 0.033452356612259003 0 -5.8018979902096388e-05 0.033442294990049311 0 -4.2227644563323885e-05 0.033370365707405217 0 -9.0891134459376705e-05 0.033452356612259003 0 -4.2227644563323885e-05 0.033370365707405217 0 -0.00016406604388894154 0.033264143646993607 0 -9.0891134459376705e-05 0.033452356612259003 0 -8.5560254332733626e-05 0.033479595601675266 0 -5.8018979902096388e-05 0.033442294990049311 0 -7.3100980522123579e-05 0.033513039201958444 0 -9.0891134459376705e-05 0.033452356612259003 0 -8.5560254332733626e-05 0.033479595601675266 0 -8.5560254332733626e-05 0.033479595601675266 0 -6.028949448510864e-05 0.033450896752844808 0 -5.8018979902096388e-05 0.033442294990049311 0 -6.028949448510864e-05 0.033450896752844808 0 -5.8018979902096388e-05 0.033442294990049311 0 6.4145857815124155e-06 0.03342465163314675 0 -4.2227644563323885e-05 0.033370365707405217 0 6.4145857815124155e-06 0.03342465163314675 0 3.3586786273723674e-05 0.033253006865937025 0 -5.8018979902096388e-05 0.033442294990049311 0 -4.2227644563323885e-05 0.033370365707405217 0 6.4145857815124155e-06 0.03342465163314675 0 6.4145857815124155e-06 0.03342465163314675 0 7.2215278675477631e-05 0.033445221996551804 0 3.3586786273723674e-05 0.033253006865937025 0 -0.00288546206548034 0.0160635002014024 0 -0.0030702114379633199 0.015885371685191892 0 -0.0042936525776844205 0.011950629309841749 0 -0.0051422575477853855 0.015935156363807219 0 -0.003129903046620986 0.01240396810473238 0 -0.0030702114379633199 0.015885371685191892 0 -0.003707504651741455 0.015725170024221514 0 -0.0030702114379633199 0.015885371685191892 0 -0.0044051839864768455 0.013471460532629693 0 -0.003707504651741455 0.015725170024221514 0 -0.0044051839864768455 0.013471460532629693 0 -6.028949448510864e-05 0.033450896752844808 0 -1.2333131358258874e-06 0.033424554932209305 0 -9.7030785794888981e-05 0.033451245463938142 0 -6.028949448510864e-05 0.033450896752844808 0 6.4145857815124155e-06 0.03342465163314675 0 -1.2333131358258874e-06 0.033424554932209305 0 -0.0046972474859804259 0.013362482174908373 0 -0.0048012047730631273 0.013851502896270485 0 -0.003561310559927546 0.012840241308957143 0 -8.5560254332733626e-05 0.033479595601675266 0 -6.028949448510864e-05 0.033450896752844808 0 -0.00011447790736854568 0.033453820169815671 0 -6.028949448510864e-05 0.033450896752844808 0 -9.7030785794888981e-05 0.033451245463938142 0 -0.00011447790736854568 0.033453820169815671 0 -0.0028323129663157466 0.015269254600538495 0 -0.0028069416164067597 0.015238077056765768 0 -0.0028147433783918814 0.015258564305520885 0 -0.00019940394263209189 0.033371750230606102 0 -9.7030785794888981e-05 0.033451245463938142 0 -0.00011447790736854568 0.033453820169815671 0 -0.0031459717701010428 0.015967327618982102 0 -0.003707504651741455 0.015725170024221514 0 -0.0031459717701010428 0.015967327618982102 0 -0.0032211377190492518 0.014171492251133136 0 -0.0023307808414034814 0.0051156437248688963 0 -0.0023830103461838833 0.0050493272019812383 0 -0.0022603711829914594 0.0050401339112669851 0 -0.003707504651741455 0.015725170024221514 0 -0.0032211377190492518 0.014171492251133136 0 0.00010579558089994447 0.033749020537608872 0 0.00010917511455892979 0.033708074480452661 0 0.0001081277399207017 0.03374760791695261 0 0.00010579558089994447 0.033749020537608872 0 0.00010917511455892979 0.033708074480452661 0 9.2384373859468288e-05 0.033700633681000798 0 0.00010579558089994447 0.033749020537608872 0 0.00011885250621046205 0.033818250472224025 0 0.0001081277399207017 0.03374760791695261 0 3.5613886284216677e-05 0.033802635257744726 0 0.00011885250621046205 0.033818250472224025 0 0.0001081277399207017 0.03374760791695261 0 0.00010579558089994447 0.033749020537608872 0 0.00011885250621046205 0.033818250472224025 0 0.00013013594701001592 0.033712549114794321 0 0.00063264700350971744 0.032880487067730571 0 0.00062656375338068456 0.032263841269079413 0 0.00011885250621046205 0.033818250472224025 0 0.00022393089468140059 0.034133555198557146 0 0.00012037412838571972 0.034152185301518714 0 0.00062656375338068456 0.032263841269079413 0 0.00058028199236635314 0.032302727417976983 0 0.00062656375338068456 0.032263841269079413 0 0.00028349121707972965 0.03213373940642316 0 0.00045380992389461571 0.030340737671860577 0 0.00068193932264723391 0.03049926015681776 0 0.00038219903125773805 0.030543428509182024 0 0.00010579558089994447 0.033749020537608872 0 0.00013013594701001592 0.033712549114794321 0 9.2384373859468288e-05 0.033700633681000798 0 9.2384373859468288e-05 0.033700633681000798 0 7.3744089150848424e-05 0.033639492072221638 0 8.6581955077398031e-05 0.033661710121514449 0 0.00028349121707972965 0.03213373940642316 0 4.4146159565454037e-05 0.031996431350702764 0 0.00038219903125773805 0.030543428509182024 0 0.00015816307334264959 0.030460056529959995 0 7.8932576587009714e-05 0.030594793045590242 0 -0.00017978278916630649 0.031807889290067788 0 4.4146159565454037e-05 0.031996431350702764 0 -0.000276651657205602 0.030662538094940218 0 -0.00017335947580129226 0.030590035369484861 0 7.8932576587009714e-05 0.030594793045590242 0 2.8928219121212489e-05 0.033599694279218287 0 7.3744089150848424e-05 0.033639492072221638 0 5.2811124141451608e-05 0.033626674417212454 0 4.3225626831984282e-05 0.030352272575962951 0 -0.00017335947580129226 0.030590035369484861 0 2.9240812379540057e-05 0.030498740473874453 0 -0.00017335947580129226 0.030590035369484861 0 2.9240812379540057e-05 0.030498740473874453 0 7.8932576587009714e-05 0.030594793045590242 0 -0.00035868113309424663 0.029231435185412203 0 -0.00048169770699628146 0.029607906540742808 0 0.00015816307334264959 0.030460056529959995 0 2.9240812379540057e-05 0.030498740473874453 0 7.8932576587009714e-05 0.030594793045590242 0 7.3744089150848424e-05 0.033639492072221638 0 5.2811124141451608e-05 0.033626674417212454 0 8.6581955077398031e-05 0.033661710121514449 0 5.2811124141451608e-05 0.033626674417212454 0 8.6581955077398031e-05 0.033661710121514449 0 5.5347857034712265e-05 0.033632718013941978 0 2.0600743294564241e-05 0.033603384842465736 0 5.2811124141451608e-05 0.033626674417212454 0 5.5347857034712265e-05 0.033632718013941978 0 0.00010917511455892979 0.033708074480452661 0 9.2384373859468288e-05 0.033700633681000798 0 8.6581955077398031e-05 0.033661710121514449 0 0.00010917511455892979 0.033708074480452661 0 8.6581955077398031e-05 0.033661710121514449 0 0.00010743361653167576 0.03367054735335509 0 0.00010743361653167576 0.03367054735335509 0 5.5347857034712265e-05 0.033632718013941978 0 5.0643367756976933e-05 0.03367191714039755 0 8.6581955077398031e-05 0.033661710121514449 0 0.00010743361653167576 0.03367054735335509 0 5.5347857034712265e-05 0.033632718013941978 0 0.00010743361653167576 0.03367054735335509 0 5.0643367756976933e-05 0.03367191714039755 0 0.00014078676122136324 0.033692970241926343 0 0.00010743361653167576 0.03367054735335509 0 0.00014078676122136324 0.033692970241926343 0 0.00012298843150056196 0.033689598591013357 0 0.00014078676122136324 0.033692970241926343 0 0.00012298843150056196 0.033689598591013357 0 0.00010560869952825808 0.03360434894916673 0 0.00010917511455892979 0.033708074480452661 0 0.00012298843150056196 0.033689598591013357 0 0.0001081277399207017 0.03374760791695261 0 0.00010917511455892979 0.033708074480452661 0 0.00010743361653167576 0.03367054735335509 0 0.00012298843150056196 0.033689598591013357 0 0.00012298843150056196 0.033689598591013357 0 0.0001081277399207017 0.03374760791695261 0 4.6689174470897676e-05 0.033681443382898663 0 3.5613886284216677e-05 0.033802635257744726 0 0.0001081277399207017 0.03374760791695261 0 4.6689174470897676e-05 0.033681443382898663 0 -2.0880432786467966e-05 0.033592651931294439 0 4.6689174470897676e-05 0.033681443382898663 0 0.00010560869952825808 0.03360434894916673 0 0.00012298843150056196 0.033689598591013357 0 4.6689174470897676e-05 0.033681443382898663 0 0.00010560869952825808 0.03360434894916673 0 0.00010751043113671841 0.033878015292520887 0 7.0039124533241261e-05 0.034016845331628548 0 0.00029908377207815831 0.033745919758554579 0 0.00032684645818146233 0.033819922450847535 0 0.00042777871996436858 0.033792025691061725 0 -2.0880432786467966e-05 0.033592651931294439 0 0.00010560869952825808 0.03360434894916673 0 -2.4237504275284987e-05 0.033500065251667814 0 0.00032684645818146233 0.033819922450847535 0 0.00027316898405956762 0.033896678488444187 0 0.00041677089555844859 0.033858209306414068 0 -3.8535342134901542e-06 0.034117228644516079 0 4.332202342565826e-05 0.034176436985380504 0 -0.00029800268470228479 0.034222853633954643 0 -0.00029678235593694262 0.034234477092146498 0 -0.00030134714126569384 0.034246225789344241 0 0.00027316898405956762 0.033896678488444187 0 0.00020807572761266478 0.033812777764803778 0 0.00012983481219978933 0.033944896853284182 0 0.00032684645818146233 0.033819922450847535 0 0.00027316898405956762 0.033896678488444187 0 0.00020807572761266478 0.033812777764803778 0 0.00029908377207815831 0.033745919758554579 0 0.00032684645818146233 0.033819922450847535 0 0.00020807572761266478 0.033812777764803778 0 0.00014078676122136324 0.033692970241926343 0 0.00029908377207815831 0.033745919758554579 0 0.00020807572761266478 0.033812777764803778 0 0.00010584014861462677 0.033837658908433696 0 0.00010751043113671841 0.033878015292520887 0 0.00014078676122136324 0.033692970241926343 0 0.00020807572761266478 0.033812777764803778 0 9.0953110250693105e-05 0.033798192515311784 0 5.0643367756976933e-05 0.03367191714039755 0 0.00014078676122136324 0.033692970241926343 0 9.0953110250693105e-05 0.033798192515311784 0 5.0643367756976933e-05 0.03367191714039755 0 9.0953110250693105e-05 0.033798192515311784 0 4.2463285691334493e-06 0.033775325533087305 0 9.0953110250693105e-05 0.033798192515311784 0 1.3698231033848887e-05 0.033874664873031632 0 4.2463285691334493e-06 0.033775325533087305 0 9.0953110250693105e-05 0.033798192515311784 0 1.3698231033848887e-05 0.033874664873031632 0 0.00012983481219978933 0.033944896853284182 0 0.00020807572761266478 0.033812777764803778 0 9.0953110250693105e-05 0.033798192515311784 0 0.00012983481219978933 0.033944896853284182 0 -3.8535342134901542e-06 0.034117228644516079 0 -5.3055282092498848e-05 0.034092532466799809 0 -0.00029800268470228479 0.034222853633954643 0 -0.00021760798056272418 0.034166674187255441 0 -0.00024431538417473108 0.034119776423737126 0 -5.3055282092498848e-05 0.034092532466799809 0 -7.7828676602936927e-05 0.03408453776957044 0 -0.00021760798056272418 0.034166674187255441 0 -0.00024431538417473108 0.034119776423737126 0 -8.1268499903435645e-05 0.03402292074235596 0 1.3698231033848887e-05 0.033874664873031632 0 0.00012983481219978933 0.033944896853284182 0 -8.1268499903435645e-05 0.03402292074235596 0 -0.00024431538417473108 0.034119776423737126 0 -8.1268499903435645e-05 0.03402292074235596 0 -0.0001928652145639273 0.034053978626123908 0 -0.00024431538417473108 0.034119776423737126 0 -0.00030310453442742219 0.034188507666163284 0 -0.00030406165280174615 0.034138056612833464 0 -0.00030310453442742219 0.034188507666163284 0 -0.00030406165280174615 0.034138056612833464 0 -0.00031522652277593598 0.034213301858854142 0 -0.00030310453442742219 0.034188507666163284 0 -0.00031522652277593598 0.034213301858854142 0 -0.00030134714126569384 0.034246225789344241 0 -0.00029800268470228479 0.034222853633954643 0 -0.00030310453442742219 0.034188507666163284 0 -0.00030134714126569384 0.034246225789344241 0 -0.00029800268470228479 0.034222853633954643 0 -0.00024431538417473108 0.034119776423737126 0 -0.00030310453442742219 0.034188507666163284 0 -0.0015042354778161409 0.031052777712778125 0 -0.0011652450130926982 0.032387205668208213 0 2.1925783484981815e-05 0.032833944703681707 0 3.3586786273723674e-05 0.033253006865937025 0 0.0002342229974491344 0.033086381416146893 0 7.2215278675477631e-05 0.033445221996551804 0 3.3586786273723674e-05 0.033253006865937025 0 0.0002342229974491344 0.033086381416146893 0 2.1925783484981815e-05 0.032833944703681707 0 3.3586786273723674e-05 0.033253006865937025 0 -0.00016406604388894154 0.033264143646993607 0 -0.0030702114379633199 0.015885371685191892 0 -0.0024959226461276377 0.022953115250225455 0 -4.2227644563323885e-05 0.033370365707405217 0 3.3586786273723674e-05 0.033253006865937025 0 -0.00016406604388894154 0.033264143646993607 0 -0.00018925683084193343 0.033903215641478787 0 -0.00019551001583273787 0.033788712451324199 0 -0.00015566428747992742 0.033930918700184283 0 -0.00019551001583273787 0.033788712451324199 0 -0.0001260246311871878 0.033911977044971918 0 -0.00015566428747992742 0.033930918700184283 0 -0.0001260246311871878 0.033911977044971918 0 -6.4006262134908123e-05 0.033868743718448835 0 -8.1268499903435645e-05 0.03402292074235596 0 -0.0001260246311871878 0.033911977044971918 0 -7.9995418402082724e-05 0.033772959995542341 0 -6.4006262134908123e-05 0.033868743718448835 0 -8.9483945226846593e-05 0.033567831850206141 0 -0.00019551001583273787 0.033788712451324199 0 -7.9995418402082724e-05 0.033772959995542341 0 -0.00019551001583273787 0.033788712451324199 0 -0.0001260246311871878 0.033911977044971918 0 -7.9995418402082724e-05 0.033772959995542341 0 -7.9995418402082724e-05 0.033772959995542341 0 4.2463285691334493e-06 0.033775325533087305 0 -6.4006262134908123e-05 0.033868743718448835 0 -1.4163768649206626e-05 0.033666201666089399 0 -7.9995418402082724e-05 0.033772959995542341 0 4.2463285691334493e-06 0.033775325533087305 0 1.3698231033848887e-05 0.033874664873031632 0 -6.4006262134908123e-05 0.033868743718448835 0 -8.1268499903435645e-05 0.03402292074235596 0 1.3698231033848887e-05 0.033874664873031632 0 4.2463285691334493e-06 0.033775325533087305 0 -6.4006262134908123e-05 0.033868743718448835 0 -8.1268499903435645e-05 0.03402292074235596 0 -0.00012066959834353836 0.034014902799604091 0 -0.00011767040478197978 0.033988438602704521 0 -8.1268499903435645e-05 0.03402292074235596 0 -0.00012066959834353836 0.034014902799604091 0 -0.0001928652145639273 0.034053978626123908 0 -0.00012066959834353836 0.034014902799604091 0 -0.00011767040478197978 0.033988438602704521 0 -0.00011969985578281647 0.033983930793257872 0 -0.00011767040478197978 0.033988438602704521 0 -0.00013005500728952173 0.033969818348272243 0 -0.00011969985578281647 0.033983930793257872 0 -0.0001260246311871878 0.033911977044971918 0 -8.1268499903435645e-05 0.03402292074235596 0 -0.00011767040478197978 0.033988438602704521 0 -0.0001260246311871878 0.033911977044971918 0 -0.00011767040478197978 0.033988438602704521 0 -0.00015566428747992742 0.033930918700184283 0 -0.00011767040478197978 0.033988438602704521 0 -0.00015566428747992742 0.033930918700184283 0 -0.00013005500728952173 0.033969818348272243 0 -0.00015566428747992742 0.033930918700184283 0 -0.00013005500728952173 0.033969818348272243 0 -0.00015247532108090129 0.033943446602491496 0 -0.00013005500728952173 0.033969818348272243 0 -0.00012725525498522402 0.033957081313475468 0 -0.00011309570733542388 0.033959712209252549 0 -0.00013005500728952173 0.033969818348272243 0 -0.00012725525498522402 0.033957081313475468 0 -0.00015247532108090129 0.033943446602491496 0 -0.00012725525498522402 0.033957081313475468 0 -0.00015247532108090129 0.033943446602491496 0 -0.00015590009869118608 0.033940614136439617 0 -0.00012725525498522402 0.033957081313475468 0 -0.00010886306400790377 0.033955766735214117 0 -0.00015590009869118608 0.033940614136439617 0 -0.00018925683084193343 0.033903215641478787 0 -0.00015247532108090129 0.033943446602491496 0 -0.00015590009869118608 0.033940614136439617 0 -0.00018925683084193343 0.033903215641478787 0 -0.00015566428747992742 0.033930918700184283 0 -0.00015247532108090129 0.033943446602491496 0 -0.0015042354778161409 0.031052777712778125 0 -0.0012837540452250113 0.026744743137245272 0 -0.0004246768010550814 0.026921964207142018 0 -0.0011463566201262482 0.024970866011283611 0 -0.0001266309275030622 0.031416852047822338 0 -0.00064162257396367856 0.028529213395458136 0 -0.00075297761031709715 0.030816519947223894 0 -0.0010391227978408593 0.030445219700459478 0 -0.0012078978926177712 0.029642028550145499 0 -0.00072007692470760091 0.026831236140239891 0 -0.00063423846135816236 0.027080098925525861 0 -0.00079511703346325585 0.026690399396133727 0 -4.3975228033863952e-05 0.033880838919414111 0 -9.2033745551692802e-05 0.033935078194848006 0 -0.00010886306400790377 0.033955766735214117 0 -0.00075297761031709715 0.030816519947223894 0 -0.0010391227978408593 0.030445219700459478 0 -0.00087011286754607559 0.031234391024333702 0 -0.00052873282415151967 0.027994949302566921 0 -0.0004246768010550814 0.026921964207142018 0 -4.3975228033863952e-05 0.033880838919414111 0 -7.8239186108140991e-05 0.033901970264331636 0 -0.00011117969802297304 0.033751311298272663 0 -7.8239186108140991e-05 0.033901970264331636 0 -9.2033745551692802e-05 0.033935078194848006 0 -9.8430009436563094e-05 0.0339382452503093 0 -4.3975228033863952e-05 0.033880838919414111 0 -7.8239186108140991e-05 0.033901970264331636 0 -9.2033745551692802e-05 0.033935078194848006 0 -0.00010987794975495129 0.033953961673872532 0 -9.2033745551692802e-05 0.033935078194848006 0 -0.00010886306400790377 0.033955766735214117 0 -0.00052873282415151967 0.027994949302566921 0 -0.00064162257396367856 0.028529213395458136 0 -0.00012725525498522402 0.033957081313475468 0 -0.00010987794975495129 0.033953961673872532 0 -0.00010886306400790377 0.033955766735214117 0 -0.00012725525498522402 0.033957081313475468 0 -0.00010987794975495129 0.033953961673872532 0 -0.00011309570733542388 0.033959712209252549 0 -0.00010987794975495129 0.033953961673872532 0 -9.2033745551692802e-05 0.033935078194848006 0 -0.00011309570733542388 0.033959712209252549 0 -9.2033745551692802e-05 0.033935078194848006 0 -0.00011309570733542388 0.033959712209252549 0 -9.8430009436563094e-05 0.0339382452503093 0 -0.00011309570733542388 0.033959712209252549 0 -0.00010889506153824066 0.033948568826614151 0 -9.8430009436563094e-05 0.0339382452503093 0 -0.00011309570733542388 0.033959712209252549 0 -0.00010889506153824066 0.033948568826614151 0 -0.00011969985578281647 0.033983930793257872 0 -0.00013005500728952173 0.033969818348272243 0 -0.00011309570733542388 0.033959712209252549 0 -0.00011969985578281647 0.033983930793257872 0 -0.0001470635762788663 0.033897031752908029 0 -0.00022476776375822909 0.033890010352639284 0 -7.8239186108140991e-05 0.033901970264331636 0 -0.00036107888668752638 0.033817394544548601 0 -0.00011117969802297304 0.033751311298272663 0 -7.8239186108140991e-05 0.033901970264331636 0 -0.00010889506153824066 0.033948568826614151 0 -0.00012419238052948744 0.033948430794154556 0 -7.8239186108140991e-05 0.033901970264331636 0 -0.00010889506153824066 0.033948568826614151 0 -9.8430009436563094e-05 0.0339382452503093 0 -0.00010889506153824066 0.033948568826614151 0 -0.00012419238052948744 0.033948430794154556 0 -0.00011969985578281647 0.033983930793257872 0 -0.00012419238052948744 0.033948430794154556 0 -0.00011969985578281647 0.033983930793257872 0 -0.00013985318826818682 0.033991219298853591 0 -0.00012066959834353836 0.034014902799604091 0 -0.00013985318826818682 0.033991219298853591 0 -0.0001928652145639273 0.034053978626123908 0 -0.00012066959834353836 0.034014902799604091 0 -0.00011969985578281647 0.033983930793257872 0 -0.00013985318826818682 0.033991219298853591 0 -0.00012419238052948744 0.033948430794154556 0 -0.00013985318826818682 0.033991219298853591 0 -0.00017728139029889555 0.033945982692279782 0 -0.00022476776375822909 0.033890010352639284 0 -0.00033121885783193839 0.033884257911437836 0 -0.00036107888668752638 0.033817394544548601 0 -0.00042420910821359264 0.033692424620493121 0 -0.00050477902720518115 0.033783923240161065 0 -0.00042420910821359264 0.033692424620493121 0 -0.00049354835142216059 0.033655536035670869 0 -0.00050477902720518115 0.033783923240161065 0 -0.00042420910821359264 0.033692424620493121 0 -0.00049354835142216059 0.033655536035670869 0 -0.0003930783069048011 0.033530040332819894 0 -0.00049354835142216059 0.033655536035670869 0 -0.0003930783069048011 0.033530040332819894 0 -0.00044969886849964812 0.03345553126451372 0 -0.00042420910821359264 0.033692424620493121 0 -0.0003930783069048011 0.033530040332819894 0 -0.00025994608501773324 0.033645016881357313 0 -0.0003930783069048011 0.033530040332819894 0 -0.00026042297296292741 0.03337308925674376 0 -0.0003673173941437602 0.033241449151427287 0 -0.0003930783069048011 0.033530040332819894 0 -0.00025994608501773324 0.033645016881357313 0 -0.00026042297296292741 0.03337308925674376 0 -0.00036107888668752638 0.033817394544548601 0 -0.00042420910821359264 0.033692424620493121 0 -0.00025994608501773324 0.033645016881357313 0 -0.00036107888668752638 0.033817394544548601 0 -0.00011117969802297304 0.033751311298272663 0 -0.00025994608501773324 0.033645016881357313 0 -0.00011117969802297304 0.033751311298272663 0 -0.00014825823536389384 0.03362791989155213 0 -3.5641123509886509e-05 0.033570274172518559 0 -0.00011117969802297304 0.033751311298272663 0 -0.00014825823536389384 0.03362791989155213 0 -0.00025994608501773324 0.033645016881357313 0 -0.00025994608501773324 0.033645016881357313 0 -0.00017869273098850951 0.033556574955503411 0 -0.00026042297296292741 0.03337308925674376 0 -3.7541043534067348e-05 0.032333045690958344 0 -2.9181922217089265e-05 0.032568123586235523 0 -0.00026042297296292741 0.03337308925674376 0 -3.5641123509886509e-05 0.033570274172518559 0 -0.00023532768638433651 0.032955429179725666 0 -0.00014825823536389384 0.03362791989155213 0 -0.00025994608501773324 0.033645016881357313 0 -0.00017869273098850951 0.033556574955503411 0 -0.00017869273098850951 0.033556574955503411 0 -0.00026042297296292741 0.03337308925674376 0 -3.5641123509886509e-05 0.033570274172518559 0 -0.00014825823536389384 0.03362791989155213 0 -0.00017869273098850951 0.033556574955503411 0 -3.5641123509886509e-05 0.033570274172518559 0 -0.00049064430505586256 0.032107293890772451 0 -0.00054337892000951688 0.032300340186996027 0 -0.00047467178342344739 0.032621689666985164 0 -0.00035237699329126857 0.031948004375511874 0 -0.00069201912211636768 0.031883570782095708 0 -0.00047467178342344739 0.032621689666985164 0 0.00029408554732767561 0.027603370669776563 0 0.00050765914979619524 0.029450792192166515 0 -0.00058387782849844824 0.032385939949376157 0 -0.00054337892000951688 0.032300340186996027 0 -0.00047467178342344739 0.032621689666985164 0 -0.00060701246728187713 0.032234565075653462 0 -0.00066777487400152317 0.032149306062628807 0 -0.00067540597880640573 0.032301984209574162 0 -0.00058387782849844824 0.032385939949376157 0 -0.00060701246728187713 0.032234565075653462 0 -0.00067540597880640573 0.032301984209574162 0 -0.00058387782849844824 0.032385939949376157 0 -0.00054337892000951688 0.032300340186996027 0 -0.00060701246728187713 0.032234565075653462 0 -0.00054337892000951688 0.032300340186996027 0 -0.00060701246728187713 0.032234565075653462 0 -0.00057098276331571515 0.032186092086184996 0 -0.00060701246728187713 0.032234565075653462 0 -0.00057098276331571515 0.032186092086184996 0 -0.00066777487400152317 0.032149306062628807 0 -0.00049064430505586256 0.032107293890772451 0 -0.00057098276331571515 0.032186092086184996 0 -0.00066777487400152317 0.032149306062628807 0 -0.00049064430505586256 0.032107293890772451 0 -0.00054337892000951688 0.032300340186996027 0 -0.00057098276331571515 0.032186092086184996 0 0.00029408554732767561 0.027603370669776563 0 -0.0004246768010550814 0.026921964207142018 0 -0.00075297761031709715 0.030816519947223894 0 -0.00035237699329126857 0.031948004375511874 0 -0.00087011286754607559 0.031234391024333702 0 -0.0012270823865110586 0.022941688413369857 0 -0.0014098151922167217 0.022249851411328375 0 -0.0022626073669483834 0.022352128930119907 0 -4.3975228033863952e-05 0.033880838919414111 0 -0.00011117969802297304 0.033751311298272663 0 -3.5641123509886509e-05 0.033570274172518559 0 -0.0001266309275030622 0.031416852047822338 0 -3.7541043534067348e-05 0.032333045690958344 0 -0.00035237699329126857 0.031948004375511874 0 -0.00069201912211636768 0.031883570782095708 0 -0.00087011286754607559 0.031234391024333702 0 -0.00034450854471268456 0.034101813838178369 0 -0.00028742760341380589 0.034060430354505906 0 -0.0003922807411181933 0.033935401365344668 0 -0.00034450854471268456 0.034101813838178369 0 -0.0003922807411181933 0.033935401365344668 0 -0.0003724297633953378 0.034071148009261337 0 -0.00034450854471268456 0.034101813838178369 0 -0.0003724297633953378 0.034071148009261337 0 -0.00032739216727954295 0.034186878999045045 0 -0.00031522652277593598 0.034213301858854142 0 -0.00034450854471268456 0.034101813838178369 0 -0.00032739216727954295 0.034186878999045045 0 -0.00030406165280174615 0.034138056612833464 0 -0.00031522652277593598 0.034213301858854142 0 -0.00034450854471268456 0.034101813838178369 0 -0.00030406165280174615 0.034138056612833464 0 -0.00034450854471268456 0.034101813838178369 0 -0.00028742760341380589 0.034060430354505906 0 -0.00024431538417473108 0.034119776423737126 0 -0.00030406165280174615 0.034138056612833464 0 -0.00028742760341380589 0.034060430354505906 0 -0.00024431538417473108 0.034119776423737126 0 -0.00028742760341380589 0.034060430354505906 0 -0.0001928652145639273 0.034053978626123908 0 -0.00028742760341380589 0.034060430354505906 0 -0.0001928652145639273 0.034053978626123908 0 -0.00017728139029889555 0.033945982692279782 0 -0.00013985318826818682 0.033991219298853591 0 -0.0001928652145639273 0.034053978626123908 0 -0.00017728139029889555 0.033945982692279782 0 -0.00028742760341380589 0.034060430354505906 0 -0.00017728139029889555 0.033945982692279782 0 -0.0003922807411181933 0.033935401365344668 0 -0.00033121885783193839 0.033884257911437836 0 -0.00037881479248821838 0.033887534619757957 0 -0.00050477902720518115 0.033783923240161065 0 -0.00052402174749958529 0.033781104264910933 0 -0.0003922807411181933 0.033935401365344668 0 -0.00049354835142216059 0.033655536035670869 0 -0.00050477902720518115 0.033783923240161065 0 -0.00052402174749958529 0.033781104264910933 0 -0.00049354835142216059 0.033655536035670869 0 -0.00052402174749958529 0.033781104264910933 0 -0.00049690205225790365 0.033488817221269999 0 -0.00052402174749958529 0.033781104264910933 0 -0.00046087116157273974 0.033935683011145433 0 -0.0003922807411181933 0.033935401365344668 0 -0.00046087116157273974 0.033935683011145433 0 -0.0003922807411181933 0.033935401365344668 0 -0.0003724297633953378 0.034071148009261337 0 -0.00046087116157273974 0.033935683011145433 0 -0.0003724297633953378 0.034071148009261337 0 -0.00035213751260198059 0.034110069924811935 0 -0.00035213751260198059 0.034110069924811935 0 -0.00025825822419142371 0.034284530486587562 0 -0.00030396998265885345 0.034217079894363657 0 -0.00035213751260198059 0.034110069924811935 0 -0.00025825822419142371 0.034284530486587562 0 -0.00030387997446823344 0.034187033056868189 0 -0.00025825822419142371 0.034284530486587562 0 -0.00030396998265885345 0.034217079894363657 0 -0.00023151125604034696 0.034342779628978422 0 -0.0003724297633953378 0.034071148009261337 0 -0.00035213751260198059 0.034110069924811935 0 -0.00030396998265885345 0.034217079894363657 0 -0.00030396998265885345 0.034217079894363657 0 -0.00028019306099625176 0.034290146374600115 0 -0.00032739216727954295 0.034186878999045045 0 -0.0003724297633953378 0.034071148009261337 0 -0.00030396998265885345 0.034217079894363657 0 -0.00032739216727954295 0.034186878999045045 0 -0.00030396998265885345 0.034217079894363657 0 -0.00028019306099625176 0.034290146374600115 0 -0.00023151125604034696 0.034342779628978422 0 -0.00028019306099625176 0.034290146374600115 0 -0.0002924983699902628 0.034281708486725945 0 -0.00025924649794272983 0.034352567577339788 0 -0.00028019306099625176 0.034290146374600115 0 -0.00032739216727954295 0.034186878999045045 0 -0.0002924983699902628 0.034281708486725945 0 -0.00031522652277593598 0.034213301858854142 0 -0.00032739216727954295 0.034186878999045045 0 -0.0002924983699902628 0.034281708486725945 0 -0.0001798112547926514 0.034478579284866098 0 -0.00015437365377199373 0.034486279361315375 0 -0.00012815768332299199 0.034578270864659519 0 -0.0001798112547926514 0.034478579284866098 0 -0.00021994794781464577 0.034399936028154665 0 -0.00021431984488565561 0.034432399965113505 0 -0.0001798112547926514 0.034478579284866098 0 -0.00012815768332299199 0.034578270864659519 0 -0.00016792684342558381 0.034513975057862002 0 -0.00021994794781464577 0.034399936028154665 0 -0.00025924649794272983 0.034352567577339788 0 -0.00021431984488565561 0.034432399965113505 0 -0.00028019306099625176 0.034290146374600115 0 -0.00021994794781464577 0.034399936028154665 0 -0.00025924649794272983 0.034352567577339788 0 -0.00028019306099625176 0.034290146374600115 0 -0.00021994794781464577 0.034399936028154665 0 -0.00023151125604034696 0.034342779628978422 0 -0.00021994794781464577 0.034399936028154665 0 -0.00015437365377199373 0.034486279361315375 0 -0.00023151125604034696 0.034342779628978422 0 -0.0001798112547926514 0.034478579284866098 0 -0.00021994794781464577 0.034399936028154665 0 -0.00015437365377199373 0.034486279361315375 0 -0.00015437365377199373 0.034486279361315375 0 -0.00017371706094309331 0.034406595055837444 0 -0.00012716485638059554 0.034494435974402042 0 -0.00015437365377199373 0.034486279361315375 0 -0.00017371706094309331 0.034406595055837444 0 -0.00023151125604034696 0.034342779628978422 0 -0.00025825822419142371 0.034284530486587562 0 -0.00017371706094309331 0.034406595055837444 0 -0.00023151125604034696 0.034342779628978422 0 -0.00025825822419142371 0.034284530486587562 0 -0.00017371706094309331 0.034406595055837444 0 -0.00018876430415004555 0.034413197206035535 0 -0.00017371706094309331 0.034406595055837444 0 -9.8558975915338763e-05 0.034492873914177317 0 -0.00018876430415004555 0.034413197206035535 0 -9.8558975915338763e-05 0.034492873914177317 0 -6.6295076643573041e-05 0.034529791385149104 0 -6.9197131664562955e-05 0.03458741259528144 0 -6.6295076643573041e-05 0.034529791385149104 0 -6.9197131664562955e-05 0.03458741259528144 0 -7.4017435647908501e-05 0.034617698754729108 0 -9.8558975915338763e-05 0.034492873914177317 0 -6.9197131664562955e-05 0.03458741259528144 0 -8.9303672419656924e-05 0.034589080893571135 0 -6.9197131664562955e-05 0.03458741259528144 0 -7.0838352333795225e-05 0.034670941179128834 0 -6.3765219009935591e-05 0.034718799239341146 0 -6.9197131664562955e-05 0.03458741259528144 0 -7.0838352333795225e-05 0.034670941179128834 0 -8.9303672419656924e-05 0.034589080893571135 0 -0.00015437365377199373 0.034486279361315375 0 -8.9303672419656924e-05 0.034589080893571135 0 -0.00012716485638059554 0.034494435974402042 0 -0.00017371706094309331 0.034406595055837444 0 -9.8558975915338763e-05 0.034492873914177317 0 -0.00012716485638059554 0.034494435974402042 0 -9.8558975915338763e-05 0.034492873914177317 0 -8.9303672419656924e-05 0.034589080893571135 0 -0.00012716485638059554 0.034494435974402042 0 5.5037461674538162e-11 0.035000042833452261 0 -1.2429734830214292e-05 0.034998817617290984 0 -3.4718880098168339e-06 0.035001288723293396 0 -0.00016361114170214918 0.034599772521281512 0 -9.6003343445133507e-05 0.034533566930267802 0 -7.4017435647908501e-05 0.034617698754729108 0 -0.00016361114170214918 0.034599772521281512 0 -7.4017435647908501e-05 0.034617698754729108 0 -7.7432791546320568e-05 0.034745100494782147 0 -6.6295076643573041e-05 0.034529791385149104 0 -9.6003343445133507e-05 0.034533566930267802 0 -7.4017435647908501e-05 0.034617698754729108 0 -6.9197131664562955e-05 0.03458741259528144 0 -7.4017435647908501e-05 0.034617698754729108 0 -6.3765219009935591e-05 0.034718799239341146 0 -6.3765219009935591e-05 0.034718799239341146 0 -7.7432791546320568e-05 0.034745100494782147 0 -5.8774677339209687e-05 0.034830138493158552 0 -7.4017435647908501e-05 0.034617698754729108 0 -6.3765219009935591e-05 0.034718799239341146 0 -7.7432791546320568e-05 0.034745100494782147 0 5.5037461674538162e-11 0.035000042833452261 0 -1.2429734830214292e-05 0.034998817617290984 0 -4.5979335369007218e-05 0.034943083490045768 0 -0.00016361114170214918 0.034599772521281512 0 -7.7432791546320568e-05 0.034745100494782147 0 -4.5979335369007218e-05 0.034943083490045768 0 5.5037461674538162e-11 0.035000042833452261 0 -1.1650156295307232e-07 0.03499964601408842 0 -4.5979335369007218e-05 0.034943083490045768 0 -5.1217939298202818e-05 0.034789633853512886 0 -5.3822879590097773e-05 0.034814606148557435 0 -7.7432791546320568e-05 0.034745100494782147 0 -4.5979335369007218e-05 0.034943083490045768 0 -5.8774677339209687e-05 0.034830138493158552 0 -1.1650156295307232e-07 0.03499964601408842 0 -4.3213063342043824e-05 0.034899957804418347 0 -2.6568074125812829e-05 0.034914206668378675 0 -1.1650156295307232e-07 0.03499964601408842 0 -4.5979335369007218e-05 0.034943083490045768 0 -4.3213063342043824e-05 0.034899957804418347 0 -4.5979335369007218e-05 0.034943083490045768 0 -4.3213063342043824e-05 0.034899957804418347 0 -5.8774677339209687e-05 0.034830138493158552 0 -4.3213063342043824e-05 0.034899957804418347 0 -5.8690283858195239e-05 0.034798346848693824 0 -2.6568074125812829e-05 0.034914206668378675 0 -4.3213063342043824e-05 0.034899957804418347 0 -5.8690283858195239e-05 0.034798346848693824 0 -5.8774677339209687e-05 0.034830138493158552 0 -6.3765219009935591e-05 0.034718799239341146 0 -5.8690283858195239e-05 0.034798346848693824 0 -5.8774677339209687e-05 0.034830138493158552 0 -7.0838352333795225e-05 0.034670941179128834 0 -6.3765219009935591e-05 0.034718799239341146 0 -5.8690283858195239e-05 0.034798346848693824 0 -5.8690283858195239e-05 0.034798346848693824 0 -5.6211916824223875e-05 0.034773904724105895 0 -7.7230962048933685e-05 0.034686384497272939 0 -5.8690283858195239e-05 0.034798346848693824 0 -5.6211916824223875e-05 0.034773904724105895 0 -2.6568074125812829e-05 0.034914206668378675 0 -5.6211916824223875e-05 0.034773904724105895 0 -2.6568074125812829e-05 0.034914206668378675 0 -3.0195174246583191e-05 0.034837280094147542 0 -1.1650156295307232e-07 0.03499964601408842 0 -2.6568074125812829e-05 0.034914206668378675 0 -9.2826957350181818e-09 0.034999772119090597 0 -0.00015437365377199373 0.034486279361315375 0 -8.9303672419656924e-05 0.034589080893571135 0 -0.00010707909621629206 0.034597298307369656 0 -0.00015437365377199373 0.034486279361315375 0 -0.00010707909621629206 0.034597298307369656 0 -0.00012815768332299199 0.034578270864659519 0 -8.9303672419656924e-05 0.034589080893571135 0 -0.00010707909621629206 0.034597298307369656 0 -7.7230962048933685e-05 0.034686384497272939 0 -7.0838352333795225e-05 0.034670941179128834 0 -8.9303672419656924e-05 0.034589080893571135 0 -7.7230962048933685e-05 0.034686384497272939 0 -7.0838352333795225e-05 0.034670941179128834 0 -5.8690283858195239e-05 0.034798346848693824 0 -7.7230962048933685e-05 0.034686384497272939 0 -0.00010707909621629206 0.034597298307369656 0 -7.7230962048933685e-05 0.034686384497272939 0 -8.68213302911132e-05 0.034670476613886066 0 -5.6211916824223875e-05 0.034773904724105895 0 -8.68213302911132e-05 0.034670476613886066 0 -7.7513143791847381e-05 0.034677577413335749 0 -5.6211916824223875e-05 0.034773904724105895 0 -7.7230962048933685e-05 0.034686384497272939 0 -8.68213302911132e-05 0.034670476613886066 0 -8.68213302911132e-05 0.034670476613886066 0 -0.00012815768332299199 0.034578270864659519 0 -7.7513143791847381e-05 0.034677577413335749 0 -0.00010707909621629206 0.034597298307369656 0 -8.68213302911132e-05 0.034670476613886066 0 -0.00012815768332299199 0.034578270864659519 0 -0.00012815768332299199 0.034578270864659519 0 -7.7513143791847381e-05 0.034677577413335749 0 -0.00016792684342558381 0.034513975057862002 0 -7.7513143791847381e-05 0.034677577413335749 0 -1.1361927730297642e-05 0.034823275239603602 0 -9.8340188927837673e-05 0.034552318058547936 0 -3.0401532105983318e-05 0.034635949439818389 0 -1.9479726494785914e-05 0.034605723789557188 0 -7.7513143791847381e-05 0.034677577413335749 0 -9.8340188927837673e-05 0.034552318058547936 0 -0.00016792684342558381 0.034513975057862002 0 -9.8340188927837673e-05 0.034552318058547936 0 -0.00019344008563131079 0.034400115584699881 0 -0.00016792684342558381 0.034513975057862002 0 -2.6568074125812829e-05 0.034914206668378675 0 -9.2826957350181818e-09 0.034999772119090597 0 -3.0195174246583191e-05 0.034837280094147542 0 -5.6211916824223875e-05 0.034773904724105895 0 -7.7513143791847381e-05 0.034677577413335749 0 -3.0195174246583191e-05 0.034837280094147542 0 -7.7513143791847381e-05 0.034677577413335749 0 -3.0195174246583191e-05 0.034837280094147542 0 -1.1361927730297642e-05 0.034823275239603602 0 -9.2826957350181818e-09 0.034999772119090597 0 -3.0195174246583191e-05 0.034837280094147542 0 -1.1361927730297642e-05 0.034823275239603602 0 -9.2826957350181818e-09 0.034999772119090597 0 -1.1361927730297642e-05 0.034823275239603602 0 -5.0795685000867569e-08 0.034999877980523321 0 -1.1361927730297642e-05 0.034823275239603602 0 -5.0795685000867569e-08 0.034999877980523321 0 7.1708611608829107e-06 0.034956028528570396 0 -1.1361927730297642e-05 0.034823275239603602 0 7.1708611608829107e-06 0.034956028528570396 0 5.7705025045138432e-05 0.034922245414719347 0 -2.3683325731723688e-06 0.034994610979909274 0 7.1708611608829107e-06 0.034956028528570396 0 6.3425752300760353e-05 0.03499022652891827 0 -2.4815991738771852e-07 0.034873030662037029 0 1.3511490718505078e-05 0.034832290355429035 0 -2.3683325731723688e-06 0.034994610979909274 0 -5.0795685000867569e-08 0.034999877980523321 0 7.1708611608829107e-06 0.034956028528570396 0 9.9664843530512834e-09 0.035000018869226851 0 -2.3683325731723688e-06 0.034994610979909274 0 -5.0795685000867569e-08 0.034999877980523321 0 -1.9479726494785914e-05 0.034605723789557188 0 -4.9146058151136099e-06 0.03452579050135101 0 0.00012510100273851844 0.034931042424998254 0 0.00018013207155906074 0.034963969952901464 0 0.00020463500936774865 0.034905086632907478 0 0.00012510100273851844 0.034931042424998254 0 0.00011436147837997444 0.034874920273467204 0 0.00020463500936774865 0.034905086632907478 0 -1.1361927730297642e-05 0.034823275239603602 0 0.00011436147837997444 0.034874920273467204 0 5.7705025045138432e-05 0.034922245414719347 0 0.00012510100273851844 0.034931042424998254 0 0.00011436147837997444 0.034874920273467204 0 5.7705025045138432e-05 0.034922245414719347 0 7.1708611608829107e-06 0.034956028528570396 0 5.7705025045138432e-05 0.034922245414719347 0 6.3425752300760353e-05 0.03499022652891827 0 0.00012510100273851844 0.034931042424998254 0 5.7705025045138432e-05 0.034922245414719347 0 6.3425752300760353e-05 0.03499022652891827 0 1.1407133051801663e-05 0.034994389719064538 0 6.0569884819480033e-06 0.034986272788425268 0 2.1109652356940589e-05 0.034978066517406661 0 0.00012510100273851844 0.034931042424998254 0 6.3425752300760353e-05 0.03499022652891827 0 0.00018013207155906074 0.034963969952901464 0 1.1407133051801663e-05 0.034994389719064538 0 2.5134103489609139e-05 0.034983680481387336 0 2.1109652356940589e-05 0.034978066517406661 0 1.3511490718505078e-05 0.034832290355429035 0 2.7639782164088344e-05 0.034692596894669185 0 2.5134103489609139e-05 0.034983680481387336 0 2.1109652356940589e-05 0.034978066517406661 0 4.1128900855987859e-05 0.034969454722377641 0 2.7639782164088344e-05 0.034692596894669185 0 -3.0601509967098485e-05 0.034387291433124141 0 -0.00039690756628834526 0.033589238068532069 0 -0.00047291288202500021 0.033523899321407154 0 -0.00034607211567049706 0.033538084543576402 0 0.00018013207155906074 0.034963969952901464 0 0.00020463500936774865 0.034905086632907478 0 0.00028383771564122965 0.034936630242920694 0 -0.00019344008563131079 0.034400115584699881 0 -0.00023810139408579728 0.034382074966402602 0 -0.00026019991127631316 0.034337644001813723 0 0.00020463500936774865 0.034905086632907478 0 0.00029389972274557397 0.034929437535986971 0 0.00028383771564122965 0.034936630242920694 0 -4.9146058151136099e-06 0.03452579050135101 0 -3.6905792361901189e-05 0.034372059847887181 0 -0.00023810139408579728 0.034382074966402602 0 -0.00026019991127631316 0.034337644001813723 0 -0.00026437903711574903 0.034351541682465535 0 -0.00026591894084397719 0.033412784969796765 0 -0.0002391762011106176 0.033433716717343138 0 -0.00021958178988827282 0.033404496560883255 0 -3.0601509967098485e-05 0.034387291433124141 0 -2.7033750476209907e-05 0.034333466105382064 0 -3.6218213769378871e-05 0.034336231879307982 0 -3.7389439398725938e-05 0.034337053376433557 0 -3.5156303584990568e-05 0.03433652134496936 0 -3.6905792361901189e-05 0.034372059847887181 0 -3.0601509967098485e-05 0.034387291433124141 0 -0.00047291288202500021 0.033523899321407154 0 -0.00030570452603848194 0.03348007563071162 0 -0.00034607211567049706 0.033538084543576402 0 -0.00026591894084397719 0.033412784969796765 0 -0.00026033678148708187 0.033449704510397076 0 -0.00030570452603848194 0.03348007563071162 0 -0.00026033678148708187 0.033449704510397076 0 -0.0002391762011106176 0.033433716717343138 0 -0.00023053926846718824 0.033472581532594629 0 -0.00047291288202500021 0.033523899321407154 0 -0.00026591894084397719 0.033412784969796765 0 -0.00030570452603848194 0.03348007563071162 0 -0.00026591894084397719 0.033412784969796765 0 -0.00026033678148708187 0.033449704510397076 0 -0.0002391762011106176 0.033433716717343138 0 -0.00014962087421130385 0.034388270458568612 0 -3.0601509967098485e-05 0.034387291433124141 0 -0.00026033678148708187 0.033449704510397076 0 -0.00030570452603848194 0.03348007563071162 0 -0.00023053926846718824 0.033472581532594629 0 -0.00027109616653760073 0.033537576926200879 0 -0.00021443067540159567 0.033536603579761043 0 -0.00023053926846718824 0.033472581532594629 0 -0.00030570452603848194 0.03348007563071162 0 -0.00027109616653760073 0.033537576926200879 0 -0.00023053926846718824 0.033472581532594629 0 -0.00030570452603848194 0.03348007563071162 0 -0.00034607211567049706 0.033538084543576402 0 -0.00027109616653760073 0.033537576926200879 0 -0.00013841024829364527 0.03358706767398513 0 -0.00021443067540159567 0.033536603579761043 0 -0.00017189905073336463 0.03351658439822415 0 -0.00016793920950151513 0.033464777936103744 0 -2.4237504275284987e-05 0.033500065251667814 0 -0.00021958178988827282 0.033404496560883255 0 -0.00021898248159503753 0.033600330219013937 0 -0.00027109616653760073 0.033537576926200879 0 -0.00021443067540159567 0.033536603579761043 0 -0.00011025588270309419 0.033518635673077592 0 -0.00016793920950151513 0.033464777936103744 0 -2.4237504275284987e-05 0.033500065251667814 0 7.0039124533241261e-05 0.034016845331628548 0 -2.7033750476209907e-05 0.034333466105382064 0 -0.00021443067540159567 0.033536603579761043 0 -0.00017189905073336463 0.03351658439822415 0 -0.00023053926846718824 0.033472581532594629 0 -0.00013841024829364527 0.03358706767398513 0 -0.00017189905073336463 0.03351658439822415 0 -0.00011025588270309419 0.033518635673077592 0 -0.00017189905073336463 0.03351658439822415 0 -0.00011025588270309419 0.033518635673077592 0 -0.00016793920950151513 0.033464777936103744 0 -0.0002391762011106176 0.033433716717343138 0 -0.00021428871154477791 0.03344414527400863 0 -0.00021958178988827282 0.033404496560883255 0 -0.0002391762011106176 0.033433716717343138 0 -0.00021428871154477791 0.03344414527400863 0 -0.00023053926846718824 0.033472581532594629 0 -0.00016793920950151513 0.033464777936103744 0 -0.00021428871154477791 0.03344414527400863 0 -0.00023053926846718824 0.033472581532594629 0 -0.00016793920950151513 0.033464777936103744 0 -0.00021428871154477791 0.03344414527400863 0 -0.00021958178988827282 0.033404496560883255 0 -0.00017189905073336463 0.03351658439822415 0 -0.00016793920950151513 0.033464777936103744 0 -0.00023053926846718824 0.033472581532594629 0 -2.0880432786467966e-05 0.033592651931294439 0 -0.00011025588270309419 0.033518635673077592 0 -2.4237504275284987e-05 0.033500065251667814 0 -2.0880432786467966e-05 0.033592651931294439 0 -0.00013841024829364527 0.03358706767398513 0 -0.00011025588270309419 0.033518635673077592 0 0.00042777871996436858 0.033792025691061725 0 0.00041677089555844859 0.033858209306414068 0 0.00054507081668195474 0.033828784197156646 0 -0.00029678235593694262 0.034234477092146498 0 -0.00028619438905200923 0.034239376511828991 0 -0.00030134714126569384 0.034246225789344241 0 0.00032684645818146233 0.033819922450847535 0 0.00042777871996436858 0.033792025691061725 0 0.00041677089555844859 0.033858209306414068 0 -0.00029678235593694262 0.034234477092146498 0 -0.0002729902644850198 0.034228272753025195 0 -0.00028619438905200923 0.034239376511828991 0 4.332202342565826e-05 0.034176436985380504 0 -2.7033750476209907e-05 0.034333466105382064 0 -0.00027066921429670784 0.034228948276837513 0 -0.0002729902644850198 0.034228272753025195 0 -0.00028619438905200923 0.034239376511828991 0 -3.6905792361901189e-05 0.034372059847887181 0 -2.7033750476209907e-05 0.034333466105382064 0 -3.6905792361901189e-05 0.034372059847887181 0 -0.00016312174932383769 0.034377266329217608 0 -0.00026019991127631316 0.034337644001813723 0 -0.00028097414038091514 0.034324175258260724 0 -0.00026437903711574903 0.034351541682465535 0 -0.00026437903711574903 0.034351541682465535 0 -0.00028069909735222587 0.034317631828741847 0 -0.00024715044858011648 0.034382251406021809 0 -0.00028097414038091514 0.034324175258260724 0 -0.00026437903711574903 0.034351541682465535 0 -0.00028069909735222587 0.034317631828741847 0 -0.00028097414038091514 0.034324175258260724 0 -0.00028069909735222587 0.034317631828741847 0 -0.00030134714126569384 0.034246225789344241 0 -0.00028069909735222587 0.034317631828741847 0 -0.00030134714126569384 0.034246225789344241 0 -0.00029754934483281463 0.034264407010343549 0 -0.00016312174932383769 0.034377266329217608 0 -0.00019789551605711616 0.03437404843561373 0 -0.00028069909735222587 0.034317631828741847 0 -0.0002924983699902628 0.034281708486725945 0 -0.00029754934483281463 0.034264407010343549 0 -0.00031522652277593598 0.034213301858854142 0 -0.00030134714126569384 0.034246225789344241 0 -0.00029754934483281463 0.034264407010343549 0 -0.00031522652277593598 0.034213301858854142 0 -0.0002924983699902628 0.034281708486725945 0 -0.00029754934483281463 0.034264407010343549 0 -0.00028069909735222587 0.034317631828741847 0 -0.00025924649794272983 0.034352567577339788 0 -0.00024715044858011648 0.034382251406021809 0 -0.00028069909735222587 0.034317631828741847 0 -0.0002924983699902628 0.034281708486725945 0 -0.00025924649794272983 0.034352567577339788 0 -0.00021431984488565561 0.034432399965113505 0 -0.00021461295013236868 0.034432683381556792 0 -0.00024715044858011648 0.034382251406021809 0 -0.00025924649794272983 0.034352567577339788 0 -0.00021431984488565561 0.034432399965113505 0 -0.00024715044858011648 0.034382251406021809 0 -0.00021431984488565561 0.034432399965113505 0 -0.00016792684342558381 0.034513975057862002 0 -0.00021461295013236868 0.034432683381556792 0 -0.0001798112547926514 0.034478579284866098 0 -0.00021431984488565561 0.034432399965113505 0 -0.00016792684342558381 0.034513975057862002 0 -0.00019344008563131079 0.034400115584699881 0 -0.00016792684342558381 0.034513975057862002 0 -0.00021461295013236868 0.034432683381556792 0 -0.00019344008563131079 0.034400115584699881 0 -0.00023810139408579728 0.034382074966402602 0 -0.00021461295013236868 0.034432683381556792 0 -0.00023810139408579728 0.034382074966402602 0 -0.00021461295013236868 0.034432683381556792 0 -0.00024715044858011648 0.034382251406021809 0 -0.00023810139408579728 0.034382074966402602 0 -0.00026437903711574903 0.034351541682465535 0 -0.00024715044858011648 0.034382251406021809 0 -0.0030310982191658286 -0.004942349139439149 0 -0.0035944495814531708 -0.0034304402396302717 0 -0.0019073360144845422 -0.0034091289499200918 0 -0.0030310982191658286 -0.004942349139439149 0 -0.0050080517587992668 -0.0035162654908983556 0 -0.0035944495814531708 -0.0034304402396302717 0 -0.0010355868136382887 -0.0037390870211497281 0 2.7859648542396702e-05 -0.0045341546991205161 0 -0.0030310982191658286 -0.004942349139439149 0 -0.0013666190644469544 -0.0052976396208682464 0 -0.0019073360144845422 -0.0034091289499200918 0 -0.0013666190644469544 -0.0052976396208682464 0 -0.0019073360144845422 -0.0034091289499200918 0 -0.00030226201393936531 -0.0051527990379219594 0 -0.0030310982191658286 -0.004942349139439149 0 -0.0020878902697934786 -0.0058321501584338237 0 -0.0013666190644469544 -0.0052976396208682464 0 -0.0020878902697934786 -0.0058321501584338237 0 -0.0013666190644469544 -0.0052976396208682464 0 -0.0014182475534888889 -0.006451839452307935 0 -0.0013666190644469544 -0.0052976396208682464 0 -0.0014182475534888889 -0.006451839452307935 0 -0.00024305680072309946 -0.0060863991812799001 0 -0.0013666190644469544 -0.0052976396208682464 0 -0.00030226201393936531 -0.0051527990379219594 0 -0.00024305680072309946 -0.0060863991812799001 0 -0.0014182475534888889 -0.006451839452307935 0 -0.00024305680072309946 -0.0060863991812799001 0 -0.00066743594173364893 -0.007169527385991508 0 -0.0020878902697934786 -0.0058321501584338237 0 -0.0014182475534888889 -0.006451839452307935 0 -0.0025225519316629213 -0.0068365975223770616 0 -0.0014182475534888889 -0.006451839452307935 0 -0.0025225519316629213 -0.0068365975223770616 0 -0.0016474454929737809 -0.0074903435469601412 0 -0.0030310982191658286 -0.004942349139439149 0 -0.0025225519316629213 -0.0068365975223770616 0 -0.0045987939742687658 -0.0065564175591002801 0 -0.0030310982191658286 -0.004942349139439149 0 -0.0020878902697934786 -0.0058321501584338237 0 -0.0025225519316629213 -0.0068365975223770616 0 -0.0045466928774922331 -0.0056141612683477645 0 -0.005749010216846785 -0.0053957150263129038 0 -0.0050080517587992668 -0.0035162654908983556 0 -0.0045466928774922331 -0.0056141612683477645 0 -0.005749010216846785 -0.0053957150263129038 0 -0.0056984021663964062 -0.0067854024282597526 0 -0.0064955822995677601 -0.0047756864236675051 0 -0.005749010216846785 -0.0053957150263129038 0 -0.006981477216771715 -0.0061546067580244591 0 -0.0064955822995677601 -0.0047756864236675051 0 -0.0063720408213076883 -0.0035901998421547184 0 -0.0050080517587992668 -0.0035162654908983556 0 -0.0064955822995677601 -0.0047756864236675051 0 -0.005749010216846785 -0.0053957150263129038 0 -0.0050080517587992668 -0.0035162654908983556 0 -0.0045135397987642939 -0.0065186997512619574 0 -0.0047816187657910708 -0.0050414389789545924 0 -0.0030310982191658286 -0.004942349139439149 0 -0.0045987939742687658 -0.0065564175591002801 0 -0.0050080517587992668 -0.0035162654908983556 0 -0.0050080517587992668 -0.0035162654908983556 0 -0.0064589079152449318 -0.0025415647766655431 0 -0.0043765435724408743 -0.0019878191618296001 0 -0.0050080517587992668 -0.0035162654908983556 0 -0.0043765435724408743 -0.0019878191618296001 0 -0.0035944495814531708 -0.0034304402396302717 0 -0.0063720408213076883 -0.0035901998421547184 0 -0.0050080517587992668 -0.0035162654908983556 0 -0.0064589079152449318 -0.0025415647766655431 0 -0.0064589079152449318 -0.0025415647766655431 0 -0.0043765435724408743 -0.0019878191618296001 0 -0.0061995269821637508 -0.00082418827814968504 0 -0.0027881254584446783 -0.0024236907943016458 0 -0.0044833942345044652 -0.0010272945310430379 0 -0.00064993870324510513 -0.0019397336325763265 0 -0.0013328048653231638 -0.0010042766405606283 0 -0.0015217454174472885 -0.0029738233707514734 0 -0.00014946215432280136 -0.0029907853211699705 0 -0.0014165634556176556 -0.0015226150105707161 0 -0.0015217454174472885 -0.0029738233707514734 0 -6.9131707900311394e-05 -0.0040526969050881153 0 -0.00014946215432280136 -0.0029907853211699705 0 -0.0027881254584446783 -0.0024236907943016458 0 -0.0010355868136382887 -0.0037390870211497281 0 -0.0043765435724408743 -0.0019878191618296001 0 -0.0035944495814531708 -0.0034304402396302717 0 -0.0019073360144845422 -0.0034091289499200918 0 -6.9131707900311394e-05 -0.0040526969050881153 0 0.00045674346845436451 -0.0036102046156644596 0 -0.00014946215432280136 -0.0029907853211699705 0 -6.9131707900311394e-05 -0.0040526969050881153 0 0.00045674346845436451 -0.0036102046156644596 0 0.00068922119526526561 -0.0043726468521026775 0 0.00045674346845436451 -0.0036102046156644596 0 -0.00014946215432280136 -0.0029907853211699705 0 0.00077102320768398375 -0.0028198765137637783 0 -0.00014946215432280136 -0.0029907853211699705 0 0.00077102320768398375 -0.0028198765137637783 0 -0.00012087141828975452 -0.0014784919516532948 0 0.0013457589999252922 -0.0032430616801780322 0 0.0022325032379589813 -0.0033014828638095479 0 0.0024222514106090084 -0.0037872964016922701 0 0.0013457589999252922 -0.0032430616801780322 0 0.0022325032379589813 -0.0033014828638095479 0 0.0022495234680484808 -0.0022916635345437528 0 0.0027820302993466165 -0.0037749769333173971 0 0.0027367509234531451 -0.0040365483906905589 0 0.0031022933570978724 -0.0040404376409417823 0 0.0027998273986742615 -0.0038239842060141952 0 0.0022325032379589813 -0.0033014828638095479 0 0.0022495234680484808 -0.0022916635345437528 0 0.0027998273986742615 -0.0038239842060141952 0 0.0027820302993466165 -0.0037749769333173971 0 0.0031022933570978724 -0.0040404376409417823 0 0.0026628647168211259 -0.0032461726694234436 0 0.0025267457850036007 -0.0030241399416355789 0 0.0027820302993466165 -0.0037749769333173971 0 0.0024230835394496619 -0.0039616399559831358 0 0.0027367509234531451 -0.0040365483906905589 0 0.0027998273986742615 -0.0038239842060141952 0 0.0022325032379589813 -0.0033014828638095479 0 0.0024222514106090084 -0.0037872964016922701 0 0.0027998273986742615 -0.0038239842060141952 0 0.0027820302993466165 -0.0037749769333173971 0 0.002954014086963263 -0.0041141619682365316 0 0.0027998273986742615 -0.0038239842060141952 0 0.0024222514106090084 -0.0037872964016922701 0 0.002954014086963263 -0.0041141619682365316 0 0.0024222514106090084 -0.0037872964016922701 0 0.0023767611662834126 -0.0042333016708284111 0 0.002954014086963263 -0.0041141619682365316 0 0.0013457589999252922 -0.0032430616801780322 0 0.0024222514106090084 -0.0037872964016922701 0 0.0023767611662834126 -0.0042333016708284111 0 0.00045674346845436451 -0.0036102046156644596 0 0.00077102320768398375 -0.0028198765137637783 0 0.00099059804848499952 -0.0038115020825247874 0 0.00077102320768398375 -0.0028198765137637783 0 0.0017215418469035168 -0.0039480667930011874 0 0.00099059804848499952 -0.0038115020825247874 0 0.0017215418469035168 -0.0039480667930011874 0 0.00099059804848499952 -0.0038115020825247874 0 0.0013187383434827579 -0.004338170711435314 0 0.0010940888204256166 -0.0030184863244472455 0 0.0019748786452093662 -0.003984063995214079 0 0.00045674346845436451 -0.0036102046156644596 0 0.00099059804848499952 -0.0038115020825247874 0 0.00068922119526526561 -0.0043726468521026775 0 0.0013029439480892197 -0.012266771159668765 0 0.0012590098202703828 -0.012134251969200769 0 0.0019674549110998436 -0.0040214127971441461 0 0.0022365581826360283 -0.0035847923115120118 0 0.001810789768556935 -0.0033092526483296 0 0.0019674549110998436 -0.0040214127971441461 0 0.001810789768556935 -0.0033092526483296 0 0.0013029140628895975 -0.0041591793452389293 0 0.0019674549110998436 -0.0040214127971441461 0 0.0022365581826360283 -0.0035847923115120118 0 0.0024230835394496619 -0.0039616399559831358 0 0.0027820302993466165 -0.0037749769333173971 0 0.0024230835394496619 -0.0039616399559831358 0 0.002480152979311181 -0.0036114104013491711 0 0.0022365581826360283 -0.0035847923115120118 0 0.0024230835394496619 -0.0039616399559831358 0 0.002480152979311181 -0.0036114104013491711 0 0.00073755266525337771 -0.005986323358998456 0 0.00069844522808793787 -0.0072341827341091272 0 0.0022365581826360283 -0.0035847923115120118 0 0.0024677875803575328 -0.0031255128806639866 0 0.001810789768556935 -0.0033092526483296 0 0.0027820302993466165 -0.0037749769333173971 0 0.002480152979311181 -0.0036114104013491711 0 0.0024677875803575328 -0.0031255128806639866 0 0.0022365581826360283 -0.0035847923115120118 0 0.002480152979311181 -0.0036114104013491711 0 0.0024677875803575328 -0.0031255128806639866 0 0.00083715784392252328 -0.020913616375080345 0 0.00094085308829961812 -0.021445511300239733 0 0.00048213679784557762 -0.021670971003385154 0 0.0013029439480892197 -0.012266771159668765 0 0.0011133459697651915 -0.012937718051993893 0 0.00083715784392252328 -0.020913616375080345 0 0.00094085308829961812 -0.021445511300239733 0 0.0013189650379222004 -0.021281878029078743 0 0.00094085308829961812 -0.021445511300239733 0 0.00089004111371675254 -0.021822792356956021 0 0.0011534206508140217 -0.021674288822523535 0 0.00094085308829961812 -0.021445511300239733 0 0.00048213679784557762 -0.021670971003385154 0 0.00089004111371675254 -0.021822792356956021 0 0.00069844522808793787 -0.0072341827341091272 0 0.0011133459697651915 -0.012937718051993893 0 0.002954014086963263 -0.0041141619682365316 0 0.003261716424697476 -0.0051529819281145323 0 0.0030650359600817717 -0.0052126910563716931 0 0.0024677875803575328 -0.0031255128806639866 0 0.001810789768556935 -0.0033092526483296 0 0.0022487009445511332 -0.0025386900742277361 0 2.8890818495831424e-05 -0.02012899303854114 0 -0.00077236417410889494 -0.021721515745951513 0 0.00050963912888665373 -0.021529739319950583 0 0.0011133459697651915 -0.012937718051993893 0 0.0004198935412198959 -0.013581462681564533 0 0.0030650359600817717 -0.0052126910563716931 0 0.0024268438000633165 -0.005397500810424288 0 0.0024048838106055371 -0.006920911914627962 0 0.003261716424697476 -0.0051529819281145323 0 0.0030650359600817717 -0.0052126910563716931 0 0.0024048838106055371 -0.006920911914627962 0 0.0011133459697651915 -0.012937718051993893 0 0.0019242395095948777 -0.018996876077067699 0 0.00048213679784557762 -0.021670971003385154 0 0.00089004111371675254 -0.021822792356956021 0 0.00070404744973435541 -0.022294814885463785 0 0.00089004111371675254 -0.021822792356956021 0 0.00070404744973435541 -0.022294814885463785 0 0.0012192210722323409 -0.021996235532255347 0 0.00089004111371675254 -0.021822792356956021 0 0.0011534206508140217 -0.021674288822523535 0 0.0012192210722323409 -0.021996235532255347 0 -6.9131707900311394e-05 -0.0040526969050881153 0 0.00068922119526526561 -0.0043726468521026775 0 0.0010256374162240264 -0.0052505324554916206 0 -0.0019073360144845422 -0.0034091289499200918 0 -0.00030226201393936531 -0.0051527990379219594 0 0.0010256374162240264 -0.0052505324554916206 0 0.00098393586584087471 -0.0047303577123740505 0 0.00068922119526526561 -0.0043726468521026775 0 0.0010256374162240264 -0.0052505324554916206 0 0.00098393586584087471 -0.0047303577123740505 0 0.0011927592284098887 -0.0049962692314145154 0 0.001486954933076851 -0.0048668980309304628 0 0.0011927592284098887 -0.0049962692314145154 0 0.0012690096854208125 -0.0051532361363739359 0 0.001486954933076851 -0.0048668980309304628 0 0.0011927592284098887 -0.0049962692314145154 0 0.0012690096854208125 -0.0051532361363739359 0 0.0010256374162240264 -0.0052505324554916206 0 0.00098393586584087471 -0.0047303577123740505 0 0.0011927592284098887 -0.0049962692314145154 0 0.0010256374162240264 -0.0052505324554916206 0 0.00098393586584087471 -0.0047303577123740505 0 0.0013187383434827579 -0.004338170711435314 0 0.001486954933076851 -0.0048668980309304628 0 0.00098393586584087471 -0.0047303577123740505 0 0.00068922119526526561 -0.0043726468521026775 0 0.0013187383434827579 -0.004338170711435314 0 0.00099059804848499952 -0.0038115020825247874 0 0.00068922119526526561 -0.0043726468521026775 0 0.0013187383434827579 -0.004338170711435314 0 0.0017215418469035168 -0.0039480667930011874 0 0.0016575002357355974 -0.0044908891811448809 0 0.0021162724089802531 -0.0048268687098046359 0 0.0023767611662834126 -0.0042333016708284111 0 0.002954014086963263 -0.0041141619682365316 0 0.0030650359600817717 -0.0052126910563716931 0 0.0017215418469035168 -0.0039480667930011874 0 0.0030650359600817717 -0.0052126910563716931 0 0.0021162724089802531 -0.0048268687098046359 0 0.0019748786452093662 -0.003984063995214079 0 0.0024947919904712091 -0.0045475249796400486 0 0.0013187383434827579 -0.004338170711435314 0 0.0016575002357355974 -0.0044908891811448809 0 0.001486954933076851 -0.0048668980309304628 0 0.0017215418469035168 -0.0039480667930011874 0 0.0013187383434827579 -0.004338170711435314 0 0.0016575002357355974 -0.0044908891811448809 0 0.0030650359600817717 -0.0052126910563716931 0 0.0021162724089802531 -0.0048268687098046359 0 0.0024268438000633165 -0.005397500810424288 0 0.0021162724089802531 -0.0048268687098046359 0 0.001486954933076851 -0.0048668980309304628 0 0.0018712474915592743 -0.0054394243335536517 0 0.0016575002357355974 -0.0044908891811448809 0 0.0021162724089802531 -0.0048268687098046359 0 0.001486954933076851 -0.0048668980309304628 0 0.001486954933076851 -0.0048668980309304628 0 0.0014687882469247987 -0.0052152834991286753 0 0.0018712474915592743 -0.0054394243335536517 0 0.0012690096854208125 -0.0051532361363739359 0 0.001486954933076851 -0.0048668980309304628 0 0.0014687882469247987 -0.0052152834991286753 0 -0.00054272507302897878 -0.010233234203456405 0 0.0004198935412198959 -0.013581462681564533 0 0.0014687882469247987 -0.0052152834991286753 0 0.0018712474915592743 -0.0054394243335536517 0 0.0012355780884428574 -0.005413989537431464 0 0.0018712474915592743 -0.0054394243335536517 0 0.0024268438000633165 -0.005397500810424288 0 0.0024048838106055371 -0.006920911914627962 0 0.0012355780884428574 -0.005413989537431464 0 0.001437581299158215 -0.0070935770151475007 0 0.0029524845477766262 -0.0078332661114895522 0 0.0018712474915592743 -0.0054394243335536517 0 0.0012355780884428574 -0.005413989537431464 0 0.0024048838106055371 -0.006920911914627962 0 0.0021162724089802531 -0.0048268687098046359 0 0.0018712474915592743 -0.0054394243335536517 0 0.0024268438000633165 -0.005397500810424288 0 0.00078593762225167175 -0.006598170873379763 0 0.0012355780884428574 -0.005413989537431464 0 0.001437581299158215 -0.0070935770151475007 0 0.00078593762225167175 -0.006598170873379763 0 0.00080355935939630928 -0.0057790373979081742 0 0.00043763884851023198 -0.0061260697764842905 0 0.00078593762225167175 -0.006598170873379763 0 0.00080355935939630928 -0.0057790373979081742 0 0.0012355780884428574 -0.005413989537431464 0 0.00080355935939630928 -0.0057790373979081742 0 0.00035938857316694043 -0.0056816363060066336 0 0.00043763884851023198 -0.0061260697764842905 0 0.00080355935939630928 -0.0057790373979081742 0 0.0010256374162240264 -0.0052505324554916206 0 0.00035938857316694043 -0.0056816363060066336 0 0.0012690096854208125 -0.0051532361363739359 0 0.0010256374162240264 -0.0052505324554916206 0 0.0012355780884428574 -0.005413989537431464 0 0.00080355935939630928 -0.0057790373979081742 0 0.0010256374162240264 -0.0052505324554916206 0 0.0012355780884428574 -0.005413989537431464 0 0.0012690096854208125 -0.0051532361363739359 0 0.0014687882469247987 -0.0052152834991286753 0 0.0012355780884428574 -0.005413989537431464 0 -0.00030226201393936531 -0.0051527990379219594 0 0.00035938857316694043 -0.0056816363060066336 0 -0.00024305680072309946 -0.0060863991812799001 0 -0.00030226201393936531 -0.0051527990379219594 0 0.0010256374162240264 -0.0052505324554916206 0 0.00035938857316694043 -0.0056816363060066336 0 0.00035938857316694043 -0.0056816363060066336 0 -0.00024305680072309946 -0.0060863991812799001 0 0.00043763884851023198 -0.0061260697764842905 0 -0.00024305680072309946 -0.0060863991812799001 0 0.00014407528409999564 -0.0067577876177280869 0 -0.00066743594173364893 -0.007169527385991508 0 -0.00024305680072309946 -0.0060863991812799001 0 0.00043763884851023198 -0.0061260697764842905 0 0.00014407528409999564 -0.0067577876177280869 0 0.00078593762225167175 -0.006598170873379763 0 0.00043763884851023198 -0.0061260697764842905 0 0.00014407528409999564 -0.0067577876177280869 0 0.00014407528409999564 -0.0067577876177280869 0 0.00027986127308798252 -0.0077227226452582501 0 -0.00066743594173364893 -0.007169527385991508 0 0.00078593762225167175 -0.006598170873379763 0 0.00014407528409999564 -0.0067577876177280869 0 0.00027986127308798252 -0.0077227226452582501 0 0.00027986127308798252 -0.0077227226452582501 0 6.5214276601505537e-05 -0.0094043965869215537 0 -0.0010282746904254191 -0.0084607841931077666 0 0.00027986127308798252 -0.0077227226452582501 0 0.0011651976777448776 -0.0084380058619018365 0 6.5214276601505537e-05 -0.0094043965869215537 0 0.00027986127308798252 -0.0077227226452582501 0 0.0011651976777448776 -0.0084380058619018365 0 0.001437581299158215 -0.0070935770151475007 0 0.00078593762225167175 -0.006598170873379763 0 0.00027986127308798252 -0.0077227226452582501 0 0.001437581299158215 -0.0070935770151475007 0 0.0011651976777448776 -0.0084380058619018365 0 0.001437581299158215 -0.0070935770151475007 0 0.0029524845477766262 -0.0078332661114895522 0 0.0011651976777448776 -0.0084380058619018365 0 0.0029524845477766262 -0.0078332661114895522 0 0.0015764954947047323 -0.010427154163539171 0 0.0004198935412198959 -0.013581462681564533 0 -7.0068061155972641e-05 -0.013166769306644396 0 -0.0012328492954218856 -0.013908671006114641 0 -0.0016967171377673892 -0.01480151987434377 0 -0.001155043726126217 -0.014846667930667357 0 0.0011651976777448776 -0.0084380058619018365 0 0.0015764954947047323 -0.010427154163539171 0 6.5214276601505537e-05 -0.0094043965869215537 0 0.0015764954947047323 -0.010427154163539171 0 6.5214276601505537e-05 -0.0094043965869215537 0 -0.00021729822076345045 -0.011049538786592037 0 0.00070404744973435541 -0.022294814885463785 0 0.0013432372064583553 -0.022319870605272275 0 0.0013024839422188738 -0.022725548130653309 0 0.0019242395095948777 -0.018996876077067699 0 0.0020642374596869175 -0.020510982434578068 0 0.00070404744973435541 -0.022294814885463785 0 0.0012192210722323409 -0.021996235532255347 0 0.0013432372064583553 -0.022319870605272275 0 -0.00077236417410889494 -0.021721515745951513 0 0.00050963912888665373 -0.021529739319950583 0 0.00020600998110267108 -0.022980614543530679 0 -0.0012328492954218856 -0.013908671006114641 0 -0.00067117733247216071 -0.014650558424425331 0 -0.001155043726126217 -0.014846667930667357 0 0.0004198935412198959 -0.013581462681564533 0 0.00093222307241271681 -0.017108852463190032 0 0.00050963912888665373 -0.021529739319950583 0 0.00020600998110267108 -0.022980614543530679 0 0.0008930159459356983 -0.022895439481814186 0 0.00070404744973435541 -0.022294814885463785 0 0.0008930159459356983 -0.022895439481814186 0 0.0013024839422188738 -0.022725548130653309 0 0.00020600998110267108 -0.022980614543530679 0 0.0008930159459356983 -0.022895439481814186 0 0.00084600990312429399 -0.023284927850737321 0 0.0008930159459356983 -0.022895439481814186 0 0.0011078589045688501 -0.023268654979693101 0 0.00084600990312429399 -0.023284927850737321 0 0.0008930159459356983 -0.022895439481814186 0 0.0011078589045688501 -0.023268654979693101 0 0.0011868506418276107 -0.023004719216335706 0 0.0008930159459356983 -0.022895439481814186 0 0.0011868506418276107 -0.023004719216335706 0 0.0013024839422188738 -0.022725548130653309 0 -0.00067117733247216071 -0.014650558424425331 0 -9.3644848729841249e-05 -0.015386295193052754 0 -0.00015585073893714823 -0.01535343996801568 0 0.00020600998110267108 -0.022980614543530679 0 0.0009552062980042774 -0.023785797085546186 0 0.00084600990312429399 -0.023284927850737321 0 -0.00067117733247216071 -0.014650558424425331 0 -0.00015585073893714823 -0.01535343996801568 0 -0.00077288003440076488 -0.015302290510352203 0 0.00093222307241271681 -0.017108852463190032 0 0.0012688707122718778 -0.018836207909074545 0 -9.0286800572440354e-05 -0.015384167713331677 0 -0.00015585073893714823 -0.01535343996801568 0 -0.00013788029096431756 -0.015537716847009095 0 0.0012688707122718778 -0.018836207909074545 0 0.0012576926662384524 -0.018826765408308983 0 0.0009552062980042774 -0.023785797085546186 0 0.0010216630561852387 -0.023480532853898558 0 0.0012457521771798408 -0.023621557923545308 0 0.0010216630561852387 -0.023480532853898558 0 0.0011078589045688501 -0.023268654979693101 0 0.0012457521771798408 -0.023621557923545308 0 0.0009552062980042774 -0.023785797085546186 0 0.0010216630561852387 -0.023480532853898558 0 0.00084600990312429399 -0.023284927850737321 0 0.0010216630561852387 -0.023480532853898558 0 0.0011078589045688501 -0.023268654979693101 0 0.00084600990312429399 -0.023284927850737321 0 -0.00015585073893714823 -0.01535343996801568 0 -0.00077288003440076488 -0.015302290510352203 0 -0.00033554724334444193 -0.015641981989264406 0 -0.00067117733247216071 -0.014650558424425331 0 -0.00077288003440076488 -0.015302290510352203 0 -0.001155043726126217 -0.014846667930667357 0 -0.00077288003440076488 -0.015302290510352203 0 -0.001155043726126217 -0.014846667930667357 0 -0.0013660546271598902 -0.015445698252737882 0 -0.00083298374129382345 -0.015779576903353448 0 -0.00045382248175068692 -0.016049352138580743 0 -0.0012530366407762022 -0.016144481916501158 0 -0.00083298374129382345 -0.015779576903353448 0 -0.0013660546271598902 -0.015445698252737882 0 -0.0012530366407762022 -0.016144481916501158 0 -0.00077288003440076488 -0.015302290510352203 0 -0.00083298374129382345 -0.015779576903353448 0 -0.0013660546271598902 -0.015445698252737882 0 -0.00077288003440076488 -0.015302290510352203 0 -0.00083298374129382345 -0.015779576903353448 0 -0.00033554724334444193 -0.015641981989264406 0 -0.00033554724334444193 -0.015641981989264406 0 -0.00045382248175068692 -0.016049352138580743 0 -4.3862174997066874e-05 -0.01579228943295502 0 -0.00083298374129382345 -0.015779576903353448 0 -0.00033554724334444193 -0.015641981989264406 0 -0.00045382248175068692 -0.016049352138580743 0 -0.00045382248175068692 -0.016049352138580743 0 -4.3862174997066874e-05 -0.01579228943295502 0 8.4317424306076534e-05 -0.016150850146942033 0 -4.3862174997066874e-05 -0.01579228943295502 0 -0.00013788029096431756 -0.015537716847009095 0 3.6557827128929749e-05 -0.015525893316397124 0 -0.00033554724334444193 -0.015641981989264406 0 -4.3862174997066874e-05 -0.01579228943295502 0 -0.00013788029096431756 -0.015537716847009095 0 -0.00015585073893714823 -0.01535343996801568 0 -0.00033554724334444193 -0.015641981989264406 0 -0.00013788029096431756 -0.015537716847009095 0 -9.0286800572440354e-05 -0.015384167713331677 0 -0.00013788029096431756 -0.015537716847009095 0 3.6557827128929749e-05 -0.015525893316397124 0 0.0012688707122718778 -0.018836207909074545 0 0.0012043053477219742 -0.018736222777257915 0 -7.0068061155972641e-05 -0.013166769306644396 0 -0.0011729020547376252 -0.014244990686279525 0 0.0015764954947047323 -0.010427154163539171 0 -0.00021729822076345045 -0.011049538786592037 0 0.00020353014241017957 -0.013058907025560194 0 -0.0016967171377673892 -0.01480151987434377 0 -0.001155043726126217 -0.014846667930667357 0 -0.0013660546271598902 -0.015445698252737882 0 -0.0016967171377673892 -0.01480151987434377 0 -0.0013660546271598902 -0.015445698252737882 0 -0.0021607253838899308 -0.015697460908308935 0 -0.0011729020547376252 -0.014244990686279525 0 -0.00091099404410447348 -0.01524367288478368 0 -0.0013660546271598902 -0.015445698252737882 0 -0.0021607253838899308 -0.015697460908308935 0 -0.0012530366407762022 -0.016144481916501158 0 -0.0021124147743198118 -0.015720841271360655 0 -0.0013201884687721658 -0.016102146076637829 0 -0.0019518446168590401 -0.016268392148924546 0 -0.0011729020547376252 -0.014244990686279525 0 -0.0015796918036747973 -0.014952625366229827 0 -0.00047942147363948511 -0.012817775082819389 0 -0.0020537231497065257 -0.013353853204127759 0 -0.0013102823589982394 -0.014415468547799111 0 -0.0020537231497065257 -0.013353853204127759 0 -0.0036034741912200161 -0.012783290731743484 0 -0.0019452931862692249 -0.012112874601586981 0 -0.0011729020547376252 -0.014244990686279525 0 -0.001848529578210007 -0.013494298513254467 0 -0.00047942147363948511 -0.012817775082819389 0 -0.0020537231497065257 -0.013353853204127759 0 -0.0019452931862692249 -0.012112874601586981 0 -0.0036034741912200161 -0.012783290731743484 0 -0.0049755980276861983 -0.013661986362752825 0 -0.0030935970060294326 -0.014287654334885323 0 -0.0020537231497065257 -0.013353853204127759 0 -0.0036034741912200161 -0.012783290731743484 0 -0.0030935970060294326 -0.014287654334885323 0 -0.0037539614836966566 -0.01088031614074907 0 -0.0040340364032425196 -0.0092124805338618439 0 -0.0036034741912200161 -0.012783290731743484 0 -0.0032151684320161963 -0.01137562073657406 0 -0.0019452931862692249 -0.012112874601586981 0 -0.0036034741912200161 -0.012783290731743484 0 -0.0032151684320161963 -0.01137562073657406 0 -0.0040667612582840889 -0.0098371973263460775 0 -0.0022581293278013032 -0.013162335790199049 0 -0.001848529578210007 -0.013494298513254467 0 -0.0032151684320161963 -0.01137562073657406 0 -0.0014745845457997523 -0.012253239695480993 0 -0.0014675579231991282 -0.01011663765604567 0 -0.00021729822076345045 -0.011049538786592037 0 -0.0014745845457997523 -0.012253239695480993 0 -0.0014675579231991282 -0.01011663765604567 0 -0.00021729822076345045 -0.011049538786592037 0 0.00020353014241017957 -0.013058907025560194 0 -0.0014745845457997523 -0.012253239695480993 0 6.5214276601505537e-05 -0.0094043965869215537 0 -0.00021729822076345045 -0.011049538786592037 0 -0.0014675579231991282 -0.01011663765604567 0 6.5214276601505537e-05 -0.0094043965869215537 0 -0.0014675579231991282 -0.01011663765604567 0 -0.0010282746904254191 -0.0084607841931077666 0 -0.0014675579231991282 -0.01011663765604567 0 -0.0025967924247612454 -0.0085397093900608824 0 -0.0010282746904254191 -0.0084607841931077666 0 -0.0032151684320161963 -0.01137562073657406 0 -0.0014675579231991282 -0.01011663765604567 0 -0.0028444314672250517 -0.0099731435464142735 0 -0.0032151684320161963 -0.01137562073657406 0 -0.0028444314672250517 -0.0099731435464142735 0 -0.0040667612582840889 -0.0098371973263460775 0 -0.0028444314672250517 -0.0099731435464142735 0 -0.0025967924247612454 -0.0085397093900608824 0 -0.0040667612582840889 -0.0098371973263460775 0 -0.0014675579231991282 -0.01011663765604567 0 -0.0028444314672250517 -0.0099731435464142735 0 -0.0025967924247612454 -0.0085397093900608824 0 -0.0025225519316629213 -0.0068365975223770616 0 -0.0045987939742687658 -0.0065564175591002801 0 -0.0025967924247612454 -0.0085397093900608824 0 -0.0045987939742687658 -0.0065564175591002801 0 -0.0025967924247612454 -0.0085397093900608824 0 -0.0040667612582840889 -0.0098371973263460775 0 -0.0025225519316629213 -0.0068365975223770616 0 -0.0025967924247612454 -0.0085397093900608824 0 -0.0016474454929737809 -0.0074903435469601412 0 0.00027986127308798252 -0.0077227226452582501 0 -0.00066743594173364893 -0.007169527385991508 0 -0.0010282746904254191 -0.0084607841931077666 0 -0.0016474454929737809 -0.0074903435469601412 0 -0.00066743594173364893 -0.007169527385991508 0 -0.0010282746904254191 -0.0084607841931077666 0 -0.0014182475534888889 -0.006451839452307935 0 -0.0016474454929737809 -0.0074903435469601412 0 -0.00066743594173364893 -0.007169527385991508 0 -0.0025967924247612454 -0.0085397093900608824 0 -0.0016474454929737809 -0.0074903435469601412 0 -0.0010282746904254191 -0.0084607841931077666 0 -0.005749010216846785 -0.0053957150263129038 0 -0.0056984021663964062 -0.0067854024282597526 0 -0.006981477216771715 -0.0061546067580244591 0 -0.0056984021663964062 -0.0067854024282597526 0 -0.006981477216771715 -0.0061546067580244591 0 -0.0069634811523814465 -0.0077497244344952275 0 -0.0045466928774922331 -0.0056141612683477645 0 -0.0056984021663964062 -0.0067854024282597526 0 -0.0038069585934369875 -0.009076783313515302 0 -0.0045135397987642939 -0.0065186997512619574 0 -0.0040340364032425196 -0.0092124805338618439 0 -0.0056984021663964062 -0.0067854024282597526 0 -0.0038069585934369875 -0.009076783313515302 0 -0.0058796169982818754 -0.0093650981571894391 0 -0.0074327366996074888 -0.0069549267174388576 0 -0.0084845591842997881 -0.0075067370093919016 0 -0.0056984021663964062 -0.0067854024282597526 0 -0.0058796169982818754 -0.0093650981571894391 0 -0.0080729905191418965 -0.0098385106813279194 0 -0.0059534876073312395 -0.011667035346549738 0 -0.0077768409475986412 -0.012173268123712382 0 -0.0080729905191418965 -0.0098385106813279194 0 -0.0058796169982818754 -0.0093650981571894391 0 -0.0059534876073312395 -0.011667035346549738 0 -0.0080729905191418965 -0.0098385106813279194 0 -0.0036034741912200161 -0.012783290731743484 0 -0.0038069585934369875 -0.009076783313515302 0 -0.0059534876073312395 -0.011667035346549738 0 -0.0038069585934369875 -0.009076783313515302 0 -0.0058796169982818754 -0.0093650981571894391 0 -0.0059534876073312395 -0.011667035346549738 0 -0.0059534876073312395 -0.011667035346549738 0 -0.0049755980276861983 -0.013661986362752825 0 -0.0064122362804689727 -0.014167489500811908 0 -0.0036034741912200161 -0.012783290731743484 0 -0.0059534876073312395 -0.011667035346549738 0 -0.0049755980276861983 -0.013661986362752825 0 -0.0059534876073312395 -0.011667035346549738 0 -0.0077768409475986412 -0.012173268123712382 0 -0.0064122362804689727 -0.014167489500811908 0 -0.0077768409475986412 -0.012173268123712382 0 -0.0081102306364105523 -0.01383156322317043 0 -0.0064122362804689727 -0.014167489500811908 0 -0.0081691308676231748 -0.0089782450196183687 0 -0.0091624564286607573 -0.0076036790383186299 0 -0.0069634811523814465 -0.0077497244344952275 0 -0.0077768409475986412 -0.012173268123712382 0 -0.0097978897600577222 -0.012357843960745064 0 -0.0081102306364105523 -0.01383156322317043 0 -0.0099103439286944775 -0.0067127006889854584 0 -0.0084845591842997881 -0.0075067370093919016 0 -0.0077768409475986412 -0.012173268123712382 0 -0.0097978897600577222 -0.012357843960745064 0 -0.0080729905191418965 -0.0098385106813279194 0 -0.0099103439286944775 -0.0067127006889854584 0 -0.0063081724279824333 0.003465664501847739 0 -0.0081691308676231748 -0.0089782450196183687 0 -0.0099820131677389162 -0.0091186888822003577 0 -0.0093198762547169901 -0.010228297430105365 0 -0.0014055296616593174 0.032071530530409231 0 -0.0013163137728852635 0.032113391899967217 0 -0.0013767662129425069 0.031857334306918984 0 -0.0014055296616593174 0.032071530530409231 0 -0.0013163137728852635 0.032113391899967217 0 -0.0013372995648924019 0.032202378559285053 0 -0.0072603144817185187 0.0085128139260685527 0 -0.0074939760118796815 0.01007601709099892 0 -0.0099820131677389162 -0.0091186888822003577 0 -0.0091624564286607573 -0.0076036790383186299 0 -0.010681192699891241 -0.007963373448545568 0 -0.0081691308676231748 -0.0089782450196183687 0 -0.0099820131677389162 -0.0091186888822003577 0 -0.0091624564286607573 -0.0076036790383186299 0 -0.0091624564286607573 -0.0076036790383186299 0 -0.010237348683519394 -0.0070535272399703548 0 -0.010681192699891241 -0.007963373448545568 0 -0.0091624564286607573 -0.0076036790383186299 0 -0.010237348683519394 -0.0070535272399703548 0 -0.0097280553063878832 -0.0058683170059597584 0 -0.010237348683519394 -0.0070535272399703548 0 -0.0097280553063878832 -0.0058683170059597584 0 -0.011360248193977159 -0.0067765980301791803 0 -0.012314595083012882 0.0029329475406055356 0 -0.0076279721752760422 0.009738763133440376 0 -0.0091624564286607573 -0.0076036790383186299 0 -0.0097280553063878832 -0.0058683170059597584 0 -0.0082001005995755022 -0.0065176581891777116 0 -0.0097280553063878832 -0.0058683170059597584 0 -0.0082001005995755022 -0.0065176581891777116 0 -0.0082274555854316353 -0.005089446095380994 0 -0.0082001005995755022 -0.0065176581891777116 0 -0.006981477216771715 -0.0061546067580244591 0 -0.0082274555854316353 -0.005089446095380994 0 -0.0091624564286607573 -0.0076036790383186299 0 -0.0082001005995755022 -0.0065176581891777116 0 -0.0069634811523814465 -0.0077497244344952275 0 -0.0082001005995755022 -0.0065176581891777116 0 -0.006981477216771715 -0.0061546067580244591 0 -0.0069634811523814465 -0.0077497244344952275 0 -0.0014098151922167217 0.022249851411328375 0 -0.0022626073669483834 0.022352128930119907 0 -0.0020165650920808986 0.021717964908046374 0 0.00029408554732767561 0.027603370669776563 0 -0.00060587792899642113 0.024566209088116346 0 -0.00049064430505586256 0.032107293890772451 0 -0.00082603462519570718 0.031924946717996887 0 -0.00066777487400152317 0.032149306062628807 0 -0.00082603462519570718 0.031924946717996887 0 -0.00079806293821456907 0.032192635962228267 0 -0.00092871315107721916 0.03212284009482317 0 -0.00082603462519570718 0.031924946717996887 0 -0.00066777487400152317 0.032149306062628807 0 -0.00079806293821456907 0.032192635962228267 0 -0.00066777487400152317 0.032149306062628807 0 -0.00067540597880640573 0.032301984209574162 0 -0.00079806293821456907 0.032192635962228267 0 -0.00067540597880640573 0.032301984209574162 0 -0.00079806293821456907 0.032192635962228267 0 -0.00074819064453605271 0.032360601820190155 0 -0.00079806293821456907 0.032192635962228267 0 -0.00074819064453605271 0.032360601820190155 0 -0.00087265344855150327 0.032285147795873173 0 -0.00079806293821456907 0.032192635962228267 0 -0.00092871315107721916 0.03212284009482317 0 -0.00087265344855150327 0.032285147795873173 0 -0.00092871315107721916 0.03212284009482317 0 -0.0010479909497506492 0.032180804870453349 0 -0.0010492039235353954 0.031983157781601865 0 -0.00092871315107721916 0.03212284009482317 0 -0.0010479909497506492 0.032180804870453349 0 -0.00087265344855150327 0.032285147795873173 0 -0.00082603462519570718 0.031924946717996887 0 -0.00092871315107721916 0.03212284009482317 0 -0.0010492039235353954 0.031983157781601865 0 -0.00082603462519570718 0.031924946717996887 0 -0.0010492039235353954 0.031983157781601865 0 -0.001058621736099555 0.031772946747373104 0 -0.00060587792899642113 0.024566209088116346 0 -0.0017962885358917848 0.019989371721275226 0 -0.0010492039235353954 0.031983157781601865 0 -0.0012072475414488478 0.031862937633634146 0 -0.001058621736099555 0.031772946747373104 0 -0.0010492039235353954 0.031983157781601865 0 -0.0012072475414488478 0.031862937633634146 0 -0.001192576540261861 0.032054216166810076 0 -0.0010479909497506492 0.032180804870453349 0 -0.0010492039235353954 0.031983157781601865 0 -0.001192576540261861 0.032054216166810076 0 -0.0010479909497506492 0.032180804870453349 0 -0.001192576540261861 0.032054216166810076 0 -0.001171042690014679 0.032216988125510902 0 -0.001192576540261861 0.032054216166810076 0 -0.0013163137728852635 0.032113391899967217 0 -0.001171042690014679 0.032216988125510902 0 -0.001192576540261861 0.032054216166810076 0 -0.0013163137728852635 0.032113391899967217 0 -0.0013767662129425069 0.031857334306918984 0 -0.0012072475414488478 0.031862937633634146 0 -0.001192576540261861 0.032054216166810076 0 -0.0013767662129425069 0.031857334306918984 0 -0.010237348683519394 -0.0070535272399703548 0 -0.010681192699891241 -0.007963373448545568 0 -0.011360248193977159 -0.0067765980301791803 0 -0.0074939760118796815 0.01007601709099892 0 -0.0076279721752760422 0.009738763133440376 0 -0.0012072475414488478 0.031862937633634146 0 -0.0013767662129425069 0.031857334306918984 0 -0.0012893470075551025 0.031616738542160933 0 -0.011555990534657975 -0.0068053691506591131 0 -0.012451928679735175 -0.0052983628718416362 0 -0.011277882688399738 -0.0056495321236366232 0 -0.0097280553063878832 -0.0058683170059597584 0 -0.011555990534657975 -0.0068053691506591131 0 -0.011277882688399738 -0.0056495321236366232 0 -0.0076279721752760422 0.009738763133440376 0 -0.0072030689014804371 0.008445381847941965 0 -0.0042449533605004083 0.02119584720891949 0 -0.0031810507449417831 0.020780573280991976 0 -0.0036232464037812429 0.020133009035913349 0 -0.0042449533605004083 0.02119584720891949 0 -0.0032625268017311012 0.02176634962778971 0 -0.0031810507449417831 0.020780573280991976 0 -0.0076279721752760422 0.009738763133440376 0 -0.0017962885358917848 0.019989371721275226 0 -0.0012072475414488478 0.031862937633634146 0 -0.0012893470075551025 0.031616738542160933 0 -0.001058621736099555 0.031772946747373104 0 -0.0032625268017311012 0.02176634962778971 0 -0.0025719068412823659 0.021305652071250764 0 -0.0031810507449417831 0.020780573280991976 0 -0.0022626073669483834 0.022352128930119907 0 -0.0032625268017311012 0.02176634962778971 0 -0.0025719068412823659 0.021305652071250764 0 -0.0025719068412823659 0.021305652071250764 0 -0.0031810507449417831 0.020780573280991976 0 -0.0025591155002327431 0.020460836195364679 0 -0.0025591155002327431 0.020460836195364679 0 -0.001763375977983689 0.021011265400756055 0 -0.0020581640146590226 0.01996210223550713 0 -0.0011463566201262482 0.024970866011283611 0 -0.0011667741966758863 0.025835713114726128 0 -0.00080484176133651959 0.02658197867976643 0 -0.00079511703346325585 0.026690399396133727 0 -0.00093352975203382161 0.026346400000248613 0 -0.0025719068412823659 0.021305652071250764 0 -0.0025591155002327431 0.020460836195364679 0 -0.001763375977983689 0.021011265400756055 0 -0.00072007692470760091 0.026831236140239891 0 -0.00080484176133651959 0.02658197867976643 0 -0.00079511703346325585 0.026690399396133727 0 -0.0025719068412823659 0.021305652071250764 0 -0.001763375977983689 0.021011265400756055 0 -0.0020165650920808986 0.021717964908046374 0 -0.0022626073669483834 0.022352128930119907 0 -0.0025719068412823659 0.021305652071250764 0 -0.0020165650920808986 0.021717964908046374 0 -0.0014098151922167217 0.022249851411328375 0 -0.001763375977983689 0.021011265400756055 0 -0.0020165650920808986 0.021717964908046374 0 2.1925783484981815e-05 0.032833944703681707 0 0.00038318725344071032 0.032577376483545195 0 0.00033582429092660076 0.032342304615236232 0 -0.0020718614703349935 0.019223432231764977 0 -0.0023020436882993968 0.019191221593771127 0 -0.0022436448316438267 0.018555148899983914 0 -0.0023020436882993968 0.019191221593771127 0 -0.0021279299981548727 0.019826574793389791 0 -0.0028285035153473624 0.019850631147017954 0 -0.0015527433091139021 0.024123469367667533 0 -0.0011830870512345491 0.025685099970719431 0 -0.0023020436882993968 0.019191221593771127 0 -0.0019443129517473965 0.019831956338294449 0 -0.0020977533975822271 0.020052298812918163 0 -0.0020718614703349935 0.019223432231764977 0 -0.0023020436882993968 0.019191221593771127 0 -0.0019443129517473965 0.019831956338294449 0 -0.0019146208746808624 0.025071061883925376 0 -0.0012837540452250113 0.026744743137245272 0 -0.00055263054819491581 0.028131621006971069 0 -0.0010707281074394184 0.025607692402202623 0 -0.0012626723584744451 0.026371779762064909 0 -0.00064162257396367856 0.028529213395458136 0 -0.0012837540452250113 0.026744743137245272 0 -0.0010707281074394184 0.025607692402202623 0 -0.0012626723584744451 0.026371779762064909 0 -0.0013574002354247499 0.026018105484165065 0 -0.0012837540452250113 0.026744743137245272 0 -0.0011830870512345491 0.025685099970719431 0 -0.0011667741966758863 0.025835713114726128 0 -0.0011830870512345491 0.025685099970719431 0 -0.00064162257396367856 0.028529213395458136 0 -0.0011667741966758863 0.025835713114726128 0 -0.0025591155002327431 0.020460836195364679 0 -0.0020581640146590226 0.01996210223550713 0 -0.002095455824646905 0.019819979866604175 0 -0.0008106172057034879 0.024449789417254134 0 -0.0011830870512345491 0.025685099970719431 0 -0.0028285035153473624 0.019850631147017954 0 -0.0030293460928716327 0.019087591624942449 0 -0.0036232464037812429 0.020133009035913349 0 -0.0031810507449417831 0.020780573280991976 0 -0.0025591155002327431 0.020460836195364679 0 -0.0028285035153473624 0.019850631147017954 0 -0.0031810507449417831 0.020780573280991976 0 -0.0028285035153473624 0.019850631147017954 0 -0.0036232464037812429 0.020133009035913349 0 -0.0025591155002327431 0.020460836195364679 0 -0.0021279299981548727 0.019826574793389791 0 -0.0028285035153473624 0.019850631147017954 0 -0.0023020436882993968 0.019191221593771127 0 -0.0028285035153473624 0.019850631147017954 0 -0.0030293460928716327 0.019087591624942449 0 -0.0023020436882993968 0.019191221593771127 0 -0.0030293460928716327 0.019087591624942449 0 -0.0022436448316438267 0.018555148899983914 0 -0.0068739609707634533 0.0087261336288838344 0 -0.0072030689014804371 0.008445381847941965 0 -0.013445923863495841 -0.0036902410020379682 0 -0.012192400830984062 -0.0041223593082807923 0 -0.011685439449060713 -0.0030106757858805863 0 -0.013445923863495841 -0.0036902410020379682 0 -0.012192400830984062 -0.0041223593082807923 0 -0.012451928679735175 -0.0052983628718416362 0 -0.012192400830984062 -0.0041223593082807923 0 -0.012451928679735175 -0.0052983628718416362 0 -0.011216727612597573 -0.0044578159753414798 0 -0.012451928679735175 -0.0052983628718416362 0 -0.011277882688399738 -0.0056495321236366232 0 -0.011216727612597573 -0.0044578159753414798 0 -0.011216727612597573 -0.0044578159753414798 0 -0.011685439449060713 -0.0030106757858805863 0 -0.0098452219430568647 -0.0038004782508940446 0 -0.012192400830984062 -0.0041223593082807923 0 -0.011216727612597573 -0.0044578159753414798 0 -0.011685439449060713 -0.0030106757858805863 0 -0.010600023727838328 -0.0023085312974629657 0 -0.0098534341577680307 -0.0017205195496391569 0 -0.011982593372503871 -0.0011117669025635663 0 -0.0099840249682663414 -0.0015844119872487892 0 -0.01055940750723581 8.7545587556213484e-05 0 -0.011685439449060713 -0.0030106757858805863 0 -0.011982593372503871 -0.0011117669025635663 0 -0.0099840249682663414 -0.0015844119872487892 0 -0.011982593372503871 -0.0011117669025635663 0 -0.013014934257049412 -0.0022553154002378142 0 -0.013303912670684004 -0.0012003474423640495 0 -0.011982593372503871 -0.0011117669025635663 0 -0.013303912670684004 -0.0012003474423640495 0 -0.012969423255475754 -0.00027179226371581977 0 -0.013445923863495841 -0.0036902410020379682 0 -0.011685439449060713 -0.0030106757858805863 0 -0.013014934257049412 -0.0022553154002378142 0 -0.011685439449060713 -0.0030106757858805863 0 -0.011982593372503871 -0.0011117669025635663 0 -0.013014934257049412 -0.0022553154002378142 0 -0.0030293460928716327 0.019087591624942449 0 -0.0024418889032634234 0.017988189367974243 0 -0.0022436448316438267 0.018555148899983914 0 -0.0068739609707634533 0.0087261336288838344 0 -0.006020324975544715 0.010008849667618423 0 -0.013445923863495841 -0.0036902410020379682 0 -0.013014934257049412 -0.0022553154002378142 0 -0.014516029123028736 -0.0018751890676481052 0 -0.013303912670684004 -0.0012003474423640495 0 -0.014516029123028736 -0.0018751890676481052 0 -0.013996067855093351 -0.00052105139188266306 0 -0.013014934257049412 -0.0022553154002378142 0 -0.013303912670684004 -0.0012003474423640495 0 -0.014516029123028736 -0.0018751890676481052 0 -0.0016322139176851757 0.016952410906252935 0 -0.0019388618629880866 0.017473871564529862 0 -0.0018493331083371111 0.018080504637486006 0 -0.006020324975544715 0.010008849667618423 0 -0.0044051839864768455 0.013471460532629693 0 -0.0024418889032634234 0.017988189367974243 0 -0.0019388618629880866 0.017473871564529862 0 -0.0018326698885866805 0.016872827308801276 0 -0.014516029123028736 -0.0018751890676481052 0 -0.015550897554446273 -1.2168488438634122e-06 0 -0.013996067855093351 -0.00052105139188266306 0 -0.0024418889032634234 0.017988189367974243 0 -0.0019388618629880866 0.017473871564529862 0 -0.0018493331083371111 0.018080504637486006 0 2.1925783484981815e-05 0.032833944703681707 0 0.00038318725344071032 0.032577376483545195 0 0.0002342229974491344 0.033086381416146893 0 -0.0021009372284679887 0.019234203062229456 0 -0.0018493331083371111 0.018080504637486006 0 -0.0022436448316438267 0.018555148899983914 0 -0.0019146208746808624 0.025071061883925376 0 -0.0024959226461276377 0.022953115250225455 0 -0.0024418889032634234 0.017988189367974243 0 -0.0018493331083371111 0.018080504637486006 0 -0.0022436448316438267 0.018555148899983914 0 -0.0019146208746808624 0.025071061883925376 0 -0.0021442091650977968 0.023599051815143907 0 -0.0082274555854316353 -0.005089446095380994 0 -0.0098452219430568647 -0.0038004782508940446 0 -0.0077610997078431223 -0.0033741702931201377 0 -0.0064955822995677601 -0.0047756864236675051 0 -0.0063720408213076883 -0.0035901998421547184 0 -0.0077610997078431223 -0.0033741702931201377 0 -0.0064955822995677601 -0.0047756864236675051 0 -0.0082274555854316353 -0.005089446095380994 0 -0.0077610997078431223 -0.0033741702931201377 0 -0.0064955822995677601 -0.0047756864236675051 0 -0.006981477216771715 -0.0061546067580244591 0 -0.0082274555854316353 -0.005089446095380994 0 -0.0097280553063878832 -0.0058683170059597584 0 -0.0082274555854316353 -0.005089446095380994 0 -0.0098452219430568647 -0.0038004782508940446 0 -0.0097280553063878832 -0.0058683170059597584 0 -0.011216727612597573 -0.0044578159753414798 0 -0.0098452219430568647 -0.0038004782508940446 0 -0.0097280553063878832 -0.0058683170059597584 0 -0.011277882688399738 -0.0056495321236366232 0 -0.011216727612597573 -0.0044578159753414798 0 -0.0098452219430568647 -0.0038004782508940446 0 -0.0090156004671407726 -0.0023069633112207375 0 -0.0077610997078431223 -0.0033741702931201377 0 -0.011685439449060713 -0.0030106757858805863 0 -0.0098452219430568647 -0.0038004782508940446 0 -0.010465722637701612 -0.0019659642390515686 0 -0.0098452219430568647 -0.0038004782508940446 0 -0.010465722637701612 -0.0019659642390515686 0 -0.0090156004671407726 -0.0023069633112207375 0 -0.0098534341577680307 -0.0017205195496391569 0 -0.0083527334286855864 -0.00062704788168971542 0 -0.010465722637701612 -0.0019659642390515686 0 -0.0090156004671407726 -0.0023069633112207375 0 -0.0091906638287518432 -0.00079772279782067536 0 -0.0090156004671407726 -0.0023069633112207375 0 -0.0077753808309778804 -0.0015798081911933758 0 -0.0091906638287518432 -0.00079772279782067536 0 -0.0090156004671407726 -0.0023069633112207375 0 -0.0077753808309778804 -0.0015798081911933758 0 -0.0077610997078431223 -0.0033741702931201377 0 -0.0064589079152449318 -0.0025415647766655431 0 -0.0077753808309778804 -0.0015798081911933758 0 -0.0077610997078431223 -0.0033741702931201377 0 -0.0063720408213076883 -0.0035901998421547184 0 -0.0064589079152449318 -0.0025415647766655431 0 -0.0077610997078431223 -0.0033741702931201377 0 -0.0064589079152449318 -0.0025415647766655431 0 -0.0077753808309778804 -0.0015798081911933758 0 -0.0061995269821637508 -0.00082418827814968504 0 -0.0077753808309778804 -0.0015798081911933758 0 -0.0078686887156916366 0.00039080937137158918 0 -0.0061995269821637508 -0.00082418827814968504 0 -0.0062428332705795567 0.00072179568584446381 0 -0.0044833942345044652 -0.0010272945310430379 0 -0.0045762929086318876 -0.00040345386482646051 0 -0.0047269043889511314 -0.00053410579606669065 0 -0.0031213936447235979 -0.0017671815525921917 0 -0.003683604644913688 -0.0001546137494248895 0 -0.0045762929086318876 -0.00040345386482646051 0 -0.0031213936447235979 -0.0017671815525921917 0 -0.003683604644913688 -0.0001546137494248895 0 -0.0045762929086318876 -0.00040345386482646051 0 -0.0043884606474094761 1.121582047122036e-05 0 -0.0047758864817377357 -0.00013222887895106104 0 -0.0047249872641572455 -0.00053169202659605994 0 -0.0052133085377942708 0.00018357169904826713 0 -0.0046196433572707855 -7.3775501340550309e-05 0 -0.0045762929086318876 -0.00040345386482646051 0 -0.0043884606474094761 1.121582047122036e-05 0 -0.0047758864817377357 -0.00013222887895106104 0 -0.0046196433572707855 -7.3775501340550309e-05 0 -0.0045762929086318876 -0.00040345386482646051 0 -0.0047758864817377357 -0.00013222887895106104 0 -0.0045762929086318876 -0.00040345386482646051 0 -0.0047249872641572455 -0.00053169202659605994 0 -0.0062339736154510637 0.00072083601085344616 0 -0.0062428332705795567 0.00072179568584446381 0 -0.0077753808309778804 -0.0015798081911933758 0 -0.0078686887156916366 0.00039080937137158918 0 -0.0091906638287518432 -0.00079772279782067536 0 -0.0062428332705795567 0.00072179568584446381 0 -0.0083527334286855864 -0.00062704788168971542 0 -0.0083540390289449477 -0.00017196229571680725 0 -0.0094652295707893363 0.0011628662637341771 0 -0.01055940750723581 8.7545587556213484e-05 0 -0.0099840249682663414 -0.0015844119872487892 0 -0.0083540390289449477 -0.00017196229571680725 0 -0.01055940750723581 8.7545587556213484e-05 0 -0.0094652295707893363 0.0011628662637341771 0 -0.0086597370261427848 0.0027086343407960183 0 -0.010999837882897039 0.001793467200274756 0 -0.0094652295707893363 0.0011628662637341771 0 -0.01055940750723581 8.7545587556213484e-05 0 -0.010999837882897039 0.001793467200274756 0 -0.0094652295707893363 0.0011628662637341771 0 -0.0083526387569815164 0.0012521716505612787 0 -0.0086597370261427848 0.0027086343407960183 0 -0.0067334324459189651 0.0012378103980639804 0 -0.0083540390289449477 -0.00017196229571680725 0 -0.0083526387569815164 0.0012521716505612787 0 -0.0067334324459189651 0.0012378103980639804 0 -0.0083526387569815164 0.0012521716505612787 0 -0.0086597370261427848 0.0027086343407960183 0 -0.0083540390289449477 -0.00017196229571680725 0 -0.0094652295707893363 0.0011628662637341771 0 -0.0083526387569815164 0.0012521716505612787 0 -0.0052472988969194676 0.0028467395354539599 0 -0.0038534270109774425 0.0031092321748628624 0 -0.0062472000694396811 0.00063817008540346107 0 -0.0052133085377942708 0.00018357169904826713 0 -0.0051866365861472901 0.0010500072239894073 0 -0.0015767506552582674 0.0051071238804758692 0 -0.0016474205597322978 0.0051622507304564308 0 -0.0017285835084447077 0.0051448351759759798 0 -0.0015767506552582674 0.0051071238804758692 0 -0.0017432065005073142 0.0050489981699550083 0 -0.0017285835084447077 0.0051448351759759798 0 -0.0052472988969194676 0.0028467395354539599 0 -0.0065348964426914851 0.0044889819637864313 0 -0.0052472988969194676 0.0028467395354539599 0 -0.0045938550371047134 0.0028625354717602808 0 -0.0016474205597322978 0.0051622507304564308 0 -0.0015075247638782834 0.0051749898323840181 0 -0.0016787072317480305 0.0052821848216100835 0 -0.0015338747286516607 0.005047130831541906 0 -0.0016474205597322978 0.0051622507304564308 0 -0.0015075247638782834 0.0051749898323840181 0 -0.0015338747286516607 0.005047130831541906 0 -0.0015075247638782834 0.0051749898323840181 0 -0.0014062741331489128 0.0050837924725637192 0 -0.0015075247638782834 0.0051749898323840181 0 -0.0014062741331489128 0.0050837924725637192 0 -0.001361854649447529 0.005164214599827464 0 -0.0013247223217856109 0.0051090848902586184 0 -0.0014062741331489128 0.0050837924725637192 0 -0.001361854649447529 0.005164214599827464 0 -0.0029765363030278612 0.0032306077273215363 0 -0.0038534270109774425 0.0031092321748628624 0 -0.0029765363030278612 0.0032306077273215363 0 -0.0028635146690070886 0.0034531992112645342 0 -0.0012709027055226628 0.004989538486293168 0 -0.0012275735068277213 0.0051894449052614323 0 -0.0011268177862606376 0.0049499040575040742 0 -0.0029765363030278612 0.0032306077273215363 0 -0.0022644221114122313 0.003800163098594731 0 -0.003683604644913688 -0.0001546137494248895 0 -0.004316360596628612 0.00052307957208898813 0 -0.0027675182488102099 -2.0440989338424987e-05 0 -0.0041224635570190704 0.001467353770349107 0 -0.004316360596628612 0.00052307957208898813 0 -0.0027675182488102099 -2.0440989338424987e-05 0 -0.0029765363030278612 0.0032306077273215363 0 -0.0024570184749949306 0.00091886815744711544 0 -0.003683604644913688 -0.0001546137494248895 0 -0.004316360596628612 0.00052307957208898813 0 -0.0043884606474094761 1.121582047122036e-05 0 -0.004316360596628612 0.00052307957208898813 0 -0.0043884606474094761 1.121582047122036e-05 0 -0.0047380329259630602 0.00022919878369833272 0 -0.0062428332705795567 0.00072179568584446381 0 -0.0052472988969194676 0.0028467395354539599 0 -0.0047249872641572455 -0.00053169202659605994 0 -0.0062472000694396811 0.00063817008540346107 0 -0.0052133085377942708 0.00018357169904826713 0 -0.0046196433572707855 -7.3775501340550309e-05 0 -0.0043884606474094761 1.121582047122036e-05 0 -0.0047380329259630602 0.00022919878369833272 0 -0.0047758864817377357 -0.00013222887895106104 0 -0.0046196433572707855 -7.3775501340550309e-05 0 -0.0047380329259630602 0.00022919878369833272 0 -0.0047758864817377357 -0.00013222887895106104 0 -0.0047380329259630602 0.00022919878369833272 0 -0.0052133085377942708 0.00018357169904826713 0 -0.0047380329259630602 0.00022919878369833272 0 -0.0052133085377942708 0.00018357169904826713 0 -0.0051866365861472901 0.0010500072239894073 0 -0.0041224635570190704 0.001467353770349107 0 -0.004316360596628612 0.00052307957208898813 0 -0.0051866365861472901 0.0010500072239894073 0 -0.004316360596628612 0.00052307957208898813 0 -0.0047380329259630602 0.00022919878369833272 0 -0.0051866365861472901 0.0010500072239894073 0 -0.0023830103461838833 0.0050493272019812383 0 -0.0022603711829914594 0.0050401339112669851 0 -0.0021601470992224834 0.0048779474200445067 0 -0.0032211377190492518 0.014171492251133136 0 -0.0048435272157158664 0.011324494232258463 0 -0.0021704255776962065 0.0050429845033774373 0 -0.0021601470992224834 0.0048779474200445067 0 -0.0020452051408242911 0.005047298912654089 0 -0.0022603711829914594 0.0050401339112669851 0 -0.0021704255776962065 0.0050429845033774373 0 -0.0022436109427612307 0.0051178319270492418 0 -0.0022603711829914594 0.0050401339112669851 0 -0.0021704255776962065 0.0050429845033774373 0 -0.0021601470992224834 0.0048779474200445067 0 -0.0046972474859804259 0.013362482174908373 0 -0.0042482628720084698 0.012573990845017985 0 -0.003561310559927546 0.012840241308957143 0 -0.015550897554446273 -1.2168488438634122e-06 0 -0.014672389403426248 0.0003335981614934795 0 -0.013996067855093351 -0.00052105139188266306 0 -0.0044051839864768455 0.013471460532629693 0 -0.0048435272157158664 0.011324494232258463 0 -0.0016322139176851757 0.016952410906252935 0 -0.0019388618629880866 0.017473871564529862 0 -0.0018326698885866805 0.016872827308801276 0 -0.013996067855093351 -0.00052105139188266306 0 -0.013302974617490896 0.00087358907536677166 0 -0.012969423255475754 -0.00027179226371581977 0 -0.014672389403426248 0.0003335981614934795 0 -0.013996067855093351 -0.00052105139188266306 0 -0.013302974617490896 0.00087358907536677166 0 -0.013303912670684004 -0.0012003474423640495 0 -0.013996067855093351 -0.00052105139188266306 0 -0.012969423255475754 -0.00027179226371581977 0 -0.0048435272157158664 0.011324494232258463 0 -0.0070113240739284747 0.0073206093383105658 0 -0.0019816352997155651 0.0049491126919314716 0 -0.0020452051408242911 0.005047298912654089 0 -0.0019096061914094381 0.0051335282452975939 0 -0.0021601470992224834 0.0048779474200445067 0 -0.0019816352997155651 0.0049491126919314716 0 -0.0020452051408242911 0.005047298912654089 0 -0.0070113240739284747 0.0073206093383105658 0 -0.0065348964426914851 0.0044889819637864313 0 -0.013302974617490896 0.00087358907536677166 0 -0.011972363242626625 0.00028199101498701585 0 -0.010999837882897039 0.001793467200274756 0 -0.0019816352997155651 0.0049491126919314716 0 -0.0017432065005073142 0.0050489981699550083 0 -0.0019096061914094381 0.0051335282452975939 0 -0.013302974617490896 0.00087358907536677166 0 -0.011972363242626625 0.00028199101498701585 0 -0.012969423255475754 -0.00027179226371581977 0 -0.011982593372503871 -0.0011117669025635663 0 -0.011972363242626625 0.00028199101498701585 0 -0.012969423255475754 -0.00027179226371581977 0 -0.011982593372503871 -0.0011117669025635663 0 -0.011972363242626625 0.00028199101498701585 0 -0.01055940750723581 8.7545587556213484e-05 0 -0.011972363242626625 0.00028199101498701585 0 -0.01055940750723581 8.7545587556213484e-05 0 -0.010999837882897039 0.001793467200274756 0 -0.0017285835084447077 0.0051448351759759798 0 -0.0017924136699804482 0.0052478845500058416 0 -0.0019096061914094381 0.0051335282452975939 0 -0.0017432065005073142 0.0050489981699550083 0 -0.0017285835084447077 0.0051448351759759798 0 -0.0019096061914094381 0.0051335282452975939 0 -0.0016474205597322978 0.0051622507304564308 0 -0.0017285835084447077 0.0051448351759759798 0 -0.0017924136699804482 0.0052478845500058416 0 -0.0016474205597322978 0.0051622507304564308 0 -0.0017924136699804482 0.0052478845500058416 0 -0.0016787072317480305 0.0052821848216100835 0 -0.0017924136699804482 0.0052478845500058416 0 -0.0019110534329046726 0.0052668790915436853 0 -0.0019096061914094381 0.0051335282452975939 0 -0.0017924136699804482 0.0052478845500058416 0 -0.0018400715334306675 0.0053409800046261202 0 -0.001782598661220453 0.0053311306765948824 0 -0.0017924136699804482 0.0052478845500058416 0 -0.0019110534329046726 0.0052668790915436853 0 -0.0018400715334306675 0.0053409800046261202 0 -0.0019110534329046726 0.0052668790915436853 0 -0.0019038644121948602 0.0054100734963356172 0 -0.0018400715334306675 0.0053409800046261202 0 -0.0020452051408242911 0.005047298912654089 0 -0.0019096061914094381 0.0051335282452975939 0 -0.0020112977594900412 0.0051870269995970128 0 -0.0020452051408242911 0.005047298912654089 0 -0.0020112977594900412 0.0051870269995970128 0 -0.0021278833381938216 0.0051415487165764147 0 -0.0021704255776962065 0.0050429845033774373 0 -0.0020452051408242911 0.005047298912654089 0 -0.0021278833381938216 0.0051415487165764147 0 -0.0020112977594900412 0.0051870269995970128 0 -0.0020627232586711217 0.0052850580246610671 0 -0.0021278833381938216 0.0051415487165764147 0 -0.0019110534329046726 0.0052668790915436853 0 -0.0019096061914094381 0.0051335282452975939 0 -0.0020112977594900412 0.0051870269995970128 0 -0.0019110534329046726 0.0052668790915436853 0 -0.0020112977594900412 0.0051870269995970128 0 -0.0020627232586711217 0.0052850580246610671 0 -0.0019110534329046726 0.0052668790915436853 0 -0.0020627232586711217 0.0052850580246610671 0 -0.0019038644121948602 0.0054100734963356172 0 -0.0020627232586711217 0.0052850580246610671 0 -0.0021880208511692238 0.0053348382118360823 0 -0.0020808648327217882 0.00548539867390151 0 -0.0020627232586711217 0.0052850580246610671 0 -0.0021880208511692238 0.0053348382118360823 0 -0.0022127135546717901 0.0052159697273272453 0 -0.0023035297408796275 0.0053050680608836883 0 -0.0021880208511692238 0.0053348382118360823 0 -0.002263481895391271 0.0054418818501299508 0 -0.0023035297408796275 0.0053050680608836883 0 -0.0021880208511692238 0.0053348382118360823 0 -0.0022127135546717901 0.0052159697273272453 0 -0.0023216911738101159 0.0052002357408191795 0 -0.0023035297408796275 0.0053050680608836883 0 -0.0022127135546717901 0.0052159697273272453 0 -0.0023216911738101159 0.0052002357408191795 0 -0.0022127135546717901 0.0052159697273272453 0 -0.0022436109427612307 0.0051178319270492418 0 -0.0020627232586711217 0.0052850580246610671 0 -0.0022127135546717901 0.0052159697273272453 0 -0.0021278833381938216 0.0051415487165764147 0 -0.0022127135546717901 0.0052159697273272453 0 -0.0021278833381938216 0.0051415487165764147 0 -0.0022436109427612307 0.0051178319270492418 0 -0.0021704255776962065 0.0050429845033774373 0 -0.0021278833381938216 0.0051415487165764147 0 -0.0022436109427612307 0.0051178319270492418 0 -0.0023307808414034814 0.0051156437248688963 0 -0.0022603711829914594 0.0050401339112669851 0 -0.0022436109427612307 0.0051178319270492418 0 -0.0022092745436534202 0.005665558704277626 0 -0.0020808648327217882 0.00548539867390151 0 -0.002002955413894887 0.0057591804576702516 0 -0.0023990405130597382 0.0057978808445360254 0 -0.0022092745436534202 0.005665558704277626 0 -0.002104925066304681 0.00601446702570437 0 -0.0022092745436534202 0.005665558704277626 0 -0.002002955413894887 0.0057591804576702516 0 -0.002104925066304681 0.00601446702570437 0 -0.0022092745436534202 0.005665558704277626 0 -0.002263481895391271 0.0054418818501299508 0 -0.0020808648327217882 0.00548539867390151 0 -0.0021880208511692238 0.0053348382118360823 0 -0.002263481895391271 0.0054418818501299508 0 -0.0020808648327217882 0.00548539867390151 0 -0.0020627232586711217 0.0052850580246610671 0 -0.0020808648327217882 0.00548539867390151 0 -0.0019038644121948602 0.0054100734963356172 0 -0.0020808648327217882 0.00548539867390151 0 -0.0019038644121948602 0.0054100734963356172 0 -0.0018806670475896257 0.0056358944084245726 0 -0.002002955413894887 0.0057591804576702516 0 -0.0018806670475896257 0.0056358944084245726 0 -0.001753866077235349 0.0059803804134902026 0 -0.0020808648327217882 0.00548539867390151 0 -0.002002955413894887 0.0057591804576702516 0 -0.0018806670475896257 0.0056358944084245726 0 -0.0015350327245893037 0.0056206543674848057 0 -0.0013949710474262685 0.00573629118929377 0 -0.001576072626609969 0.005816555353728165 0 -0.0016740806208336975 0.0056186414126069423 0 -0.0016963447511717999 0.0058966911743207253 0 -0.0018806670475896257 0.0056358944084245726 0 -0.0016793444769928592 0.0055878036111241779 0 -0.001753866077235349 0.0059803804134902026 0 -0.0019038644121948602 0.0054100734963356172 0 -0.0018806670475896257 0.0056358944084245726 0 -0.0016793444769928592 0.0055878036111241779 0 -0.0017385332729020807 0.0055628597748886514 0 -0.0016740806208336975 0.0056186414126069423 0 -0.0019038644121948602 0.0054100734963356172 0 -0.0018400715334306675 0.0053409800046261202 0 -0.0018330444010859408 0.0053897598673291799 0 -0.0018400715334306675 0.0053409800046261202 0 -0.0018330444010859408 0.0053897598673291799 0 -0.001782598661220453 0.0053311306765948824 0 -0.0017924136699804482 0.0052478845500058416 0 -0.001782598661220453 0.0053311306765948824 0 -0.0016787072317480305 0.0052821848216100835 0 -0.0018330444010859408 0.0053897598673291799 0 -0.001782598661220453 0.0053311306765948824 0 -0.0017571176607129703 0.0053797623398041837 0 -0.001782598661220453 0.0053311306765948824 0 -0.0017571176607129703 0.0053797623398041837 0 -0.0016787072317480305 0.0052821848216100835 0 -0.0016740806208336975 0.0056186414126069423 0 -0.0015757902065525887 0.0056599490030230116 0 -0.0017571176607129703 0.0053797623398041837 0 -0.0017345861479707383 0.0054709328505055214 0 -0.0016593276698506187 0.0053728557304749663 0 -0.0018330444010859408 0.0053897598673291799 0 -0.0017571176607129703 0.0053797623398041837 0 -0.0017345861479707383 0.0054709328505055214 0 -0.0013949710474262685 0.00573629118929377 0 -0.0014356479477099829 0.0058912719133071218 0 -0.001576072626609969 0.005816555353728165 0 -0.0014356479477099829 0.0058912719133071218 0 -0.0016384178123841659 0.0060291941855745547 0 -0.0013463615394294407 0.0060478601128685604 0 -0.0016963447511717999 0.0058966911743207253 0 -0.0017363849178555653 0.0061802609790338314 0 -0.0014356479477099829 0.0058912719133071218 0 -0.001576072626609969 0.005816555353728165 0 -0.0016384178123841659 0.0060291941855745547 0 -0.002002955413894887 0.0057591804576702516 0 -0.001753866077235349 0.0059803804134902026 0 -0.002104925066304681 0.00601446702570437 0 -0.001753866077235349 0.0059803804134902026 0 -0.002104925066304681 0.00601446702570437 0 -0.0018217845487151858 0.0063311526657903218 0 -0.002104925066304681 0.00601446702570437 0 -0.0021997452229101928 0.0064084974232126177 0 -0.0018217845487151858 0.0063311526657903218 0 -0.0024501466976487346 0.0061013099190419164 0 -0.002104925066304681 0.00601446702570437 0 -0.0021997452229101928 0.0064084974232126177 0 -0.0013685979599448335 0.0053497483664147047 0 -0.0013148559784842636 0.0055962440754509235 0 -0.0011867549409372397 0.0054682301407326878 0 -0.0013685979599448335 0.0053497483664147047 0 -0.0012275735068277213 0.0051894449052614323 0 -0.0011867549409372397 0.0054682301407326878 0 -0.0012275735068277213 0.0051894449052614323 0 -0.0011867549409372397 0.0054682301407326878 0 -0.0010324589016484534 0.0052493230862932947 0 -0.0012709027055226628 0.004989538486293168 0 -0.0012275735068277213 0.0051894449052614323 0 -0.001361854649447529 0.005164214599827464 0 -0.0013685979599448335 0.0053497483664147047 0 -0.001361854649447529 0.005164214599827464 0 -0.0014541074013712568 0.0052376554484005562 0 -0.0013685979599448335 0.0053497483664147047 0 -0.0012275735068277213 0.0051894449052614323 0 -0.001361854649447529 0.005164214599827464 0 -0.0013685979599448335 0.0053497483664147047 0 -0.0014541074013712568 0.0052376554484005562 0 -0.0015551091502710923 0.0053097759202029885 0 -0.0015075247638782834 0.0051749898323840181 0 -0.001361854649447529 0.005164214599827464 0 -0.0014541074013712568 0.0052376554484005562 0 -0.0015075247638782834 0.0051749898323840181 0 -0.0014541074013712568 0.0052376554484005562 0 -0.0015551091502710923 0.0053097759202029885 0 -0.0015075247638782834 0.0051749898323840181 0 -0.0015551091502710923 0.0053097759202029885 0 -0.0016787072317480305 0.0052821848216100835 0 -0.0015551091502710923 0.0053097759202029885 0 -0.0016787072317480305 0.0052821848216100835 0 -0.0016593276698506187 0.0053728557304749663 0 -0.0017571176607129703 0.0053797623398041837 0 -0.0016787072317480305 0.0052821848216100835 0 -0.0016593276698506187 0.0053728557304749663 0 -0.0017345861479707383 0.0054709328505055214 0 -0.0016593276698506187 0.0053728557304749663 0 -0.0015488872614274171 0.0054462708649591065 0 -0.0015551091502710923 0.0053097759202029885 0 -0.0016593276698506187 0.0053728557304749663 0 -0.0015488872614274171 0.0054462708649591065 0 -0.0013685979599448335 0.0053497483664147047 0 -0.0015488872614274171 0.0054462708649591065 0 -0.0013148559784842636 0.0055962440754509235 0 -0.0013685979599448335 0.0053497483664147047 0 -0.0015551091502710923 0.0053097759202029885 0 -0.0015488872614274171 0.0054462708649591065 0 -0.0015840340089994717 0.0056338311000860321 0 -0.0012721230362223578 0.0058831863614377949 0 -0.0013148559784842636 0.0055962440754509235 0 -0.0015488872614274171 0.0054462708649591065 0 -0.0015840340089994717 0.0056338311000860321 0 -0.0013148559784842636 0.0055962440754509235 0 -0.0017345861479707383 0.0054709328505055214 0 -0.0015488872614274171 0.0054462708649591065 0 -0.0015840340089994717 0.0056338311000860321 0 -0.0015757902065525887 0.0056599490030230116 0 -0.0014602803973251487 0.0057407603584870457 0 -0.0013949710474262685 0.00573629118929377 0 -0.0014356479477099829 0.0058912719133071218 0 -0.0012726085778777105 0.0058536228432454745 0 -0.0014356479477099829 0.0058912719133071218 0 -0.0012726085778777105 0.0058536228432454745 0 -0.0013463615394294407 0.0060478601128685604 0 -0.0012726085778777105 0.0058536228432454745 0 -0.0013463615394294407 0.0060478601128685604 0 -0.0012354472968303025 0.0060313918347726647 0 -0.0014602803973251487 0.0057407603584870457 0 -0.0013957811275676065 0.0057907900565861183 0 -0.0012726085778777105 0.0058536228432454745 0 -0.0012721230362223578 0.0058831863614377949 0 -0.0012354472968303025 0.0060313918347726647 0 -0.0012721230362223578 0.0058831863614377949 0 -0.0013148559784842636 0.0055962440754509235 0 -0.0011173001265469464 0.0058079165965555634 0 -0.0013148559784842636 0.0055962440754509235 0 -0.0011867549409372397 0.0054682301407326878 0 -0.0011173001265469464 0.0058079165965555634 0 -0.0011867549409372397 0.0054682301407326878 0 -0.0011173001265469464 0.0058079165965555634 0 -0.0010208139839858693 0.0056082760088686104 0 -0.0011173001265469464 0.0058079165965555634 0 -0.00087475559044517264 0.0058465792053752257 0 -0.0010208139839858693 0.0056082760088686104 0 -0.00087475559044517264 0.0058465792053752257 0 -0.00082211309586038828 0.0056087823875623369 0 -0.0010208139839858693 0.0056082760088686104 0 -0.00071453384310301627 0.0057218187028153008 0 -0.00062534648259740858 0.0058348540274420838 0 -0.00087475559044517264 0.0058465792053752257 0 -0.00082211309586038828 0.0056087823875623369 0 -0.00061084939013837647 0.0058758841407587662 0 -0.00082211309586038828 0.0056087823875623369 0 -0.0010324589016484534 0.0052493230862932947 0 -0.00081715146280572594 0.0053719908363620691 0 -0.00082211309586038828 0.0056087823875623369 0 -0.00061918430637777672 0.0054777541590369594 0 -0.00081715146280572594 0.0053719908363620691 0 -0.00082211309586038828 0.0056087823875623369 0 -0.0010208139839858693 0.0056082760088686104 0 -0.0010324589016484534 0.0052493230862932947 0 -0.0011867549409372397 0.0054682301407326878 0 -0.0010208139839858693 0.0056082760088686104 0 -0.0010324589016484534 0.0052493230862932947 0 -0.00053709425202832996 0.0056041272543442596 0 -0.00037996651887556456 0.0056922206358779722 0 -0.00047970308796391767 0.0058159414662010836 0 -0.00053709425202832996 0.0056041272543442596 0 -0.00047970308796391767 0.0058159414662010836 0 -0.0006094132483859037 0.0057840487857327523 0 -0.00082211309586038828 0.0056087823875623369 0 -0.00053709425202832996 0.0056041272543442596 0 -0.0006094132483859037 0.0057840487857327523 0 -0.00082211309586038828 0.0056087823875623369 0 -0.00061918430637777672 0.0054777541590369594 0 -0.00053709425202832996 0.0056041272543442596 0 -0.00061918430637777672 0.0054777541590369594 0 -0.00053709425202832996 0.0056041272543442596 0 -0.00049691161915690939 0.0054708017639804917 0 -0.00053709425202832996 0.0056041272543442596 0 -0.00041313482653151191 0.0054370686954778105 0 -0.00037996651887556456 0.0056922206358779722 0 0.0018731367958077034 -0.0032809793448689401 0 0.0012019545863242841 -0.0015542727876845205 0 -0.00053709425202832996 0.0056041272543442596 0 -0.00049691161915690939 0.0054708017639804917 0 -0.00041313482653151191 0.0054370686954778105 0 0.0015976211461689021 -0.0029857138588205421 0 0.0010316991986721469 -0.0028201442259068073 0 0.0018731367958077034 -0.0032809793448689401 0 0.0010316991986721469 -0.0028201442259068073 0 0.0016735735496616303 -0.0031657528739499276 0 0.0017068039349010223 -0.0030136466177578926 0 0.0014257546323674785 -0.0030782422166496645 0 -0.00049691161915690939 0.0054708017639804917 0 -0.00041313482653151191 0.0054370686954778105 0 -0.00052133912645284397 0.0054010086905739918 0 0.0015976211461689021 -0.0029857138588205421 0 0.0018731367958077034 -0.0032809793448689401 0 0.0037160619076501847 -0.007118376260254417 0 0.003628192009849911 -0.0075369598639728327 0 0.0033194439945716525 -0.007220783515719636 0 0.00087851279171844516 0.0051826148345994376 0 -0.00052133912645284397 0.0054010086905739918 0 -0.00034200895796106538 0.0048189648501649049 0 -0.00061918430637777672 0.0054777541590369594 0 -0.00049691161915690939 0.0054708017639804917 0 -0.00052133912645284397 0.0054010086905739918 0 -0.00061918430637777672 0.0054777541590369594 0 -0.00052133912645284397 0.0054010086905739918 0 -0.00081715146280572594 0.0053719908363620691 0 -0.00052133912645284397 0.0054010086905739918 0 -0.00034200895796106538 0.0048189648501649049 0 -0.00085104731607602013 0.0051386678652647821 0 -0.00052133912645284397 0.0054010086905739918 0 -0.00081715146280572594 0.0053719908363620691 0 -0.00085104731607602013 0.0051386678652647821 0 -0.00034200895796106538 0.0048189648501649049 0 -0.00053543636520574978 0.003392790848086608 0 0.00075628110258793926 0.0036269027671483271 0 -0.00034200895796106538 0.0048189648501649049 0 -0.0011150802158519293 0.004669896822172225 0 -0.00053543636520574978 0.003392790848086608 0 -0.00034200895796106538 0.0048189648501649049 0 -0.00085104731607602013 0.0051386678652647821 0 -0.0011150802158519293 0.004669896822172225 0 0.00087851279171844516 0.0051826148345994376 0 -0.00034200895796106538 0.0048189648501649049 0 0.00075628110258793926 0.0036269027671483271 0 0.0039168934113847816 -0.0069566633441027498 0 0.0040866827465400367 -0.0062100642474455878 0 0.0035375336774879293 -0.0063489520862911302 0 0.0015976211461689021 -0.0029857138588205421 0 0.0017869458802703586 -0.0018819207878140998 0 -0.0010324589016484534 0.0052493230862932947 0 -0.00081715146280572594 0.0053719908363620691 0 -0.00085104731607602013 0.0051386678652647821 0 -0.0010324589016484534 0.0052493230862932947 0 -0.00085104731607602013 0.0051386678652647821 0 -0.0011150802158519293 0.004669896822172225 0 -0.0018301148589443873 0.004045119129644139 0 -0.0022644221114122313 0.003800163098594731 0 -0.0010324589016484534 0.0052493230862932947 0 -0.0011150802158519293 0.004669896822172225 0 -0.0011268177862606376 0.0049499040575040742 0 -0.0012275735068277213 0.0051894449052614323 0 -0.0010324589016484534 0.0052493230862932947 0 -0.0011268177862606376 0.0049499040575040742 0 -0.0035150417448461977 0.0038156074667998153 0 -0.0019367139105271774 0.0025899563290036837 0 -0.0034839102428998138 0.00061975531823295154 0 -0.0056322378575489294 0.0029868216653473677 0 -0.0035150417448461977 0.0038156074667998153 0 -0.0034839102428998138 0.00061975531823295154 0 -0.0019250809409801877 0.0011148085678154955 0 -0.0019367139105271774 0.0025899563290036837 0 -0.0034839102428998138 0.00061975531823295154 0 -0.0019250809409801877 0.0011148085678154955 0 -0.00096480719707711454 0.0018812701440951824 0 -0.00092460905427036398 0.00071990751116132615 0 -0.0019250809409801877 0.0011148085678154955 0 -0.0019367139105271774 0.0025899563290036837 0 -0.00096480719707711454 0.0018812701440951824 0 -0.0019367139105271774 0.0025899563290036837 0 -0.00053543636520574978 0.003392790848086608 0 -0.00096480719707711454 0.0018812701440951824 0 -0.0011150802158519293 0.004669896822172225 0 -0.0035150417448461977 0.0038156074667998153 0 -0.0019367139105271774 0.0025899563290036837 0 -0.0011150802158519293 0.004669896822172225 0 -0.0019367139105271774 0.0025899563290036837 0 -0.00053543636520574978 0.003392790848086608 0 -0.00053543636520574978 0.003392790848086608 0 0.00075628110258793926 0.0036269027671483271 0 5.330118147079241e-05 0.002123448801713522 0 -0.00053543636520574978 0.003392790848086608 0 -0.00096480719707711454 0.0018812701440951824 0 5.330118147079241e-05 0.002123448801713522 0 0.0040866827465400367 -0.0062100642474455878 0 0.0039107999217929844 -0.0056919867749767906 0 0.0042590137232814823 -0.0054487289980874798 0 0.00075628110258793926 0.0036269027671483271 0 0.00049012586869134173 0.0015983923753805143 0 5.330118147079241e-05 0.002123448801713522 0 0.0040866827465400367 -0.0062100642474455878 0 0.0035441775354816659 -0.0057590380989045826 0 0.0035375336774879293 -0.0063489520862911302 0 0.0017869458802703586 -0.0018819207878140998 0 0.0015666207194463011 -0.0018194110712611788 0 0.0040866827465400367 -0.0062100642474455878 0 0.0039107999217929844 -0.0056919867749767906 0 0.0035441775354816659 -0.0057590380989045826 0 0.0042590137232814823 -0.0054487289980874798 0 0.0037523038590819608 -0.0053470427223271605 0 0.0037184174904967451 -0.0047688959846095159 0 0.0039107999217929844 -0.0056919867749767906 0 0.0037523038590819608 -0.0053470427223271605 0 0.0035441775354816659 -0.0057590380989045826 0 0.0039107999217929844 -0.0056919867749767906 0 0.0042590137232814823 -0.0054487289980874798 0 0.0037523038590819608 -0.0053470427223271605 0 0.00052742859163117703 0.0014745414588398472 0 -0.00028986758179208908 0.0011634979533887641 0 -0.00014960394406908248 -0.0003153715994456047 0 -0.00096480719707711454 0.0018812701440951824 0 5.330118147079241e-05 0.002123448801713522 0 -0.00028986758179208908 0.0011634979533887641 0 0.00052742859163117703 0.0014745414588398472 0 5.330118147079241e-05 0.002123448801713522 0 -0.00028986758179208908 0.0011634979533887641 0 0.0015666207194463011 -0.0018194110712611788 0 0.001411185938396603 -0.0015897544682036539 0 -0.00096480719707711454 0.0018812701440951824 0 -0.00028986758179208908 0.0011634979533887641 0 -0.00092460905427036398 0.00071990751116132615 0 0.0015666207194463011 -0.0018194110712611788 0 0.0015000746894836406 -0.001223134965879591 0 -0.00014960394406908248 -0.0003153715994456047 0 -0.00012087141828975452 -0.0014784919516532948 0 -0.0012966924957026581 -0.00017238671050616206 0 -0.00092460905427036398 0.00071990751116132615 0 -0.00014960394406908248 -0.0003153715994456047 0 -0.0012966924957026581 -0.00017238671050616206 0 -0.00028986758179208908 0.0011634979533887641 0 -0.00092460905427036398 0.00071990751116132615 0 -0.00014960394406908248 -0.0003153715994456047 0 0.00011285510315124911 0.00087306093234179138 0 -0.00014960394406908248 -0.0003153715994456047 0 0.0012138907712595894 -0.00057425276607521079 0 0.0015666207194463011 -0.0018194110712611788 0 0.0022116885432215184 -0.0025809780057361653 0 -0.00014960394406908248 -0.0003153715994456047 0 -0.00012087141828975452 -0.0014784919516532948 0 0.0012138907712595894 -0.00057425276607521079 0 0.0010940888204256166 -0.0030184863244472455 0 0.00052652284084704875 -0.0023828640468337046 0 0.0013457589999252922 -0.0032430616801780322 0 -0.00012087141828975452 -0.0014784919516532948 0 0.0011839166025842736 -0.0019037710081900806 0 -0.00012087141828975452 -0.0014784919516532948 0 0.0011839166025842736 -0.0019037710081900806 0 0.0012138907712595894 -0.00057425276607521079 0 -0.00014946215432280136 -0.0029907853211699705 0 -0.00012087141828975452 -0.0014784919516532948 0 -0.0014845087966728749 -0.0014953809331299042 0 -0.00012087141828975452 -0.0014784919516532948 0 -0.0014845087966728749 -0.0014953809331299042 0 -0.0012966924957026581 -0.00017238671050616206 0 -0.0015217454174472885 -0.0029738233707514734 0 -0.0014165634556176556 -0.0015226150105707161 0 -0.0031213936447235979 -0.0017671815525921917 0 -0.0014165634556176556 -0.0015226150105707161 0 -0.0031213936447235979 -0.0017671815525921917 0 -0.0027675182488102099 -2.0440989338424987e-05 0 -0.003683604644913688 -0.0001546137494248895 0 -0.0031213936447235979 -0.0017671815525921917 0 -0.0027675182488102099 -2.0440989338424987e-05 0 -0.0014845087966728749 -0.0014953809331299042 0 -0.0034839102428998138 0.00061975531823295154 0 -0.0012966924957026581 -0.00017238671050616206 0 -0.0019250809409801877 0.0011148085678154955 0 -0.0034839102428998138 0.00061975531823295154 0 -0.0012966924957026581 -0.00017238671050616206 0 -0.0013328048653231638 -0.0010042766405606283 0 -0.0024570184749949306 0.00091886815744711544 0 -0.0019250809409801877 0.0011148085678154955 0 -0.00092460905427036398 0.00071990751116132615 0 -0.0012966924957026581 -0.00017238671050616206 0 0.0022024400183158896 -0.0047764048066155345 0 0.0025637638827758977 -0.0049967054967553813 0 0.0022948553372543938 -0.0053751364622485467 0 0.0022024400183158896 -0.0047764048066155345 0 0.0025842047847839645 -0.0043664869472186101 0 0.0025637638827758977 -0.0049967054967553813 0 0.0022024400183158896 -0.0047764048066155345 0 0.0019248276095432269 -0.0050889559419740066 0 0.0022948553372543938 -0.0053751364622485467 0 0.0017311016245595843 -0.004654269604137392 0 0.0015435921769615503 -0.005266308347045924 0 0.0013094758406192201 -0.0049118854019849926 0 0.0019248276095432269 -0.0050889559419740066 0 0.0017311016245595843 -0.004654269604137392 0 0.0015435921769615503 -0.005266308347045924 0 0.0022024400183158896 -0.0047764048066155345 0 0.0019248276095432269 -0.0050889559419740066 0 0.0017311016245595843 -0.004654269604137392 0 0.0019674549110998436 -0.0040214127971441461 0 0.0017311016245595843 -0.004654269604137392 0 0.0013029140628895975 -0.0041591793452389293 0 0.0017311016245595843 -0.004654269604137392 0 0.0013029140628895975 -0.0041591793452389293 0 0.0013094758406192201 -0.0049118854019849926 0 0.0019674549110998436 -0.0040214127971441461 0 0.0017311016245595843 -0.004654269604137392 0 0.0021958002411209179 -0.0043837568866283661 0 0.0019674549110998436 -0.0040214127971441461 0 0.0024230835394496619 -0.0039616399559831358 0 0.0021958002411209179 -0.0043837568866283661 0 0.0022024400183158896 -0.0047764048066155345 0 0.0017311016245595843 -0.004654269604137392 0 0.0021958002411209179 -0.0043837568866283661 0 0.0022024400183158896 -0.0047764048066155345 0 0.0021958002411209179 -0.0043837568866283661 0 0.0025842047847839645 -0.0043664869472186101 0 0.0024230835394496619 -0.0039616399559831358 0 0.0027367509234531451 -0.0040365483906905589 0 0.0025842047847839645 -0.0043664869472186101 0 0.0024230835394496619 -0.0039616399559831358 0 0.0021958002411209179 -0.0043837568866283661 0 0.0025842047847839645 -0.0043664869472186101 0 0.0027367509234531451 -0.0040365483906905589 0 0.0025842047847839645 -0.0043664869472186101 0 0.0031022933570978724 -0.0040404376409417823 0 0.0025842047847839645 -0.0043664869472186101 0 0.0031022933570978724 -0.0040404376409417823 0 0.0029618879122235557 -0.0047847636674418562 0 0.0025267457850036007 -0.0030241399416355789 0 0.0022116885432215184 -0.0025809780057361653 0 0.0031022933570978724 -0.0040404376409417823 0 0.0037184174904967451 -0.0047688959846095159 0 0.0029618879122235557 -0.0047847636674418562 0 0.0011839166025842736 -0.0019037710081900806 0 0.0022495234680484808 -0.0022916635345437528 0 0.0012138907712595894 -0.00057425276607521079 0 0.0013457589999252922 -0.0032430616801780322 0 0.0011839166025842736 -0.0019037710081900806 0 0.0022495234680484808 -0.0022916635345437528 0 0.0037184174904967451 -0.0047688959846095159 0 0.0029618879122235557 -0.0047847636674418562 0 0.0033425986707743692 -0.0051953677116354695 0 0.0037523038590819608 -0.0053470427223271605 0 0.0037184174904967451 -0.0047688959846095159 0 0.0033425986707743692 -0.0051953677116354695 0 0.0025637638827758977 -0.0049967054967553813 0 0.0029618879122235557 -0.0047847636674418562 0 0.0029142951553639686 -0.0054686708356944712 0 0.0025842047847839645 -0.0043664869472186101 0 0.0025637638827758977 -0.0049967054967553813 0 0.0029618879122235557 -0.0047847636674418562 0 0.0029618879122235557 -0.0047847636674418562 0 0.0029142951553639686 -0.0054686708356944712 0 0.0033425986707743692 -0.0051953677116354695 0 0.0025637638827758977 -0.0049967054967553813 0 0.0029142951553639686 -0.0054686708356944712 0 0.0022948553372543938 -0.0053751364622485467 0 0.0029142951553639686 -0.0054686708356944712 0 0.0025204331793499814 -0.0058584245125387867 0 0.0022948553372543938 -0.0053751364622485467 0 0.0029142951553639686 -0.0054686708356944712 0 0.0033425986707743692 -0.0051953677116354695 0 0.0035441775354816659 -0.0057590380989045826 0 0.0037523038590819608 -0.0053470427223271605 0 0.0033425986707743692 -0.0051953677116354695 0 0.0035441775354816659 -0.0057590380989045826 0 0.0029142951553639686 -0.0054686708356944712 0 0.0035441775354816659 -0.0057590380989045826 0 0.0030134767475910912 -0.006122863094021061 0 0.0035441775354816659 -0.0057590380989045826 0 0.0030134767475910912 -0.006122863094021061 0 0.0035375336774879293 -0.0063489520862911302 0 0.0030134767475910912 -0.006122863094021061 0 0.0025204331793499814 -0.0058584245125387867 0 0.0023310219267134048 -0.0064411470878590529 0 0.0029142951553639686 -0.0054686708356944712 0 0.0030134767475910912 -0.006122863094021061 0 0.0025204331793499814 -0.0058584245125387867 0 0.0025204331793499814 -0.0058584245125387867 0 0.0019206262820241626 -0.0059240000508063734 0 0.0023310219267134048 -0.0064411470878590529 0 0.0022948553372543938 -0.0053751364622485467 0 0.0018658280034089623 -0.0054731078608898148 0 0.0019206262820241626 -0.0059240000508063734 0 0.0025204331793499814 -0.0058584245125387867 0 0.0022948553372543938 -0.0053751364622485467 0 0.0019206262820241626 -0.0059240000508063734 0 0.0019248276095432269 -0.0050889559419740066 0 0.0022948553372543938 -0.0053751364622485467 0 0.0018658280034089623 -0.0054731078608898148 0 0.0015435921769615503 -0.005266308347045924 0 0.0015194339000833147 -0.0056186002657472502 0 0.0011689981877488803 -0.0054297162205093211 0 0.0015435921769615503 -0.005266308347045924 0 0.0018658280034089623 -0.0054731078608898148 0 0.0015194339000833147 -0.0056186002657472502 0 0.0019248276095432269 -0.0050889559419740066 0 0.0015435921769615503 -0.005266308347045924 0 0.0018658280034089623 -0.0054731078608898148 0 0.0018658280034089623 -0.0054731078608898148 0 0.0015194339000833147 -0.0056186002657472502 0 0.0019206262820241626 -0.0059240000508063734 0 0.0019206262820241626 -0.0059240000508063734 0 0.0014184874451791413 -0.0062241553266614734 0 0.0023310219267134048 -0.0064411470878590529 0 0.0021650917684596922 -0.0055791252352086675 0 0.002492616254085249 -0.0054920444234308839 0 0.0014373543905875879 -0.0092182498428343557 0 0.0011709745339552344 -0.0099034943202785577 0 0.0019206262820241626 -0.0059240000508063734 0 0.0014184874451791413 -0.0062241553266614734 0 0.00096227539707002352 -0.006003167440241792 0 0.0015194339000833147 -0.0056186002657472502 0 0.0019206262820241626 -0.0059240000508063734 0 0.0011502813988736101 -0.0059402514514311595 0 0.0014184874451791413 -0.0062241553266614734 0 0.0014176062058229 -0.0065947461203129413 0 0.0021763941343118653 -0.0065655490290298709 0 0.0014184874451791413 -0.0062241553266614734 0 0.0014176062058229 -0.0065947461203129413 0 0.0010057724355559351 -0.0064575409003378437 0 0.0014176062058229 -0.0065947461203129413 0 0.0015531709795016848 -0.0069172545189776086 0 0.0021763941343118653 -0.0065655490290298709 0 0.0014176062058229 -0.0065947461203129413 0 0.0015531709795016848 -0.0069172545189776086 0 0.00086513227645774733 -0.0068243310331551387 0 0.0015531709795016848 -0.0069172545189776086 0 0.0019542173335194732 -0.0069951463828814434 0 0.0016913377595777078 -0.0072193958413067074 0 0.0021763941343118653 -0.0065655490290298709 0 0.0019542173335194732 -0.0069951463828814434 0 0.0022750756840744617 -0.007345730154435794 0 0.0015531709795016848 -0.0069172545189776086 0 0.0021763941343118653 -0.0065655490290298709 0 0.0019542173335194732 -0.0069951463828814434 0 0.0019542173335194732 -0.0069951463828814434 0 0.0022750756840744617 -0.007345730154435794 0 0.0016913377595777078 -0.0072193958413067074 0 0.0022750756840744617 -0.007345730154435794 0 0.0015217932912865754 -0.0077150426406376958 0 0.0019245501153867515 -0.0076940779167348899 0 0.0018793686508158621 -0.0078863697582184002 0 0.0015129567979417992 -0.008100111391279901 0 0.0022750756840744617 -0.007345730154435794 0 0.0025926626285466088 -0.0078024929260571965 0 0.0019245501153867515 -0.0076940779167348899 0 0.0022750756840744617 -0.007345730154435794 0 0.0014135275835698727 -0.0076026457119549862 0 0.0016913377595777078 -0.0072193958413067074 0 0.0015531709795016848 -0.0069172545189776086 0 0.0016913377595777078 -0.0072193958413067074 0 0.0012423328016464407 -0.0072313816264799801 0 0.0014135275835698727 -0.0076026457119549862 0 0.0016913377595777078 -0.0072193958413067074 0 0.0012423328016464407 -0.0072313816264799801 0 0.0015976211461689021 -0.0029857138588205421 0 0.0028147632597026388 -0.0049106898034800969 0 0.0039168934113847816 -0.0069566633441027498 0 0.0035375336774879293 -0.0063489520862911302 0 0.0031268200823861489 -0.0066877730047979278 0 0.0037160619076501847 -0.007118376260254417 0 0.00294277789106727 -0.0068491279776211594 0 0.0033194439945716525 -0.007220783515719636 0 0.0030134767475910912 -0.006122863094021061 0 0.0035375336774879293 -0.0063489520862911302 0 0.0031268200823861489 -0.0066877730047979278 0 0.0030134767475910912 -0.006122863094021061 0 0.0023310219267134048 -0.0064411470878590529 0 0.0031268200823861489 -0.0066877730047979278 0 0.002492616254085249 -0.0054920444234308839 0 0.0028147632597026388 -0.0049106898034800969 0 0.0021763941343118653 -0.0065655490290298709 0 0.0022750756840744617 -0.007345730154435794 0 0.00294277789106727 -0.0068491279776211594 0 0.0022750756840744617 -0.007345730154435794 0 0.0029902250734787522 -0.0073790481504440618 0 0.0025926626285466088 -0.0078024929260571965 0 0.0022750756840744617 -0.007345730154435794 0 0.00294277789106727 -0.0068491279776211594 0 0.0029902250734787522 -0.0073790481504440618 0 0.003628192009849911 -0.0075369598639728327 0 0.0029902250734787522 -0.0073790481504440618 0 0.0025926626285466088 -0.0078024929260571965 0 0.003628192009849911 -0.0075369598639728327 0 0.0029902250734787522 -0.0073790481504440618 0 0.0033194439945716525 -0.007220783515719636 0 0.00294277789106727 -0.0068491279776211594 0 0.0029902250734787522 -0.0073790481504440618 0 0.0033194439945716525 -0.007220783515719636 0 0.0017108278755367792 -0.0079307851285028309 0 0.0016696200459425158 -0.0079799718598174627 0 0.001685540330701495 -0.0080296145299373189 0 0.0017108278755367792 -0.0079307851285028309 0 0.0016696200459425158 -0.0079799718598174627 0 0.0016186850270366272 -0.0079748027424237141 0 0.0018731367958077034 -0.0032809793448689401 0 0.0016917394212161341 -0.0057115923181469026 0 0.0016696200459425158 -0.0079799718598174627 0 0.0016186850270366272 -0.0079748027424237141 0 0.0016355462319041694 -0.00801861100764047 0 0.0016186850270366272 -0.0079748027424237141 0 0.0016355462319041694 -0.00801861100764047 0 0.001595453246869417 -0.0080325825945750488 0 0.0016355462319041694 -0.00801861100764047 0 0.001595453246869417 -0.0080325825945750488 0 0.0016168319136820241 -0.0080779679404819876 0 0.0016355462319041694 -0.00801861100764047 0 0.001685540330701495 -0.0080296145299373189 0 0.0016168319136820241 -0.0080779679404819876 0 0.0016696200459425158 -0.0079799718598174627 0 0.0016355462319041694 -0.00801861100764047 0 0.001685540330701495 -0.0080296145299373189 0 0.0015912639095299248 -0.0079998424638218647 0 0.0014372814630755665 -0.0079712063515847541 0 0.0014735647884509212 -0.0080706395806945993 0 0.0015217932912865754 -0.0077150426406376958 0 0.0015912639095299248 -0.0079998424638218647 0 0.0014372814630755665 -0.0079712063515847541 0 0.0015217932912865754 -0.0077150426406376958 0 0.0015912639095299248 -0.0079998424638218647 0 0.0019245501153867515 -0.0076940779167348899 0 0.0025926626285466088 -0.0078024929260571965 0 0.0015912639095299248 -0.0079998424638218647 0 0.0019245501153867515 -0.0076940779167348899 0 0.0016917394212161341 -0.0057115923181469026 0 0.0015282612606167371 -0.0063827615927266905 0 0.0016186850270366272 -0.0079748027424237141 0 0.0015912639095299248 -0.0079998424638218647 0 0.001595453246869417 -0.0080325825945750488 0 0.0015912639095299248 -0.0079998424638218647 0 0.001595453246869417 -0.0080325825945750488 0 0.0015538339692080958 -0.00805751211022839 0 0.001595453246869417 -0.0080325825945750488 0 0.0015538339692080958 -0.00805751211022839 0 0.0015566135055424604 -0.0080995163376013334 0 0.0015912639095299248 -0.0079998424638218647 0 0.0015538339692080958 -0.00805751211022839 0 0.0014735647884509212 -0.0080706395806945993 0 0.0015538339692080958 -0.00805751211022839 0 0.0014979875338376959 -0.0080960015021408257 0 0.0014735647884509212 -0.0080706395806945993 0 0.0014979875338376959 -0.0080960015021408257 0 0.0015566135055424604 -0.0080995163376013334 0 0.0014911369963260983 -0.0081357792479879575 0 0.0015538339692080958 -0.00805751211022839 0 0.0014979875338376959 -0.0080960015021408257 0 0.0015566135055424604 -0.0080995163376013334 0 0.0015566135055424604 -0.0080995163376013334 0 0.0015736639457933428 -0.008129709632195144 0 0.0016168319136820241 -0.0080779679404819876 0 0.001595453246869417 -0.0080325825945750488 0 0.0015566135055424604 -0.0080995163376013334 0 0.0016168319136820241 -0.0080779679404819876 0 0.0015566135055424604 -0.0080995163376013334 0 0.0015736639457933428 -0.008129709632195144 0 0.0015402911322874491 -0.0081514737420055848 0 0.0015736639457933428 -0.008129709632195144 0 0.0015402911322874491 -0.0081514737420055848 0 0.0015808558661410399 -0.0081561421686765379 0 0.0015402911322874491 -0.0081514737420055848 0 0.0014911369963260983 -0.0081357792479879575 0 0.0014991947558740835 -0.0081942074391345363 0 0.0015566135055424604 -0.0080995163376013334 0 0.0015402911322874491 -0.0081514737420055848 0 0.0014911369963260983 -0.0081357792479879575 0 0.0015402911322874491 -0.0081514737420055848 0 0.0014991947558740835 -0.0081942074391345363 0 0.0015504613581920255 -0.0081833210161831038 0 0.0015402911322874491 -0.0081514737420055848 0 0.0015504613581920255 -0.0081833210161831038 0 0.0015808558661410399 -0.0081561421686765379 0 0.0015504613581920255 -0.0081833210161831038 0 0.001576407462445683 -0.0081902888106073265 0 0.0015808558661410399 -0.0081561421686765379 0 0.0015504613581920255 -0.0081833210161831038 0 0.0015537518993577746 -0.008216062981566661 0 0.001576407462445683 -0.0081902888106073265 0 0.0015537518993577746 -0.008216062981566661 0 0.0015773658648700443 -0.0082075828635353679 0 0.001576407462445683 -0.0081902888106073265 0 -0.002699935328707795 -0.01941718773639714 0 -0.0034936597640180447 -0.018645082631704807 0 -0.0024831879495818749 -0.018669579693626228 0 0.0014991947558740835 -0.0081942074391345363 0 0.0015504613581920255 -0.0081833210161831038 0 0.0015537518993577746 -0.008216062981566661 0 8.5644517860002434e-05 -0.012788180219658706 0 0.00024851694584497624 -0.010838394511837013 0 -0.00041269626413073041 0.0062161709136253681 0 -0.00038249054132654168 0.0062185965375842625 0 -0.00040515504047331847 0.0061777508749668577 0 -0.00044901371136203379 0.0062036535842413367 0 -0.00043347085779012824 0.006231493228064996 0 -0.00046369397324455102 0.0062450734816869424 0 -0.00041269626413073041 0.0062161709136253681 0 -0.00044901371136203379 0.0062036535842413367 0 -0.00043347085779012824 0.006231493228064996 0 -0.00041269626413073041 0.0062161709136253681 0 -0.00040515504047331847 0.0061777508749668577 0 -0.00044901371136203379 0.0062036535842413367 0 -0.00043347085779012824 0.006231493228064996 0 -0.00046369397324455102 0.0062450734816869424 0 -0.00043947113909770295 0.0062497313223837747 0 -0.00041269626413073041 0.0062161709136253681 0 -0.00038249054132654168 0.0062185965375842625 0 -0.00040968626943920921 0.0062347802155137107 0 -0.00043347085779012824 0.006231493228064996 0 -0.00040968626943920921 0.0062347802155137107 0 -0.00043947113909770295 0.0062497313223837747 0 -0.00041269626413073041 0.0062161709136253681 0 -0.00043347085779012824 0.006231493228064996 0 -0.00040968626943920921 0.0062347802155137107 0 0.0016047486647317881 -0.0081901531409173268 0 0.0015773658648700443 -0.0082075828635353679 0 0.001576407462445683 -0.0081902888106073265 0 0.0016047486647317881 -0.0081901531409173268 0 0.001576407462445683 -0.0081902888106073265 0 0.0015954410409362632 -0.0081699679993332327 0 0.001576407462445683 -0.0081902888106073265 0 0.0015954410409362632 -0.0081699679993332327 0 0.0015808558661410399 -0.0081561421686765379 0 0.0016047486647317881 -0.0081901531409173268 0 0.0015954410409362632 -0.0081699679993332327 0 0.0016114603969084901 -0.0081491336730391741 0 0.0015954410409362632 -0.0081699679993332327 0 0.0015808558661410399 -0.0081561421686765379 0 0.0016114603969084901 -0.0081491336730391741 0 0.0016047486647317881 -0.0081901531409173268 0 0.0016114603969084901 -0.0081491336730391741 0 0.0016503136828946679 -0.0081174621055005013 0 0.00020846635612784692 -0.0015171364042207037 0 0.00072565454297606336 -0.0012302840264222883 0 -0.00040515504047331847 0.0061777508749668577 0 -0.00035981926581584936 0.0059404629729940036 0 -0.00048676259355481463 0.0059542629992106752 0 -0.00043996909056924147 0.0060896273093971488 0 -0.00050125116567522384 0.00600193581209095 0 -0.00038249054132654168 0.0062185965375842625 0 -0.00040515504047331847 0.0061777508749668577 0 -0.00035981926581584936 0.0059404629729940036 0 -0.00040515504047331847 0.0061777508749668577 0 -0.00044901371136203379 0.0062036535842413367 0 -0.00047340486180472293 0.0060842965030471286 0 0.0015736639457933428 -0.008129709632195144 0 0.0016079261432841736 -0.0081251329143761635 0 0.0016168319136820241 -0.0080779679404819876 0 0.0016503136828946679 -0.0081174621055005013 0 0.0016079261432841736 -0.0081251329143761635 0 0.0016168319136820241 -0.0080779679404819876 0 0.0015808558661410399 -0.0081561421686765379 0 0.0016114603969084901 -0.0081491336730391741 0 0.0016079261432841736 -0.0081251329143761635 0 0.0015736639457933428 -0.008129709632195144 0 0.0015808558661410399 -0.0081561421686765379 0 0.0016079261432841736 -0.0081251329143761635 0 0.0016114603969084901 -0.0081491336730391741 0 0.0016503136828946679 -0.0081174621055005013 0 0.0016079261432841736 -0.0081251329143761635 0 -0.00037996651887556456 0.0056922206358779722 0 -0.00035981926581584936 0.0059404629729940036 0 -0.00047970308796391767 0.0058159414662010836 0 0.0012019545863242841 -0.0015542727876845205 0 0.00072565454297606336 -0.0012302840264222883 0 0.001685540330701495 -0.0080296145299373189 0 0.0016503136828946679 -0.0081174621055005013 0 0.0016168319136820241 -0.0080779679404819876 0 -0.00047970308796391767 0.0058159414662010836 0 -0.0006094132483859037 0.0057840487857327523 0 -0.00048676259355481463 0.0059542629992106752 0 -0.00062534648259740858 0.0058348540274420838 0 -0.00050125116567522384 0.00600193581209095 0 -0.00061084939013837647 0.0058758841407587662 0 -0.00060141508557115119 0.006062380251006117 0 -0.00075717320913486425 0.0060279192664338017 0 -0.00060141508557115119 0.006062380251006117 0 -0.00075717320913486425 0.0060279192664338017 0 -0.00064005581586183127 0.0061494467888254679 0 -0.00061084939013837647 0.0058758841407587662 0 -0.00060141508557115119 0.006062380251006117 0 -0.00047340486180472293 0.0060842965030471286 0 -0.00035981926581584936 0.0059404629729940036 0 -0.00047970308796391767 0.0058159414662010836 0 -0.00048676259355481463 0.0059542629992106752 0 -0.00060141508557115119 0.006062380251006117 0 -0.00047340486180472293 0.0060842965030471286 0 -0.00054162155375686886 0.0061500866356634263 0 -0.0011173001265469464 0.0058079165965555634 0 -0.00087475559044517264 0.0058465792053752257 0 -0.00098358705673308152 0.0060133047920045042 0 -0.00087475559044517264 0.0058465792053752257 0 -0.00098358705673308152 0.0060133047920045042 0 -0.00075717320913486425 0.0060279192664338017 0 -0.00087475559044517264 0.0058465792053752257 0 -0.00061084939013837647 0.0058758841407587662 0 -0.00075717320913486425 0.0060279192664338017 0 -0.00075717320913486425 0.0060279192664338017 0 -0.00084744879464519708 0.00618429335593441 0 -0.00064005581586183127 0.0061494467888254679 0 -0.00098358705673308152 0.0060133047920045042 0 -0.00084744879464519708 0.00618429335593441 0 -0.0010416902369020243 0.0061717990947750823 0 -0.00098358705673308152 0.0060133047920045042 0 -0.00075717320913486425 0.0060279192664338017 0 -0.00084744879464519708 0.00618429335593441 0 -0.00084744879464519708 0.00618429335593441 0 -0.0010416902369020243 0.0061717990947750823 0 -0.0010227356160984608 0.0063694300742929014 0 -0.00084744879464519708 0.00618429335593441 0 -0.00065862714398255717 0.0062466907868596547 0 -0.00064005581586183127 0.0061494467888254679 0 -0.00076724488999503019 0.006356929096498265 0 -0.00065862714398255717 0.0062466907868596547 0 -0.00053493147595366503 0.0063206046613949922 0 -0.00076724488999503019 0.006356929096498265 0 -0.00053493147595366503 0.0063206046613949922 0 -0.00056562392180453994 0.0065224840765004712 0 -0.00084744879464519708 0.00618429335593441 0 -0.00076724488999503019 0.006356929096498265 0 -0.00065862714398255717 0.0062466907868596547 0 -0.00084744879464519708 0.00618429335593441 0 -0.00076724488999503019 0.006356929096498265 0 -0.0010227356160984608 0.0063694300742929014 0 -0.00044901371136203379 0.0062036535842413367 0 -0.00047340486180472293 0.0060842965030471286 0 -0.00049152986731338278 0.0062018660292429608 0 -0.00047340486180472293 0.0060842965030471286 0 -0.00049152986731338278 0.0062018660292429608 0 -0.00054162155375686886 0.0061500866356634263 0 -0.00049152986731338278 0.0062018660292429608 0 -0.00054162155375686886 0.0061500866356634263 0 -0.00053923564888672159 0.0062388298907268174 0 -0.00060141508557115119 0.006062380251006117 0 -0.00054162155375686886 0.0061500866356634263 0 -0.00064005581586183127 0.0061494467888254679 0 -0.00065862714398255717 0.0062466907868596547 0 -0.00064005581586183127 0.0061494467888254679 0 -0.00053923564888672159 0.0062388298907268174 0 -0.00054162155375686886 0.0061500866356634263 0 -0.00064005581586183127 0.0061494467888254679 0 -0.00053923564888672159 0.0062388298907268174 0 -0.00053923564888672159 0.0062388298907268174 0 -0.00053493147595366503 0.0063206046613949922 0 -0.00049960513235428202 0.0062644688457525266 0 -0.00065862714398255717 0.0062466907868596547 0 -0.00053923564888672159 0.0062388298907268174 0 -0.00053493147595366503 0.0063206046613949922 0 -0.00053493147595366503 0.0063206046613949922 0 -0.00049960513235428202 0.0062644688457525266 0 -0.00050145362235373139 0.0062850187145190722 0 -0.00049960513235428202 0.0062644688457525266 0 -0.00048019552851876591 0.0062683689587415912 0 -0.00050145362235373139 0.0062850187145190722 0 -0.00049152986731338278 0.0062018660292429608 0 -0.00053923564888672159 0.0062388298907268174 0 -0.00049960513235428202 0.0062644688457525266 0 -0.00049152986731338278 0.0062018660292429608 0 -0.00049960513235428202 0.0062644688457525266 0 -0.00046369397324455102 0.0062450734816869424 0 -0.00044901371136203379 0.0062036535842413367 0 -0.00049152986731338278 0.0062018660292429608 0 -0.00046369397324455102 0.0062450734816869424 0 -0.00049960513235428202 0.0062644688457525266 0 -0.00046369397324455102 0.0062450734816869424 0 -0.00048019552851876591 0.0062683689587415912 0 -0.00046369397324455102 0.0062450734816869424 0 -0.00046067766569144749 0.0062616216077688025 0 -0.00048019552851876591 0.0062683689587415912 0 -0.00046067766569144749 0.0062616216077688025 0 -0.00048019552851876591 0.0062683689587415912 0 -0.00047445193583282348 0.0062726472480040272 0 -0.00046067766569144749 0.0062616216077688025 0 -0.00047445193583282348 0.0062726472480040272 0 -0.00045220795417559589 0.0062634823025136954 0 -0.00047445193583282348 0.0062726472480040272 0 -0.00048786317260133936 0.0062775290336899419 0 -0.00050145362235373139 0.0062850187145190722 0 -0.00048019552851876591 0.0062683689587415912 0 -0.00047445193583282348 0.0062726472480040272 0 -0.00050145362235373139 0.0062850187145190722 0 -7.3774447742263881e-05 0.0054517135468039263 0 -7.4640255078453426e-05 0.0049218948081459603 0 -0.00053493147595366503 0.0063206046613949922 0 -0.00056562392180453994 0.0065224840765004712 0 -0.00043660972869230471 0.0066285721104831358 0 -0.00053493147595366503 0.0063206046613949922 0 -0.00050145362235373139 0.0062850187145190722 0 -0.00049484765475765182 0.0062793866331204333 0 -3.4500372649832709e-05 0.0050316893147416292 0 -7.4640255078453426e-05 0.0049218948081459603 0 -0.00048786317260133936 0.0062775290336899419 0 -0.00050145362235373139 0.0062850187145190722 0 -0.00049484765475765182 0.0062793866331204333 0 -0.00056562392180453994 0.0065224840765004712 0 -0.0003933809539348277 0.0066741603943300315 0 -0.00044131974392325207 0.0069647646054280905 0 -0.0003933809539348277 0.0066741603943300315 0 -0.00044131974392325207 0.0069647646054280905 0 -0.00036474754931524082 0.0070670232373279598 0 -0.00037568836022146577 0.0036498850392802568 0 -0.00065359609788084687 0.0034033639966933112 0 -0.00044664635910681224 0.0031937890296612212 0 -7.4640255078453426e-05 0.0049218948081459603 0 -0.000432974196385333 0.0047961585103836702 0 -0.00047829119814693402 0.0062773825676394222 0 -0.00045977836264079325 0.0062781039466206345 0 -0.00045740762374767418 0.0062696874880450049 0 -0.00044977626551699786 0.0033591065455202784 0 -0.0013888164248964639 0.0009043575975321885 0 -0.00047445193583282348 0.0062726472480040272 0 -0.00047829119814693402 0.0062773825676394222 0 -0.00045740762374767418 0.0062696874880450049 0 -0.00048786317260133936 0.0062775290336899419 0 -0.00049484765475765182 0.0062793866331204333 0 -0.00047829119814693402 0.0062773825676394222 0 -7.4640255078453426e-05 0.0049218948081459603 0 -0.00044977626551699786 0.0033591065455202784 0 -0.00047445193583282348 0.0062726472480040272 0 -0.00048786317260133936 0.0062775290336899419 0 -0.00047829119814693402 0.0062773825676394222 0 -0.00063047801721780473 0.0067632731281021576 0 -0.00079106697712689848 0.0066108666096221843 0 -0.00076724488999503019 0.006356929096498265 0 -0.0008319221728030707 0.0065903869326250485 0 -0.0010227356160984608 0.0063694300742929014 0 -0.00046524033335730531 0.00699455779421276 0 -0.00050632693288157383 0.0070543804114700688 0 -0.00053646493763242012 0.0068602232920499879 0 -0.00076724488999503019 0.006356929096498265 0 -0.00056562392180453994 0.0065224840765004712 0 -0.0008319221728030707 0.0065903869326250485 0 -0.00044131974392325207 0.0069647646054280905 0 -0.00046524033335730531 0.00699455779421276 0 -0.00047838490093036259 0.007039533645026603 0 -0.00056562392180453994 0.0065224840765004712 0 -0.00044131974392325207 0.0069647646054280905 0 -0.0008319221728030707 0.0065903869326250485 0 -0.00053054339022303755 0.006850610671953865 0 -0.00063047801721780473 0.0067632731281021576 0 -0.00046524033335730531 0.00699455779421276 0 -0.00047838490093036259 0.007039533645026603 0 -0.00050632693288157383 0.0070543804114700688 0 -0.00050632693288157383 0.0070543804114700688 0 -0.00053200132426242165 0.0071047458304629553 0 -0.00057359512313725645 0.007096979082487802 0 -0.00047838490093036259 0.007039533645026603 0 -0.00053200132426242165 0.0071047458304629553 0 -0.00047870632802700011 0.0071082059251060424 0 -0.00047838490093036259 0.007039533645026603 0 -0.00050632693288157383 0.0070543804114700688 0 -0.00053200132426242165 0.0071047458304629553 0 -0.00047838490093036259 0.007039533645026603 0 -0.00047870632802700011 0.0071082059251060424 0 -0.00044742448572394471 0.0070647542108601058 0 -0.00044131974392325207 0.0069647646054280905 0 -0.00047838490093036259 0.007039533645026603 0 -0.00044742448572394471 0.0070647542108601058 0 -0.00047870632802700011 0.0071082059251060424 0 -0.00044742448572394471 0.0070647542108601058 0 -0.00042827896788293101 0.0071151443547463281 0 -0.00047870632802700011 0.0071082059251060424 0 -0.0004644168136564875 0.0071578197908384999 0 -0.00051802156890688018 0.0071547123574101316 0 -0.00047870632802700011 0.0071082059251060424 0 -0.0004644168136564875 0.0071578197908384999 0 -0.00042827896788293101 0.0071151443547463281 0 -0.00053200132426242165 0.0071047458304629553 0 -0.00051802156890688018 0.0071547123574101316 0 -0.00055295574726280583 0.0071514097658701503 0 -0.00053200132426242165 0.0071047458304629553 0 -0.00047870632802700011 0.0071082059251060424 0 -0.00051802156890688018 0.0071547123574101316 0 -0.000635790291281935 0.0031246582482428163 0 -0.00044664635910681224 0.0031937890296612212 0 -0.00051613651824969266 0.0027460474283869914 0 -0.00087029296047362982 0.0040756138889085887 0 -0.0013888164248964639 0.0009043575975321885 0 -0.000635790291281935 0.0031246582482428163 0 -0.00051613651824969266 0.0027460474283869914 0 -0.00092703918743230356 0.0031581808526978017 0 -0.00065359609788084687 0.0034033639966933112 0 -0.000635790291281935 0.0031246582482428163 0 -0.00092703918743230356 0.0031581808526978017 0 -0.00065359609788084687 0.0034033639966933112 0 -0.000635790291281935 0.0031246582482428163 0 -0.00044664635910681224 0.0031937890296612212 0 -0.000432974196385333 0.0047961585103836702 0 -0.00087029296047362982 0.0040756138889085887 0 -0.00036474754931524082 0.0070670232373279598 0 -0.00042827896788293101 0.0071151443547463281 0 -0.00037821153677441576 0.0071396489492448765 0 -0.00044131974392325207 0.0069647646054280905 0 -0.00036474754931524082 0.0070670232373279598 0 -0.00044742448572394471 0.0070647542108601058 0 -0.00036474754931524082 0.0070670232373279598 0 -0.00044742448572394471 0.0070647542108601058 0 -0.00042827896788293101 0.0071151443547463281 0 -0.0004644168136564875 0.0071578197908384999 0 -0.00042827896788293101 0.0071151443547463281 0 -0.00037821153677441576 0.0071396489492448765 0 -0.0012940754461625945 0.0019490756032951384 0 -0.0016335201059197051 0.0019496279597141393 0 -0.0016175331821579797 0.0022739455477451265 0 -0.0012940754461625945 0.0019490756032951384 0 -0.0016335201059197051 0.0019496279597141393 0 -0.0014714136536159378 0.001772720651128025 0 -0.0016335201059197051 0.0019496279597141393 0 -0.0016175331821579797 0.0022739455477451265 0 -0.0018399816584415253 0.0020803577220132969 0 -0.0016335201059197051 0.0019496279597141393 0 -0.0018391534914250279 0.0018656133297292872 0 -0.0017166542277746669 0.0017333095607893376 0 -0.0016335201059197051 0.0019496279597141393 0 -0.0018399816584415253 0.0020803577220132969 0 -0.0018391534914250279 0.0018656133297292872 0 -0.0013888164248964639 0.0009043575975321885 0 -0.0015420817099569952 -1.0502555942944446e-05 0 -0.0018091559621151937 -0.0011979859782072714 0 -0.0017580523066958729 -0.0012175060461912242 0 -0.0017552843966394322 -0.0011507445577679635 0 -0.0024963529825388952 -0.0043804637553631785 0 -0.0017703065420163913 -0.0042491264001061077 0 -0.0027355768871422299 -0.0055077547714371452 0 -0.0017580523066958729 -0.0012175060461912242 0 -0.0017175582378391211 -0.0011840340765078639 0 -0.0017321030737963486 -0.0012694794338884736 0 -0.0017580523066958729 -0.0012175060461912242 0 -0.0017175582378391211 -0.0011840340765078639 0 -0.0017552843966394322 -0.0011507445577679635 0 -0.0015420817099569952 -1.0502555942944446e-05 0 -0.0017141385966981146 -0.0011250883085754794 0 -0.001669678300285801 -0.0029109439716222658 0 -0.0017141385966981146 -0.0011250883085754794 0 -0.0017175582378391211 -0.0011840340765078639 0 -0.0017552843966394322 -0.0011507445577679635 0 -0.001703327473615966 -0.0011017199478812151 0 -0.0018399816584415253 0.0020803577220132969 0 -0.0018391534914250279 0.0018656133297292872 0 -0.002068123346614068 0.0018835788548883889 0 -0.0022600548705136018 -0.0032433609669089351 0 -0.0018075324067131297 -0.0031504041784203084 0 -0.0015856730594241927 -0.0035206101791918775 0 -0.0022600548705136018 -0.0032433609669089351 0 -0.0015856730594241927 -0.0035206101791918775 0 -0.0017703065420163913 -0.0042491264001061077 0 -0.0015856730594241927 -0.0035206101791918775 0 -0.0010209417908266778 -0.0040731605400778316 0 -0.0014062597241896481 -0.0026072664983798357 0 -0.0024963529825388952 -0.0043804637553631785 0 -0.0022600548705136018 -0.0032433609669089351 0 -0.0017703065420163913 -0.0042491264001061077 0 -0.0018075324067131297 -0.0031504041784203084 0 -0.0015856730594241927 -0.0035206101791918775 0 -0.0014062597241896481 -0.0026072664983798357 0 -0.0015856730594241927 -0.0035206101791918775 0 -0.0010209417908266778 -0.0040731605400778316 0 -0.0017703065420163913 -0.0042491264001061077 0 -0.0011922390436598445 -0.0031012546763979935 0 -0.001373999550814253 -0.0023514086705976088 0 -0.0008650922439716398 -0.0032655039188758607 0 -0.0010209417908266778 -0.0040731605400778316 0 -0.0013932818202783658 -0.0026871824846334161 0 -0.00054567683654054109 -0.0031568508329709436 0 -0.0008650922439716398 -0.0032655039188758607 0 -0.00045821018585262237 -0.0038156041910002245 0 -0.0008650922439716398 -0.0032655039188758607 0 -0.00045821018585262237 -0.0038156041910002245 0 -0.0010209417908266778 -0.0040731605400778316 0 -0.00045821018585262237 -0.0038156041910002245 0 -0.0012047601383308323 -0.0047216747783211084 0 0.00028808701251762715 -0.0039572325247941584 0 -0.00045821018585262237 -0.0038156041910002245 0 -0.0010209417908266778 -0.0040731605400778316 0 -0.0012047601383308323 -0.0047216747783211084 0 -0.0026409273180295562 -0.0086223428860082909 0 -0.0013569381063963705 -0.0091686576375132629 0 -0.0012047601383308323 -0.0047216747783211084 0 -0.0017703065420163913 -0.0042491264001061077 0 -0.0027355768871422299 -0.0055077547714371452 0 -0.0010209417908266778 -0.0040731605400778316 0 -0.0012047601383308323 -0.0047216747783211084 0 -0.0017703065420163913 -0.0042491264001061077 0 -0.0032179509280257294 -0.017247573422953872 0 -0.0036132057550439293 -0.01789665926224673 0 -0.0042310196521383398 -0.017747335157342808 0 -0.0026409273180295562 -0.0086223428860082909 0 -0.0014901063858672769 -0.0047824275551684439 0 -0.0032179509280257294 -0.017247573422953872 0 -0.0028731910961412423 -0.017998985340606944 0 -0.0024558468852837237 -0.017517432498302107 0 -0.0032179509280257294 -0.017247573422953872 0 -0.0036132057550439293 -0.01789665926224673 0 -0.0028731910961412423 -0.017998985340606944 0 -0.0034936597640180447 -0.018645082631704807 0 -0.0028731910961412423 -0.017998985340606944 0 -0.0024831879495818749 -0.018669579693626228 0 0.00024851694584497624 -0.010838394511837013 0 -0.0011594886745683844 -0.0046792115766208292 0 -0.0034936597640180447 -0.018645082631704807 0 -0.0036132057550439293 -0.01789665926224673 0 -0.0028731910961412423 -0.017998985340606944 0 -0.0034936597640180447 -0.018645082631704807 0 -0.0036132057550439293 -0.01789665926224673 0 -0.0042531394198017554 -0.017845376558351434 0 0.0016047486647317881 -0.0081901531409173268 0 0.0015773658648700443 -0.0082075828635353679 0 0.0015745175610745257 -0.0082305387993616471 0 -0.00038249054132654168 0.0062185965375842625 0 -0.00040968626943920921 0.0062347802155137107 0 -0.00043704199907213008 0.006254961608604415 0 0.00020846635612784692 -0.0015171364042207037 0 -0.0011594886745683844 -0.0046792115766208292 0 0.0015537518993577746 -0.008216062981566661 0 0.0015773658648700443 -0.0082075828635353679 0 0.0015745175610745257 -0.0082305387993616471 0 -0.00040968626943920921 0.0062347802155137107 0 -0.00042522789840683268 0.0062465129944839527 0 -0.00043704199907213008 0.006254961608604415 0 -0.00040968626943920921 0.0062347802155137107 0 -0.00042522789840683268 0.0062465129944839527 0 -0.00043947113909770295 0.0062497313223837747 0 -0.00042522789840683268 0.0062465129944839527 0 -0.00043947113909770295 0.0062497313223837747 0 -0.00043940138903009245 0.0062544825857640488 0 -0.00046067766569144749 0.0062616216077688025 0 -0.00043940138903009245 0.0062544825857640488 0 -0.00045220795417559589 0.0062634823025136954 0 -0.00046369397324455102 0.0062450734816869424 0 -0.00046067766569144749 0.0062616216077688025 0 -0.00043947113909770295 0.0062497313223837747 0 -0.00046067766569144749 0.0062616216077688025 0 -0.00043947113909770295 0.0062497313223837747 0 -0.00043940138903009245 0.0062544825857640488 0 -0.00042522789840683268 0.0062465129944839527 0 -0.00043659067331859673 0.0062553004878116358 0 -0.00043704199907213008 0.006254961608604415 0 -0.00043940138903009245 0.0062544825857640488 0 -0.00045220795417559589 0.0062634823025136954 0 -0.00043659067331859673 0.0062553004878116358 0 -0.00042522789840683268 0.0062465129944839527 0 -0.00043940138903009245 0.0062544825857640488 0 -0.00043659067331859673 0.0062553004878116358 0 -0.00045220795417559589 0.0062634823025136954 0 -0.0004447188686991471 0.0062605759287259095 0 -0.00043659067331859673 0.0062553004878116358 0 -0.0004447188686991471 0.0062605759287259095 0 -0.00043659067331859673 0.0062553004878116358 0 -0.00043976909015453717 0.0062563479447678436 0 -0.0018091559621151937 -0.0011979859782072714 0 -0.0017580523066958729 -0.0012175060461912242 0 -0.0017405816236217659 -0.0012737783511309689 0 -0.00043976909015453717 0.0062563479447678436 0 -0.00045740762374767418 0.0062696874880450049 0 -0.00043453070425714845 0.0062539005452544368 0 -0.0013888164248964639 0.0009043575975321885 0 -0.0012271088171541189 -0.004293578122506682 0 -0.0004447188686991471 0.0062605759287259095 0 -0.00043976909015453717 0.0062563479447678436 0 -0.00045740762374767418 0.0062696874880450049 0 -0.00045977836264079325 0.0062781039466206345 0 -0.00045740762374767418 0.0062696874880450049 0 -0.00043453070425714845 0.0062539005452544368 0 -0.00047445193583282348 0.0062726472480040272 0 -0.00045220795417559589 0.0062634823025136954 0 -0.00045740762374767418 0.0062696874880450049 0 -0.00045220795417559589 0.0062634823025136954 0 -0.0004447188686991471 0.0062605759287259095 0 -0.00045740762374767418 0.0062696874880450049 0 -0.0017580523066958729 -0.0012175060461912242 0 -0.0017321030737963486 -0.0012694794338884736 0 -0.0017405816236217659 -0.0012737783511309689 0 -0.0036132057550439293 -0.01789665926224673 0 -0.0042531394198017554 -0.017845376558351434 0 -0.0042310196521383398 -0.017747335157342808 0 -0.001669678300285801 -0.0029109439716222658 0 -0.0014901063858672769 -0.0047824275551684439 0 -0.00043659067331859673 0.0062553004878116358 0 -0.00043976909015453717 0.0062563479447678436 0 -0.00043704199907213008 0.006254961608604415 0 -0.0011594886745683844 -0.0046792115766208292 0 -0.0012271088171541189 -0.004293578122506682 0 -0.00098012800924114391 -0.0039988009372521373 0 -0.0012271088171541189 -0.004293578122506682 0 -0.00043976909015453717 0.0062563479447678436 0 -0.00043704199907213008 0.006254961608604415 0 -0.0004377356425431609 0.0062536655915916761 0 -0.0011594886745683844 -0.0046792115766208292 0 -0.0014901063858672769 -0.0047824275551684439 0 -0.00081518507612666927 -0.0037471645549019238 0 -0.00063166123516724673 -0.002897949896494569 0 -0.0013119160266004662 -0.0032450463589487285 0 -0.0014901063858672769 -0.0047824275551684439 0 -0.0012271088171541189 -0.004293578122506682 0 -0.0022331268729057839 0.0067316702247932937 0 -0.0023005439624736285 0.0070124938025967051 0 -0.0020714162513944638 0.0069754854618539119 0 -0.0020714162513944638 0.0069754854618539119 0 -0.0017889212702004425 0.0068128707433627563 0 -0.0018190099731585781 0.0072266015743686317 0 -0.0022331268729057839 0.0067316702247932937 0 -0.0020714162513944638 0.0069754854618539119 0 -0.0017889212702004425 0.0068128707433627563 0 -0.0023005439624736285 0.0070124938025967051 0 -0.0020714162513944638 0.0069754854618539119 0 -0.0022079876838846241 0.0072765172067784101 0 -0.0018014063390356168 0.0066117530487692141 0 -0.0017783410461880808 0.0064516500410479486 0 -0.0017889212702004425 0.0068128707433627563 0 -0.0021065081387431589 0.006549960785481701 0 -0.0018607638157669816 0.0065799366242658575 0 -0.0017889212702004425 0.0068128707433627563 0 -0.0017121496264902269 0.0063450641063918485 0 -0.0014863886380385438 0.0066720215718331297 0 -0.0022331268729057839 0.0067316702247932937 0 -0.0017889212702004425 0.0068128707433627563 0 -0.0021065081387431589 0.006549960785481701 0 -0.0021065081387431589 0.006549960785481701 0 -0.0021997452229101928 0.0064084974232126177 0 -0.0018217845487151858 0.0063311526657903218 0 -0.0017783410461880808 0.0064516500410479486 0 -0.0017363849178555653 0.0061802609790338314 0 -0.0021065081387431589 0.006549960785481701 0 -0.0018607638157669816 0.0065799366242658575 0 -0.0018217845487151858 0.0063311526657903218 0 -0.0017121496264902269 0.0063450641063918485 0 -0.0016384178123841659 0.0060291941855745547 0 -0.0014006949840961521 0.0063454845574730792 0 -0.0016384178123841659 0.0060291941855745547 0 -0.0013463615394294407 0.0060478601128685604 0 -0.0014006949840961521 0.0063454845574730792 0 -0.0014006949840961521 0.0063454845574730792 0 -0.0014863886380385438 0.0066720215718331297 0 -0.0012565843686416563 0.0067633388908785305 0 -0.0014863886380385438 0.0066720215718331297 0 -0.0012565843686416563 0.0067633388908785305 0 -0.0012975412486339465 0.0072452141399087355 0 -0.0017889212702004425 0.0068128707433627563 0 -0.0014863886380385438 0.0066720215718331297 0 -0.0012975412486339465 0.0072452141399087355 0 -0.0017121496264902269 0.0063450641063918485 0 -0.0014006949840961521 0.0063454845574730792 0 -0.0014863886380385438 0.0066720215718331297 0 -0.0012565843686416563 0.0067633388908785305 0 -0.0009843317474905668 0.0068201895498738304 0 -0.001168594089221871 0.0070470786569159158 0 -0.0009843317474905668 0.0068201895498738304 0 -0.00073777444566617124 0.0066137014423945876 0 -0.00075788837242421274 0.0069770448766183707 0 -0.001050976703032681 0.0063753046901087801 0 -0.00095406247646515822 0.0064584473770620777 0 -0.0009843317474905668 0.0068201895498738304 0 -0.0011491099487005252 0.0062654052086173681 0 -0.00073777444566617124 0.0066137014423945876 0 -0.0014006949840961521 0.0063454845574730792 0 -0.0012565843686416563 0.0067633388908785305 0 -0.0011491099487005252 0.0062654052086173681 0 -0.0012565843686416563 0.0067633388908785305 0 -0.0009843317474905668 0.0068201895498738304 0 -0.0011491099487005252 0.0062654052086173681 0 -0.0013463615394294407 0.0060478601128685604 0 -0.0014006949840961521 0.0063454845574730792 0 -0.0011491099487005252 0.0062654052086173681 0 -0.0013463615394294407 0.0060478601128685604 0 -0.0012354472968303025 0.0060313918347726647 0 -0.0011491099487005252 0.0062654052086173681 0 -0.0012721230362223578 0.0058831863614377949 0 -0.0012354472968303025 0.0060313918347726647 0 -0.0011515056264873706 0.0060898157790620164 0 -0.0011491099487005252 0.0062654052086173681 0 -0.0011515056264873706 0.0060898157790620164 0 -0.0011481678366942426 0.0062326202420147497 0 -0.0012354472968303025 0.0060313918347726647 0 -0.0011491099487005252 0.0062654052086173681 0 -0.0011515056264873706 0.0060898157790620164 0 -0.0012721230362223578 0.0058831863614377949 0 -0.0011173001265469464 0.0058079165965555634 0 -0.0011515056264873706 0.0060898157790620164 0 -0.0011173001265469464 0.0058079165965555634 0 -0.00098358705673308152 0.0060133047920045042 0 -0.0011515056264873706 0.0060898157790620164 0 -0.00098358705673308152 0.0060133047920045042 0 -0.0011515056264873706 0.0060898157790620164 0 -0.0010416902369020243 0.0061717990947750823 0 -0.0010416902369020243 0.0061717990947750823 0 -0.0011481678366942426 0.0062326202420147497 0 -0.0010227356160984608 0.0063694300742929014 0 -0.0011515056264873706 0.0060898157790620164 0 -0.0010416902369020243 0.0061717990947750823 0 -0.0011481678366942426 0.0062326202420147497 0 -0.00073777444566617124 0.0066137014423945876 0 -0.00053646493763242012 0.0068602232920499879 0 -0.00075788837242421274 0.0069770448766183707 0 -0.00095406247646515822 0.0064584473770620777 0 -0.00079106697712689848 0.0066108666096221843 0 -0.00050632693288157383 0.0070543804114700688 0 -0.00053646493763242012 0.0068602232920499879 0 -0.00057359512313725645 0.007096979082487802 0 -0.00053646493763242012 0.0068602232920499879 0 -0.00075788837242421274 0.0069770448766183707 0 -0.00057359512313725645 0.007096979082487802 0 -0.00075788837242421274 0.0069770448766183707 0 -0.00057359512313725645 0.007096979082487802 0 -0.00079958748694233372 0.0072318688294184773 0 -3.9021624301543565e-05 0.0075669646474577487 0 2.5808254126190249e-05 0.007916392553699322 0 -0.00053200132426242165 0.0071047458304629553 0 -0.00057359512313725645 0.007096979082487802 0 -0.00057146419842155213 0.0071215390003831506 0 -0.00053200132426242165 0.0071047458304629553 0 -0.00057146419842155213 0.0071215390003831506 0 -0.00055295574726280583 0.0071514097658701503 0 -0.00057146419842155213 0.0071215390003831506 0 -0.00055295574726280583 0.0071514097658701503 0 -0.00059323574003982869 0.0071840236571593238 0 2.5808254126190249e-05 0.007916392553699322 0 0.00013529219139554334 0.009258920957178042 0 -0.00061543388755526591 0.0074106138150662939 0 -0.00082411708170455607 0.0074877854768035934 0 -0.00068311074585758436 0.0076646586448861805 0 -0.00033331906315480159 0.0086002320878348359 0 0.00013529219139554334 0.009258920957178042 0 -0.00082411708170455607 0.0074877854768035934 0 -0.00085283579081045437 0.0076285803908091908 0 -0.0006883971126536839 0.0076528848049772589 0 -0.00057359512313725645 0.007096979082487802 0 -0.00061543388755526591 0.0074106138150662939 0 -0.00079958748694233372 0.0072318688294184773 0 -0.00061543388755526591 0.0074106138150662939 0 -0.00079958748694233372 0.0072318688294184773 0 -0.00082411708170455607 0.0074877854768035934 0 -0.00079958748694233372 0.0072318688294184773 0 -0.00094112308226867493 0.0073520683340038261 0 -0.00082411708170455607 0.0074877854768035934 0 -0.00082411708170455607 0.0074877854768035934 0 -0.0010025325603289089 0.0075770824864722034 0 -0.00085283579081045437 0.0076285803908091908 0 -0.00094112308226867493 0.0073520683340038261 0 -0.00082411708170455607 0.0074877854768035934 0 -0.0010025325603289089 0.0075770824864722034 0 -0.0010025325603289089 0.0075770824864722034 0 -0.0011220980036061722 0.0073544897388502532 0 -0.0011910717530451212 0.0075226969599653717 0 -0.00094112308226867493 0.0073520683340038261 0 -0.0010025325603289089 0.0075770824864722034 0 -0.0011220980036061722 0.0073544897388502532 0 -0.00094112308226867493 0.0073520683340038261 0 -0.0011220980036061722 0.0073544897388502532 0 -0.00099968786660169706 0.0071580167020621945 0 -0.0011220980036061722 0.0073544897388502532 0 -0.00099968786660169706 0.0071580167020621945 0 -0.001206553474889146 0.0072221396466903495 0 -0.00099968786660169706 0.0071580167020621945 0 -0.001168594089221871 0.0070470786569159158 0 -0.001206553474889146 0.0072221396466903495 0 -0.00075788837242421274 0.0069770448766183707 0 -0.00079958748694233372 0.0072318688294184773 0 -0.00099968786660169706 0.0071580167020621945 0 -0.00079958748694233372 0.0072318688294184773 0 -0.00094112308226867493 0.0073520683340038261 0 -0.00099968786660169706 0.0071580167020621945 0 -0.0009843317474905668 0.0068201895498738304 0 -0.00075788837242421274 0.0069770448766183707 0 -0.00099968786660169706 0.0071580167020621945 0 -0.0009843317474905668 0.0068201895498738304 0 -0.00099968786660169706 0.0071580167020621945 0 -0.001168594089221871 0.0070470786569159158 0 -0.0012565843686416563 0.0067633388908785305 0 -0.001168594089221871 0.0070470786569159158 0 -0.0012975412486339465 0.0072452141399087355 0 -0.0010031770035963416 0.0077858419319557148 0 -0.00093557723732251379 0.0080938851009375451 0 -0.0012975412486339465 0.0072452141399087355 0 -0.001206553474889146 0.0072221396466903495 0 -0.001331452995442685 0.0073330678321738728 0 -0.0012975412486339465 0.0072452141399087355 0 -0.0007040764793733007 0.0081349943541356422 0 -0.0015954284409258404 0.0076801984907328077 0 -0.001168594089221871 0.0070470786569159158 0 -0.0012975412486339465 0.0072452141399087355 0 -0.001206553474889146 0.0072221396466903495 0 -0.0011220980036061722 0.0073544897388502532 0 -0.0011910717530451212 0.0075226969599653717 0 -0.001331452995442685 0.0073330678321738728 0 -0.0011220980036061722 0.0073544897388502532 0 -0.001206553474889146 0.0072221396466903495 0 -0.001331452995442685 0.0073330678321738728 0 -0.0011910717530451212 0.0075226969599653717 0 -0.0013434021949351126 0.0075743049151810911 0 -0.001331452995442685 0.0073330678321738728 0 -0.00080518697920274509 0.0088497252671349558 0 -0.00093557723732251379 0.0080938851009375451 0 -6.4313846409598868e-05 0.0093366701330430558 0 -0.0007040764793733007 0.0081349943541356422 0 -0.00091723829901265363 0.0089135638352842352 0 -6.4313846409598868e-05 0.0093366701330430558 0 -0.00091723829901265363 0.0089135638352842352 0 -0.00085213185945640882 0.0096570109068940934 0 -0.0007040764793733007 0.0081349943541356422 0 -0.0015770314451776471 0.0085277697889766003 0 -0.0015954284409258404 0.0076801984907328077 0 -0.0007040764793733007 0.0081349943541356422 0 -0.0015770314451776471 0.0085277697889766003 0 -0.00091723829901265363 0.0089135638352842352 0 -0.0015770314451776471 0.0085277697889766003 0 -0.00091723829901265363 0.0089135638352842352 0 -0.0013845811061184289 0.0091156245611780321 0 -0.00091723829901265363 0.0089135638352842352 0 -0.0013845811061184289 0.0091156245611780321 0 -0.00085213185945640882 0.0096570109068940934 0 -0.0015770314451776471 0.0085277697889766003 0 -0.0013845811061184289 0.0091156245611780321 0 -0.0021403964808195805 0.0093847683576863579 0 -0.0023321381827214301 0.0085694484449631344 0 -0.0015770314451776471 0.0085277697889766003 0 -0.0021403964808195805 0.0093847683576863579 0 -0.0015770314451776471 0.0085277697889766003 0 -0.002078499094432799 0.0079690137732333893 0 -0.0015954284409258404 0.0076801984907328077 0 -0.0023321381827214301 0.0085694484449631344 0 -0.0015770314451776471 0.0085277697889766003 0 -0.002078499094432799 0.0079690137732333893 0 -0.0023720694321261735 0.0076468250441720162 0 -0.002078499094432799 0.0079690137732333893 0 -0.0020014909181577298 0.007544589038784983 0 -0.0023720694321261735 0.0076468250441720162 0 -0.0020014909181577298 0.007544589038784983 0 -0.0022079876838846241 0.0072765172067784101 0 -0.002078499094432799 0.0079690137732333893 0 -0.0020014909181577298 0.007544589038784983 0 -0.0015954284409258404 0.0076801984907328077 0 -0.0012975412486339465 0.0072452141399087355 0 -0.0015954284409258404 0.0076801984907328077 0 -0.0018190099731585781 0.0072266015743686317 0 -0.0020014909181577298 0.007544589038784983 0 -0.0015954284409258404 0.0076801984907328077 0 -0.0018190099731585781 0.0072266015743686317 0 -0.0017889212702004425 0.0068128707433627563 0 -0.0012975412486339465 0.0072452141399087355 0 -0.0018190099731585781 0.0072266015743686317 0 -0.0020714162513944638 0.0069754854618539119 0 -0.0018190099731585781 0.0072266015743686317 0 -0.0022079876838846241 0.0072765172067784101 0 -0.0020014909181577298 0.007544589038784983 0 -0.0018190099731585781 0.0072266015743686317 0 -0.0022079876838846241 0.0072765172067784101 0 -0.001611333624985462 0.017137978641103037 0 -0.0011863731377377859 0.016973637751602651 0 -0.0045468211700802679 0.015581411446980248 0 -0.0031899297507369923 0.014599119655250471 0 -0.002365751636675397 0.016047743400257899 0 -0.0031899297507369923 0.014599119655250471 0 -0.0020955840746789099 0.014519091852740692 0 -0.0027159822429894138 0.013578982131282209 0 -0.0045468211700802679 0.015581411446980248 0 -0.0031899297507369923 0.014599119655250471 0 -0.0038688533805821728 0.014315355636871811 0 -0.0031899297507369923 0.014599119655250471 0 -0.0020955840746789099 0.014519091852740692 0 -0.002365751636675397 0.016047743400257899 0 -0.001301731458615725 0.015153318677937453 0 -0.0020955840746789099 0.014519091852740692 0 -0.002365751636675397 0.016047743400257899 0 -0.001301731458615725 0.015153318677937453 0 0.00031988489122634629 0.016573047911703553 0 -0.002365751636675397 0.016047743400257899 0 -0.001301731458615725 0.015153318677937453 0 -0.00030804196916843182 0.015204198096282017 0 0.00031988489122634629 0.016573047911703553 0 -0.00030804196916843182 0.015204198096282017 0 -0.0010986544235767261 0.014258192658492699 0 -0.00040802367092600608 0.014260341251797979 0 -0.001301731458615725 0.015153318677937453 0 -0.00030804196916843182 0.015204198096282017 0 -0.0010986544235767261 0.014258192658492699 0 -0.001301731458615725 0.015153318677937453 0 -0.0010986544235767261 0.014258192658492699 0 -0.0020955840746789099 0.014519091852740692 0 -0.0010986544235767261 0.014258192658492699 0 -0.0020955840746789099 0.014519091852740692 0 -0.0018559331249536674 0.013605566593310355 0 -0.0010986544235767261 0.014258192658492699 0 -0.0018559331249536674 0.013605566593310355 0 -0.0011847282684507366 0.013040553812425793 0 -0.0018559331249536674 0.013605566593310355 0 -0.0020660727862553347 0.012594312027254816 0 -0.0027159822429894138 0.013578982131282209 0 -0.0010986544235767261 0.014258192658492699 0 -0.0011847282684507366 0.013040553812425793 0 -0.00035997260169870352 0.013549557834062601 0 -0.0010986544235767261 0.014258192658492699 0 -0.00035997260169870352 0.013549557834062601 0 -0.00040802367092600608 0.014260341251797979 0 -0.0011847282684507366 0.013040553812425793 0 -0.0020660727862553347 0.012594312027254816 0 -0.00099149189747521171 0.011713511812727274 0 -0.0011847282684507366 0.013040553812425793 0 -0.00029307145291392002 0.012600276748956472 0 -0.00035997260169870352 0.013549557834062601 0 -0.0011847282684507366 0.013040553812425793 0 -0.00099149189747521171 0.011713511812727274 0 -0.00029307145291392002 0.012600276748956472 0 -0.0018559331249536674 0.013605566593310355 0 -0.0011847282684507366 0.013040553812425793 0 -0.0020660727862553347 0.012594312027254816 0 -0.0020660727862553347 0.012594312027254816 0 -0.0029851994147512008 0.012797124133707812 0 -0.0027159822429894138 0.013578982131282209 0 -0.0020955840746789099 0.014519091852740692 0 -0.0018559331249536674 0.013605566593310355 0 -0.0027159822429894138 0.013578982131282209 0 -0.0029851994147512008 0.012797124133707812 0 -0.0027159822429894138 0.013578982131282209 0 -0.0035742623571594807 0.013510851753382113 0 -0.0031899297507369923 0.014599119655250471 0 -0.0038688533805821728 0.014315355636871811 0 -0.0035742623571594807 0.013510851753382113 0 -0.0031899297507369923 0.014599119655250471 0 -0.0027159822429894138 0.013578982131282209 0 -0.0035742623571594807 0.013510851753382113 0 -0.0041656933619808418 0.013571534275447382 0 -0.0038688533805821728 0.014315355636871811 0 -0.0035742623571594807 0.013510851753382113 0 -0.0043139239238665786 0.013245957028999372 0 -0.0035742623571594807 0.013510851753382113 0 -0.0037135210858662239 0.01267525625022552 0 -0.0029851994147512008 0.012797124133707812 0 -0.0035742623571594807 0.013510851753382113 0 -0.0037135210858662239 0.01267525625022552 0 -0.0041945940989299912 0.012044290989475364 0 -0.0037135210858662239 0.01267525625022552 0 -0.0029375013958936043 0.01176033646317491 0 -0.0029851994147512008 0.012797124133707812 0 -0.0037135210858662239 0.01267525625022552 0 -0.0029375013958936043 0.01176033646317491 0 -0.0020660727862553347 0.012594312027254816 0 -0.0029851994147512008 0.012797124133707812 0 -0.0029375013958936043 0.01176033646317491 0 -0.00274792355340364 0.011716487204049449 0 -0.0027681244229673624 0.010827475851112042 0 -0.0019126615885872687 0.010572140900209239 0 -0.0035762268782814272 0.011139136897939144 0 -0.00274792355340364 0.011716487204049449 0 -0.0027681244229673624 0.010827475851112042 0 -0.0035762268782814272 0.011139136897939144 0 -0.0027681244229673624 0.010827475851112042 0 -0.0031076031325102749 0.0096990294187236491 0 -0.0027681244229673624 0.010827475851112042 0 -0.0031076031325102749 0.0096990294187236491 0 -0.0019126615885872687 0.010572140900209239 0 -0.0024607399994630214 0.011527977004435645 0 -0.0017818961934698598 0.011096357855193101 0 -0.0031076031325102749 0.0096990294187236491 0 -0.00085213185945640882 0.0096570109068940934 0 -0.0019126615885872687 0.010572140900209239 0 -0.0013845811061184289 0.0091156245611780321 0 -0.0021403964808195805 0.0093847683576863579 0 -0.00085213185945640882 0.0096570109068940934 0 -0.00085213185945640882 0.0096570109068940934 0 -0.0019126615885872687 0.010572140900209239 0 -0.00056237207175090719 0.010575648196079897 0 -0.0020660727862553347 0.012594312027254816 0 -0.0029375013958936043 0.01176033646317491 0 -0.00099149189747521171 0.011713511812727274 0 -0.0025660293159214895 0.013863942698568592 0 -0.0021540843948158555 0.013581622998236438 0 -0.0019126615885872687 0.010572140900209239 0 -0.00099149189747521171 0.011713511812727274 0 -0.00056237207175090719 0.010575648196079897 0 -0.00274792355340364 0.011716487204049449 0 -0.0019126615885872687 0.010572140900209239 0 -0.00099149189747521171 0.011713511812727274 0 -0.00099149189747521171 0.011713511812727274 0 0.00060983324037310516 0.011462454394430784 0 -0.00029307145291392002 0.012600276748956472 0 -0.00099149189747521171 0.011713511812727274 0 0.00060983324037310516 0.011462454394430784 0 -0.00056237207175090719 0.010575648196079897 0 0.00060983324037310516 0.011462454394430784 0 0.00026568961613940452 0.013131970001896354 0 -0.00029307145291392002 0.012600276748956472 0 -0.0013434021949351126 0.0075743049151810911 0 -0.0013376537146206429 0.0078370378036270935 0 -0.0012385069843808413 0.0076841433780367634 0 -6.4313846409598868e-05 0.0093366701330430558 0 0.00060983324037310516 0.011462454394430784 0 -0.00056237207175090719 0.010575648196079897 0 -0.00080518697920274509 0.0088497252671349558 0 -0.00070194612907635773 0.010023961045629014 0 -6.4313846409598868e-05 0.0093366701330430558 0 -0.00085213185945640882 0.0096570109068940934 0 -0.00056237207175090719 0.010575648196079897 0 -0.0011910717530451212 0.0075226969599653717 0 -0.0012385069843808413 0.0076841433780367634 0 -0.0011375835735510868 0.0076787173086979603 0 -0.0011910717530451212 0.0075226969599653717 0 -0.0013434021949351126 0.0075743049151810911 0 -0.0012385069843808413 0.0076841433780367634 0 -0.0012385069843808413 0.0076841433780367634 0 -0.0011851422922030028 0.0078156712801248068 0 -0.0011375835735510868 0.0076787173086979603 0 -0.0013376537146206429 0.0078370378036270935 0 -0.0012385069843808413 0.0076841433780367634 0 -0.0011851422922030028 0.0078156712801248068 0 -0.0013376537146206429 0.0078370378036270935 0 -0.0011851422922030028 0.0078156712801248068 0 -0.0012337401678392344 0.007929689547973056 0 -0.0011851422922030028 0.0078156712801248068 0 -0.0012337401678392344 0.007929689547973056 0 -0.0010985746455593321 0.0079488087747992264 0 -0.0013376537146206429 0.0078370378036270935 0 -0.0012337401678392344 0.007929689547973056 0 -0.001315977069306862 0.0081109921812257645 0 0.0022244430277729636 0.013863182957790553 0 0.001805783957661729 0.013950392620824703 0 0.0020797954467356608 0.014067091891582112 0 -0.00071776209452231331 0.011760527260052866 0 -0.00010214415649642562 0.01099184472276445 0 -0.0012337401678392344 0.007929689547973056 0 -0.001315977069306862 0.0081109921812257645 0 -0.0010985746455593321 0.0079488087747992264 0 0.00060983324037310516 0.011462454394430784 0 0.00026568961613940452 0.013131970001896354 0 0.0010617220866151733 0.01393664179393939 0 -0.00070194612907635773 0.010023961045629014 0 -0.00071776209452231331 0.011760527260052866 0 0.00026568961613940452 0.013131970001896354 0 -0.00029307145291392002 0.012600276748956472 0 -0.00035997260169870352 0.013549557834062601 0 0.00026568961613940452 0.013131970001896354 0 -0.00035997260169870352 0.013549557834062601 0 0.00012558309009284458 0.01404853513170919 0 -0.00035997260169870352 0.013549557834062601 0 0.00012558309009284458 0.01404853513170919 0 -0.00040802367092600608 0.014260341251797979 0 0.00026568961613940452 0.013131970001896354 0 0.00012558309009284458 0.01404853513170919 0 0.0010617220866151733 0.01393664179393939 0 0.0015964755299055569 0.014439749422269565 0 0.00094810746036671297 0.015524969752930653 0 0.0016020520649957077 0.016410704225981756 0 -0.00071776209452231331 0.011760527260052866 0 -0.00069320542858607886 0.011852267500968889 0 -0.00030804196916843182 0.015204198096282017 0 0.0015484862077430872 0.013908805970811193 0 0.0015964755299055569 0.014439749422269565 0 -0.00030804196916843182 0.015204198096282017 0 0.0015964755299055569 0.014439749422269565 0 0.00094810746036671297 0.015524969752930653 0 -0.00030804196916843182 0.015204198096282017 0 0.00012558309009284458 0.01404853513170919 0 -0.00040802367092600608 0.014260341251797979 0 -0.00083768867823828721 0.012315661163186947 0 -0.00071776209452231331 0.011760527260052866 0 -0.00030804196916843182 0.015204198096282017 0 0.00012558309009284458 0.01404853513170919 0 0.0010617220866151733 0.01393664179393939 0 -0.00030804196916843182 0.015204198096282017 0 0.00094810746036671297 0.015524969752930653 0 0.00031988489122634629 0.016573047911703553 0 0.0016398844640094633 0.013959948668520104 0 0.0014349397425081462 0.014059081665193457 0 0.0022244430277729636 0.013863182957790553 0 0.0018570814248125922 0.012971067231304315 0 0.0023563491960447995 0.012463186798747318 0 0.0022244430277729636 0.013863182957790553 0 0.0015964755299055569 0.014439749422269565 0 0.0016020520649957077 0.016410704225981756 0 0.0022244430277729636 0.013863182957790553 0 0.0023563491960447995 0.012463186798747318 0 0.0031779804501915298 0.01221167604466911 0 0.0022244430277729636 0.013863182957790553 0 0.001805783957661729 0.013950392620824703 0 0.0015964755299055569 0.014439749422269565 0 0.0013363501402851652 0.013225977469200557 0 0.0018570814248125922 0.012971067231304315 0 0.0018401160486713373 0.013696656894678718 0 0.0022244430277729636 0.013863182957790553 0 0.0018570814248125922 0.012971067231304315 0 0.0018401160486713373 0.013696656894678718 0 0.0018570814248125922 0.012971067231304315 0 0.0014057702257076999 0.012632593704425139 0 0.0018921842144096791 0.011994519496555112 0 0.0013363501402851652 0.013225977469200557 0 0.0018570814248125922 0.012971067231304315 0 0.0014057702257076999 0.012632593704425139 0 0.0013363501402851652 0.013225977469200557 0 0.0014057702257076999 0.012632593704425139 0 0.00094674273300267623 0.012823733377963017 0 0.0014057702257076999 0.012632593704425139 0 0.00094674273300267623 0.012823733377963017 0 0.00099828703240744873 0.012069695632039855 0 0.00094674273300267623 0.012823733377963017 0 0.00020957455455716169 0.012817236626512582 0 0.00099828703240744873 0.012069695632039855 0 0.00094674273300267623 0.012823733377963017 0 0.00069060573904929155 0.01341458690074805 0 0.00020957455455716169 0.012817236626512582 0 0.0013363501402851652 0.013225977469200557 0 0.00094674273300267623 0.012823733377963017 0 0.00069060573904929155 0.01341458690074805 0 0.0013363501402851652 0.013225977469200557 0 0.00069060573904929155 0.01341458690074805 0 0.0010217920958571615 0.013975193086397183 0 0.00069060573904929155 0.01341458690074805 0 0.0010217920958571615 0.013975193086397183 0 3.3902589764115231e-06 0.014240049188074743 0 0.0010217920958571615 0.013975193086397183 0 0.0018401160486713373 0.013696656894678718 0 0.0020797954467356608 0.014067091891582112 0 0.0013363501402851652 0.013225977469200557 0 0.0010217920958571615 0.013975193086397183 0 0.0018401160486713373 0.013696656894678718 0 0.0022244430277729636 0.013863182957790553 0 0.0018401160486713373 0.013696656894678718 0 0.0020797954467356608 0.014067091891582112 0 -0.0011851422922030028 0.0078156712801248068 0 -0.0010985746455593321 0.0079488087747992264 0 -0.001052004813782956 0.0077844280376260571 0 -0.0010985746455593321 0.0079488087747992264 0 -0.001052004813782956 0.0077844280376260571 0 -0.00089725480833978801 0.0077973723902450736 0 -0.00010214415649642562 0.01099184472276445 0 -0.00021054814181132228 0.010521857717604426 0 -0.0010025325603289089 0.0075770824864722034 0 -0.0011910717530451212 0.0075226969599653717 0 -0.0011375835735510868 0.0076787173086979603 0 -0.0010025325603289089 0.0075770824864722034 0 -0.001052004813782956 0.0077844280376260571 0 -0.0011375835735510868 0.0076787173086979603 0 -0.0010025325603289089 0.0075770824864722034 0 -0.001052004813782956 0.0077844280376260571 0 -0.00089725480833978801 0.0077973723902450736 0 -0.0011851422922030028 0.0078156712801248068 0 -0.001052004813782956 0.0077844280376260571 0 -0.0011375835735510868 0.0076787173086979603 0 -0.0010025325603289089 0.0075770824864722034 0 -0.00085283579081045437 0.0076285803908091908 0 -0.00089725480833978801 0.0077973723902450736 0 -0.00085283579081045437 0.0076285803908091908 0 -0.00089725480833978801 0.0077973723902450736 0 -0.0006883971126536839 0.0076528848049772589 0 0.0010217920958571615 0.013975193086397183 0 0.00086198200039190804 0.01496734924887946 0 3.3902589764115231e-06 0.014240049188074743 0 0.0010217920958571615 0.013975193086397183 0 0.0020797954467356608 0.014067091891582112 0 0.00086198200039190804 0.01496734924887946 0 0.00086198200039190804 0.01496734924887946 0 -0.0002479412630812231 0.015702717207371639 0 3.3902589764115231e-06 0.014240049188074743 0 0.00052343462981190112 0.01004973256052626 0 0.00070054515729292696 0.010272802608520926 0 0.00046015067109441912 0.010418598627653776 0 0.00013529219139554334 0.009258920957178042 0 4.4479020361583085e-05 0.011635432959949335 0 -0.00021054814181132228 0.010521857717604426 0 0.00013529219139554334 0.009258920957178042 0 -0.00059323574003982869 0.0071840236571593238 0 -0.0005496350080651689 0.007189457906178141 0 -0.00055760533728236748 0.0072323819560017226 0 0.00013529219139554334 0.009258920957178042 0 -1.8736543420465478e-05 0.00850270963527445 0 -0.00051802156890688018 0.0071547123574101316 0 -0.00055295574726280583 0.0071514097658701503 0 -0.0005496350080651689 0.007189457906178141 0 -0.00055295574726280583 0.0071514097658701503 0 -0.00059323574003982869 0.0071840236571593238 0 -0.0005496350080651689 0.007189457906178141 0 -0.0005496350080651689 0.007189457906178141 0 -0.00055760533728236748 0.0072323819560017226 0 -0.00051465949438374802 0.0072127835013217068 0 0.00070054515729292696 0.010272802608520926 0 0.00071078852321847469 0.010434013078452199 0 0.00046015067109441912 0.010418598627653776 0 0.00070054515729292696 0.010272802608520926 0 0.00071078852321847469 0.010434013078452199 0 0.00085902819192641179 0.010471331064021922 0 -1.8736543420465478e-05 0.00850270963527445 0 -0.00035449137827401093 0.0075270829109649546 0 0.00071078852321847469 0.010434013078452199 0 0.00075131177089163943 0.010582575833402259 0 0.00085902819192641179 0.010471331064021922 0 0.00075131177089163943 0.010582575833402259 0 0.00059740934410756148 0.010532145206359854 0 0.00053337312796156795 0.010695735836169572 0 0.00071078852321847469 0.010434013078452199 0 0.00059740934410756148 0.010532145206359854 0 0.00046015067109441912 0.010418598627653776 0 0.00071078852321847469 0.010434013078452199 0 0.00075131177089163943 0.010582575833402259 0 0.00059740934410756148 0.010532145206359854 0 4.4479020361583085e-05 0.011635432959949335 0 0.00020353973630527191 0.011584939720209853 0 0.00069060573904929155 0.01341458690074805 0 3.3902589764115231e-06 0.014240049188074743 0 0.00020957455455716169 0.012817236626512582 0 0.00059740934410756148 0.010532145206359854 0 0.00046015067109441912 0.010418598627653776 0 0.00053337312796156795 0.010695735836169572 0 0.00046015067109441912 0.010418598627653776 0 0.00053337312796156795 0.010695735836169572 0 0.00041237889848460191 0.010758596095954103 0 0.00041237889848460191 0.010758596095954103 0 0.00053129660861149801 0.010783770136286126 0 0.00048198838732831122 0.010842606648660078 0 0.00053337312796156795 0.010695735836169572 0 0.00041237889848460191 0.010758596095954103 0 0.00053129660861149801 0.010783770136286126 0 -0.00042428623155047889 0.0079908432187772906 0 -0.00054704048843257688 0.008781183913003766 0 0.00071380900740600998 0.010595041259480065 0 0.00053337312796156795 0.010695735836169572 0 0.00053129660861149801 0.010783770136286126 0 -0.00042428623155047889 0.0079908432187772906 0 -0.00036680083813497914 0.0083445440630430141 0 0.00063175586445074494 0.010650931927405669 0 0.00053129660861149801 0.010783770136286126 0 0.00059203973747442857 0.010771467495079122 0 0.00063175586445074494 0.010650931927405669 0 0.00059203973747442857 0.010771467495079122 0 0.00071072727625817842 0.010609640118789928 0 -0.00064621480392556565 0.0094903389937851541 0 -0.0003930818911941618 0.0071592333420387212 0 -5.511035095284865e-05 0.011320831700080383 0 -0.00049321550238913667 0.011381046386645331 0 -0.00034878193625708764 0.011124280970903871 0 -5.511035095284865e-05 0.011320831700080383 0 -7.8024490902131903e-05 0.010915999449267607 0 0.00046313818076893371 0.01086527278945703 0 -7.8024490902131903e-05 0.010915999449267607 0 -0.00029119107762315123 0.01060219252433209 0 -0.0004751328547338923 0.010859073415618823 0 -7.8024490902131903e-05 0.010915999449267607 0 -0.0004751328547338923 0.010859073415618823 0 -0.00034878193625708764 0.011124280970903871 0 -5.511035095284865e-05 0.011320831700080383 0 -7.8024490902131903e-05 0.010915999449267607 0 -0.00034878193625708764 0.011124280970903871 0 0.00053129660861149801 0.010783770136286126 0 0.00059203973747442857 0.010771467495079122 0 0.00046313818076893371 0.01086527278945703 0 0.00053129660861149801 0.010783770136286126 0 0.00048198838732831122 0.010842606648660078 0 0.00046313818076893371 0.01086527278945703 0 -7.8024490902131903e-05 0.010915999449267607 0 0.00046313818076893371 0.01086527278945703 0 0.00014882075080241655 0.010700073761056472 0 -0.00064621480392556565 0.0094903389937851541 0 -0.00049703153394893259 0.0099036661806391028 0 0.00048198838732831122 0.010842606648660078 0 0.00046313818076893371 0.01086527278945703 0 0.00058928239530370644 0.010934710657896442 0 0.00046313818076893371 0.01086527278945703 0 0.00014882075080241655 0.010700073761056472 0 0.00038868275374205505 0.010373449331954276 0 0.00046313818076893371 0.01086527278945703 0 0.00038868275374205505 0.010373449331954276 0 0.00058928239530370644 0.010934710657896442 0 0.00014882075080241655 0.010700073761056472 0 0.00038868275374205505 0.010373449331954276 0 0.0001414840807400497 0.01013102363791568 0 0.00014882075080241655 0.010700073761056472 0 0.0001414840807400497 0.01013102363791568 0 -0.00017524380222445242 0.0096770324102547385 0 0.00014882075080241655 0.010700073761056472 0 -0.00029119107762315123 0.01060219252433209 0 -0.00040746881257933023 0.010032591226065708 0 0.0005496122641858815 0.0097129479127742273 0 0.00041086531461590126 0.0090809424358351109 0 -7.8024490902131903e-05 0.010915999449267607 0 0.00014882075080241655 0.010700073761056472 0 -0.00029119107762315123 0.01060219252433209 0 0.0001414840807400497 0.01013102363791568 0 0.00018117141868160481 0.009889868426797609 0 -0.00017524380222445242 0.0096770324102547385 0 3.1339608642000052e-07 0.0088535982637199997 0 0.00018117141868160481 0.009889868426797609 0 8.1012318457517477e-07 0.010531366398534343 0 3.1339608642000052e-07 0.0088535982637199997 0 0.00018117141868160481 0.009889868426797609 0 -0.00017524380222445242 0.0096770324102547385 0 0.00018117141868160481 0.009889868426797609 0 8.1012318457517477e-07 0.010531366398534343 0 0.00020816839291645485 0.010737257532502984 0 0.00038868275374205505 0.010373449331954276 0 0.0001414840807400497 0.01013102363791568 0 0.00018117141868160481 0.009889868426797609 0 0.00035952384490349894 0.011187840675480924 0 0.00043255346717055849 0.011392439088372222 0 0.00038868275374205505 0.010373449331954276 0 0.00018117141868160481 0.009889868426797609 0 0.00065756887915825659 0.0099767563724699557 0 0.00065756887915825659 0.0099767563724699557 0 0.0010963042583667319 0.010540375790306108 0 0.00067297715647254613 0.010436230245850307 0 0.00038868275374205505 0.010373449331954276 0 0.00065756887915825659 0.0099767563724699557 0 0.00067297715647254613 0.010436230245850307 0 0.00065756887915825659 0.0099767563724699557 0 0.0015127238033215171 0.01012742653659186 0 0.0010963042583667319 0.010540375790306108 0 0.00043255346717055849 0.011392439088372222 0 0.00072367018333477123 0.01202784003080066 0 8.1012318457517477e-07 0.010531366398534343 0 0.00020816839291645485 0.010737257532502984 0 -1.2365268548796517e-06 0.012203815239527122 0 0.00020816839291645485 0.010737257532502984 0 -1.2365268548796517e-06 0.012203815239527122 0 -0.00063022375694737258 0.010528904434335597 0 1.2125873053464901e-06 0.012206745271883672 0 0.00072367018333477123 0.01202784003080066 0 -1.5230743898806619e-06 0.012209485664487797 0 -0.0003291321444688775 0.014055028617373714 0 0.00013717221155323895 0.013710554539953585 0 0.00072367018333477123 0.01202784003080066 0 0.0008487919036471738 0.013133833689039436 0 0.00158829259230944 0.010082566605318029 0 0.0017393693650456967 0.011042066148651272 0 0.0026773181188789923 0.010434626307071405 0 0.0017433502422769997 0.010897676300840551 0 0.0010963042583667319 0.010540375790306108 0 0.0012249814934679778 0.01131002927541965 0 0.00072367018333477123 0.01202784003080066 0 0.00091582717676927286 0.01163215693868592 0 0.0015127238033215171 0.01012742653659186 0 0.0017433502422769997 0.010897676300840551 0 0.0010963042583667319 0.010540375790306108 0 0.0010963042583667319 0.010540375790306108 0 0.00067297715647254613 0.010436230245850307 0 0.00058928239530370644 0.010934710657896442 0 0.00038868275374205505 0.010373449331954276 0 0.00067297715647254613 0.010436230245850307 0 0.00058928239530370644 0.010934710657896442 0 0.0010963042583667319 0.010540375790306108 0 0.00058928239530370644 0.010934710657896442 0 0.0012249814934679778 0.01131002927541965 0 0.00058928239530370644 0.010934710657896442 0 0.0012249814934679778 0.01131002927541965 0 0.00099828703240744873 0.012069695632039855 0 0.00020957455455716169 0.012817236626512582 0 0.00058928239530370644 0.010934710657896442 0 0.00099828703240744873 0.012069695632039855 0 0.00020353973630527191 0.011584939720209853 0 0.00031470548658470306 0.011302844630324559 0 0.00041237889848460191 0.010758596095954103 0 0.00048198838732831122 0.010842606648660078 0 0.00058928239530370644 0.010934710657896442 0 0.0014057702257076999 0.012632593704425139 0 0.00099828703240744873 0.012069695632039855 0 0.0018921842144096791 0.011994519496555112 0 0.0018570814248125922 0.012971067231304315 0 0.0018921842144096791 0.011994519496555112 0 0.0023563491960447995 0.012463186798747318 0 0.0017393693650456967 0.011042066148651272 0 0.0018921842144096791 0.011994519496555112 0 0.0026089124324597539 0.011399099514862615 0 0.00091582717676927286 0.01163215693868592 0 0.0010006824495769409 0.011664372865471935 0 0.0017433502422769997 0.010897676300840551 0 0.0012249814934679778 0.01131002927541965 0 0.0018921842144096791 0.011994519496555112 0 0.0012249814934679778 0.01131002927541965 0 0.00099828703240744873 0.012069695632039855 0 0.0018921842144096791 0.011994519496555112 0 0.0018921842144096791 0.011994519496555112 0 0.0023563491960447995 0.012463186798747318 0 0.0026089124324597539 0.011399099514862615 0 0.0023563491960447995 0.012463186798747318 0 0.0031779804501915298 0.01221167604466911 0 0.0026089124324597539 0.011399099514862615 0 0.0031779804501915298 0.01221167604466911 0 0.0037871276862739256 0.01079121808795761 0 0.0026089124324597539 0.011399099514862615 0 0.0016020520649957077 0.016410704225981756 0 0.00066100823726892124 0.017978442720019531 0 0.00023840834948557902 0.017341224789063803 0 0.00094810746036671297 0.015524969752930653 0 0.0016020520649957077 0.016410704225981756 0 0.00031988489122634629 0.016573047911703553 0 0.0016020520649957077 0.016410704225981756 0 0.00031988489122634629 0.016573047911703553 0 0.00023840834948557902 0.017341224789063803 0 0.0014349397425081462 0.014059081665193457 0 0.00064356622783305433 0.014403112924232936 0 0.00064356622783305433 0.014403112924232936 0 0.0008487919036471738 0.013133833689039436 0 0.0037871276862739256 0.01079121808795761 0 0.0026089124324597539 0.011399099514862615 0 0.0026773181188789923 0.010434626307071405 0 0.0017393693650456967 0.011042066148651272 0 0.0026089124324597539 0.011399099514862615 0 0.0026773181188789923 0.010434626307071405 0 -0.0003291321444688775 0.014055028617373714 0 0.00013145800559671698 0.014141158650112362 0 0.00013717221155323895 0.013710554539953585 0 0.00013145800559671698 0.014141158650112362 0 0.00013717221155323895 0.013710554539953585 0 0.00012601672640782043 0.01410464367453787 0 1.4874134236026265e-06 0.01412767896111003 0 0.00013717221155323895 0.013710554539953585 0 0.00012601672640782043 0.01410464367453787 0 -1.5230743898806619e-06 0.012209485664487797 0 1.4874134236026265e-06 0.01412767896111003 0 0.00013717221155323895 0.013710554539953585 0 1.4874134236026265e-06 0.01412767896111003 0 3.2082334236282655e-05 0.014451965702960977 0 -1.4446877673123225e-06 0.015980770437916157 0 1.4874134236026265e-06 0.01412767896111003 0 0.00012601672640782043 0.01410464367453787 0 3.2082334236282655e-05 0.014451965702960977 0 0.00064356622783305433 0.014403112924232936 0 0.00019084061140221448 0.015344776531290896 0 0.00010471075167386786 0.014125818763022048 0 0.00012601672640782043 0.01410464367453787 0 3.2082334236282655e-05 0.014451965702960977 0 0.00010471075167386786 0.014125818763022048 0 0.00013145800559671698 0.014141158650112362 0 0.00012601672640782043 0.01410464367453787 0 -0.00037353956716107276 0.017737197210146854 0 -0.00050927150211794938 0.017502491468718313 0 -0.00027569684445503798 0.017695025670955516 0 -0.00050927150211794938 0.017502491468718313 0 -6.1436314097369424e-05 0.017116260112033953 0 -5.3871386310832701e-05 0.017820730669885959 0 -0.00050927150211794938 0.017502491468718313 0 -5.3871386310832701e-05 0.017820730669885959 0 -0.00027569684445503798 0.017695025670955516 0 -0.00050927150211794938 0.017502491468718313 0 -6.1436314097369424e-05 0.017116260112033953 0 -1.303385734784769e-06 0.015987058287922865 0 0.00019084061140221448 0.015344776531290896 0 0.00011296536369585369 0.015521971196831097 0 -6.1436314097369424e-05 0.017116260112033953 0 -1.303385734784769e-06 0.015987058287922865 0 2.1741379632526276e-05 0.017566031791436666 0 4.096641033660908e-07 0.017968593545974822 0 -1.303385734784769e-06 0.015987058287922865 0 2.1741379632526276e-05 0.017566031791436666 0 -6.1436314097369424e-05 0.017116260112033953 0 2.1741379632526276e-05 0.017566031791436666 0 -5.3871386310832701e-05 0.017820730669885959 0 -0.00014293884095339951 0.018506692872988822 0 2.1741379632526276e-05 0.017566031791436666 0 -5.3871386310832701e-05 0.017820730669885959 0 -0.00050496333713622387 0.017563198368904322 0 -5.3871386310832701e-05 0.017820730669885959 0 -0.00033601708006748918 0.017380564152102033 0 -5.3871386310832701e-05 0.017820730669885959 0 -0.00016521026326638512 0.017578400134302209 0 -0.00033601708006748918 0.017380564152102033 0 -0.00037353956716107276 0.017737197210146854 0 -0.00027569684445503798 0.017695025670955516 0 -0.00016521026326638512 0.017578400134302209 0 0.00064356622783305433 0.014403112924232936 0 0.00063244996991303681 0.014871827487459795 0 -5.3871386310832701e-05 0.017820730669885959 0 -0.00027569684445503798 0.017695025670955516 0 -0.00016521026326638512 0.017578400134302209 0 0.00066100823726892124 0.017978442720019531 0 0.00023840834948557902 0.017341224789063803 0 -0.00016521026326638512 0.017578400134302209 0 0.00023840834948557902 0.017341224789063803 0 -0.00016521026326638512 0.017578400134302209 0 -0.0002451554849193133 0.01695516750623095 0 -0.00072612226647235942 0.0169742917906185 0 -0.0011863731377377859 0.016973637751602651 0 0.00031988489122634629 0.016573047911703553 0 0.00023840834948557902 0.017341224789063803 0 -0.0002451554849193133 0.01695516750623095 0 -0.00016521026326638512 0.017578400134302209 0 -0.00033601708006748918 0.017380564152102033 0 -0.0002451554849193133 0.01695516750623095 0 -0.00059986818515825758 0.017005419107540894 0 -0.00033601708006748918 0.017380564152102033 0 -0.0002451554849193133 0.01695516750623095 0 -0.0019608840331129533 0.001177150311123123 0 -0.0016611429873213306 0.00124014796515776 0 -0.001849843867772 0.00097898469337110729 0 -0.0019608840331129533 0.001177150311123123 0 -0.0016611429873213306 0.00124014796515776 0 -0.0018191955760626232 0.0014294396689038624 0 -0.0019608840331129533 0.001177150311123123 0 -0.0022120295963404765 0.0012777675164762951 0 -0.0020330170172968552 0.0014021234030524442 0 -0.0016611429873213306 0.00124014796515776 0 -0.001595206855322326 0.0009874981238578817 0 -0.0014443247682156433 0.001176627852422889 0 -0.0016611429873213306 0.00124014796515776 0 -0.001595206855322326 0.0009874981238578817 0 -0.001849843867772 0.00097898469337110729 0 -0.001595206855322326 0.0009874981238578817 0 -0.001849843867772 0.00097898469337110729 0 -0.0018349046999257246 0.00068281040237313227 0 -0.001595206855322326 0.0009874981238578817 0 -0.0018349046999257246 0.00068281040237313227 0 -0.0016663881928678786 0.00059646803847141188 0 -0.0019608840331129533 0.001177150311123123 0 -0.001849843867772 0.00097898469337110729 0 -0.0021083275328850127 0.00087179066776076942 0 -0.001849843867772 0.00097898469337110729 0 -0.0021083275328850127 0.00087179066776076942 0 -0.0018349046999257246 0.00068281040237313227 0 -0.002728376982058509 -0.004053394194629161 0 -0.0032538781154870296 -0.0025411564202840638 0 -0.0039707917889944423 -0.0054529620785607686 0 -0.0041648916296868283 -0.0066413205480845387 0 -0.0052348887718979276 -0.0043465651867452939 0 -0.0019212932314514855 -0.00029057957273036971 0 -0.0015807340473192103 -0.00087164267509240326 0 -0.0017072196906570448 6.4198314887885363e-05 0 -0.0011167594224019163 -0.0010387935681613078 0 -0.0015807340473192103 -0.00087164267509240326 0 -0.0017072196906570448 6.4198314887885363e-05 0 -0.0042109339168110455 -0.004505877505199006 0 -0.0039707917889944423 -0.0054529620785607686 0 -0.0052348887718979276 -0.0043465651867452939 0 -0.001414967534109812 -0.0025253942342069835 0 -0.0015001098304827023 -0.0044177010241764382 0 -0.0013307046072804775 -0.00044650687636941074 0 -0.0012421555489197365 -0.00023554594053427531 0 -0.00082028834470575468 -0.00083088059545735041 0 -0.0042109339168110455 -0.004505877505199006 0 -0.0039707917889944423 -0.0054529620785607686 0 -0.0028082808532006016 -0.0055244792903657199 0 -0.002649860324359822 -0.0030600672302232156 0 -0.0015001098304827023 -0.0044177010241764382 0 -0.0039707917889944423 -0.0054529620785607686 0 -0.0034293506075398746 -0.0062480073747394702 0 -0.0028082808532006016 -0.0055244792903657199 0 -0.0039707917889944423 -0.0054529620785607686 0 -0.0034293506075398746 -0.0062480073747394702 0 -0.0041648916296868283 -0.0066413205480845387 0 -0.0034293506075398746 -0.0062480073747394702 0 -0.0041648916296868283 -0.0066413205480845387 0 -0.0033995910750734587 -0.0071146158564270711 0 -0.0034293506075398746 -0.0062480073747394702 0 -0.0033995910750734587 -0.0071146158564270711 0 -0.0027896003726460127 -0.0068216400918420074 0 -0.0019283858713799948 1.2420503854276516e-05 0 -0.001739486737371166 -0.00072122741075538669 0 -0.0019608840331129533 0.001177150311123123 0 -0.0021083275328850127 0.00087179066776076942 0 -0.0022120295963404765 0.0012777675164762951 0 -0.0019212932314514855 -0.00029057957273036971 0 -0.0015807340473192103 -0.00087164267509240326 0 -0.0016748930579105089 -0.0012789066005323441 0 -0.0011167594224019163 -0.0010387935681613078 0 -0.0015807340473192103 -0.00087164267509240326 0 -0.0017240317927514114 -0.0013347961662960245 0 -0.0017413267592912458 -0.00075934424613221879 0 -0.001739486737371166 -0.00072122741075538669 0 -0.001739486737371166 -0.00072122741075538669 0 -0.0017403994334033084 -0.00071218612575604378 0 -0.0018158940785668832 -0.0011272703075569158 0 -0.0020438024165711495 -0.0021874696510558317 0 -0.0014062597241896481 -0.0026072664983798357 0 -0.0022120295963404765 0.0012777675164762951 0 -0.0021386708353760596 0.0015840423809461745 0 -0.0020330170172968552 0.0014021234030524442 0 -0.0017240317927514114 -0.0013347961662960245 0 -0.0011210341573993899 -0.0019859206270882025 0 -0.0013932818202783658 -0.0026871824846334161 0 -0.001739486737371166 -0.00072122741075538669 0 -0.001373999550814253 -0.0023514086705976088 0 -0.0011167594224019163 -0.0010387935681613078 0 -0.0017240317927514114 -0.0013347961662960245 0 -0.0011210341573993899 -0.0019859206270882025 0 -0.0041648916296868283 -0.0066413205480845387 0 -0.0033995910750734587 -0.0071146158564270711 0 -0.0030862229025153541 -0.0089649409284034212 0 -0.0011167594224019163 -0.0010387935681613078 0 -0.0011210341573993899 -0.0019859206270882025 0 -0.00041466694629620796 -0.002476752500464158 0 -0.002728376982058509 -0.004053394194629161 0 -0.0020851927292249387 -0.0061082470767482924 0 -0.0033995910750734587 -0.0071146158564270711 0 -0.0030862229025153541 -0.0089649409284034212 0 -0.0029621301670874523 -0.0075981448362978541 0 -0.0011210341573993899 -0.0019859206270882025 0 -0.00089138018407542872 -0.0025768972850307298 0 -0.00041466694629620796 -0.002476752500464158 0 -0.0011210341573993899 -0.0019859206270882025 0 -0.00089138018407542872 -0.0025768972850307298 0 -0.0013932818202783658 -0.0026871824846334161 0 -0.00089138018407542872 -0.0025768972850307298 0 -0.00092505578097959245 -0.0028531230017662629 0 -0.0013932818202783658 -0.0026871824846334161 0 -0.0008650922439716398 -0.0032655039188758607 0 -0.00092505578097959245 -0.0028531230017662629 0 -0.0013932818202783658 -0.0026871824846334161 0 -0.00054567683654054109 -0.0031568508329709436 0 -0.00089138018407542872 -0.0025768972850307298 0 -0.00041466694629620796 -0.002476752500464158 0 -0.00054567683654054109 -0.0031568508329709436 0 -0.00089138018407542872 -0.0025768972850307298 0 -0.00092505578097959245 -0.0028531230017662629 0 -0.00054567683654054109 -0.0031568508329709436 0 -0.0008650922439716398 -0.0032655039188758607 0 -0.00092505578097959245 -0.0028531230017662629 0 -0.0022669277353704899 -0.0032382902712857985 0 -0.0020438024165711495 -0.0021874696510558317 0 -0.0017574153937368298 -0.0027897164578625788 0 -0.0017141385966981146 -0.0011250883085754794 0 -0.0017403994334033084 -0.00071218612575604378 0 -0.0020438024165711495 -0.0021874696510558317 0 -0.0014062597241896481 -0.0026072664983798357 0 -0.0017574153937368298 -0.0027897164578625788 0 -0.0018075324067131297 -0.0031504041784203084 0 -0.0014062597241896481 -0.0026072664983798357 0 -0.0017574153937368298 -0.0027897164578625788 0 -0.0022600548705136018 -0.0032433609669089351 0 -0.0018075324067131297 -0.0031504041784203084 0 -0.0017574153937368298 -0.0027897164578625788 0 -0.0017141385966981146 -0.0011250883085754794 0 -0.0018591505706078636 -0.001334801245590922 0 -0.001941079551233756 0.0016777425266320193 0 -0.0018191955760626232 0.0014294396689038624 0 -0.0017166542277746669 0.0017333095607893376 0 -0.0018391534914250279 0.0018656133297292872 0 -0.002068123346614068 0.0018835788548883889 0 -0.001941079551233756 0.0016777425266320193 0 -0.002068123346614068 0.0018835788548883889 0 -0.0021386708353760596 0.0015840423809461745 0 -0.001941079551233756 0.0016777425266320193 0 -0.0018391534914250279 0.0018656133297292872 0 -0.001941079551233756 0.0016777425266320193 0 -0.0017166542277746669 0.0017333095607893376 0 -0.001941079551233756 0.0016777425266320193 0 -0.0018191955760626232 0.0014294396689038624 0 -0.0020330170172968552 0.0014021234030524442 0 -0.0021386708353760596 0.0015840423809461745 0 -0.001941079551233756 0.0016777425266320193 0 -0.0020330170172968552 0.0014021234030524442 0 -0.0019608840331129533 0.001177150311123123 0 -0.0018191955760626232 0.0014294396689038624 0 -0.0020330170172968552 0.0014021234030524442 0 -0.0018191955760626232 0.0014294396689038624 0 -0.0015690326880718854 0.0014783666190779821 0 -0.0017166542277746669 0.0017333095607893376 0 -0.0016611429873213306 0.00124014796515776 0 -0.0015690326880718854 0.0014783666190779821 0 -0.0014716187790869094 0.0013268110316220082 0 -0.0016611429873213306 0.00124014796515776 0 -0.0018191955760626232 0.0014294396689038624 0 -0.0015690326880718854 0.0014783666190779821 0 -0.0016335201059197051 0.0019496279597141393 0 -0.0017166542277746669 0.0017333095607893376 0 -0.0014714136536159378 0.001772720651128025 0 -0.0017166542277746669 0.0017333095607893376 0 -0.0014714136536159378 0.001772720651128025 0 -0.0013523459385403707 0.0015609734313971366 0 -0.00087029296047362982 0.0040756138889085887 0 -0.0011053432264420114 0.0036391253534265311 0 -0.0015690326880718854 0.0014783666190779821 0 -0.0017166542277746669 0.0017333095607893376 0 -0.0013354822271077196 0.0015422384791406157 0 -0.0010575906815676484 0.0031505198134108674 0 -0.0011053432264420114 0.0036391253534265311 0 -0.0012940754461625945 0.0019490756032951384 0 -0.0014714136536159378 0.001772720651128025 0 -0.0013523459385403707 0.0015609734313971366 0 4.9915324463389816e-05 0.0048966796355848618 0 0.00014630608374660949 0.0055499623984147138 0 -0.00052373707891429646 0.005482440726348803 0 -0.00087029296047362982 0.0040756138889085887 0 -0.00067087919673910709 0.0060531373253206577 0 -0.0004644168136564875 0.0071578197908384999 0 -0.00037821153677441576 0.0071396489492448765 0 -0.000456289962700675 0.0072108482062862083 0 0.00014630608374660949 0.0055499623984147138 0 -0.00052373707891429646 0.005482440726348803 0 -0.00052223909583845856 0.0056255446586975051 0 -0.0011053432264420114 0.0036391253534265311 0 -0.00049627079144786573 0.0047734728644198239 0 0.00014630608374660949 0.0055499623984147138 0 -0.00052223909583845856 0.0056255446586975051 0 -0.00041002210236102288 0.0058317913824243095 0 -0.0011978202479184751 0.0013511706251827836 0 -0.0013362801899616272 0.0015363305822099519 0 -0.0010180880365346157 0.0013532718368868017 0 -0.0011978202479184751 0.0013511706251827836 0 -0.0013520041086011597 0.0014362821305939205 0 -0.0013389310083643357 0.0012987838973511007 0 -0.0013520041086011597 0.0014362821305939205 0 -0.0014716187790869094 0.0013268110316220082 0 -0.0013389310083643357 0.0012987838973511007 0 -0.0015690326880718854 0.0014783666190779821 0 -0.0013520041086011597 0.0014362821305939205 0 -0.0014716187790869094 0.0013268110316220082 0 -0.0015690326880718854 0.0014783666190779821 0 -0.0013520041086011597 0.0014362821305939205 0 -0.0013354822271077196 0.0015422384791406157 0 -0.0011978202479184751 0.0013511706251827836 0 -0.0013520041086011597 0.0014362821305939205 0 -0.0013362801899616272 0.0015363305822099519 0 -0.0011226087355371368 0.0035139052179098441 0 -0.0011053432264420114 0.0036391253534265311 0 -0.00051802156890688018 0.0071547123574101316 0 -0.0005496350080651689 0.007189457906178141 0 -0.00051465949438374802 0.0072127835013217068 0 -0.0004644168136564875 0.0071578197908384999 0 -0.00051802156890688018 0.0071547123574101316 0 -0.00051465949438374802 0.0072127835013217068 0 -0.0004644168136564875 0.0071578197908384999 0 -0.00051465949438374802 0.0072127835013217068 0 -0.000456289962700675 0.0072108482062862083 0 -0.00052223909583845856 0.0056255446586975051 0 -0.00041002210236102288 0.0058317913824243095 0 -0.00095437128706924075 0.0061053722883282159 0 -0.00052373707891429646 0.005482440726348803 0 -0.00052223909583845856 0.0056255446586975051 0 -0.0011166350383477327 0.0060914486407751926 0 -0.00026019264674778631 0.0063910660046925492 0 -0.00027930319423246286 0.006675345793941607 0 -0.00055760533728236748 0.0072323819560017226 0 -0.00051465949438374802 0.0072127835013217068 0 -0.00052221352567654363 0.0072778437322425513 0 -0.00067087919673910709 0.0060531373253206577 0 -0.00035449137827401093 0.0075270829109649546 0 -0.00051465949438374802 0.0072127835013217068 0 -0.000456289962700675 0.0072108482062862083 0 -0.00052221352567654363 0.0072778437322425513 0 -0.00052223909583845856 0.0056255446586975051 0 -0.0011166350383477327 0.0060914486407751926 0 -0.00097881717299314465 0.0061382929657404399 0 -0.00048323667321785701 0.0076444985308690844 0 -0.00011042942592706686 0.0072672566783299891 0 2.8964673060720296e-05 0.0074398471944353449 0 -0.00042428623155047889 0.0079908432187772906 0 -0.00035449137827401093 0.0075270829109649546 0 -0.00042428623155047889 0.0079908432187772906 0 -0.0003930818911941618 0.0071592333420387212 0 -0.0011166350383477327 0.0060914486407751926 0 -0.00097881717299314465 0.0061382929657404399 0 -0.0010318284626557922 0.0061968489338251878 0 -0.00035449137827401093 0.0075270829109649546 0 -0.0003930818911941618 0.0071592333420387212 0 -0.00027930319423246286 0.006675345793941607 0 -0.0003930818911941618 0.0071592333420387212 0 -0.00091300569790102131 0.0012488541844251429 0 -0.00092344334664759195 0.0012497817059845258 0 -0.0009351150873750121 0.0012454286994132175 0 -0.00049627079144786573 0.0047734728644198239 0 -0.00027930319423246286 0.006675345793941607 0 -0.00092344334664759195 0.0012497817059845258 0 -0.0009351150873750121 0.0012454286994132175 0 -0.0009351793697880259 0.0013652557379849979 0 -0.0010180880365346157 0.0013532718368868017 0 -0.00091300569790102131 0.0012488541844251429 0 -0.0009351150873750121 0.0012454286994132175 0 -0.0009351150873750121 0.0012454286994132175 0 -0.001089359860751515 0.0012162364476667777 0 -0.0011368920645507177 0.0009397638608193645 0 -0.0010180880365346157 0.0013532718368868017 0 -0.0009351150873750121 0.0012454286994132175 0 -0.001089359860751515 0.0012162364476667777 0 -0.0009351793697880259 0.0013652557379849979 0 -0.00077337098227885819 0.0013709399177176894 0 -0.00082107794832445144 0.0015587182406863035 0 -0.0009351150873750121 0.0012454286994132175 0 -0.0009351793697880259 0.0013652557379849979 0 -0.00077337098227885819 0.0013709399177176894 0 -0.0010802175529064754 0.0014655952343181036 0 -0.0010474463247356974 0.0015825526070872011 0 -0.00054433792381002445 0.011844290684377803 0 -0.00090960346002652993 0.011407726796902872 0 -0.00049321550238913667 0.011381046386645331 0 -0.0003930818911941618 0.0071592333420387212 0 -0.00069313946676852363 0.0064447100367040488 0 -5.511035095284865e-05 0.011320831700080383 0 -0.00054433792381002445 0.011844290684377803 0 -0.00049321550238913667 0.011381046386645331 0 -0.00090960346002652993 0.011407726796902872 0 -0.00049321550238913667 0.011381046386645331 0 -0.00065158351953593051 0.011140737966336259 0 -0.00049321550238913667 0.011381046386645331 0 -0.00034878193625708764 0.011124280970903871 0 -0.00065158351953593051 0.011140737966336259 0 -0.0014443247682156433 0.001176627852422889 0 -0.0012521773219284762 0.0011713129213366835 0 -0.0013585375065840689 0.0009910031622594902 0 -0.001595206855322326 0.0009874981238578817 0 -0.0014443247682156433 0.001176627852422889 0 -0.0013585375065840689 0.0009910031622594902 0 -0.0016611429873213306 0.00124014796515776 0 -0.0014716187790869094 0.0013268110316220082 0 -0.0014443247682156433 0.001176627852422889 0 -0.0014716187790869094 0.0013268110316220082 0 -0.0014443247682156433 0.001176627852422889 0 -0.0013389310083643357 0.0012987838973511007 0 -0.0014443247682156433 0.001176627852422889 0 -0.0013389310083643357 0.0012987838973511007 0 -0.0012521773219284762 0.0011713129213366835 0 -0.001089359860751515 0.0012162364476667777 0 -0.0012521773219284762 0.0011713129213366835 0 -0.0011368920645507177 0.0009397638608193645 0 -0.0011978202479184751 0.0013511706251827836 0 -0.001089359860751515 0.0012162364476667777 0 -0.0012521773219284762 0.0011713129213366835 0 -0.0011978202479184751 0.0013511706251827836 0 -0.0013389310083643357 0.0012987838973511007 0 -0.0012521773219284762 0.0011713129213366835 0 -0.0011978202479184751 0.0013511706251827836 0 -0.0010180880365346157 0.0013532718368868017 0 -0.001089359860751515 0.0012162364476667777 0 -0.0012521773219284762 0.0011713129213366835 0 -0.0011368920645507177 0.0009397638608193645 0 -0.0013585375065840689 0.0009910031622594902 0 -0.00075700222750668916 0.0016734677330059609 0 -0.00073044318048744975 0.0021926091821415253 0 -0.0011368920645507177 0.0009397638608193645 0 -0.0013585375065840689 0.0009910031622594902 0 -0.0014054724362306172 0.00067771605230402101 0 -0.001595206855322326 0.0009874981238578817 0 -0.0013585375065840689 0.0009910031622594902 0 -0.0014054724362306172 0.00067771605230402101 0 -0.00073044318048744975 0.0021926091821415253 0 -0.00094258418530745981 0.0019643423952370978 0 -0.0005722408393936387 0.0015586836644049811 0 -0.00082107794832445144 0.0015587182406863035 0 -0.00067458318380167795 0.0017552252745336712 0 -0.0010474463247356974 0.0015825526070872011 0 -0.00073044318048744975 0.0021926091821415253 0 -0.00077337098227885819 0.0013709399177176894 0 -0.0005722408393936387 0.0015586836644049811 0 -0.00082107794832445144 0.0015587182406863035 0 -0.0012898457216471309 0.010951529214887578 0 -0.0013014549746237821 0.01035614259915852 0 -0.0016689920521145579 0.010481065570862364 0 -0.00078508725539789713 0.0059128760508203194 0 -0.00087103800911963027 0.005157907230912924 0 -0.0013014549746237821 0.01035614259915852 0 -0.0016689920521145579 0.010481065570862364 0 -0.0014294059693243087 0.010034026468734809 0 -0.0003937997877308388 0.0037505155378263172 0 -0.0001683019760502407 0.0033318728854243311 0 -0.00076445731797163347 0.0034074770639276799 0 -0.0001683019760502407 0.0033318728854243311 0 -0.00044537239353827269 0.0029887868458525354 0 -0.00076445731797163347 0.0034074770639276799 0 -0.00087103800911963027 0.005157907230912924 0 -0.00094683631613408739 0.0045686937537817102 0 -0.00073044318048744975 0.0021926091821415253 0 -0.00087103800911963027 0.005157907230912924 0 -0.0004751328547338923 0.010859073415618823 0 -0.00034878193625708764 0.011124280970903871 0 -0.00065158351953593051 0.011140737966336259 0 -0.0004751328547338923 0.010859073415618823 0 -0.00065158351953593051 0.011140737966336259 0 -0.00090383072094814233 0.010869291141846576 0 -0.00069313946676852363 0.0064447100367040488 0 -0.00078508725539789713 0.0059128760508203194 0 -0.00090960346002652993 0.011407726796902872 0 -0.0012898457216471309 0.010951529214887578 0 -0.00090383072094814233 0.010869291141846576 0 -0.00090960346002652993 0.011407726796902872 0 -0.00065158351953593051 0.011140737966336259 0 -0.00090383072094814233 0.010869291141846576 0 -0.0012898457216471309 0.010951529214887578 0 -0.00090383072094814233 0.010869291141846576 0 -0.00098948076230047084 0.010504681813619597 0 -0.0012898457216471309 0.010951529214887578 0 -0.0013014549746237821 0.01035614259915852 0 -0.00098948076230047084 0.010504681813619597 0 -0.0013014549746237821 0.01035614259915852 0 -0.00098948076230047084 0.010504681813619597 0 -0.0010941133936196968 0.010217172930922841 0 -0.00098948076230047084 0.010504681813619597 0 -0.00064464947656835722 0.010493331238852412 0 -0.00086253657040619212 0.010123434597612765 0 -0.00090383072094814233 0.010869291141846576 0 -0.00098948076230047084 0.010504681813619597 0 -0.00064464947656835722 0.010493331238852412 0 -0.00029119107762315123 0.01060219252433209 0 -0.00064464947656835722 0.010493331238852412 0 -0.00040746881257933023 0.010032591226065708 0 -0.0004751328547338923 0.010859073415618823 0 -0.00090383072094814233 0.010869291141846576 0 -0.00064464947656835722 0.010493331238852412 0 -0.00029119107762315123 0.01060219252433209 0 -0.0004751328547338923 0.010859073415618823 0 -0.00064464947656835722 0.010493331238852412 0 -0.00040746881257933023 0.010032591226065708 0 -0.00086253657040619212 0.010123434597612765 0 -0.0010180217664774861 0.0097453923297475577 0 -0.00064464947656835722 0.010493331238852412 0 -0.00040746881257933023 0.010032591226065708 0 -0.00086253657040619212 0.010123434597612765 0 -0.00086253657040619212 0.010123434597612765 0 -0.0010562967182933584 0.01002556499939746 0 -0.0010180217664774861 0.0097453923297475577 0 -0.00098948076230047084 0.010504681813619597 0 -0.00086253657040619212 0.010123434597612765 0 -0.0010941133936196968 0.010217172930922841 0 -0.0013014549746237821 0.01035614259915852 0 -0.0010941133936196968 0.010217172930922841 0 -0.0012504777336573365 0.010015296227213824 0 -0.00086253657040619212 0.010123434597612765 0 -0.0010941133936196968 0.010217172930922841 0 -0.0010562967182933584 0.01002556499939746 0 -0.0010941133936196968 0.010217172930922841 0 -0.0010562967182933584 0.01002556499939746 0 -0.0012504777336573365 0.010015296227213824 0 -0.0010562967182933584 0.01002556499939746 0 -0.0010180217664774861 0.0097453923297475577 0 -0.0012504777336573365 0.010015296227213824 0 -0.0010180217664774861 0.0097453923297475577 0 -0.0012504777336573365 0.010015296227213824 0 -0.0014319319590469614 0.010034030422523576 0 -0.00040746881257933023 0.010032591226065708 0 -0.0010180217664774861 0.0097453923297475577 0 -0.00098549945500289314 0.0093852908123773018 0 -0.0010180217664774861 0.0097453923297475577 0 -0.0010895279801737654 0.0093911451091469988 0 -0.0014319319590469614 0.010034030422523576 0 -0.0010180217664774861 0.0097453923297475577 0 -0.0010895279801737654 0.0093911451091469988 0 -0.00098549945500289314 0.0093852908123773018 0 -1.3724186474226438e-07 0.0069640057576484463 0 -2.4601259253221369e-05 0.0070094937495700669 0 1.3711293592482315e-07 0.00714512060273414 0 -0.00012252132112947056 0.0068508804754458356 0 -9.3094468180949914e-05 0.0070381335870847916 0 -3.5876292667833622e-06 0.0069611632960901925 0 -0.00012252132112947056 0.0068508804754458356 0 3.1339608642000052e-07 0.0088535982637199997 0 -0.00017524380222445242 0.0096770324102547385 0 -1.1087875973812655e-06 0.0071483257057053879 0 0.00041086531461590126 0.0090809424358351109 0 -9.3094468180949914e-05 0.0070381335870847916 0 -0.00062120832045614235 0.0044636425593331253 0 -0.0007094857704785857 0.0044771120744701073 0 -0.00065588562280660451 0.0045122116699347296 0 -0.00094683631613408739 0.0045686937537817102 0 -0.00081915399363112094 0.005853602241021238 0 -0.00060318642554137646 0.0044844934277897645 0 -0.00065588562280660451 0.0045122116699347296 0 -0.00059963577780799146 0.004524722429921065 0 -0.00060318642554137646 0.0044844934277897645 0 -0.00062120832045614235 0.0044636425593331253 0 -0.00065588562280660451 0.0045122116699347296 0 -0.00093801183385445986 0.0045720584890631697 0 -0.00094683631613408739 0.0045686937537817102 0 -0.00087103800911963027 0.005157907230912924 0 -0.00081915399363112094 0.005853602241021238 0 -0.00066174422749745731 0.0051855599656685306 0 -0.00066347789511855782 0.0051832740353901438 0 -0.00066091761549596747 0.0051843518166129468 0 -0.0013014549746237821 0.01035614259915852 0 -0.0012504777336573365 0.010015296227213824 0 -0.0014294059693243087 0.010034026468734809 0 -0.00086688867918821339 0.0059196330306504757 0 -0.00081915399363112094 0.005853602241021238 0 -0.00076336919147686731 0.0045831881244612132 0 -0.00065448679040025503 0.0045718634091078975 0 -0.00065588562280660451 0.0045122116699347296 0 -8.9580502966377064e-08 0.0069634684129939528 0 -1.3147026475024098e-06 0.0068765825456520886 0 8.9459938538670479e-08 0.0054618140993378736 0 -0.00012252132112947056 0.0068508804754458356 0 -2.7637760485925152e-05 0.0053373502712767773 0 -1.3147026475024098e-06 0.0068765825456520886 0 8.9459938538670479e-08 0.0054618140993378736 0 3.9383613302116112e-06 0.0052748556425110107 0 -0.00076336919147686731 0.0045831881244612132 0 -0.0007094857704785857 0.0044771120744701073 0 -0.00065588562280660451 0.0045122116699347296 0 -0.00012252132112947056 0.0068508804754458356 0 -0.00081915399363112094 0.005853602241021238 0 8.9459938538670479e-08 0.0054618140993378736 0 3.9383613302116112e-06 0.0052748556425110107 0 -8.9852402734533345e-08 0.0039614134061632961 0 -2.7637760485925152e-05 0.0053373502712767773 0 -0.00025220646516975909 0.0040319990043185261 0 -0.00065448679040025503 0.0045718634091078975 0 -0.00059963577780799146 0.004524722429921065 0 -0.00054521278630327173 0.0045608585808143611 0 -0.00065448679040025503 0.0045718634091078975 0 -0.00065588562280660451 0.0045122116699347296 0 -0.00059963577780799146 0.004524722429921065 0 3.9383613302116112e-06 0.0052748556425110107 0 -8.9852402734533345e-08 0.0039614134061632961 0 -7.9037473150719182e-06 0.0038008890747436921 0 -0.00054521278630327173 0.0045608585808143611 0 -0.00046598252217232218 0.0044668048947728032 0 -0.00053815875339009354 0.0044938631358488563 0 -1.554962175931883e-06 0.0039603799057221457 0 -0.00025220646516975909 0.0040319990043185261 0 -4.0972080063759251e-09 0.003959642984649109 0 9.5080494368159639e-10 0.003750047843604195 0 6.9305748733643046e-06 0.0036986732445607544 0 -0.00059963577780799146 0.004524722429921065 0 -0.00054521278630327173 0.0045608585808143611 0 -0.00053815875339009354 0.0044938631358488563 0 9.5080494368159639e-10 0.003750047843604195 0 6.9305748733643046e-06 0.0036986732445607544 0 0.00030786582532008408 0.003572739045406466 0 6.9305748733643046e-06 0.0036986732445607544 0 0.00019893576788566515 0.0034722614628067178 0 0.00030786582532008408 0.003572739045406466 0 -2.8095903903280014e-07 0.0037462112088824263 0 -0.00028718299220896563 0.0019722359540425734 0 -4.2777285855208481e-07 0.0037480518036654398 0 -0.00019345897778212824 0.0010707780921046287 0 -4.8945011107407759e-07 0.0017604403153670299 0 -0.00025220646516975909 0.0040319990043185261 0 -0.00073544159169168369 0.0018988699704496276 0 -0.00073544159169168369 0.0018988699704496276 0 -0.00028718299220896563 0.0019722359540425734 0 -0.00046598252217232218 0.0044668048947728032 0 -0.00049515825969568303 0.0044405110149321313 0 -0.00053815875339009354 0.0044938631358488563 0 -0.00073544159169168369 0.0018988699704496276 0 -0.00089186274753301161 0.0019167670965828934 0 -0.0010646801445180736 0.00086900080734756237 0 -0.00070843932236967506 0.0011995800959985843 0 -0.0014337602574197733 0.0012808293529426643 0 -0.0019083970474233181 0.00034344971453418048 0 -0.0019257257517022119 0.00037537358805035936 0 -0.0018365386138582461 0.00043183756211121312 0 -0.00089186274753301161 0.0019167670965828934 0 -0.0010157213451441514 0.00071670284441999112 0 -0.00073544159169168369 0.0018988699704496276 0 -0.0010157213451441514 0.00071670284441999112 0 -0.00063875624278042064 0.00066350940690815567 0 -0.00054663864222405985 0.00055904662380720088 0 -0.00052361808842330644 0.00066231174534189092 0 -0.00060318642554137646 0.0044844934277897645 0 -0.00062220480388588289 0.0044612450742407845 0 -0.00049515825969568303 0.0044405110149321313 0 -0.00060318642554137646 0.0044844934277897645 0 -0.00049515825969568303 0.0044405110149321313 0 -0.00053815875339009354 0.0044938631358488563 0 -0.00094683631613408739 0.0045686937537817102 0 -0.00089186274753301161 0.0019167670965828934 0 -0.00060318642554137646 0.0044844934277897645 0 -0.00059963577780799146 0.004524722429921065 0 -0.00053815875339009354 0.0044938631358488563 0 -0.00044537239353827269 0.0029887868458525354 0 -0.0011340319155444701 0.003063429708834612 0 -0.00076445731797163347 0.0034074770639276799 0 -0.0016908100850723986 0.00038451424226393236 0 -0.0018417325772390727 0.00040647341500612438 0 -0.0016663881928678786 0.00059646803847141188 0 -0.0019083970474233181 0.00034344971453418048 0 -0.0016908100850723986 0.00038451424226393236 0 -0.0018417325772390727 0.00040647341500612438 0 -0.00089186274753301161 0.0019167670965828934 0 -0.00094258418530745981 0.0019643423952370978 0 -0.0033402260052099492 -0.0015344953736278987 0 -0.0033343726520743836 -0.0022292699146345104 0 -0.0019257257517022119 0.00037537358805035936 0 -0.001948166867811262 0.00043065758104093637 0 -0.0018188277747311888 0.00035809873671565322 0 -0.0019257257517022119 0.00037537358805035936 0 -0.0018001818995728514 -8.1721321986380862e-05 0 -0.0017936377239895914 0.00027220409564928082 0 -0.0019083970474233181 0.00034344971453418048 0 -0.0019257257517022119 0.00037537358805035936 0 -0.0018417325772390727 0.00040647341500612438 0 -0.0019257257517022119 0.00037537358805035936 0 -0.0017936377239895914 0.00027220409564928082 0 -0.0018365386138582461 0.00043183756211121312 0 -0.0019257257517022119 0.00037537358805035936 0 -0.0018417325772390727 0.00040647341500612438 0 -0.001948166867811262 0.00043065758104093637 0 -0.0019283858713799948 1.2420503854276516e-05 0 -0.0019665356942575127 0.00019134881888918664 0 -0.0018417325772390727 0.00040647341500612438 0 -0.001948166867811262 0.00043065758104093637 0 -0.0018349046999257246 0.00068281040237313227 0 -0.0021083275328850127 0.00087179066776076942 0 -0.001948166867811262 0.00043065758104093637 0 -0.0018349046999257246 0.00068281040237313227 0 -0.0018417325772390727 0.00040647341500612438 0 -0.0018349046999257246 0.00068281040237313227 0 -0.0016663881928678786 0.00059646803847141188 0 -0.001595206855322326 0.0009874981238578817 0 -0.0014128562941673752 0.00059049059386102713 0 -0.0016663881928678786 0.00059646803847141188 0 -0.0014128562941673752 0.00059049059386102713 0 -0.0016908100850723986 0.00038451424226393236 0 -0.0016663881928678786 0.00059646803847141188 0 -0.0020232725310580821 -0.0049130136854733568 0 -0.0015152210662995858 -0.0043459321338013886 0 -0.0011561262958212828 -0.0047641073384461574 0 -0.0020232725310580821 -0.0049130136854733568 0 -0.0024105947685842243 -0.0042802282996355955 0 -0.001991569921013187 -0.0043192733753478971 0 -0.0020232725310580821 -0.0049130136854733568 0 -0.001991569921013187 -0.0043192733753478971 0 -0.0015152210662995858 -0.0043459321338013886 0 -0.0013307046072804775 -0.00044650687636941074 0 -0.0012421555489197365 -0.00023554594053427531 0 -0.0018001818995728514 -8.1721321986380862e-05 0 -0.0019212932314514855 -0.00029057957273036971 0 -0.001948166867811262 0.00043065758104093637 0 -0.0017072196906570448 6.4198314887885363e-05 0 -0.0012421555489197365 -0.00023554594053427531 0 -0.0018001818995728514 -8.1721321986380862e-05 0 -0.0016305389324983001 0.00029185393009206604 0 -0.002649860324359822 -0.0030600672302232156 0 -0.0033343726520743836 -0.0022292699146345104 0 -0.0042109339168110455 -0.004505877505199006 0 -0.0052348887718979276 -0.0043465651867452939 0 -0.005631614956628333 -0.0035007030910949094 0 -0.0032538781154870296 -0.0025411564202840638 0 -0.0033343726520743836 -0.0022292699146345104 0 -0.001948166867811262 0.00043065758104093637 0 -0.0017072196906570448 6.4198314887885363e-05 0 -0.0018188277747311888 0.00035809873671565322 0 -0.001414967534109812 -0.0025253942342069835 0 -0.0011598665034841659 -0.00071485336296838646 0 -0.002649521363377171 -0.0040095044338983388 0 -0.0020169555418969496 -0.0037418433216824089 0 -0.0029884939800745181 -0.0036193814212750479 0 -0.0020232725310580821 -0.0049130136854733568 0 -0.0024105947685842243 -0.0042802282996355955 0 -0.002649751238678348 -0.004005456531562107 0 -0.0011186746828890299 -0.00086976450515827651 0 -0.0011598665034841659 -0.00071485336296838646 0 -0.0018001818995728514 -8.1721321986380862e-05 0 -0.0017936377239895914 0.00027220409564928082 0 -0.0016305389324983001 0.00029185393009206604 0 -0.0011598665034841659 -0.00071485336296838646 0 -0.0010157213451441514 0.00071670284441999112 0 -0.0017936377239895914 0.00027220409564928082 0 -0.0016305389324983001 0.00029185393009206604 0 -0.0018365386138582461 0.00043183756211121312 0 -0.0024105947685842243 -0.0042802282996355955 0 -0.002649521363377171 -0.0040095044338983388 0 -0.0020169555418969496 -0.0037418433216824089 0 -0.0024105947685842243 -0.0042802282996355955 0 -0.0020169555418969496 -0.0037418433216824089 0 -0.001991569921013187 -0.0043192733753478971 0 -0.0020169555418969496 -0.0037418433216824089 0 -0.001991569921013187 -0.0043192733753478971 0 -0.0015152210662995858 -0.0043459321338013886 0 -0.00024225351934427952 0.0005205749776949661 0 -0.0002196062397241456 0.0006377892471592882 0 6.7400919894479409e-05 0.00048178009698011064 0 -0.00024225351934427952 0.0005205749776949661 0 -0.0002196062397241456 0.0006377892471592882 0 -0.00040665175385112384 0.00063644249120316677 0 -0.00021732903153774024 -0.00082774543764631303 0 -8.4965193479512858e-05 0.00013719174535225211 0 -8.5533957394535852e-05 -0.0010617030640627631 0 -0.0002196062397241456 0.0006377892471592882 0 -0.00040665175385112384 0.00063644249120316677 0 -0.00050203230200108291 0.00079032192520981845 0 0.00011139428119738177 0.00039618543895124912 0 -0.00028718299220896563 0.0019722359540425734 0 -0.00024225351934427952 0.0005205749776949661 0 -0.00054663864222405985 0.00055904662380720088 0 -0.00040665175385112384 0.00063644249120316677 0 -0.00021732903153774024 -0.00082774543764631303 0 -0.00038436735603157758 0.00080121375757062835 0 -0.0001962424029804797 0.00097058026996826917 0 -0.00071067641604972845 -0.0002186239994542197 0 -0.0010157213451441514 0.00071670284441999112 0 -0.00054663864222405985 0.00055904662380720088 0 -0.00040665175385112384 0.00063644249120316677 0 -0.00052361808842330644 0.00066231174534189092 0 -0.00040665175385112384 0.00063644249120316677 0 -0.00052361808842330644 0.00066231174534189092 0 -0.00050203230200108291 0.00079032192520981845 0 -0.00063875624278042064 0.00066350940690815567 0 -0.00052361808842330644 0.00066231174534189092 0 -0.00050203230200108291 0.00079032192520981845 0 -0.00019345897778212824 0.0010707780921046287 0 -0.0001962424029804797 0.00097058026996826917 0 -4.8945011107407759e-07 0.0017604403153670299 0 -0.00028718299220896563 0.0019722359540425734 0 -0.00029760430929760817 0.0019522150215809011 0 -0.0001962424029804797 0.00097058026996826917 0 -4.8945011107407759e-07 0.0017604403153670299 0 -8.4965193479512858e-05 0.00013719174535225211 0 -8.4965193479512858e-05 0.00013719174535225211 0 1.093982326691535e-08 -0.00022723110520823689 0 -8.5533957394535852e-05 -0.0010617030640627631 0 -4.8945011107407759e-07 0.0017604403153670299 0 -8.4965193479512858e-05 0.00013719174535225211 0 1.093982326691535e-08 -0.00022723110520823689 0 -0.00021732903153774024 -0.00082774543764631303 0 -0.0001962424029804797 0.00097058026996826917 0 -8.4965193479512858e-05 0.00013719174535225211 0 1.093982326691535e-08 -0.00022723110520823689 0 3.0840956062652836e-05 -0.0015347931833879743 0 -8.5533957394535852e-05 -0.0010617030640627631 0 3.0840956062652836e-05 -0.0015347931833879743 0 8.2483269376030491e-05 -0.0024403172255909019 0 2.8692417099833142e-07 -0.0022147870458288526 0 1.093982326691535e-08 -0.00022723110520823689 0 3.0840956062652836e-05 -0.0015347931833879743 0 2.8692417099833142e-07 -0.0022147870458288526 0 3.0840956062652836e-05 -0.0015347931833879743 0 8.2483269376030491e-05 -0.0024403172255909019 0 -6.5069600590316923e-05 -0.001989061413060871 0 8.2483269376030491e-05 -0.0024403172255909019 0 -6.0429224303597093e-05 -0.0024164024805825484 0 -6.5069600590316923e-05 -0.001989061413060871 0 -0.00021732903153774024 -0.00082774543764631303 0 -8.5533957394535852e-05 -0.0010617030640627631 0 -0.00018683956651665136 -0.0022829061610153407 0 -6.5069600590316923e-05 -0.001989061413060871 0 -8.5533957394535852e-05 -0.0010617030640627631 0 -0.00018683956651665136 -0.0022829061610153407 0 -6.0429224303597093e-05 -0.0024164024805825484 0 -6.5069600590316923e-05 -0.001989061413060871 0 -0.00018683956651665136 -0.0022829061610153407 0 0.00011139428119738177 0.00039618543895124912 0 9.4815412073782289e-05 -0.00070477268781108521 0 3.0840956062652836e-05 -0.0015347931833879743 0 -6.5069600590316923e-05 -0.001989061413060871 0 -8.5533957394535852e-05 -0.0010617030640627631 0 1.0210818546853211e-06 -0.0042020308566832294 0 0.00032167987962236768 -0.0032139824070592619 0 0.00035554872784278134 -0.0040112192483757044 0 8.2483269376030491e-05 -0.0024403172255909019 0 2.8692417099833142e-07 -0.0022147870458288526 0 0.00032167987962236768 -0.0032139824070592619 0 1.0210818546853211e-06 -0.0042020308566832294 0 2.8692417099833142e-07 -0.0022147870458288526 0 0.00032167987962236768 -0.0032139824070592619 0 8.2483269376030491e-05 -0.0024403172255909019 0 0.00032167987962236768 -0.0032139824070592619 0 0.00023920310841404823 -0.0033402023755277279 0 0.00032167987962236768 -0.0032139824070592619 0 0.00054427746395778681 -0.0037417065961838532 0 0.00035554872784278134 -0.0040112192483757044 0 0.00054427746395778681 -0.0037417065961838532 0 0.00062343665638676287 -0.003726873766568513 0 0.00035554872784278134 -0.0040112192483757044 0 0.00054427746395778681 -0.0037417065961838532 0 0.00065020283435426288 -0.0052491409435213021 0 0.00062343665638676287 -0.003726873766568513 0 0.00032167987962236768 -0.0032139824070592619 0 0.00054427746395778681 -0.0037417065961838532 0 0.00023920310841404823 -0.0033402023755277279 0 0.00054427746395778681 -0.0037417065961838532 0 0.00023920310841404823 -0.0033402023755277279 0 0.00023595314107856789 -0.0044527851699944776 0 0.00023920310841404823 -0.0033402023755277279 0 0.00023595314107856789 -0.0044527851699944776 0 -0.00010992684979098651 -0.0032775342928010485 0 0.00078044108480312914 -0.0021225170687708375 0 0.00057684333387342484 -0.0017489666703664067 0 0.00054427746395778681 -0.0037417065961838532 0 0.00023595314107856789 -0.0044527851699944776 0 0.00065020283435426288 -0.0052491409435213021 0 0.00023595314107856789 -0.0044527851699944776 0 0.00012003904133063367 -0.0052080872804193242 0 -0.00043705871297000735 -0.0048419928807507734 0 0.00023595314107856789 -0.0044527851699944776 0 0.00012003904133063367 -0.0052080872804193242 0 0.00065020283435426288 -0.0052491409435213021 0 0.00012003904133063367 -0.0052080872804193242 0 0.00065020283435426288 -0.0052491409435213021 0 0.00047348677360632295 -0.0056741365938683648 0 0.00065020283435426288 -0.0052491409435213021 0 0.0007002961290559017 -0.0059842435943693881 0 0.00083203963323894969 -0.0067624930201144583 0 0.00065020283435426288 -0.0052491409435213021 0 0.0007002961290559017 -0.0059842435943693881 0 0.00065775658784565931 -0.005883768956016098 0 0.00037615378702725327 -0.0057125510794705124 0 0.00042566089520826701 -0.005719268976120827 0 -0.0020169555418969496 -0.0037418433216824089 0 -0.0015152210662995858 -0.0043459321338013886 0 -0.0010464456705490414 -0.0038676339557589222 0 -0.00071067641604972845 -0.0002186239994542197 0 9.4815412073782289e-05 -0.00070477268781108521 0 -0.00086662280066303376 -0.0043422199760720882 0 -0.0015152210662995858 -0.0043459321338013886 0 -0.0010464456705490414 -0.0038676339557589222 0 -6.0429224303597093e-05 -0.0024164024805825484 0 -0.00018683956651665136 -0.0022829061610153407 0 -0.00010992684979098651 -0.0032775342928010485 0 9.4815412073782289e-05 -0.00070477268781108521 0 0.00057684333387342484 -0.0017489666703664067 0 8.2483269376030491e-05 -0.0024403172255909019 0 -6.0429224303597093e-05 -0.0024164024805825484 0 -0.00010992684979098651 -0.0032775342928010485 0 8.2483269376030491e-05 -0.0024403172255909019 0 0.00023920310841404823 -0.0033402023755277279 0 -0.00010992684979098651 -0.0032775342928010485 0 -0.00086662280066303376 -0.0043422199760720882 0 -0.0010464456705490414 -0.0038676339557589222 0 -0.00038494060747219176 -0.0042280566654361697 0 -0.00086662280066303376 -0.0043422199760720882 0 -0.00038494060747219176 -0.0042280566654361697 0 -0.00043705871297000735 -0.0048419928807507734 0 0.00023595314107856789 -0.0044527851699944776 0 -0.00038494060747219176 -0.0042280566654361697 0 -0.00043705871297000735 -0.0048419928807507734 0 0.00012003904133063367 -0.0052080872804193242 0 -0.00043705871297000735 -0.0048419928807507734 0 -0.00027985543239468491 -0.0053790613946362604 0 -0.00043705871297000735 -0.0048419928807507734 0 -0.0010240378744467953 -0.0053268280869205866 0 -0.00027985543239468491 -0.0053790613946362604 0 -0.0020232725310580821 -0.0049130136854733568 0 -0.0011561262958212828 -0.0047641073384461574 0 -0.0010240378744467953 -0.0053268280869205866 0 -0.00043705871297000735 -0.0048419928807507734 0 -0.0011561262958212828 -0.0047641073384461574 0 -0.0010240378744467953 -0.0053268280869205866 0 -0.00086662280066303376 -0.0043422199760720882 0 -0.00043705871297000735 -0.0048419928807507734 0 -0.0011561262958212828 -0.0047641073384461574 0 -0.00086662280066303376 -0.0043422199760720882 0 -0.0015152210662995858 -0.0043459321338013886 0 -0.0011561262958212828 -0.0047641073384461574 0 -0.0020232725310580821 -0.0049130136854733568 0 -0.0010240378744467953 -0.0053268280869205866 0 -0.0013742198059746953 -0.0058402880129451622 0 -0.0013742198059746953 -0.0058402880129451622 0 -0.00068449465132893242 -0.0063366304633987432 0 -0.00054025292545934356 -0.0056957656779888675 0 -0.0010240378744467953 -0.0053268280869205866 0 -0.0013742198059746953 -0.0058402880129451622 0 -0.00054025292545934356 -0.0056957656779888675 0 -0.0034293506075398746 -0.0062480073747394702 0 -0.0028082808532006016 -0.0055244792903657199 0 -0.0027896003726460127 -0.0068216400918420074 0 -0.0027884525450573155 -0.0055417646769067028 0 -0.0017165182260928636 -0.0070551917585991233 0 -0.0016411601537879472 -0.0063810759435836686 0 -0.0028082808532006016 -0.0055244792903657199 0 -0.0017211434511651177 -0.0070460405439144187 0 -0.0027896003726460127 -0.0068216400918420074 0 -0.0015001098304827023 -0.0044177010241764382 0 -0.0010596138527444673 -0.0060695875116627933 0 -0.0015001098304827023 -0.0044177010241764382 0 -0.00099555998837381576 -0.0056854150726528777 0 -0.0017211434511651177 -0.0070460405439144187 0 -0.0027896003726460127 -0.0068216400918420074 0 -0.0023073086624051083 -0.007568194118439139 0 -0.0033995910750734587 -0.0071146158564270711 0 -0.0027896003726460127 -0.0068216400918420074 0 -0.0029621301670874523 -0.0075981448362978541 0 -9.306821914592647e-06 -0.0068260886851753801 0 -0.00068449465132893242 -0.0063366304633987432 0 -0.00054025292545934356 -0.0056957656779888675 0 -0.00061359586559854237 -0.0066894279089326379 0 -0.00066540360378994443 -0.0063196772969770568 0 6.9942473797689357e-05 -0.0062530717880884294 0 -1.0475905135357682e-05 -0.0059344734356276138 0 -0.00054025292545934356 -0.0056957656779888675 0 -0.0017165182260928636 -0.0070551917585991233 0 -0.00048482379260892473 -0.0072214327643047296 0 -0.0016411601537879472 -0.0063810759435836686 0 -0.00061359586559854237 -0.0066894279089326379 0 -0.00099555998837381576 -0.0056854150726528777 0 -1.0475905135357682e-05 -0.0059344734356276138 0 -0.0001015333913325384 -0.0056875481072038723 0 -0.00054025292545934356 -0.0056957656779888675 0 -0.0010240378744467953 -0.0053268280869205866 0 -0.00054025292545934356 -0.0056957656779888675 0 -0.00027985543239468491 -0.0053790613946362604 0 -0.0001015333913325384 -0.0056875481072038723 0 -0.00054025292545934356 -0.0056957656779888675 0 -0.00027985543239468491 -0.0053790613946362604 0 -0.0001015333913325384 -0.0056875481072038723 0 -0.00027985543239468491 -0.0053790613946362604 0 6.6898732776768757e-05 -0.0055514614679871123 0 0.00012003904133063367 -0.0052080872804193242 0 6.6898732776768757e-05 -0.0055514614679871123 0 0.00047348677360632295 -0.0056741365938683648 0 6.6898732776768757e-05 -0.0055514614679871123 0 0.00047348677360632295 -0.0056741365938683648 0 0.00020326783143760139 -0.0058217417679364272 0 0.00012003904133063367 -0.0052080872804193242 0 -0.00027985543239468491 -0.0053790613946362604 0 6.6898732776768757e-05 -0.0055514614679871123 0 0.00047348677360632295 -0.0056741365938683648 0 0.00020326783143760139 -0.0058217417679364272 0 0.00042904452646762796 -0.0059722630147405198 0 -0.0001015333913325384 -0.0056875481072038723 0 6.6898732776768757e-05 -0.0055514614679871123 0 0.00020326783143760139 -0.0058217417679364272 0 -1.0475905135357682e-05 -0.0059344734356276138 0 -0.0001015333913325384 -0.0056875481072038723 0 0.00020326783143760139 -0.0058217417679364272 0 0.00047348677360632295 -0.0056741365938683648 0 0.00065775658784565931 -0.005883768956016098 0 0.00054925803708030178 -0.0058981673805025099 0 0.00065020283435426288 -0.0052491409435213021 0 0.00047348677360632295 -0.0056741365938683648 0 0.00065775658784565931 -0.005883768956016098 0 0.00047348677360632295 -0.0056741365938683648 0 0.00054925803708030178 -0.0058981673805025099 0 0.00042904452646762796 -0.0059722630147405198 0 0.00065775658784565931 -0.005883768956016098 0 0.00057353052165651697 -0.0060229600549372101 0 0.00061321139571364328 -0.0060726900383007449 0 0.00065775658784565931 -0.005883768956016098 0 0.00054925803708030178 -0.0058981673805025099 0 0.00057353052165651697 -0.0060229600549372101 0 0.00057353052165651697 -0.0060229600549372101 0 0.00041603656617354896 -0.0061373891162700136 0 0.00049083701035846315 -0.0061693077296786991 0 0.00054925803708030178 -0.0058981673805025099 0 0.00057353052165651697 -0.0060229600549372101 0 0.00042904452646762796 -0.0059722630147405198 0 0.00057353052165651697 -0.0060229600549372101 0 0.00041603656617354896 -0.0061373891162700136 0 0.00042904452646762796 -0.0059722630147405198 0 -1.0475905135357682e-05 -0.0059344734356276138 0 0.00020326783143760139 -0.0058217417679364272 0 0.00024210170734086035 -0.0061143032148728163 0 0.00020326783143760139 -0.0058217417679364272 0 0.00042904452646762796 -0.0059722630147405198 0 0.00024210170734086035 -0.0061143032148728163 0 0.00041603656617354896 -0.0061373891162700136 0 0.00024210170734086035 -0.0061143032148728163 0 0.00031211213727245569 -0.0061830206861094904 0 0.00041603656617354896 -0.0061373891162700136 0 0.00042904452646762796 -0.0059722630147405198 0 0.00024210170734086035 -0.0061143032148728163 0 0.00024210170734086035 -0.0061143032148728163 0 0.00023045030500146201 -0.0062433826905029018 0 0.00031211213727245569 -0.0061830206861094904 0 6.9942473797689357e-05 -0.0062530717880884294 0 0.00024210170734086035 -0.0061143032148728163 0 0.00023045030500146201 -0.0062433826905029018 0 6.9942473797689357e-05 -0.0062530717880884294 0 -1.0475905135357682e-05 -0.0059344734356276138 0 0.00024210170734086035 -0.0061143032148728163 0 -0.00061359586559854237 -0.0066894279089326379 0 -0.00058787013240254151 -0.0066901253219982214 0 -0.00061359586559854237 -0.0066894279089326379 0 -0.00056348077044024783 -0.0088497572576509403 0 -0.00048482379260892473 -0.0072214327643047296 0 0.00026820416900192825 -0.0088217002179172416 0 -0.00063536231085149135 -0.0085799131959606503 0 0.0001885163933391861 -0.0062360409643708566 0 0.00023045030500146201 -0.0062433826905029018 0 0.00031309799156596196 -0.0062747944790751851 0 0.00023045030500146201 -0.0062433826905029018 0 0.00031211213727245569 -0.0061830206861094904 0 0.00035604620592281705 -0.0062290923415783917 0 0.00041603656617354896 -0.0061373891162700136 0 0.00031211213727245569 -0.0061830206861094904 0 0.00035604620592281705 -0.0062290923415783917 0 0.00023045030500146201 -0.0062433826905029018 0 0.00035604620592281705 -0.0062290923415783917 0 0.00031309799156596196 -0.0062747944790751851 0 0.00041603656617354896 -0.0061373891162700136 0 0.00035604620592281705 -0.0062290923415783917 0 0.00049083701035846315 -0.0061693077296786991 0 0.00035604620592281705 -0.0062290923415783917 0 0.00049083701035846315 -0.0061693077296786991 0 0.00040865818825381841 -0.0062698487662915716 0 0.00049083701035846315 -0.0061693077296786991 0 0.00040865818825381841 -0.0062698487662915716 0 0.00047863502640286773 -0.0062343151493656108 0 0.00040865818825381841 -0.0062698487662915716 0 0.00037727994255554078 -0.00634486416500057 0 0.00043431304713876259 -0.0063348741793908163 0 0.00040865818825381841 -0.0062698487662915716 0 0.00047863502640286773 -0.0062343151493656108 0 0.00043431304713876259 -0.0063348741793908163 0 0.00026820416900192825 -0.0088217002179172416 0 0.00021426777295615075 -0.0096962255673981399 0 0.0010256088776827911 -0.010430481671998407 0 -0.00056348077044024783 -0.0088497572576509403 0 -0.00033830287487898042 -0.012428341413721886 0 0.00040865818825381841 -0.0062698487662915716 0 0.00031309799156596196 -0.0062747944790751851 0 0.00037727994255554078 -0.00634486416500057 0 0.00026820416900192825 -0.0088217002179172416 0 -0.00010767392479582752 -0.0093015918016943599 0 -0.00063536231085149135 -0.0085799131959606503 0 0.00026820416900192825 -0.0088217002179172416 0 -0.00010767392479582752 -0.0093015918016943599 0 0.00021426777295615075 -0.0096962255673981399 0 0.00035604620592281705 -0.0062290923415783917 0 0.00040865818825381841 -0.0062698487662915716 0 0.00031309799156596196 -0.0062747944790751851 0 0.00021426777295615075 -0.0096962255673981399 0 -0.00027019216709651603 -0.0098939808846561662 0 0.0010256088776827911 -0.010430481671998407 0 -0.00010767392479582752 -0.0093015918016943599 0 -0.00027019216709651603 -0.0098939808846561662 0 -0.00060178167233659559 -0.0094429435999431131 0 -0.00010767392479582752 -0.0093015918016943599 0 0.00021426777295615075 -0.0096962255673981399 0 -0.00027019216709651603 -0.0098939808846561662 0 -0.00027019216709651603 -0.0098939808846561662 0 -0.00060178167233659559 -0.0094429435999431131 0 -0.0011357801912098191 -0.0096165372996255601 0 -0.0011357801912098191 -0.0096165372996255601 0 -0.002582370120432055 -0.0095825078410871345 0 -0.0007084715640480715 -0.010359683202444202 0 -0.00027019216709651603 -0.0098939808846561662 0 -0.0011357801912098191 -0.0096165372996255601 0 -0.0007084715640480715 -0.010359683202444202 0 -0.00060178167233659559 -0.0094429435999431131 0 -0.0010975615581051746 -0.0091068474161311707 0 -0.0011357801912098191 -0.0096165372996255601 0 -0.00060178167233659559 -0.0094429435999431131 0 -0.0010975615581051746 -0.0091068474161311707 0 -0.00063536231085149135 -0.0085799131959606503 0 -0.00010767392479582752 -0.0093015918016943599 0 -0.00060178167233659559 -0.0094429435999431131 0 -0.00063536231085149135 -0.0085799131959606503 0 -0.0015026888729414432 -0.0086434718622976758 0 -0.0010975615581051746 -0.0091068474161311707 0 -0.00063536231085149135 -0.0085799131959606503 0 -0.0010975615581051746 -0.0091068474161311707 0 -0.0016121509046105455 -0.0092510434561183276 0 -0.0011357801912098191 -0.0096165372996255601 0 -0.0015026888729414432 -0.0086434718622976758 0 -0.0010975615581051746 -0.0091068474161311707 0 -0.0016121509046105455 -0.0092510434561183276 0 -0.0016121509046105455 -0.0092510434561183276 0 -0.0011357801912098191 -0.0096165372996255601 0 -0.002582370120432055 -0.0095825078410871345 0 -0.002582370120432055 -0.0095825078410871345 0 -0.0030862229025153541 -0.0089649409284034212 0 -0.0019819915393453316 -0.011324776983652559 0 -0.002582370120432055 -0.0095825078410871345 0 -0.0030862229025153541 -0.0089649409284034212 0 -0.0025401822171289183 -0.008775345356059944 0 -0.0030862229025153541 -0.0089649409284034212 0 -0.0025401822171289183 -0.008775345356059944 0 -0.0026029929466972706 -0.0082419339727951377 0 -0.002582370120432055 -0.0095825078410871345 0 -0.0025401822171289183 -0.008775345356059944 0 -0.0020487644983559839 -0.0089172040452215485 0 -0.0016121509046105455 -0.0092510434561183276 0 -0.002582370120432055 -0.0095825078410871345 0 -0.0020487644983559839 -0.0089172040452215485 0 -0.0025401822171289183 -0.008775345356059944 0 -0.0020487644983559839 -0.0089172040452215485 0 -0.0021002579613531064 -0.0083138668429484398 0 -0.0015026888729414432 -0.0086434718622976758 0 -0.0016121509046105455 -0.0092510434561183276 0 -0.0020487644983559839 -0.0089172040452215485 0 -0.0015026888729414432 -0.0086434718622976758 0 -0.0021002579613531064 -0.0083138668429484398 0 -0.0016533112518419171 -0.0080302481565237074 0 -0.0015026888729414432 -0.0086434718622976758 0 -0.0020487644983559839 -0.0089172040452215485 0 -0.0021002579613531064 -0.0083138668429484398 0 -0.0021002579613531064 -0.0083138668429484398 0 -0.0026029929466972706 -0.0082419339727951377 0 -0.0023073086624051083 -0.007568194118439139 0 -0.0021002579613531064 -0.0083138668429484398 0 -0.0023073086624051083 -0.007568194118439139 0 -0.0016533112518419171 -0.0080302481565237074 0 -0.0030862229025153541 -0.0089649409284034212 0 -0.0026029929466972706 -0.0082419339727951377 0 -0.0029621301670874523 -0.0075981448362978541 0 -0.0025401822171289183 -0.008775345356059944 0 -0.0021002579613531064 -0.0083138668429484398 0 -0.0026029929466972706 -0.0082419339727951377 0 -0.0027896003726460127 -0.0068216400918420074 0 -0.0029621301670874523 -0.0075981448362978541 0 -0.0023073086624051083 -0.007568194118439139 0 -0.0026029929466972706 -0.0082419339727951377 0 -0.0029621301670874523 -0.0075981448362978541 0 -0.0023073086624051083 -0.007568194118439139 0 -0.0017211434511651177 -0.0070460405439144187 0 -0.0023073086624051083 -0.007568194118439139 0 -0.0016533112518419171 -0.0080302481565237074 0 -0.0010596138527444673 -0.0060695875116627933 0 -0.00073401244853181545 -0.0068318269068764178 0 -0.0017165182260928636 -0.0070551917585991233 0 -0.00048482379260892473 -0.0072214327643047296 0 -0.00063536231085149135 -0.0085799131959606503 0 -0.0017211434511651177 -0.0070460405439144187 0 -0.00063536231085149135 -0.0085799131959606503 0 -0.0016533112518419171 -0.0080302481565237074 0 -0.0015026888729414432 -0.0086434718622976758 0 -0.00063536231085149135 -0.0085799131959606503 0 -0.0016533112518419171 -0.0080302481565237074 0 -0.0014758654105873445 -0.018688674361819979 0 -0.001834000597003385 -0.018633441682568575 0 -0.0015063022382919343 -0.018421822124536986 0 -0.0014758654105873445 -0.018688674361819979 0 -0.0016971896189216132 -0.018958137626280541 0 -0.001834000597003385 -0.018633441682568575 0 -0.0012665342532933268 -0.017196513534269823 0 -0.0014729238302937275 -0.017784696316625586 0 -0.0016112636239806878 -0.019240544281732226 0 -0.0011604859424263515 -0.019156999317596464 0 -0.0012798727285337067 -0.019418122728070301 0 -0.0014590213038523762 -0.018880070148125941 0 -0.0017452268662896794 -0.019266604576790556 0 -0.0011604859424263515 -0.019156999317596464 0 -0.0016036721417544248 -0.018209270398277279 0 -0.0012665342532933268 -0.017196513534269823 0 -0.0016971896189216132 -0.018958137626280541 0 -0.001834000597003385 -0.018633441682568575 0 -0.0019527021266766975 -0.018998297241195707 0 0.00051376314080277827 -0.0061542464472631609 0 0.0004851411086960653 -0.0060846130597098577 0 0.00054912166947529309 -0.0062701061285155247 0 -0.0012665342532933268 -0.017196513534269823 0 6.8929541889598486e-06 -0.014902290028092909 0 -0.00028710276981048751 -0.012915377228832417 0 6.8929541889598486e-06 -0.014902290028092909 0 0.00047863502640286773 -0.0062343151493656108 0 0.00043431304713876259 -0.0063348741793908163 0 0.00054912166947529309 -0.0062701061285155247 0 0.00047863502640286773 -0.0062343151493656108 0 0.00051376314080277827 -0.0061542464472631609 0 0.00054912166947529309 -0.0062701061285155247 0 0.00049083701035846315 -0.0061693077296786991 0 0.00051376314080277827 -0.0061542464472631609 0 0.00055368992649751131 -0.0060940914419346541 0 0.00049083701035846315 -0.0061693077296786991 0 0.00047863502640286773 -0.0062343151493656108 0 0.00051376314080277827 -0.0061542464472631609 0 0.00051376314080277827 -0.0061542464472631609 0 0.0004851411086960653 -0.0060846130597098577 0 0.00055368992649751131 -0.0060940914419346541 0 0.0004851411086960653 -0.0060846130597098577 0 0.00055368992649751131 -0.0060940914419346541 0 0.00045387412515466723 -0.0062124546567701435 0 0.00057353052165651697 -0.0060229600549372101 0 0.00055368992649751131 -0.0060940914419346541 0 0.00061321139571364328 -0.0060726900383007449 0 0.00057353052165651697 -0.0060229600549372101 0 0.00049083701035846315 -0.0061693077296786991 0 0.00055368992649751131 -0.0060940914419346541 0 0.00061321139571364328 -0.0060726900383007449 0 0.00045387412515466723 -0.0062124546567701435 0 0.0005811425832883731 -0.0063723190639245449 0 0.00055368992649751131 -0.0060940914419346541 0 0.00061321139571364328 -0.0060726900383007449 0 0.00045387412515466723 -0.0062124546567701435 0 0.0007002961290559017 -0.0059842435943693881 0 0.00065775658784565931 -0.005883768956016098 0 0.00061321139571364328 -0.0060726900383007449 0 0.00045387412515466723 -0.0062124546567701435 0 0.00017374894350665409 -0.0062281787510570005 0 0.00022850004771374653 -0.0066847797911652376 0 -0.001834000597003385 -0.018633441682568575 0 -0.0017288459182602733 -0.018173067857485448 0 -0.0015063022382919343 -0.018421822124536986 0 -0.00028710276981048751 -0.012915377228832417 0 -0.00070656614236089222 -0.012412502621571741 0 0.0004851411086960653 -0.0060846130597098577 0 0.00045387412515466723 -0.0062124546567701435 0 0.00017374894350665409 -0.0062281787510570005 0 -0.0014758654105873445 -0.018688674361819979 0 -0.0015063022382919343 -0.018421822124536986 0 -0.0011772386316767391 -0.018418335695096356 0 -0.0016036721417544248 -0.018209270398277279 0 -0.0015405210817451488 -0.018283708401727886 0 -0.0015063022382919343 -0.018421822124536986 0 -0.001379169951073986 -0.018201216395952326 0 -0.0011772386316767391 -0.018418335695096356 0 -0.0017288459182602733 -0.018173067857485448 0 -0.0015063022382919343 -0.018421822124536986 0 -0.001379169951073986 -0.018201216395952326 0 -0.0017288459182602733 -0.018173067857485448 0 -0.001379169951073986 -0.018201216395952326 0 -0.0013959544758355472 -0.017918265138722928 0 -0.001379169951073986 -0.018201216395952326 0 -0.0013959544758355472 -0.017918265138722928 0 -0.0011276061354144108 -0.018042485499548531 0 -0.0013959544758355472 -0.017918265138722928 0 -0.0015630311434996491 -0.017548710481217058 0 -0.0011733334910051011 -0.017653796021543856 0 -0.0017288459182602733 -0.018173067857485448 0 -0.0013959544758355472 -0.017918265138722928 0 -0.0015630311434996491 -0.017548710481217058 0 -0.0011786395492587439 -0.012366506100801906 0 -0.0012208726560361523 -0.012404804917611719 0 0.00017374894350665409 -0.0062281787510570005 0 -7.2603936936815034e-05 -0.0071102165912734399 0 0.00022850004771374653 -0.0066847797911652376 0 0.00017374894350665409 -0.0062281787510570005 0 -7.2603936936815034e-05 -0.0071102165912734399 0 -0.00017298257311040708 -0.0071581880114623478 0 -0.00070656614236089222 -0.012412502621571741 0 -0.0012208726560361523 -0.012404804917611719 0 0.00022850004771374653 -0.0066847797911652376 0 0.00022670591886722353 -0.0069070380543584759 0 0.0001065718422658728 -0.0070837624861596806 0 0.00022850004771374653 -0.0066847797911652376 0 0.00022670591886722353 -0.0069070380543584759 0 0.00035711353357091168 -0.0066649551297013965 0 -7.2603936936815034e-05 -0.0071102165912734399 0 0.00022850004771374653 -0.0066847797911652376 0 0.0001065718422658728 -0.0070837624861596806 0 -7.2603936936815034e-05 -0.0071102165912734399 0 0.0001065718422658728 -0.0070837624861596806 0 -1.4016382153474885e-05 -0.0073642429368844095 0 0.0001065718422658728 -0.0070837624861596806 0 7.7770367030830962e-05 -0.0074241597482971114 0 -1.4016382153474885e-05 -0.0073642429368844095 0 0.0001065718422658728 -0.0070837624861596806 0 7.7770367030830962e-05 -0.0074241597482971114 0 0.00015944812309698198 -0.0072129862103531622 0 7.7770367030830962e-05 -0.0074241597482971114 0 1.3795446846584997e-05 -0.0076600645274242903 0 -1.4016382153474885e-05 -0.0073642429368844095 0 0.00015944812309698198 -0.0072129862103531622 0 0.00013974568950083797 -0.0074841658551855804 0 0.00027380403238754165 -0.0070124672070021789 0 0.00022670591886722353 -0.0069070380543584759 0 0.00015944812309698198 -0.0072129862103531622 0 0.00027380403238754165 -0.0070124672070021789 0 0.00022670591886722353 -0.0069070380543584759 0 0.0001065718422658728 -0.0070837624861596806 0 0.00015944812309698198 -0.0072129862103531622 0 7.7770367030830962e-05 -0.0074241597482971114 0 0.00015944812309698198 -0.0072129862103531622 0 0.00013974568950083797 -0.0074841658551855804 0 7.7770367030830962e-05 -0.0074241597482971114 0 0.00013974568950083797 -0.0074841658551855804 0 7.1414731058685828e-05 -0.007645529299644644 0 7.7770367030830962e-05 -0.0074241597482971114 0 7.1414731058685828e-05 -0.007645529299644644 0 1.3795446846584997e-05 -0.0076600645274242903 0 -0.0012208726560361523 -0.012404804917611719 0 -0.00046415449977149132 -0.013092998942992108 0 1.3795446846584997e-05 -0.0076600645274242903 0 -4.9896132042335919e-05 -0.0074957903929753463 0 3.4897353287550617e-05 -0.0080048613905166072 0 7.1414731058685828e-05 -0.007645529299644644 0 1.3795446846584997e-05 -0.0076600645274242903 0 5.62165575721709e-05 -0.0078657111507287897 0 1.3795446846584997e-05 -0.0076600645274242903 0 3.4897353287550617e-05 -0.0080048613905166072 0 5.62165575721709e-05 -0.0078657111507287897 0 -4.9896132042335919e-05 -0.0074957903929753463 0 -5.6932381654626335e-05 -0.0074021012200950111 0 -8.3513769303732383e-05 -0.0082278061440184229 0 -4.9896132042335919e-05 -0.0074957903929753463 0 3.4897353287550617e-05 -0.0080048613905166072 0 -8.3513769303732383e-05 -0.0082278061440184229 0 -7.2603936936815034e-05 -0.0071102165912734399 0 -1.4016382153474885e-05 -0.0073642429368844095 0 -0.00010979247203838025 -0.0072669767571735128 0 -4.9896132042335919e-05 -0.0074957903929753463 0 -1.4016382153474885e-05 -0.0073642429368844095 0 -0.00010979247203838025 -0.0072669767571735128 0 -0.0011928610738753673 -0.012322463258716115 0 -0.0012208726560361523 -0.012404804917611719 0 1.3795446846584997e-05 -0.0076600645274242903 0 -4.9896132042335919e-05 -0.0074957903929753463 0 -1.4016382153474885e-05 -0.0073642429368844095 0 0.0007002961290559017 -0.0059842435943693881 0 0.0005811425832883731 -0.0063723190639245449 0 0.00083203963323894969 -0.0067624930201144583 0 0.0007002961290559017 -0.0059842435943693881 0 0.00061321139571364328 -0.0060726900383007449 0 0.0005811425832883731 -0.0063723190639245449 0 0.00045387412515466723 -0.0062124546567701435 0 0.00022850004771374653 -0.0066847797911652376 0 0.00035711353357091168 -0.0066649551297013965 0 0.00045387412515466723 -0.0062124546567701435 0 0.0005811425832883731 -0.0063723190639245449 0 0.00035711353357091168 -0.0066649551297013965 0 0.0005811425832883731 -0.0063723190639245449 0 0.00035711353357091168 -0.0066649551297013965 0 0.0003885855210876639 -0.0070124402441411101 0 0.00022670591886722353 -0.0069070380543584759 0 0.00035711353357091168 -0.0066649551297013965 0 0.00027380403238754165 -0.0070124672070021789 0 0.00035711353357091168 -0.0066649551297013965 0 0.00027380403238754165 -0.0070124672070021789 0 0.0003885855210876639 -0.0070124402441411101 0 0.00013974568950083797 -0.0074841658551855804 0 0.00027380403238754165 -0.0070124672070021789 0 0.0003885855210876639 -0.0070124402441411101 0 0.0003885855210876639 -0.0070124402441411101 0 0.00083203963323894969 -0.0067624930201144583 0 0.00026408325538040636 -0.0076625637176530748 0 0.0005811425832883731 -0.0063723190639245449 0 0.0003885855210876639 -0.0070124402441411101 0 0.00083203963323894969 -0.0067624930201144583 0 0.00062343665638676287 -0.003726873766568513 0 0.00035554872784278134 -0.0040112192483757044 0 -8.7307882741982927e-05 -0.0045559817062749471 0 0.00042566089520826701 -0.005719268976120827 0 0.00036023005455159502 -0.0059302874714070967 0 0.00013974568950083797 -0.0074841658551855804 0 0.0003885855210876639 -0.0070124402441411101 0 0.00026408325538040636 -0.0076625637176530748 0 0.00035554872784278134 -0.0040112192483757044 0 -8.7307882741982927e-05 -0.0045559817062749471 0 -4.6229074947289549e-07 -0.0061898202575075721 0 0.00036023005455159502 -0.0059302874714070967 0 0.00029443571070238573 -0.0061210184693755139 0 -8.7307882741982927e-05 -0.0045559817062749471 0 -4.6229074947289549e-07 -0.0061898202575075721 0 -4.0083099369038072e-05 -0.0071756292897695662 0 1.0210818546853211e-06 -0.0042020308566832294 0 0.00035554872784278134 -0.0040112192483757044 0 -4.6229074947289549e-07 -0.0061898202575075721 0 9.7247474898872111e-05 -0.0080915713209704695 0 9.7741791646495819e-05 -0.0079285724601933765 0 0.00010074093069568822 -0.0087362581734383334 0 9.7247474898872111e-05 -0.0080915713209704695 0 8.7868929017753452e-05 -0.0078186735593529805 0 9.7741791646495819e-05 -0.0079285724601933765 0 9.7247474898872111e-05 -0.0080915713209704695 0 3.4897353287550617e-05 -0.0080048613905166072 0 0.00010074093069568822 -0.0087362581734383334 0 9.7247474898872111e-05 -0.0080915713209704695 0 5.62165575721709e-05 -0.0078657111507287897 0 8.7868929017753452e-05 -0.0078186735593529805 0 7.1414731058685828e-05 -0.007645529299644644 0 5.62165575721709e-05 -0.0078657111507287897 0 8.7868929017753452e-05 -0.0078186735593529805 0 9.7247474898872111e-05 -0.0080915713209704695 0 3.4897353287550617e-05 -0.0080048613905166072 0 5.62165575721709e-05 -0.0078657111507287897 0 0.00013974568950083797 -0.0074841658551855804 0 8.7868929017753452e-05 -0.0078186735593529805 0 0.00010759319020673422 -0.0077126666780187323 0 0.00013974568950083797 -0.0074841658551855804 0 0.00026408325538040636 -0.0076625637176530748 0 0.00010759319020673422 -0.0077126666780187323 0 0.00013974568950083797 -0.0074841658551855804 0 7.1414731058685828e-05 -0.007645529299644644 0 8.7868929017753452e-05 -0.0078186735593529805 0 8.7868929017753452e-05 -0.0078186735593529805 0 0.00010759319020673422 -0.0077126666780187323 0 9.7741791646495819e-05 -0.0079285724601933765 0 0.00010759319020673422 -0.0077126666780187323 0 -4.0083099369038072e-05 -0.0071756292897695662 0 9.7741791646495819e-05 -0.0079285724601933765 0 0.00026408325538040636 -0.0076625637176530748 0 0.00010759319020673422 -0.0077126666780187323 0 -4.0083099369038072e-05 -0.0071756292897695662 0 -4.6229074947289549e-07 -0.0061898202575075721 0 -4.0083099369038072e-05 -0.0071756292897695662 0 2.4550521957597018e-07 -0.0081782628658744021 0 -4.0083099369038072e-05 -0.0071756292897695662 0 2.4550521957597018e-07 -0.0081782628658744021 0 9.7741791646495819e-05 -0.0079285724601933765 0 2.4550521957597018e-07 -0.0081782628658744021 0 9.7741791646495819e-05 -0.0079285724601933765 0 0.00010074093069568822 -0.0087362581734383334 0 2.4550521957597018e-07 -0.0081782628658744021 0 0.00010074093069568822 -0.0087362581734383334 0 5.1251480141561903e-07 -0.010166165168827752 0 3.4897353287550617e-05 -0.0080048613905166072 0 0.00010074093069568822 -0.0087362581734383334 0 -8.3513769303732383e-05 -0.0082278061440184229 0 0.00010074093069568822 -0.0087362581734383334 0 -0.00036891201985107699 -0.0093013196935976278 0 -8.3513769303732383e-05 -0.0082278061440184229 0 -0.00029766855712474479 -0.014261453925560046 0 -0.00046415449977149132 -0.013092998942992108 0 0.00010074093069568822 -0.0087362581734383334 0 5.1251480141561903e-07 -0.010166165168827752 0 -0.00036891201985107699 -0.0093013196935976278 0 5.1251480141561903e-07 -0.010166165168827752 0 -1.8483954788379668e-06 -0.01215061784963015 0 -0.00036891201985107699 -0.0093013196935976278 0 6.6283802231496613e-07 -0.012154959369860746 0 -0.00029766855712474479 -0.014261453925560046 0 -4.9945809931723521e-07 -0.012155607433520371 0 4.9457659754750212e-06 -0.012819023323639309 0 -0.0014234839064169366 -0.014265393553012607 0 -0.00056852465962297098 -0.015265326027259635 0 -0.00028318930347478495 -0.014965256898155038 0 7.4380272219373863e-05 -0.012956030667417781 0 -4.9945809931723521e-07 -0.012155607433520371 0 4.9843448475672802e-07 -0.013494639828033958 0 7.4380272219373863e-05 -0.012956030667417781 0 5.9775580635537673e-05 -0.012849550749347247 0 -6.8329445626813145e-07 -0.013262220640413864 0 7.4380272219373863e-05 -0.012956030667417781 0 -4.9945809931723521e-07 -0.012155607433520371 0 4.9457659754750212e-06 -0.012819023323639309 0 -0.00059099753699967336 -0.015015758564808789 0 -0.00056852465962297098 -0.015265326027259635 0 7.4380272219373863e-05 -0.012956030667417781 0 4.9457659754750212e-06 -0.012819023323639309 0 5.9775580635537673e-05 -0.012849550749347247 0 -0.0026365137266383338 -0.016543410840784437 0 -0.0021424113465110172 -0.018155200961324936 0 -0.0016194511371957468 -0.017205795487838155 0 -0.00056852465962297098 -0.015265326027259635 0 -0.0005537826617720219 -0.017400891631629906 0 4.9457659754750212e-06 -0.012819023323639309 0 0.00016902458558697007 -0.01354892314301135 0 -0.0014234839064169366 -0.014265393553012607 0 -0.00056852465962297098 -0.015265326027259635 0 -0.00029766855712474479 -0.014261453925560046 0 2.852266013379511e-06 -0.016719827193447036 0 -0.00047617198100911797 -0.016946031351930207 0 -0.00032050772569619637 -0.017406615760355765 0 2.852266013379511e-06 -0.016719827193447036 0 -0.00032050772569619637 -0.017406615760355765 0 0.00016673914625443898 -0.017440946234700386 0 0.00016673914625443898 -0.017440946234700386 0 -5.5384688600963607e-05 -0.017856123014248961 0 0.00032841822933710733 -0.018154447536309185 0 -0.0005537826617720219 -0.017400891631629906 0 -0.00043006619715634393 -0.018364320571094307 0 -0.00032050772569619637 -0.017406615760355765 0 0.00016673914625443898 -0.017440946234700386 0 -5.5384688600963607e-05 -0.017856123014248961 0 -0.00032050772569619637 -0.017406615760355765 0 -5.5384688600963607e-05 -0.017856123014248961 0 -0.00043863871488547133 -0.017882119146697448 0 -0.00043863871488547133 -0.017882119146697448 0 -0.00079862738426632449 -0.017909028901250523 0 -0.0008131639511311904 -0.017498025508651514 0 -0.00032050772569619637 -0.017406615760355765 0 -0.00043863871488547133 -0.017882119146697448 0 -0.0008131639511311904 -0.017498025508651514 0 -0.0010966957890277058 -0.016584303369732076 0 -0.0012871795397660132 -0.017184845525443693 0 -0.0013959544758355472 -0.017918265138722928 0 -0.0011733334910051011 -0.017653796021543856 0 -0.0011276061354144108 -0.018042485499548531 0 -0.00079862738426632449 -0.017909028901250523 0 -0.0008131639511311904 -0.017498025508651514 0 -0.0011276061354144108 -0.018042485499548531 0 -0.0011733334910051011 -0.017653796021543856 0 -0.00077748862940387137 -0.017529886338347494 0 -0.0011276061354144108 -0.018042485499548531 0 -0.0015630311434996491 -0.017548710481217058 0 -0.0011733334910051011 -0.017653796021543856 0 -0.0010225543096445131 -0.01726163130090886 0 -0.0011733334910051011 -0.017653796021543856 0 -0.0010225543096445131 -0.01726163130090886 0 -0.00077748862940387137 -0.017529886338347494 0 -0.00047617198100911797 -0.016946031351930207 0 -0.00032050772569619637 -0.017406615760355765 0 -0.0008131639511311904 -0.017498025508651514 0 -0.00043176172089868267 -0.01696785949584944 0 -0.0010225543096445131 -0.01726163130090886 0 -0.00077748862940387137 -0.017529886338347494 0 -0.00029766855712474479 -0.014261453925560046 0 -0.0010966957890277058 -0.016584303369732076 0 0.00045766969864496302 -0.017401879957277041 0 0.00063181370817590524 -0.017880269671556891 0 0.00071651460520614238 -0.018164576657180697 0 0.00045141960101664704 -0.017689348484087979 0 0.00063181370817590524 -0.017880269671556891 0 0.00069056020786111374 -0.018073820074040962 0 0.00045141960101664704 -0.017689348484087979 0 0.00045766969864496302 -0.017401879957277041 0 0.00063181370817590524 -0.017880269671556891 0 0.00016224211124834444 -0.018176899032311001 0 0.00026651046087296861 -0.018574710188694193 0 1.1896682942120189e-06 -0.016667061163102168 0 0.00015024215539968016 -0.016438312845150547 0 8.931717633774091e-06 -0.017907601043854564 0 0.00045766969864496302 -0.017401879957277041 0 0.00015024215539968016 -0.016438312845150547 0 0.00071651460520614238 -0.018164576657180697 0 1.1896682942120189e-06 -0.016667061163102168 0 0.00015024215539968016 -0.016438312845150547 0 -2.0873861558402994e-06 -0.01483945769305945 0 0.00015024215539968016 -0.016438312845150547 0 5.4632087716511905e-05 -0.017080282001729168 0 -0.00026266025973573803 -0.016306782826146882 0 0.00045766969864496302 -0.017401879957277041 0 0.00015024215539968016 -0.016438312845150547 0 5.4632087716511905e-05 -0.017080282001729168 0 0.00045141960101664704 -0.017689348484087979 0 0.00045766969864496302 -0.017401879957277041 0 5.4632087716511905e-05 -0.017080282001729168 0 0.00045141960101664704 -0.017689348484087979 0 5.4632087716511905e-05 -0.017080282001729168 0 8.8540534468758709e-05 -0.017688313174362525 0 5.4632087716511905e-05 -0.017080282001729168 0 -0.00058878657526536876 -0.017241549716373226 0 8.8540534468758709e-05 -0.017688313174362525 0 -0.00058878657526536876 -0.017241549716373226 0 -0.00026266025973573803 -0.016306782826146882 0 -0.0016300330675747567 -0.015961406153224198 0 5.4632087716511905e-05 -0.017080282001729168 0 -0.00058878657526536876 -0.017241549716373226 0 -0.00026266025973573803 -0.016306782826146882 0 0.00015024215539968016 -0.016438312845150547 0 -2.0873861558402994e-06 -0.01483945769305945 0 -0.00026266025973573803 -0.016306782826146882 0 -2.0873861558402994e-06 -0.01483945769305945 0 -0.00026266025973573803 -0.016306782826146882 0 -0.0016300330675747567 -0.015961406153224198 0 -7.2975351991107328e-08 -0.014836223822466136 0 -0.00028318930347478495 -0.014965256898155038 0 -4.9612268450271725e-07 -0.014835604671810226 0 4.9843448475672802e-07 -0.013494639828033958 0 -6.8329445626813145e-07 -0.013262220640413864 0 7.4380272219373863e-05 -0.012956030667417781 0 4.9843448475672802e-07 -0.013494639828033958 0 -6.8329445626813145e-07 -0.013262220640413864 0 -0.0026365137266383338 -0.016543410840784437 0 -0.0016300330675747567 -0.015961406153224198 0 -0.0016194511371957468 -0.017205795487838155 0 -0.00058878657526536876 -0.017241549716373226 0 -0.0016300330675747567 -0.015961406153224198 0 -0.0016194511371957468 -0.017205795487838155 0 -0.00058878657526536876 -0.017241549716373226 0 -0.0016194511371957468 -0.017205795487838155 0 -0.00096229340270364866 -0.018030555849416083 0 -0.0021424113465110172 -0.018155200961324936 0 -0.0016194511371957468 -0.017205795487838155 0 -0.00096229340270364866 -0.018030555849416083 0 -0.0021424113465110172 -0.018155200961324936 0 -0.00081536282197965657 -0.019207703754531791 0 -0.0017533551650232321 -0.019587204046571171 0 -0.0021424113465110172 -0.018155200961324936 0 -0.00096229340270364866 -0.018030555849416083 0 -0.00081536282197965657 -0.019207703754531791 0 -0.00037604414066177646 -0.018567882593632592 0 -0.00047167459544490416 -0.018556519615925499 0 -0.00033197741131262514 -0.018398344044591668 0 5.5133660541494327e-05 -0.018709697523789585 0 -0.00081536282197965657 -0.019207703754531791 0 -0.00033197741131262514 -0.018398344044591668 0 -0.00096229340270364866 -0.018030555849416083 0 -0.00081536282197965657 -0.019207703754531791 0 -0.00033197741131262514 -0.018398344044591668 0 -0.00031176739484357294 -0.017913264628785397 0 0.00012774558332130697 -0.018146729952090355 0 -0.00033197741131262514 -0.018398344044591668 0 -0.00096229340270364866 -0.018030555849416083 0 -0.00031176739484357294 -0.017913264628785397 0 -0.00058878657526536876 -0.017241549716373226 0 -0.00096229340270364866 -0.018030555849416083 0 -0.00031176739484357294 -0.017913264628785397 0 -0.00058878657526536876 -0.017241549716373226 0 -0.00031176739484357294 -0.017913264628785397 0 8.8540534468758709e-05 -0.017688313174362525 0 0.00045141960101664704 -0.017689348484087979 0 8.8540534468758709e-05 -0.017688313174362525 0 0.00052997485964727243 -0.01805353972158814 0 8.8540534468758709e-05 -0.017688313174362525 0 0.00012774558332130697 -0.018146729952090355 0 0.00052997485964727243 -0.01805353972158814 0 -0.00031176739484357294 -0.017913264628785397 0 8.8540534468758709e-05 -0.017688313174362525 0 0.00012774558332130697 -0.018146729952090355 0 -0.00033197741131262514 -0.018398344044591668 0 0.00012774558332130697 -0.018146729952090355 0 5.5133660541494327e-05 -0.018709697523789585 0 5.5133660541494327e-05 -0.018709697523789585 0 0.00040488009598041045 -0.018718406099928316 0 0.00021019161369113974 -0.018831401920162957 0 0.00021800098365118309 -0.018335703464001048 0 0.0003431257764840207 -0.018474642913477331 0 0.00012774558332130697 -0.018146729952090355 0 5.5133660541494327e-05 -0.018709697523789585 0 0.00040488009598041045 -0.018718406099928316 0 0.00053594319878078652 -0.018228409771658544 0 0.00059032665074823206 -0.018133350576752319 0 0.00060657819210885983 -0.018136260411143794 0 0.00053594319878078652 -0.018228409771658544 0 0.00059032665074823206 -0.018133350576752319 0 0.00052997485964727243 -0.01805353972158814 0 0.00012774558332130697 -0.018146729952090355 0 0.00053594319878078652 -0.018228409771658544 0 0.00052997485964727243 -0.01805353972158814 0 0.00059032665074823206 -0.018133350576752319 0 0.00052997485964727243 -0.01805353972158814 0 0.00065260890869188687 -0.018090292621020302 0 0.00052997485964727243 -0.01805353972158814 0 0.00069056020786111374 -0.018073820074040962 0 0.00065260890869188687 -0.018090292621020302 0 0.00045141960101664704 -0.017689348484087979 0 0.00052997485964727243 -0.01805353972158814 0 0.00069056020786111374 -0.018073820074040962 0 0.00031490304551127363 -0.018952036078082265 0 0.00031534978185059244 -0.019136587274393897 0 0.00047710788098462374 -0.019098519681669368 0 0.00031490304551127363 -0.018952036078082265 0 0.00015828756293395191 -0.019076798415516183 0 0.00031534978185059244 -0.019136587274393897 0 0.00040488009598041045 -0.018718406099928316 0 0.00031490304551127363 -0.018952036078082265 0 0.0005122334819088858 -0.018899195454211065 0 0.00040488009598041045 -0.018718406099928316 0 0.00031490304551127363 -0.018952036078082265 0 0.00021019161369113974 -0.018831401920162957 0 0.00031490304551127363 -0.018952036078082265 0 0.00021019161369113974 -0.018831401920162957 0 8.7713391073297923e-05 -0.018901965521694087 0 5.5133660541494327e-05 -0.018709697523789585 0 0.00021019161369113974 -0.018831401920162957 0 8.7713391073297923e-05 -0.018901965521694087 0 0.00031490304551127363 -0.018952036078082265 0 8.7713391073297923e-05 -0.018901965521694087 0 0.00015828756293395191 -0.019076798415516183 0 8.7713391073297923e-05 -0.018901965521694087 0 -7.7821479338954457e-06 -0.019044138726667593 0 0.00015828756293395191 -0.019076798415516183 0 8.7713391073297923e-05 -0.018901965521694087 0 -7.7821479338954457e-06 -0.019044138726667593 0 -7.0543554226621037e-05 -0.018921375951553559 0 5.5133660541494327e-05 -0.018709697523789585 0 8.7713391073297923e-05 -0.018901965521694087 0 -4.6810910051512793e-05 -0.01879417753181014 0 8.7713391073297923e-05 -0.018901965521694087 0 -4.6810910051512793e-05 -0.01879417753181014 0 -7.0543554226621037e-05 -0.018921375951553559 0 -4.6810910051512793e-05 -0.01879417753181014 0 -0.00018309052395170267 -0.018858098326481134 0 -7.0543554226621037e-05 -0.018921375951553559 0 -0.00047167459544490416 -0.018556519615925499 0 -0.00043006619715634393 -0.018364320571094307 0 -0.00043006619715634393 -0.018364320571094307 0 -0.00028806108300016641 -0.018755804232453478 0 -0.00018309052395170267 -0.018858098326481134 0 -7.0543554226621037e-05 -0.018921375951553559 0 -0.00013531878220690585 -0.019021831187342821 0 -7.7821479338954457e-06 -0.019044138726667593 0 -7.0543554226621037e-05 -0.018921375951553559 0 -0.00013531878220690585 -0.019021831187342821 0 -7.7821479338954457e-06 -0.019044138726667593 0 -0.00013531878220690585 -0.019021831187342821 0 -9.6981869725207948e-05 -0.019149482245419396 0 -0.00028806108300016641 -0.018755804232453478 0 -0.00024139072104491135 -0.018893957287211896 0 -0.00014025635737198761 -0.018789308630250395 0 -9.6981869725207948e-05 -0.019149482245419396 0 -0.00038107848519308972 -0.019003129936609183 0 4.7167884110421576e-05 -0.019178203206542236 0 0.00019396009300392134 -0.019279703455928675 0 -3.9312169357377427e-06 -0.019468683264694753 0 -9.6981869725207948e-05 -0.019149482245419396 0 4.7167884110421576e-05 -0.019178203206542236 0 -3.9312169357377427e-06 -0.019468683264694753 0 -7.7821479338954457e-06 -0.019044138726667593 0 4.7167884110421576e-05 -0.019178203206542236 0 0.00015828756293395191 -0.019076798415516183 0 -7.7821479338954457e-06 -0.019044138726667593 0 -9.6981869725207948e-05 -0.019149482245419396 0 4.7167884110421576e-05 -0.019178203206542236 0 0.00015828756293395191 -0.019076798415516183 0 0.00019396009300392134 -0.019279703455928675 0 0.00031534978185059244 -0.019136587274393897 0 4.7167884110421576e-05 -0.019178203206542236 0 0.00015828756293395191 -0.019076798415516183 0 0.00019396009300392134 -0.019279703455928675 0 0.00031312268941211419 -0.019378910835056828 0 0.00040297035697068728 -0.019274359815450531 0 0.00043030807144010585 -0.019525134662501373 0 0.00019396009300392134 -0.019279703455928675 0 0.00031312268941211419 -0.019378910835056828 0 0.00040297035697068728 -0.019274359815450531 0 0.00019396009300392134 -0.019279703455928675 0 0.00040297035697068728 -0.019274359815450531 0 0.00031534978185059244 -0.019136587274393897 0 0.00040297035697068728 -0.019274359815450531 0 0.00031534978185059244 -0.019136587274393897 0 0.00047710788098462374 -0.019098519681669368 0 -0.00094657122260372831 -0.018663768213464375 0 -0.00080558246195829497 -0.018209882691075634 0 -0.00029601995959556161 -0.018402780435739834 0 -0.00069726286387972289 -0.018539120248405819 0 -0.00050674665366743081 -0.018451830293377814 0 -0.00094657122260372831 -0.018663768213464375 0 -0.00058312536098858319 -0.01861061816654062 0 -0.00068029890596404616 -0.018882153084028259 0 -0.00094657122260372831 -0.018663768213464375 0 -0.0011772386316767391 -0.018418335695096356 0 -0.0011221788527882995 -0.018839418336299832 0 -0.00094657122260372831 -0.018663768213464375 0 -0.0011772386316767391 -0.018418335695096356 0 -0.00080558246195829497 -0.018209882691075634 0 -0.0011772386316767391 -0.018418335695096356 0 -0.0011276061354144108 -0.018042485499548531 0 -0.00080558246195829497 -0.018209882691075634 0 -0.001379169951073986 -0.018201216395952326 0 -0.0011772386316767391 -0.018418335695096356 0 -0.0011276061354144108 -0.018042485499548531 0 -0.00079862738426632449 -0.017909028901250523 0 -0.0011276061354144108 -0.018042485499548531 0 -0.00080558246195829497 -0.018209882691075634 0 -0.00043863871488547133 -0.017882119146697448 0 -0.00079862738426632449 -0.017909028901250523 0 -0.00080558246195829497 -0.018209882691075634 0 -0.00043863871488547133 -0.017882119146697448 0 -0.00080558246195829497 -0.018209882691075634 0 -0.00029601995959556161 -0.018402780435739834 0 -5.5384688600963607e-05 -0.017856123014248961 0 -0.00043863871488547133 -0.017882119146697448 0 -0.00029601995959556161 -0.018402780435739834 0 -0.00043006619715634393 -0.018364320571094307 0 -0.00050674665366743081 -0.018451830293377814 0 -5.5384688600963607e-05 -0.017856123014248961 0 0.00032841822933710733 -0.018154447536309185 0 -0.00029601995959556161 -0.018402780435739834 0 -0.00014025635737198761 -0.018789308630250395 0 -0.00058312536098858319 -0.01861061816654062 0 -0.00038107848519308972 -0.019003129936609183 0 -0.00020724971207626515 -0.01847732191488341 0 -0.00014025635737198761 -0.018789308630250395 0 -0.00058312536098858319 -0.01861061816654062 0 -0.00068029890596404616 -0.018882153084028259 0 -0.00038107848519308972 -0.019003129936609183 0 -0.00062399482885985716 -0.019145132750570386 0 -0.00058312536098858319 -0.01861061816654062 0 -0.00068029890596404616 -0.018882153084028259 0 -0.00038107848519308972 -0.019003129936609183 0 -0.00038107848519308972 -0.019003129936609183 0 -0.00062399482885985716 -0.019145132750570386 0 -0.00035328791125443577 -0.019457363474485203 0 -9.6981869725207948e-05 -0.019149482245419396 0 -0.00038107848519308972 -0.019003129936609183 0 -0.00035328791125443577 -0.019457363474485203 0 -0.00090000336966053419 -0.018994724487180172 0 -0.0011604859424263515 -0.019156999317596464 0 -0.00080032425425626561 -0.019445650651120642 0 -0.00062399482885985716 -0.019145132750570386 0 -0.00090000336966053419 -0.018994724487180172 0 -0.00080032425425626561 -0.019445650651120642 0 -0.00068029890596404616 -0.018882153084028259 0 -0.00062399482885985716 -0.019145132750570386 0 -0.00090000336966053419 -0.018994724487180172 0 -0.00094657122260372831 -0.018663768213464375 0 -0.00068029890596404616 -0.018882153084028259 0 -0.00090000336966053419 -0.018994724487180172 0 -0.00090000336966053419 -0.018994724487180172 0 -0.0011221788527882995 -0.018839418336299832 0 -0.0011604859424263515 -0.019156999317596464 0 -0.0014590213038523762 -0.018880070148125941 0 -0.0011772386316767391 -0.018418335695096356 0 -0.0011221788527882995 -0.018839418336299832 0 -0.0014590213038523762 -0.018880070148125941 0 -0.0011221788527882995 -0.018839418336299832 0 -0.0011604859424263515 -0.019156999317596464 0 -0.00094657122260372831 -0.018663768213464375 0 -0.00090000336966053419 -0.018994724487180172 0 -0.0011221788527882995 -0.018839418336299832 0 -0.0011604859424263515 -0.019156999317596464 0 -0.00080032425425626561 -0.019445650651120642 0 -0.0012798727285337067 -0.019418122728070301 0 -0.0007073016406236311 -0.019014740739468024 0 -0.00098276019891212294 -0.018478660309527578 0 -0.00092097284259495371 -0.019490061843643155 0 -0.00067214925187446001 -0.019401061243704713 0 -0.00094967736080301659 -0.019400844367556805 0 -0.00079797295689395295 -0.019594597239956543 0 -0.00070615011929027612 -0.019687928625888945 0 -0.00092097284259495371 -0.019490061843643155 0 -0.00075136883925856638 -0.019552928358959245 0 -0.00073568025218010628 -0.019751422561316911 0 -0.00092097284259495371 -0.019490061843643155 0 -0.00081024355572890006 -0.019546437050863931 0 -0.00093378881932043958 -0.019533148078984271 0 -0.00092097284259495371 -0.019490061843643155 0 -0.00075136883925856638 -0.019552928358959245 0 -0.00067214925187446001 -0.019401061243704713 0 -0.00075136883925856638 -0.019552928358959245 0 -0.00067214925187446001 -0.019401061243704713 0 -0.00049524347059649659 -0.019666531390709958 0 -0.00062399482885985716 -0.019145132750570386 0 -0.00080032425425626561 -0.019445650651120642 0 -0.00035328791125443577 -0.019457363474485203 0 -0.0007073016406236311 -0.019014740739468024 0 -0.00036685378340498595 -0.019259526820485744 0 -0.00034880716467888579 -0.019430004152074541 0 -0.00049524347059649659 -0.019666531390709958 0 -0.00016946498717095859 -0.019647962871927136 0 -0.00067214925187446001 -0.019401061243704713 0 -0.00034880716467888579 -0.019430004152074541 0 -0.00049524347059649659 -0.019666531390709958 0 -0.00049524347059649659 -0.019666531390709958 0 -0.00053405368278202107 -0.019985770346399468 0 -0.00073568025218010628 -0.019751422561316911 0 -0.00049524347059649659 -0.019666531390709958 0 -0.00016946498717095859 -0.019647962871927136 0 -0.00025192121567402525 -0.019888572842961916 0 -0.00049393109541247607 -0.01989476892398237 0 -0.00025685025456960431 -0.019861776602227484 0 -0.00049524347059649659 -0.019666531390709958 0 -0.00053405368278202107 -0.019985770346399468 0 -0.00025192121567402525 -0.019888572842961916 0 -0.00035179199184301896 -0.020030848428255647 0 -0.00048975224866068317 -0.020013040474713806 0 -0.00024905108286784483 -0.019920640356450324 0 -0.00035179199184301896 -0.020030848428255647 0 -0.00024905108286784483 -0.019920640356450324 0 -0.00028860390297671967 -0.020052782119367615 0 -0.00049393109541247607 -0.01989476892398237 0 -0.00049594291840978646 -0.019894438121171577 0 -0.00091583523717290018 -0.019738690001523448 0 -0.00081024355572890006 -0.019546437050863931 0 -0.00077244254363495609 -0.019789216521233888 0 -0.00061889720172490271 -0.019787409409091097 0 -0.00081024355572890006 -0.019546437050863931 0 -0.00077244254363495609 -0.019789216521233888 0 -0.0005711983643103965 -0.019769869090701268 0 -0.00061889720172490271 -0.019787409409091097 0 -0.00081024355572890006 -0.019546437050863931 0 -0.00049393109541247607 -0.01989476892398237 0 -0.00070615011929027612 -0.019687928625888945 0 -0.00091583523717290018 -0.019738690001523448 0 -0.00094295406977497657 -0.019594463985060914 0 -0.00081024355572890006 -0.019546437050863931 0 -0.00091583523717290018 -0.019738690001523448 0 -0.00094295406977497657 -0.019594463985060914 0 -0.00098900640207204011 -0.01961840772692372 0 -0.00094295406977497657 -0.019594463985060914 0 -0.00081024355572890006 -0.019546437050863931 0 -0.00093378881932043958 -0.019533148078984271 0 -0.00075136883925856638 -0.019552928358959245 0 -0.00049524347059649659 -0.019666531390709958 0 -0.00073568025218010628 -0.019751422561316911 0 0.00026675138050674083 -0.019506820965231909 0 0.00029304301329909299 -0.019722657283229573 0 0.00043030807144010585 -0.019525134662501373 0 0.00029304301329909299 -0.019722657283229573 0 0.00043030807144010585 -0.019525134662501373 0 0.00051051976582335663 -0.019767513389840747 0 0.00031312268941211419 -0.019378910835056828 0 0.00026675138050674083 -0.019506820965231909 0 0.00043030807144010585 -0.019525134662501373 0 0.00019396009300392134 -0.019279703455928675 0 0.00031312268941211419 -0.019378910835056828 0 0.00026675138050674083 -0.019506820965231909 0 0.00019396009300392134 -0.019279703455928675 0 0.00026675138050674083 -0.019506820965231909 0 -3.9312169357377427e-06 -0.019468683264694753 0 0.00010100123900700611 -0.019407288402270063 0 -6.011404142471924e-05 -0.019371091051960172 0 0.00026675138050674083 -0.019506820965231909 0 0.00011041875480124309 -0.019620679846964459 0 0.00029304301329909299 -0.019722657283229573 0 0.00026675138050674083 -0.019506820965231909 0 0.00011041875480124309 -0.019620679846964459 0 -3.6697750606615686e-05 -0.019465234162475691 0 0.00011041875480124309 -0.019620679846964459 0 -3.6697750606615686e-05 -0.019465234162475691 0 -0.00016946498717095859 -0.019647962871927136 0 -0.00036685378340498595 -0.019259526820485744 0 -6.011404142471924e-05 -0.019371091051960172 0 -9.6981869725207948e-05 -0.019149482245419396 0 -0.00035328791125443577 -0.019457363474485203 0 -3.9312169357377427e-06 -0.019468683264694753 0 -0.00034880716467888579 -0.019430004152074541 0 -3.6697750606615686e-05 -0.019465234162475691 0 -0.00016946498717095859 -0.019647962871927136 0 -0.00025685025456960431 -0.019861776602227484 0 -1.2596067775913973e-05 -0.019797186324966291 0 -0.00016946498717095859 -0.019647962871927136 0 -0.00025192121567402525 -0.019888572842961916 0 2.2852921829848885e-05 -0.019799620947196377 0 -0.00024905108286784483 -0.019920640356450324 0 1.4932280418939868e-05 -0.019821011751868643 0 -0.00010506356892333399 -0.020057720806495961 0 -0.00024905108286784483 -0.019920640356450324 0 -0.00010506356892333399 -0.020057720806495961 0 -0.00028860390297671967 -0.020052782119367615 0 1.4932280418939868e-05 -0.019821011751868643 0 0.00016272917100588455 -0.019978301149895957 0 -0.00010506356892333399 -0.020057720806495961 0 0.00011041875480124309 -0.019620679846964459 0 -0.00016946498717095859 -0.019647962871927136 0 2.2852921829848885e-05 -0.019799620947196377 0 0.00011041875480124309 -0.019620679846964459 0 2.2852921829848885e-05 -0.019799620947196377 0 0.00029304301329909299 -0.019722657283229573 0 -1.2596067775913973e-05 -0.019797186324966291 0 0.00012483438814517767 -0.019755015624840128 0 1.4932280418939868e-05 -0.019821011751868643 0 0.00016272917100588455 -0.019978301149895957 0 0.00029304301329909299 -0.019722657283229573 0 0.00016272917100588455 -0.019978301149895957 0 0.00040856499882156261 -0.019940669801414113 0 0.00029304301329909299 -0.019722657283229573 0 0.00016272917100588455 -0.019978301149895957 0 0.00040856499882156261 -0.019940669801414113 0 0.00028362148997413176 -0.020114943694570928 0 0.00040856499882156261 -0.019940669801414113 0 0.00029304301329909299 -0.019722657283229573 0 0.00051051976582335663 -0.019767513389840747 0 0.00032066944532038814 -0.020296491793803734 0 0.00028362148997413176 -0.020114943694570928 0 0.00052243226729561747 -0.020123613718744916 0 0.00040856499882156261 -0.019940669801414113 0 0.00028362148997413176 -0.020114943694570928 0 0.00052243226729561747 -0.020123613718744916 0 0.00032066944532038814 -0.020296491793803734 0 0.00028362148997413176 -0.020114943694570928 0 1.7794438558808222e-05 -0.020231748459089802 0 0.00016272917100588455 -0.019978301149895957 0 0.00028362148997413176 -0.020114943694570928 0 1.7794438558808222e-05 -0.020231748459089802 0 0.00031836387051214311 -0.020276690803534489 0 5.3096753436280211e-05 -0.02023105665818414 0 0.00035252951851731993 -0.020276834002777386 0 1.2854666583457496e-05 -0.020211163435753642 0 0.00010640940102955579 -0.020501734368592855 0 1.2854666583457496e-05 -0.020211163435753642 0 -0.00014828420738735579 -0.020271277127647782 0 -0.00012355859055260672 -0.020441406610406086 0 0.00016272917100588455 -0.019978301149895957 0 1.7794438558808222e-05 -0.020231748459089802 0 -0.00010506356892333399 -0.020057720806495961 0 5.3096753436280211e-05 -0.02023105665818414 0 -9.5668509626709451e-05 -0.020205198290589282 0 1.7794438558808222e-05 -0.020231748459089802 0 -0.00010506356892333399 -0.020057720806495961 0 -0.00026680385190581095 -0.020161543464798724 0 -0.00010506356892333399 -0.020057720806495961 0 -0.00028860390297671967 -0.020052782119367615 0 -0.00026680385190581095 -0.020161543464798724 0 -0.00014828420738735579 -0.020271277127647782 0 -0.00026680385190581095 -0.020161543464798724 0 -0.00027514032726522105 -0.020234759440498379 0 1.2854666583457496e-05 -0.020211163435753642 0 -0.00014828420738735579 -0.020271277127647782 0 -0.00026680385190581095 -0.020161543464798724 0 -0.00014828420738735579 -0.020271277127647782 0 -0.00024562820513941529 -0.020365040068976232 0 -0.00027514032726522105 -0.020234759440498379 0 -0.00024562820513941529 -0.020365040068976232 0 -0.00012355859055260672 -0.020441406610406086 0 -0.00032971257272847697 -0.020544341887031529 0 -0.00014828420738735579 -0.020271277127647782 0 -0.00024562820513941529 -0.020365040068976232 0 -0.00012355859055260672 -0.020441406610406086 0 -0.00012355859055260672 -0.020441406610406086 0 -9.2908633629708542e-05 -0.020714291912891938 0 -0.00032971257272847697 -0.020544341887031529 0 -9.2908633629708542e-05 -0.020714291912891938 0 -0.00032971257272847697 -0.020544341887031529 0 -0.00035121140691600283 -0.020916651145928999 0 -0.00012355859055260672 -0.020441406610406086 0 -9.2908633629708542e-05 -0.020714291912891938 0 0.00010640940102955579 -0.020501734368592855 0 1.2854666583457496e-05 -0.020211163435753642 0 -0.00012355859055260672 -0.020441406610406086 0 0.00010640940102955579 -0.020501734368592855 0 0.00035252951851731993 -0.020276834002777386 0 0.00010640940102955579 -0.020501734368592855 0 0.00032168368548805853 -0.020579928811751084 0 0.00010640940102955579 -0.020501734368592855 0 0.00020383424391169104 -0.020789543337809351 0 0.00032168368548805853 -0.020579928811751084 0 -9.2908633629708542e-05 -0.020714291912891938 0 0.00010640940102955579 -0.020501734368592855 0 0.00020383424391169104 -0.020789543337809351 0 0.00020383424391169104 -0.020789543337809351 0 0.00042474323453223602 -0.020764801490099474 0 0.00032168368548805853 -0.020579928811751084 0 0.00042474323453223602 -0.020764801490099474 0 0.00032168368548805853 -0.020579928811751084 0 0.00052458344072531878 -0.020585542070826045 0 0.00035252951851731993 -0.020276834002777386 0 0.00032168368548805853 -0.020579928811751084 0 0.00052458344072531878 -0.020585542070826045 0 -0.00062305713252665414 -0.020092129065401011 0 -0.00052539283299558349 -0.020250162501815036 0 -0.00077716588266652387 -0.020263739451376467 0 -0.00075465867423655652 -0.019954053226974289 0 -0.00062305713252665414 -0.020092129065401011 0 -0.00077716588266652387 -0.020263739451376467 0 -0.00097713604793031204 -0.020007272495136244 0 -0.00075465867423655652 -0.019954053226974289 0 -0.00077716588266652387 -0.020263739451376467 0 -0.00097713604793031204 -0.020007272495136244 0 -0.00077716588266652387 -0.020263739451376467 0 -0.0011488572664319577 -0.020198817931031399 0 -0.00091583523717290018 -0.019738690001523448 0 -0.00097713604793031204 -0.020007272495136244 0 -0.00075465867423655652 -0.019954053226974289 0 -0.00091583523717290018 -0.019738690001523448 0 -0.00077244254363495609 -0.019789216521233888 0 -0.00075465867423655652 -0.019954053226974289 0 -0.00061889720172490271 -0.019787409409091097 0 -0.00077244254363495609 -0.019789216521233888 0 -0.00075465867423655652 -0.019954053226974289 0 -0.00055768382709463042 -0.019767189697553415 0 -0.00061889720172490271 -0.019787409409091097 0 -0.00053974292099253415 -0.019931209565870352 0 -0.00075465867423655652 -0.019954053226974289 0 -0.00053974292099253415 -0.019931209565870352 0 -0.00062305713252665414 -0.020092129065401011 0 -0.00061889720172490271 -0.019787409409091097 0 -0.00075465867423655652 -0.019954053226974289 0 -0.00053974292099253415 -0.019931209565870352 0 -0.00049393109541247607 -0.01989476892398237 0 -0.00042200660085652935 -0.019991070932117608 0 -0.00035179199184301896 -0.020030848428255647 0 -0.00048975224866068317 -0.020013040474713806 0 -0.0003788541735126208 -0.020133761799732825 0 -0.00055768382709463042 -0.019767189697553415 0 -0.00053974292099253415 -0.019931209565870352 0 -0.00039740379021249093 -0.019986074817122772 0 -0.00053974292099253415 -0.019931209565870352 0 -0.00039740379021249093 -0.019986074817122772 0 -0.00049985974259317593 -0.020077586517726297 0 -0.00053974292099253415 -0.019931209565870352 0 -0.00062305713252665414 -0.020092129065401011 0 -0.00049985974259317593 -0.020077586517726297 0 -0.00035179199184301896 -0.020030848428255647 0 -0.00028860390297671967 -0.020052782119367615 0 -0.0003788541735126208 -0.020133761799732825 0 -0.0003788541735126208 -0.020133761799732825 0 -0.00026680385190581095 -0.020161543464798724 0 -0.00027514032726522105 -0.020234759440498379 0 -0.00028860390297671967 -0.020052782119367615 0 -0.0003788541735126208 -0.020133761799732825 0 -0.00026680385190581095 -0.020161543464798724 0 -0.00042200660085652935 -0.019991070932117608 0 -0.00038308905597719801 -0.020041600595803122 0 -0.00039740379021249093 -0.019986074817122772 0 -0.00027514032726522105 -0.020234759440498379 0 -0.00041240555742769094 -0.020184565323818637 0 -0.00027514032726522105 -0.020234759440498379 0 -0.00041240555742769094 -0.020184565323818637 0 -0.00037384059866004787 -0.020348721936580477 0 -0.00041240555742769094 -0.020184565323818637 0 -0.00052539283299558349 -0.020250162501815036 0 -0.00037384059866004787 -0.020348721936580477 0 -0.00024562820513941529 -0.020365040068976232 0 -0.00027514032726522105 -0.020234759440498379 0 -0.00037384059866004787 -0.020348721936580477 0 -0.00062305713252665414 -0.020092129065401011 0 -0.00049985974259317593 -0.020077586517726297 0 -0.00052539283299558349 -0.020250162501815036 0 -0.00039740379021249093 -0.019986074817122772 0 -0.00041240555742769094 -0.020184565323818637 0 -0.00049985974259317593 -0.020077586517726297 0 -0.00041240555742769094 -0.020184565323818637 0 -0.00049985974259317593 -0.020077586517726297 0 -0.00052539283299558349 -0.020250162501815036 0 -0.00052539283299558349 -0.020250162501815036 0 -0.00055705683497133253 -0.020460328660896539 0 -0.00037384059866004787 -0.020348721936580477 0 -0.00052539283299558349 -0.020250162501815036 0 -0.00055705683497133253 -0.020460328660896539 0 -0.00077716588266652387 -0.020263739451376467 0 -0.00055705683497133253 -0.020460328660896539 0 -0.00037384059866004787 -0.020348721936580477 0 -0.00032971257272847697 -0.020544341887031529 0 -0.00024562820513941529 -0.020365040068976232 0 -0.00037384059866004787 -0.020348721936580477 0 -0.00032971257272847697 -0.020544341887031529 0 -0.00055705683497133253 -0.020460328660896539 0 -0.00032971257272847697 -0.020544341887031529 0 -0.00058404705986026136 -0.020730751592291066 0 -0.00055705683497133253 -0.020460328660896539 0 -0.00075620517866243383 -0.020570208641994912 0 -0.00058404705986026136 -0.020730751592291066 0 -0.00055705683497133253 -0.020460328660896539 0 -0.00075620517866243383 -0.020570208641994912 0 -0.00077716588266652387 -0.020263739451376467 0 -0.00075620517866243383 -0.020570208641994912 0 -0.00077716588266652387 -0.020263739451376467 0 -0.0010357887586333748 -0.020538916768033637 0 -0.00077716588266652387 -0.020263739451376467 0 -0.0010357887586333748 -0.020538916768033637 0 -0.0011488572664319577 -0.020198817931031399 0 -0.00075620517866243383 -0.020570208641994912 0 -0.0010357887586333748 -0.020538916768033637 0 -0.00084086882681298119 -0.020858983098135154 0 -0.0010357887586333748 -0.020538916768033637 0 -0.0012529551043666679 -0.020636151148159945 0 -0.0013752273096661078 -0.020402920391601714 0 -0.0012529551043666679 -0.020636151148159945 0 -0.0013752273096661078 -0.020402920391601714 0 -0.0014456954874486156 -0.020735555511275094 0 -0.0013752273096661078 -0.020402920391601714 0 -0.0014162776656714143 -0.020115185688185037 0 -0.0016442894335985283 -0.02024527597820561 0 -0.0013752273096661078 -0.020402920391601714 0 -0.0011488572664319577 -0.020198817931031399 0 -0.0014162776656714143 -0.020115185688185037 0 -0.0010357887586333748 -0.020538916768033637 0 -0.0013752273096661078 -0.020402920391601714 0 -0.0011488572664319577 -0.020198817931031399 0 -0.00097713604793031204 -0.020007272495136244 0 -0.0011488572664319577 -0.020198817931031399 0 -0.0013025671997981601 -0.019872544559074681 0 -0.0011488572664319577 -0.020198817931031399 0 -0.0014162776656714143 -0.020115185688185037 0 -0.0013025671997981601 -0.019872544559074681 0 -0.0014162776656714143 -0.020115185688185037 0 -0.0013025671997981601 -0.019872544559074681 0 -0.0016530174577163083 -0.019966331771259876 0 -0.0011518677517502814 -0.01973256886938491 0 -0.0013388509634594968 -0.019764285129114569 0 -0.00091583523717290018 -0.019738690001523448 0 -0.00097713604793031204 -0.020007272495136244 0 -0.0013025671997981601 -0.019872544559074681 0 -0.0010334395505340688 -0.019710483204723354 0 -0.0011518677517502814 -0.01973256886938491 0 -0.0010695408207012334 -0.019549491544984476 0 -0.0010759948526958699 -0.019549303216360298 0 -0.001103365874661114 -0.019518971282642024 0 -0.0010695408207012334 -0.019549491544984476 0 -0.0010759948526958699 -0.019549303216360298 0 -0.0010740784572983385 -0.019564878960421729 0 -0.0010199753596663969 -0.019626363414466542 0 -0.0010740784572983385 -0.019564878960421729 0 -0.0010671610497933798 -0.019560815852910998 0 -0.0010759948526958699 -0.019549303216360298 0 -0.0010740784572983385 -0.019564878960421729 0 -0.0010671610497933798 -0.019560815852910998 0 -0.0014162776656714143 -0.020115185688185037 0 -0.0016530174577163083 -0.019966331771259876 0 -0.0016442894335985283 -0.02024527597820561 0 -0.0016530174577163083 -0.019966331771259876 0 -0.0018744943969310742 -0.020018752833242337 0 -0.0018962923211768826 -0.019999745091067795 0 -0.0013388509634594968 -0.019764285129114569 0 -0.001502446666410411 -0.019790129575292737 0 -0.0010695408207012334 -0.019549491544984476 0 -0.0010740784572983385 -0.019564878960421729 0 -0.0010417620985963621 -0.019555907245344915 0 -0.0016530174577163083 -0.019966331771259876 0 -0.0016442894335985283 -0.02024527597820561 0 -0.0018744943969310742 -0.020018752833242337 0 -0.0016442894335985283 -0.02024527597820561 0 -0.001867442369060587 -0.020436173307700818 0 -0.0018744943969310742 -0.020018752833242337 0 -0.001091062501813419 -0.019829211883729773 0 -0.0012584694206912433 -0.01991168404972524 0 -0.0013752273096661078 -0.020402920391601714 0 -0.0016648504546929591 -0.020595148879706086 0 -0.0014456954874486156 -0.020735555511275094 0 -0.0013752273096661078 -0.020402920391601714 0 -0.0016442894335985283 -0.02024527597820561 0 -0.0016648504546929591 -0.020595148879706086 0 -0.001091062501813419 -0.019829211883729773 0 -0.00054672785498768839 -0.019221422124666945 0 -0.0016648504546929591 -0.020595148879706086 0 -0.001867442369060587 -0.020436173307700818 0 -0.0018075661485210477 -0.020815856127616817 0 -0.0016442894335985283 -0.02024527597820561 0 -0.0016648504546929591 -0.020595148879706086 0 -0.001867442369060587 -0.020436173307700818 0 -0.0017547599365970094 -0.019795753064629749 0 -0.0018362336443365332 -0.019880471669867318 0 -0.0018773987888032291 -0.019745516748974779 0 -0.00192448395797052 -0.019823052322231343 0 -0.0018362336443365332 -0.019880471669867318 0 -0.0018773987888032291 -0.019745516748974779 0 -0.0017547599365970094 -0.019795753064629749 0 -0.0017741423589911329 -0.019841197008432919 0 -0.0018362336443365332 -0.019880471669867318 0 -0.0017741423589911329 -0.019841197008432919 0 -0.0018362336443365332 -0.019880471669867318 0 -0.0017309711258767079 -0.019769232344008153 0 -0.0018362336443365332 -0.019880471669867318 0 -0.0017309711258767079 -0.019769232344008153 0 -0.0018962923211768826 -0.019999745091067795 0 -0.00192448395797052 -0.019823052322231343 0 -0.0018362336443365332 -0.019880471669867318 0 -0.0018744943969310742 -0.020018752833242337 0 0.0014979875338376959 -0.0080960015021408257 0 0.0014911369963260983 -0.0081357792479879575 0 0.0014194323824876774 -0.0081048110607123084 0 0.0014911369963260983 -0.0081357792479879575 0 0.0014194323824876774 -0.0081048110607123084 0 0.0014254446569474716 -0.0081438549736922612 0 0.0014166307118903072 -0.0080816169791452681 0 0.0014194323824876774 -0.0081048110607123084 0 0.0014254446569474716 -0.0081438549736922612 0 -0.0017547599365970094 -0.019795753064629749 0 -0.0017741423589911329 -0.019841197008432919 0 -0.0019320633440458067 -0.019912837352190692 0 -0.00016262017517957144 -0.01402281096550418 0 -5.8920408724712392e-05 -0.013597413494830207 0 -0.0019320633440458067 -0.019912837352190692 0 -0.0020419828965096889 -0.019515759337313039 0 -0.0017309711258767079 -0.019769232344008153 0 -0.0017741423589911329 -0.019841197008432919 0 -0.0019320633440458067 -0.019912837352190692 0 -0.0017309711258767079 -0.019769232344008153 0 0.0014911369963260983 -0.0081357792479879575 0 0.0014991947558740835 -0.0081942074391345363 0 0.0014254446569474716 -0.0081438549736922612 0 -0.002699935328707795 -0.01941718773639714 0 -0.0019320633440458067 -0.019912837352190692 0 -0.0020419828965096889 -0.019515759337313039 0 -0.002699935328707795 -0.01941718773639714 0 -0.0020419828965096889 -0.019515759337313039 0 -0.0021414741180037391 -0.019127401497755589 0 8.5644517860002434e-05 -0.012788180219658706 0 -5.8920408724712392e-05 -0.013597413494830207 0 -0.0020419828965096889 -0.019515759337313039 0 -0.0017849047643518771 -0.019266950926752707 0 -0.0021414741180037391 -0.019127401497755589 0 -0.0020419828965096889 -0.019515759337313039 0 -0.0017309711258767079 -0.019769232344008153 0 -0.0017849047643518771 -0.019266950926752707 0 -0.0017309711258767079 -0.019769232344008153 0 -0.0017849047643518771 -0.019266950926752707 0 -0.0015412205149066124 -0.019392759928377898 0 -0.0017849047643518771 -0.019266950926752707 0 -0.0018622349263686148 -0.018771291460520294 0 -0.0013932167767767077 -0.018976607172784238 0 -0.0018622349263686148 -0.018771291460520294 0 -0.0013932167767767077 -0.018976607172784238 0 -0.0015916108978160826 -0.01849227666088122 0 -0.0017849047643518771 -0.019266950926752707 0 -0.0018622349263686148 -0.018771291460520294 0 -0.0021414741180037391 -0.019127401497755589 0 -0.0018622349263686148 -0.018771291460520294 0 -0.0024831879495818749 -0.018669579693626228 0 -0.0021414741180037391 -0.019127401497755589 0 -0.002699935328707795 -0.01941718773639714 0 -0.0024831879495818749 -0.018669579693626228 0 -0.0021414741180037391 -0.019127401497755589 0 -0.0018362336443365332 -0.019880471669867318 0 -0.0018744943969310742 -0.020018752833242337 0 -0.0018962923211768826 -0.019999745091067795 0 -0.0010417620985963621 -0.019555907245344915 0 -0.0012473365639075606 -0.019530917928733366 0 -0.0011469607687547611 -0.019509517412783839 0 -0.0010417620985963621 -0.019555907245344915 0 -0.0011469607687547611 -0.019509517412783839 0 -0.0010888634246200492 -0.019528590093801233 0 -0.0010695408207012334 -0.019549491544984476 0 -0.0010417620985963621 -0.019555907245344915 0 -0.0010888634246200492 -0.019528590093801233 0 -0.0017309711258767079 -0.019769232344008153 0 -0.0010417620985963621 -0.019555907245344915 0 -0.0012473365639075606 -0.019530917928733366 0 -0.0016147289435276093 -0.019809243034859356 0 -0.001502446666410411 -0.019790129575292737 0 -0.0017309711258767079 -0.019769232344008153 0 -0.0015412205149066124 -0.019392759928377898 0 -0.0012473365639075606 -0.019530917928733366 0 -0.0015412205149066124 -0.019392759928377898 0 -0.0012473365639075606 -0.019530917928733366 0 -0.0013932167767767077 -0.018976607172784238 0 -0.0012473365639075606 -0.019530917928733366 0 -0.0011514121111890719 -0.019504995302555957 0 -0.0011469607687547611 -0.019509517412783839 0 -0.00070709632961056253 -0.018547494293988092 0 -0.00074104130426159715 -0.018243015398363698 0 -0.0017849047643518771 -0.019266950926752707 0 -0.0015412205149066124 -0.019392759928377898 0 -0.0013932167767767077 -0.018976607172784238 0 -0.0011514121111890719 -0.019504995302555957 0 -0.0011182172416275553 -0.019515903261352975 0 -0.0011330536043897361 -0.019503442186685736 0 -0.0010695408207012334 -0.019549491544984476 0 -0.0011182172416275553 -0.019515903261352975 0 -0.001103365874661114 -0.019518971282642024 0 -0.0011514121111890719 -0.019504995302555957 0 -0.0011182172416275553 -0.019515903261352975 0 -0.0011469607687547611 -0.019509517412783839 0 -0.0011182172416275553 -0.019515903261352975 0 -0.0011469607687547611 -0.019509517412783839 0 -0.0010888634246200492 -0.019528590093801233 0 -0.0010695408207012334 -0.019549491544984476 0 -0.0011182172416275553 -0.019515903261352975 0 -0.0010888634246200492 -0.019528590093801233 0 -0.0011214845789226605 -0.019500467239439948 0 -0.0011330536043897361 -0.019503442186685736 0 -0.0011319057960013361 -0.019487924579614693 0 -0.001103365874661114 -0.019518971282642024 0 -0.0011214845789226605 -0.019500467239439948 0 -0.0011330536043897361 -0.019503442186685736 0 -0.0011182172416275553 -0.019515903261352975 0 -0.001103365874661114 -0.019518971282642024 0 -0.0011330536043897361 -0.019503442186685736 0 -0.001103365874661114 -0.019518971282642024 0 -0.0011083247886292003 -0.019503294224709023 0 -0.0011214845789226605 -0.019500467239439948 0 -0.0011330536043897361 -0.019503442186685736 0 -0.0011443840831309919 -0.019498101453393216 0 -0.0011319057960013361 -0.019487924579614693 0 -0.0011514121111890719 -0.019504995302555957 0 -0.0011330536043897361 -0.019503442186685736 0 -0.0011443840831309919 -0.019498101453393216 0 -0.00074104130426159715 -0.018243015398363698 0 -0.00088071213159240556 -0.01722538139660016 0 -0.00088071213159240556 -0.01722538139660016 0 -0.0004839044301893471 -0.016197294666431727 0 0.00084480913789419364 -0.013672706071113695 0 -0.0011292209641161498 -0.013115653195643822 0 0.00019652323896143448 -0.012344988966881711 0 -0.00028966547897222314 -0.014897113338987729 0 0.00084480913789419364 -0.013672706071113695 0 -0.0011292209641161498 -0.013115653195643822 0 0.00084480913789419364 -0.013672706071113695 0 0.001042433378169603 -0.012531935065156005 0 0.00019652323896143448 -0.012344988966881711 0 0.00084480913789419364 -0.013672706071113695 0 0.0019742102078538913 -0.012453148507233716 0 0.001042433378169603 -0.012531935065156005 0 -0.0004839044301893471 -0.016197294666431727 0 -0.00015233751570257941 -0.015014924943205896 0 -0.0011319057960013361 -0.019487924579614693 0 -0.0011179614583882351 -0.019488384589184678 0 -0.0011150443257070498 -0.019461485708647981 0 -0.0011110716063206306 -0.019476439430763409 0 -0.0011179614583882351 -0.019488384589184678 0 -0.0011040112423368101 -0.019495065320565736 0 -0.0011110716063206306 -0.019476439430763409 0 -0.0011179614583882351 -0.019488384589184678 0 -0.0011150443257070498 -0.019461485708647981 0 -0.0011083247886292003 -0.019503294224709023 0 -0.0011179614583882351 -0.019488384589184678 0 -0.0011040112423368101 -0.019495065320565736 0 -0.0011083247886292003 -0.019503294224709023 0 -0.0011214845789226605 -0.019500467239439948 0 -0.0011179614583882351 -0.019488384589184678 0 -0.0011214845789226605 -0.019500467239439948 0 -0.0011319057960013361 -0.019487924579614693 0 -0.0011179614583882351 -0.019488384589184678 0 -0.0018622349263686148 -0.018771291460520294 0 -0.0024831879495818749 -0.018669579693626228 0 -0.0021555295733907054 -0.018105329009196498 0 -0.0028731910961412423 -0.017998985340606944 0 -0.0024831879495818749 -0.018669579693626228 0 -0.0021555295733907054 -0.018105329009196498 0 -0.0018622349263686148 -0.018771291460520294 0 -0.0014558121936705561 -0.018345351488958665 0 -0.0021555295733907054 -0.018105329009196498 0 -0.0011404812623041956 -0.017539805373845904 0 -0.00088071213159240556 -0.01722538139660016 0 -0.00088071213159240556 -0.01722538139660016 0 -0.00092266924976520883 -0.014115876398950938 0 -0.0014558121936705561 -0.018345351488958665 0 -0.0021555295733907054 -0.018105329009196498 0 -0.0018242985705072949 -0.017520795502885739 0 -0.0021555295733907054 -0.018105329009196498 0 -0.0018242985705072949 -0.017520795502885739 0 -0.0024558468852837237 -0.017517432498302107 0 -0.0028731910961412423 -0.017998985340606944 0 -0.0021555295733907054 -0.018105329009196498 0 -0.0024558468852837237 -0.017517432498302107 0 -0.0018242985705072949 -0.017520795502885739 0 -0.0024558468852837237 -0.017517432498302107 0 -0.0021970644025286561 -0.016715657522300222 0 -0.0032179509280257294 -0.017247573422953872 0 -0.0024558468852837237 -0.017517432498302107 0 -0.0021970644025286561 -0.016715657522300222 0 -0.00092266924976520883 -0.014115876398950938 0 -0.0013569381063963705 -0.0091686576375132629 0 -0.0011292209641161498 -0.013115653195643822 0 -0.00068195409350950127 -0.011654782607371395 0 0.00019652323896143448 -0.012344988966881711 0 -0.0011292209641161498 -0.013115653195643822 0 -0.00068195409350950127 -0.011654782607371395 0 -0.0019752308480790837 -0.011326436883613874 0 -0.00068195409350950127 -0.011654782607371395 0 -0.00044844026883567511 -0.011244421779564967 0 4.4199736706501069e-05 -0.011443962448807854 0 -0.002582370120432055 -0.0095825078410871345 0 -0.00046431507458068839 -0.010697664224502652 0 -0.0007084715640480715 -0.010359683202444202 0 -0.002582370120432055 -0.0095825078410871345 0 -0.00042852725795111853 -0.010734168536169488 0 -0.0012996291761931261 -0.010980025052966172 0 -0.0019024577854909203 -0.01128388988148136 0 -0.0010571122586074471 -0.012166925894509474 0 -0.00072786920052245185 -0.011144944936258791 0 -0.00042852725795111853 -0.010734168536169488 0 -0.0012996291761931261 -0.010980025052966172 0 -0.00068195409350950127 -0.011654782607371395 0 -0.00044844026883567511 -0.011244421779564967 0 -0.00072786920052245185 -0.011144944936258791 0 -0.00068195409350950127 -0.011654782607371395 0 -0.00072786920052245185 -0.011144944936258791 0 -0.0012996291761931261 -0.010980025052966172 0 -0.00044844026883567511 -0.011244421779564967 0 -0.00072786920052245185 -0.011144944936258791 0 -0.00042852725795111853 -0.010734168536169488 0 -0.00068195409350950127 -0.011654782607371395 0 -0.0012996291761931261 -0.010980025052966172 0 -0.0019752308480790837 -0.011326436883613874 0 -0.0014348682668228368 -0.0092615329310064554 0 -0.0013569381063963705 -0.0091686576375132629 0 -0.002582370120432055 -0.0095825078410871345 0 -0.0012996291761931261 -0.010980025052966172 0 -0.0019819915393453316 -0.011324776983652559 0 -0.0020851927292249387 -0.0061082470767482924 0 -0.0013569381063963705 -0.0091686576375132629 0 -0.00054567683654054109 -0.0031568508329709436 0 -0.00041466694629620796 -0.002476752500464158 0 0.00028808701251762715 -0.0039572325247941584 0 -0.00054567683654054109 -0.0031568508329709436 0 -0.00045821018585262237 -0.0038156041910002245 0 0.00028808701251762715 -0.0039572325247941584 0 0.0016954562502769759 -0.011862043484235389 0 0.001042433378169603 -0.012531935065156005 0 0.00069567478973466554 -0.011754668195258743 0 0.00016653146851211033 -0.013888456502028803 0 2.1755092106607891e-05 -0.01381377116857584 0 3.10341548072953e-05 -0.01405745657680235 0 -0.00020183855735981865 -0.014224060763033449 0 -0.00020079135232786951 -0.014946920875126618 0 0.0005082534427585828 -0.014937931371834497 0 0.0001765028427499384 -0.014237694415440056 0 -0.00015450267421789426 -0.014593481603371919 0 -0.00020183855735981865 -0.014224060763033449 0 -0.00015233751570257941 -0.015014924943205896 0 -0.001127743634044928 -0.019444601870876401 0 -0.0011154602645069088 -0.0194309615735309 0 -0.0011027979498194633 -0.019461105269016996 0 -0.00015233751570257941 -0.015014924943205896 0 -0.00020079135232786951 -0.014946920875126618 0 -6.5347032470497316e-05 -0.01536602845855229 0 -0.00015233751570257941 -0.015014924943205896 0 -0.0011110716063206306 -0.019476439430763409 0 -0.001127743634044928 -0.019444601870876401 0 -0.0011027979498194633 -0.019461105269016996 0 0.0016954562502769759 -0.011862043484235389 0 0.0019742102078538913 -0.012453148507233716 0 0.001042433378169603 -0.012531935065156005 0 0.001042433378169603 -0.012531935065156005 0 0.00019652323896143448 -0.012344988966881711 0 0.00069567478973466554 -0.011754668195258743 0 -0.00042852725795111853 -0.010734168536169488 0 0.0016954562502769759 -0.011862043484235389 0 0.00069567478973466554 -0.011754668195258743 0 -0.00068195409350950127 -0.011654782607371395 0 0.00019652323896143448 -0.012344988966881711 0 4.4199736706501069e-05 -0.011443962448807854 0 0.00019652323896143448 -0.012344988966881711 0 0.00069567478973466554 -0.011754668195258743 0 4.4199736706501069e-05 -0.011443962448807854 0 -0.00046431507458068839 -0.010697664224502652 0 0.0015846985937228017 -0.01178627511185475 0 0.00050102612042357227 -0.010758007207403809 0 -0.00027934949907683425 -0.012144842384230345 0 -0.00033830287487898042 -0.012428341413721886 0 -0.0010571122586074471 -0.012166925894509474 0 -0.00020183855735981865 -0.014224060763033449 0 -0.0007084715640480715 -0.010359683202444202 0 0.00050102612042357227 -0.010758007207403809 0 0.00095857258207550247 -0.010449111950087138 0 -0.00027019216709651603 -0.0098939808846561662 0 -0.0007084715640480715 -0.010359683202444202 0 0.0010256088776827911 -0.010430481671998407 0 -0.00044844026883567511 -0.011244421779564967 0 -0.00042852725795111853 -0.010734168536169488 0 4.4199736706501069e-05 -0.011443962448807854 0 -0.00042852725795111853 -0.010734168536169488 0 0.00069567478973466554 -0.011754668195258743 0 4.4199736706501069e-05 -0.011443962448807854 0 -0.00046431507458068839 -0.010697664224502652 0 -0.0007084715640480715 -0.010359683202444202 0 0.00050102612042357227 -0.010758007207403809 0 0.00050102612042357227 -0.010758007207403809 0 0.00095857258207550247 -0.010449111950087138 0 0.0010558144271817956 -0.010655924512546322 0 -0.00015021710851093395 -0.012822671388022761 0 -0.00023051316441004247 -0.012872556914949455 0 -0.00033830287487898042 -0.012428341413721886 0 -0.00010330381834495217 -0.013350636550060108 0 -0.00023051316441004247 -0.012872556914949455 0 -0.00010330381834495217 -0.013350636550060108 0 0.00046598876074315057 -0.013027165507630618 0 0.00036893597110707163 -0.012822350215000927 0 -0.00050558912124651541 -0.01299060247774082 0 -0.00033830287487898042 -0.012428341413721886 0 -0.00023051316441004247 -0.012872556914949455 0 -0.00020183855735981865 -0.014224060763033449 0 -0.00023051316441004247 -0.012872556914949455 0 0.00016653146851211033 -0.013888456502028803 0 0.00030875515109317348 -0.014187645252947146 0 3.10341548072953e-05 -0.01405745657680235 0 0.0015846985937228017 -0.01178627511185475 0 0.00050102612042357227 -0.010758007207403809 0 0.0010548271957697812 -0.010655373182986337 0 0.00030875515109317348 -0.014187645252947146 0 3.10341548072953e-05 -0.01405745657680235 0 7.219383172692986e-05 -0.014233871706023783 0 -0.00020079135232786951 -0.014946920875126618 0 -0.00033724483665822686 -0.015173977944290071 0 3.10341548072953e-05 -0.01405745657680235 0 7.219383172692986e-05 -0.014233871706023783 0 -0.00035433075418443634 -0.014219081973072202 0 0.00016701086512218953 -0.014324975517811013 0 -0.00058954879248980139 -0.014297846882976063 0 -0.00064677157827983578 -0.014359515998176753 0 -0.0003863866536994971 -0.015529599378981027 0 -0.00028874915352961235 -0.015077524637957215 0 -0.00045851888101601014 -0.015526856851244355 0 0.00016701086512218953 -0.014324975517811013 0 -0.00064677157827983578 -0.014359515998176753 0 -0.0008267187415732653 -0.014517680405857762 0 2.1755092106607891e-05 -0.01381377116857584 0 3.10341548072953e-05 -0.01405745657680235 0 -0.00035433075418443634 -0.014219081973072202 0 -0.00010330381834495217 -0.013350636550060108 0 6.8929541889598486e-06 -0.014902290028092909 0 -0.00010330381834495217 -0.013350636550060108 0 -0.00033724483665822686 -0.015173977944290071 0 -0.00033724483665822686 -0.015173977944290071 0 -0.00033628519614973033 -0.015170955190021788 0 -0.0011458607267323133 -0.019490674368974427 0 -0.0010660837662034403 -0.019467019554969593 0 -0.0010428974231675302 -0.01915837277512749 0 1.8981561382252962e-06 -0.016303362363188235 0 -0.00035180560280436638 -0.015627434981219299 0 -7.0698029255364088e-05 -0.015190443878277634 0 -0.0003863866536994971 -0.015529599378981027 0 -0.00028874915352961235 -0.015077524637957215 0 -0.0011035255614791012 -0.019497003439888839 0 -0.0010660837662034403 -0.019467019554969593 0 -0.0010730669232577083 -0.019497501225338804 0 -0.0011035255614791012 -0.019497003439888839 0 -0.0011458607267323133 -0.019490674368974427 0 -0.0010660837662034403 -0.019467019554969593 0 2.1687128522386885e-06 -0.01631801032540961 0 1.8981561382252962e-06 -0.016303362363188235 0 -0.0011154602645069088 -0.0194309615735309 0 -0.0010718780613997059 -0.019457310319721133 0 -0.0011027979498194633 -0.019461105269016996 0 -0.00020079135232786951 -0.014946920875126618 0 1.8981561382252962e-06 -0.016303362363188235 0 -0.001364343342605152 -0.018342895490747545 0 -0.00091979046566761057 -0.017285169959427638 0 -0.0010660837662034403 -0.019467019554969593 0 -0.001046508549155691 -0.019429532624567803 0 -0.0010429866875689771 -0.019471046344337391 0 -0.0010560350632600054 -0.019488004781604968 0 -0.0010660837662034403 -0.019467019554969593 0 -0.0010429866875689771 -0.019471046344337391 0 -0.0010560350632600054 -0.019488004781604968 0 -0.0010429866875689771 -0.019471046344337391 0 -0.0010427962009183073 -0.01949610573679093 0 -0.0010560350632600054 -0.019488004781604968 0 -0.0010660837662034403 -0.019467019554969593 0 -0.0010730669232577083 -0.019497501225338804 0 -0.0011189577107759226 -0.016338548551519633 0 -0.00015904412777995608 -0.016155099098356718 0 -0.00075217431975250235 -0.015841715488707553 0 -0.0010660837662034403 -0.019467019554969593 0 -0.0010428974231675302 -0.01915837277512749 0 -0.00084770388988835148 -0.019162743738608538 0 -0.00058941529688527519 -0.014298109645516444 0 -0.00064677157827983578 -0.014359515998176753 0 -0.00074236737218749205 -0.014292010436429456 0 -0.00033724483665822686 -0.015173977944290071 0 -0.00035180560280436638 -0.015627434981219299 0 -0.00035180560280436638 -0.015627434981219299 0 6.8929541889598486e-06 -0.014902290028092909 0 -0.00064677157827983578 -0.014359515998176753 0 -0.00074236737218749205 -0.014292010436429456 0 -0.0008267187415732653 -0.014517680405857762 0 -5.1005935462331489e-05 -0.015868602525440732 0 -0.00015904412777995608 -0.016155099098356718 0 -0.00075217431975250235 -0.015841715488707553 0 -0.00035180560280436638 -0.015627434981219299 0 -0.00091979046566761057 -0.017285169959427638 0 -0.00091979046566761057 -0.017285169959427638 0 -0.00098276019891212294 -0.018478660309527578 0 -0.0012665342532933268 -0.017196513534269823 0 -0.00091979046566761057 -0.017285169959427638 0 -0.001046508549155691 -0.019429532624567803 0 -0.0010023970303178079 -0.019449746664167683 0 -0.0010429866875689771 -0.019471046344337391 0 -0.001046508549155691 -0.019429532624567803 0 -0.0010023970303178079 -0.019449746664167683 0 -0.00094967736080301659 -0.019400844367556805 0 -0.0016112636239806878 -0.019240544281732226 0 -0.0017218891167499293 -0.019389600841419458 0 -0.0012798727285337067 -0.019418122728070301 0 -0.0010023970303178079 -0.019449746664167683 0 -0.00094967736080301659 -0.019400844367556805 0 -0.00096438094035727179 -0.01945944324857159 0 -0.00092097284259495371 -0.019490061843643155 0 -0.00094967736080301659 -0.019400844367556805 0 -0.00096438094035727179 -0.01945944324857159 0 -0.00092097284259495371 -0.019490061843643155 0 -0.00096438094035727179 -0.01945944324857159 0 -0.0009746648455777198 -0.019492073778292176 0 -0.0010023970303178079 -0.019449746664167683 0 -0.00096438094035727179 -0.01945944324857159 0 -0.0009746648455777198 -0.019492073778292176 0 -0.0009746648455777198 -0.019492073778292176 0 -0.0010158190797858043 -0.019501958036831541 0 -0.00099336537383530664 -0.019547576989413458 0 -0.00092097284259495371 -0.019490061843643155 0 -0.0009746648455777198 -0.019492073778292176 0 -0.00093378881932043958 -0.019533148078984271 0 -0.0010023970303178079 -0.019449746664167683 0 -0.0010429866875689771 -0.019471046344337391 0 -0.0010158190797858043 -0.019501958036831541 0 -0.0010023970303178079 -0.019449746664167683 0 -0.0009746648455777198 -0.019492073778292176 0 -0.0010158190797858043 -0.019501958036831541 0 -0.0010429866875689771 -0.019471046344337391 0 -0.0010158190797858043 -0.019501958036831541 0 -0.0010427962009183073 -0.01949610573679093 0 -0.0010158190797858043 -0.019501958036831541 0 -0.0010427962009183073 -0.01949610573679093 0 -0.0010364277843788322 -0.019530653716404712 0 -0.0010158190797858043 -0.019501958036831541 0 -0.0010364277843788322 -0.019530653716404712 0 -0.00099336537383530664 -0.019547576989413458 0 -0.0010364277843788322 -0.019530653716404712 0 -0.00099336537383530664 -0.019547576989413458 0 -0.0010202678259107795 -0.019579952075331336 0 -0.0009746648455777198 -0.019492073778292176 0 -0.00093378881932043958 -0.019533148078984271 0 -0.00099336537383530664 -0.019547576989413458 0 -0.00094295406977497657 -0.019594463985060914 0 -0.00099336537383530664 -0.019547576989413458 0 -0.00098900640207204011 -0.01961840772692372 0 -0.00094295406977497657 -0.019594463985060914 0 -0.00093378881932043958 -0.019533148078984271 0 -0.00099336537383530664 -0.019547576989413458 0 -0.00091583523717290018 -0.019738690001523448 0 -0.0010199753596663969 -0.019626363414466542 0 -0.00098900640207204011 -0.01961840772692372 0 -0.0010199753596663969 -0.019626363414466542 0 -0.00098900640207204011 -0.01961840772692372 0 -0.0010202678259107795 -0.019579952075331336 0 -0.00099336537383530664 -0.019547576989413458 0 -0.00098900640207204011 -0.01961840772692372 0 -0.0010202678259107795 -0.019579952075331336 0 -0.0010199753596663969 -0.019626363414466542 0 -0.0010202678259107795 -0.019579952075331336 0 -0.0010534951110379011 -0.019552101662921234 0 -0.0010199753596663969 -0.019626363414466542 0 -0.0010534951110379011 -0.019552101662921234 0 -0.0010671610497933798 -0.019560815852910998 0 -0.0010364277843788322 -0.019530653716404712 0 -0.0010202678259107795 -0.019579952075331336 0 -0.0010534951110379011 -0.019552101662921234 0 -0.0010534951110379011 -0.019552101662921234 0 -0.0010740865855113338 -0.019530198591332291 0 -0.0010671610497933798 -0.019560815852910998 0 -0.0010740865855113338 -0.019530198591332291 0 -0.0010671610497933798 -0.019560815852910998 0 -0.0010825039647142391 -0.019532952690550758 0 -0.0010759948526958699 -0.019549303216360298 0 -0.0010671610497933798 -0.019560815852910998 0 -0.0010825039647142391 -0.019532952690550758 0 -0.0010759948526958699 -0.019549303216360298 0 -0.001103365874661114 -0.019518971282642024 0 -0.0010825039647142391 -0.019532952690550758 0 -0.001103365874661114 -0.019518971282642024 0 -0.0010825039647142391 -0.019532952690550758 0 -0.0010921435290597117 -0.019512229135728074 0 -0.001103365874661114 -0.019518971282642024 0 -0.0011083247886292003 -0.019503294224709023 0 -0.0010921435290597117 -0.019512229135728074 0 -0.0010740865855113338 -0.019530198591332291 0 -0.0010825039647142391 -0.019532952690550758 0 -0.0010921435290597117 -0.019512229135728074 0 -0.0010921435290597117 -0.019512229135728074 0 -0.001090824660949825 -0.019493543089455945 0 -0.0010841978375983137 -0.019506523182614196 0 -0.0010740865855113338 -0.019530198591332291 0 -0.0010921435290597117 -0.019512229135728074 0 -0.0010841978375983137 -0.019506523182614196 0 -0.0011040112423368101 -0.019495065320565736 0 -0.0010921435290597117 -0.019512229135728074 0 -0.001090824660949825 -0.019493543089455945 0 -0.0011083247886292003 -0.019503294224709023 0 -0.0011040112423368101 -0.019495065320565736 0 -0.0010921435290597117 -0.019512229135728074 0 -0.0011110716063206306 -0.019476439430763409 0 -0.0011040112423368101 -0.019495065320565736 0 -0.001090824660949825 -0.019493543089455945 0 -0.0011110716063206306 -0.019476439430763409 0 -0.0011027979498194633 -0.019461105269016996 0 -0.001090824660949825 -0.019493543089455945 0 -0.0010718780613997059 -0.019457310319721133 0 -0.0011027979498194633 -0.019461105269016996 0 -0.001090824660949825 -0.019493543089455945 0 -0.0011035255614791012 -0.019497003439888839 0 -0.001090824660949825 -0.019493543089455945 0 -0.0010841978375983137 -0.019506523182614196 0 -0.0011035255614791012 -0.019497003439888839 0 -0.001099274421921301 -0.019498291214020726 0 -0.001090824660949825 -0.019493543089455945 0 1.8981561382252962e-06 -0.016303362363188235 0 -0.00011805249639917938 -0.016630085586370896 0 -0.0011035255614791012 -0.019497003439888839 0 -0.0010841978375983137 -0.019506523182614196 0 -0.0010730669232577083 -0.019497501225338804 0 -0.0010841978375983137 -0.019506523182614196 0 -0.0010730669232577083 -0.019497501225338804 0 -0.0010613500101166037 -0.01951298993361452 0 -0.0010560350632600054 -0.019488004781604968 0 -0.0010730669232577083 -0.019497501225338804 0 -0.0010613500101166037 -0.01951298993361452 0 -0.0010560350632600054 -0.019488004781604968 0 -0.0010427962009183073 -0.01949610573679093 0 -0.0010613500101166037 -0.01951298993361452 0 -0.0010427962009183073 -0.01949610573679093 0 -0.0010364277843788322 -0.019530653716404712 0 -0.0010613500101166037 -0.01951298993361452 0 -0.0010364277843788322 -0.019530653716404712 0 -0.0010534951110379011 -0.019552101662921234 0 -0.0010613500101166037 -0.01951298993361452 0 -0.0010534951110379011 -0.019552101662921234 0 -0.0010740865855113338 -0.019530198591332291 0 -0.0010613500101166037 -0.01951298993361452 0 -0.0010740865855113338 -0.019530198591332291 0 -0.0010841978375983137 -0.019506523182614196 0 -0.0010613500101166037 -0.01951298993361452 0 -2.9030847261740691e-05 -0.034970833750621433 0 -1.2236543709032544e-07 -0.035000112234293293 0 -7.026487622264789e-09 -0.034999905593012366 0 -2.9030847261740691e-05 -0.034970833750621433 0 -1.982041009257311e-05 -0.034891132466906463 0 -1.5810415368058968e-05 -0.03495732563375413 0 9.0155703404913763e-05 -0.034376184855458895 0 8.1748218668021967e-05 -0.034600173348785901 0 -2.9030847261740691e-05 -0.034970833750621433 0 -6.8047269421406796e-05 -0.034962818409214495 0 -1.982041009257311e-05 -0.034891132466906463 0 -0.00023463834735760119 -0.034611862830010047 0 5.3067921551617567e-05 -0.034232520479859557 0 -1.982041009257311e-05 -0.034891132466906463 0 -0.00023463834735760119 -0.034611862830010047 0 5.3067921551617567e-05 -0.034232520479859557 0 -0.0004736370299883606 -0.034003580416026441 0 -2.9030847261740691e-05 -0.034970833750621433 0 -6.8047269421406796e-05 -0.034962818409214495 0 -4.9976222840750861e-05 -0.034925671162258448 0 -6.8047269421406796e-05 -0.034962818409214495 0 -0.00017371493633415157 -0.03486963675038926 0 -4.9976222840750861e-05 -0.034925671162258448 0 5.1517683836174503e-06 -0.033471492749716572 0 -0.00043896135579837495 -0.033401841986116391 0 -0.0004736370299883606 -0.034003580416026441 0 9.0155703404913763e-05 -0.034376184855458895 0 0.00011933057229908381 -0.033660142138647431 0 5.3067921551617567e-05 -0.034232520479859557 0 5.1517683836174503e-06 -0.033471492749716572 0 -0.0004736370299883606 -0.034003580416026441 0 -0.00017371493633415157 -0.03486963675038926 0 -0.00011941483289470819 -0.034762147702806064 0 -0.00026057101338567432 -0.034615780811538134 0 0.00011933057229908381 -0.033660142138647431 0 0.00011731388250493869 -0.03141032839076844 0 5.1517683836174503e-06 -0.033471492749716572 0 -0.00028316439597934293 -0.033084039904084754 0 -9.4886402461772973e-05 -0.032711797554899107 0 5.1517683836174503e-06 -0.033471492749716572 0 -0.00028316439597934293 -0.033084039904084754 0 -0.00043896135579837495 -0.033401841986116391 0 -0.00017371493633415157 -0.03486963675038926 0 -0.00011941483289470819 -0.034762147702806064 0 -4.9976222840750861e-05 -0.034925671162258448 0 -4.9976222840750861e-05 -0.034925671162258448 0 -1.2236543709032544e-07 -0.035000112234293293 0 -2.2548565219705104e-05 -0.034742501659364003 0 -0.00011941483289470819 -0.034762147702806064 0 -4.9976222840750861e-05 -0.034925671162258448 0 -2.2548565219705104e-05 -0.034742501659364003 0 -2.9030847261740691e-05 -0.034970833750621433 0 -4.9976222840750861e-05 -0.034925671162258448 0 -1.2236543709032544e-07 -0.035000112234293293 0 -1.2236543709032544e-07 -0.035000112234293293 0 -2.2548565219705104e-05 -0.034742501659364003 0 0.00019638542449430858 -0.034264273977948706 0 -1.2236543709032544e-07 -0.035000112234293293 0 1.4288400508119376e-06 -0.034996406353424991 0 0.00019638542449430858 -0.034264273977948706 0 -2.2548565219705104e-05 -0.034742501659364003 0 0.00019638542449430858 -0.034264273977948706 0 -0.0001210276106182863 -0.034597819275593293 0 1.4288400508119376e-06 -0.034996406353424991 0 0.00019638542449430858 -0.034264273977948706 0 -2.5677908991042434e-06 -0.03086091204962383 0 0.00019638542449430858 -0.034264273977948706 0 -0.00060549657001279019 -0.033546395530579719 0 -0.00029695450678606774 -0.034184924610584734 0 0.00019638542449430858 -0.034264273977948706 0 -2.5677908991042434e-06 -0.03086091204962383 0 -0.00060549657001279019 -0.033546395530579719 0 -1.0425133024364462e-06 -0.030851188463523516 0 -0.00034240468237019121 -0.029512842731321376 0 0.00013620288040856615 -0.029657421035279463 0 -1.5760965509701771e-07 -0.030854736882133707 0 -2.1377309272326535e-05 -0.031389857850664289 0 -0.00060549657001279019 -0.033546395530579719 0 -0.00029695450678606774 -0.034184924610584734 0 -0.00058601232618088039 -0.034688474213512933 0 -2.1377309272326535e-05 -0.031389857850664289 0 0.00011731388250493869 -0.03141032839076844 0 -0.00034240468237019121 -0.029512842731321376 0 -0.00035489663667545747 -0.029034193588448901 0 -0.00013440837147342299 -0.02931165559228787 0 -0.00035489663667545747 -0.029034193588448901 0 -0.0001253446808291609 -0.029029048111259011 0 -0.00013440837147342299 -0.02931165559228787 0 0.00019638542449430858 -0.034264273977948706 0 -0.00029695450678606774 -0.034184924610584734 0 -0.0001210276106182863 -0.034597819275593293 0 -0.00029695450678606774 -0.034184924610584734 0 -0.0001210276106182863 -0.034597819275593293 0 -0.00058601232618088039 -0.034688474213512933 0 1.468227516384111e-05 -0.031670225482722046 0 0.00011731388250493869 -0.03141032839076844 0 -0.00011941483289470819 -0.034762147702806064 0 -0.0001210276106182863 -0.034597819275593293 0 -0.00026057101338567432 -0.034615780811538134 0 -0.00011941483289470819 -0.034762147702806064 0 -2.2548565219705104e-05 -0.034742501659364003 0 -0.0001210276106182863 -0.034597819275593293 0 -9.4886402461772973e-05 -0.032711797554899107 0 -0.00036013888329883238 -0.032823750731317394 0 -0.0004483947697073563 -0.032710857341503211 0 0.00011731388250493869 -0.03141032839076844 0 -9.9536292425151982e-05 -0.030055844463365376 0 -0.00028316439597934293 -0.033084039904084754 0 -9.4886402461772973e-05 -0.032711797554899107 0 -0.00036013888329883238 -0.032823750731317394 0 -0.00064733052278826645 -0.032795108717931593 0 -0.00047341201314613423 -0.032729548314662883 0 -0.00075779662880007465 -0.03276348922707225 0 -9.9536292425151982e-05 -0.030055844463365376 0 -0.00063915779951486187 -0.029368008388586723 0 -0.00051225037639085122 -0.033012545461624736 0 -0.00064733052278826645 -0.032795108717931593 0 -0.00047341201314613423 -0.032729548314662883 0 -0.00028316439597934293 -0.033084039904084754 0 -0.00036013888329883238 -0.032823750731317394 0 -0.00051225037639085122 -0.033012545461624736 0 -0.00036013888329883238 -0.032823750731317394 0 -0.00051225037639085122 -0.033012545461624736 0 -0.00047341201314613423 -0.032729548314662883 0 -6.9745547121805886e-05 -0.030121010826722215 0 -9.9536292425151982e-05 -0.030055844463365376 0 -0.00064733052278826645 -0.032795108717931593 0 -0.00075779662880007465 -0.03276348922707225 0 -0.00072409445598937993 -0.032827123002962824 0 -0.0011239897212385601 -0.024945919970982777 0 -0.0014542695517931847 -0.025607172304928032 0 -0.00060193587884197451 -0.02550994392786568 0 -9.9536292425151982e-05 -0.030055844463365376 0 -0.00060585330338446702 -0.028355641372428766 0 -0.0019606474729959842 -0.024956259366032157 0 -0.0011239897212385601 -0.024945919970982777 0 -0.0014542695517931847 -0.025607172304928032 0 -0.0001253446808291609 -0.029029048111259011 0 0.00013690708527234064 -0.029425835623485233 0 -0.00013440837147342299 -0.02931165559228787 0 -0.00034240468237019121 -0.029512842731321376 0 -0.00013440837147342299 -0.02931165559228787 0 0.00013620288040856615 -0.029657421035279463 0 0.00013690708527234064 -0.029425835623485233 0 -0.00013440837147342299 -0.02931165559228787 0 0.00013620288040856615 -0.029657421035279463 0 -0.0014542695517931847 -0.025607172304928032 0 -0.00097830883090996323 -0.026327826297742701 0 -0.00060193587884197451 -0.02550994392786568 0 -0.00060585330338446702 -0.028355641372428766 0 -0.00033323080774592771 -0.027950349990434688 0 0.00013690708527234064 -0.029425835623485233 0 0.00013620288040856615 -0.029657421035279463 0 1.4138460770370376e-05 -0.029329589730205476 0 1.4138460770370376e-05 -0.029329589730205476 0 1.0531996192373726e-06 -0.029253477042186213 0 -1.0639569679736961e-06 -0.027653892276824823 0 0.00013620288040856615 -0.029657421035279463 0 1.4138460770370376e-05 -0.029329589730205476 0 1.0531996192373726e-06 -0.029253477042186213 0 -1.0425133024364462e-06 -0.030851188463523516 0 0.00013620288040856615 -0.029657421035279463 0 1.0531996192373726e-06 -0.029253477042186213 0 0.00017416935697488388 -0.026113871370505182 0 -1.642293226397244e-06 -0.027648841296569748 0 4.4597869603474116e-05 -0.025948165295874723 0 0.00017416935697488388 -0.026113871370505182 0 -1.642293226397244e-06 -0.027648841296569748 0 1.4293785024964426e-06 -0.025821886275044864 0 -0.00097830883090996323 -0.026327826297742701 0 -1.642293226397244e-06 -0.027648841296569748 0 4.4597869603474116e-05 -0.025948165295874723 0 -0.00033323080774592771 -0.027950349990434688 0 -6.54864967188033e-07 -0.027652867625238251 0 -0.00097830883090996323 -0.026327826297742701 0 4.4597869603474116e-05 -0.025948165295874723 0 -0.00060193587884197451 -0.02550994392786568 0 0.00017416935697488388 -0.026113871370505182 0 4.4597869603474116e-05 -0.025948165295874723 0 0.00035218542573671474 -0.025593652469635422 0 4.4597869603474116e-05 -0.025948165295874723 0 3.5198196586180207e-05 -0.025393152999606473 0 -0.00060193587884197451 -0.02550994392786568 0 4.4597869603474116e-05 -0.025948165295874723 0 3.5198196586180207e-05 -0.025393152999606473 0 0.00038425805170758272 -0.025526819604258646 0 -0.0011239897212385601 -0.024945919970982777 0 -0.00060193587884197451 -0.02550994392786568 0 -0.00029988964734025227 -0.02498577781735254 0 3.5198196586180207e-05 -0.025393152999606473 0 -0.00060193587884197451 -0.02550994392786568 0 -0.00029988964734025227 -0.02498577781735254 0 -0.00075779662880007465 -0.03276348922707225 0 -0.00077994074736816639 -0.032763425324287554 0 -0.00076518011135345821 -0.032780061818660756 0 -0.00063915779951486187 -0.029368008388586723 0 -0.00063669843069284933 -0.028879928362077187 0 -0.00077994074736816639 -0.032763425324287554 0 -0.00076771173872796597 -0.032766236200669117 0 -0.00076518011135345821 -0.032780061818660756 0 -0.00077994074736816639 -0.032763425324287554 0 -0.00076771173872796597 -0.032766236200669117 0 -0.00070659093956634085 -0.032731413328714119 0 -0.00063669843069284933 -0.028879928362077187 0 -0.00077267361896023634 -0.028393544679201341 0 -0.00077994074736816639 -0.032763425324287554 0 -0.00070659093956634085 -0.032731413328714119 0 -0.00067382487010100227 -0.032733652831457426 0 -0.00076771173872796597 -0.032766236200669117 0 -0.00070659093956634085 -0.032731413328714119 0 -0.00078725966775122303 -0.032797448071412084 0 3.5198196586180207e-05 -0.025393152999606473 0 -0.00029988964734025227 -0.02498577781735254 0 0.00034954672123690614 -0.025063346224658976 0 -0.00070659093956634085 -0.032731413328714119 0 -0.0006894320296913772 -0.032296274434524382 0 -0.00098091553260785621 -0.032285208469165202 0 -0.00082477549659911646 -0.032734861809699485 0 -0.00086412135741792363 -0.03273221914982042 0 -0.0006894320296913772 -0.032296274434524382 0 -0.00086067786290012431 -0.032086206311553074 0 -0.00080772469106621338 -0.03186544969123993 0 -0.00052909331258683295 -0.030995929996149717 0 -0.00052152840327866832 -0.03146073110180396 0 -0.0006894320296913772 -0.032296274434524382 0 -0.00086067786290012431 -0.032086206311553074 0 -0.00098091553260785621 -0.032285208469165202 0 -0.00083766228596460397 -0.031429802660466209 0 -0.00080772469106621338 -0.03186544969123993 0 -0.00085483176466361066 -0.031868780344815488 0 -0.00086067786290012431 -0.032086206311553074 0 -0.00097276112008227761 -0.031999220096754176 0 -0.00089584056263183301 -0.031954551083117545 0 -0.00086067786290012431 -0.032086206311553074 0 -0.00080772469106621338 -0.03186544969123993 0 -0.00089584056263183301 -0.031954551083117545 0 -0.00097276112008227761 -0.031999220096754176 0 -0.00098091553260785621 -0.032285208469165202 0 -0.0011715134018673913 -0.031915635153046913 0 -0.00086412135741792363 -0.03273221914982042 0 -0.00064471463184875074 -0.033216041263669276 0 -0.00086067786290012431 -0.032086206311553074 0 -0.00097276112008227761 -0.031999220096754176 0 -0.00098091553260785621 -0.032285208469165202 0 -0.00078725966775122303 -0.032797448071412084 0 -0.00076518011135345821 -0.032780061818660756 0 -0.00072409445598937993 -0.032827123002962824 0 -0.00076771173872796597 -0.032766236200669117 0 -0.00078725966775122303 -0.032797448071412084 0 -0.00076518011135345821 -0.032780061818660756 0 -0.00075779662880007465 -0.03276348922707225 0 -0.00076518011135345821 -0.032780061818660756 0 -0.00072409445598937993 -0.032827123002962824 0 -0.00066817553011875219 -0.033025024330911326 0 -0.00069289992096468664 -0.033141102752602493 0 -0.00051225037639085122 -0.033012545461624736 0 -0.00064733052278826645 -0.032795108717931593 0 -0.00093301927978224576 -0.033435158286523693 0 -0.00051225037639085122 -0.033012545461624736 0 -0.00093301927978224576 -0.033435158286523693 0 -0.00043896135579837495 -0.033401841986116391 0 -0.00028316439597934293 -0.033084039904084754 0 -0.00051225037639085122 -0.033012545461624736 0 -0.00043896135579837495 -0.033401841986116391 0 -0.00093301927978224576 -0.033435158286523693 0 -0.00043896135579837495 -0.033401841986116391 0 -0.0004736370299883606 -0.034003580416026441 0 -0.00078725966775122303 -0.032797448071412084 0 -0.00072409445598937993 -0.032827123002962824 0 -0.00074454542188907033 -0.03287770735484187 0 -0.00093301927978224576 -0.033435158286523693 0 -0.0011367817451962091 -0.034050675585527337 0 -0.0004736370299883606 -0.034003580416026441 0 -0.00069289992096468664 -0.033141102752602493 0 -0.00064471463184875074 -0.033216041263669276 0 -0.00064471463184875074 -0.033216041263669276 0 -0.00029201424992923611 -0.034304326555873552 0 -0.0011367817451962091 -0.034050675585527337 0 -0.0004736370299883606 -0.034003580416026441 0 -0.00062387397162583594 -0.034684717098733144 0 -0.00023463834735760119 -0.034611862830010047 0 -0.0004736370299883606 -0.034003580416026441 0 -0.00062387397162583594 -0.034684717098733144 0 -0.00024338480662965988 -0.034605296870334673 0 -0.000249948506518558 -0.034602440668639017 0 -0.00023657008781656903 -0.034600251578237838 0 -0.0010232796845889203 -0.031654178063149213 0 -0.00095363695178342671 -0.031774151383412302 0 -0.00083704474492448159 -0.031656463737779326 0 -0.0011715134018673913 -0.031915635153046913 0 -0.0010232796845889203 -0.031654178063149213 0 -0.00095363695178342671 -0.031774151383412302 0 -0.00064471463184875074 -0.033216041263669276 0 -0.00049702035516683684 -0.032961796176494522 0 -0.00083704474492448159 -0.031656463737779326 0 -0.00086407121693579528 -0.031810232199177571 0 -0.00085483176466361066 -0.031868780344815488 0 -0.00095363695178342671 -0.031774151383412302 0 -0.00083704474492448159 -0.031656463737779326 0 -0.00086407121693579528 -0.031810232199177571 0 -0.00014379243283454979 -0.029783289757487862 0 -0.00026055540551383094 -0.028694731372751584 0 0.0016475584772744575 -0.026849214293880902 0 0.0010755899108987155 -0.025236568309209784 0 0.00083308613191307565 -0.025942876289968417 0 -0.00086407121693579528 -0.031810232199177571 0 -0.00080772469106621338 -0.03186544969123993 0 -0.00093355948313107793 -0.031878093283133901 0 -0.00095363695178342671 -0.031774151383412302 0 -0.00086407121693579528 -0.031810232199177571 0 -0.00093355948313107793 -0.031878093283133901 0 -0.00086407121693579528 -0.031810232199177571 0 -0.00080772469106621338 -0.03186544969123993 0 -0.00085483176466361066 -0.031868780344815488 0 -0.00080772469106621338 -0.03186544969123993 0 -0.00089584056263183301 -0.031954551083117545 0 -0.00093355948313107793 -0.031878093283133901 0 -0.00097276112008227761 -0.031999220096754176 0 -0.00089584056263183301 -0.031954551083117545 0 -0.00093355948313107793 -0.031878093283133901 0 -0.0011715134018673913 -0.031915635153046913 0 -0.00095363695178342671 -0.031774151383412302 0 -0.00093355948313107793 -0.031878093283133901 0 -0.00097276112008227761 -0.031999220096754176 0 -0.0011715134018673913 -0.031915635153046913 0 -0.00093355948313107793 -0.031878093283133901 0 -0.0002041108926578667 -0.025772457748707733 0 -0.00075295595762484393 -0.025208679373472775 0 -0.001211924498854285 -0.024880221000574711 0 -6.0271768696926329e-05 -0.025867409127722524 0 -0.00077719164295085585 -0.025780082805488391 0 -0.0010578839491355951 -0.025038716502041189 0 0.00067592172607475328 -0.024142468404196774 0 0.00016276086812715273 -0.022500418364864602 0 -0.0002041108926578667 -0.025772457748707733 0 -6.0822059033232765e-05 -0.025308879615117887 0 0.0003965589369147484 -0.025730082065793514 0 -0.0002041108926578667 -0.025772457748707733 0 -0.00075295595762484393 -0.025208679373472775 0 -6.0822059033232765e-05 -0.025308879615117887 0 -6.0271768696926329e-05 -0.025867409127722524 0 -0.00077719164295085585 -0.025780082805488391 0 -0.00049551780751410659 -0.026317176930366799 0 -0.00075295595762484393 -0.025208679373472775 0 -0.00027004006278266577 -0.024948263589371748 0 -0.00057294849078083849 -0.024715901276931844 0 -0.00075295595762484393 -0.025208679373472775 0 -0.000925564865485676 -0.024766522891884711 0 -0.00057294849078083849 -0.024715901276931844 0 -0.00075295595762484393 -0.025208679373472775 0 -0.00027004006278266577 -0.024948263589371748 0 -6.0822059033232765e-05 -0.025308879615117887 0 -0.00027004006278266577 -0.024948263589371748 0 -6.0822059033232765e-05 -0.025308879615117887 0 0.00011531266990637967 -0.024932975326958057 0 0.00011531266990637967 -0.024932975326958057 0 0.00049240524505323726 -0.024943068956623946 0 0.00038704353184631769 -0.025278478267280372 0 0.00049240524505323726 -0.024943068956623946 0 0.00038704353184631769 -0.025278478267280372 0 0.00066397535162189721 -0.025444648609227578 0 -6.0822059033232765e-05 -0.025308879615117887 0 0.00011531266990637967 -0.024932975326958057 0 0.00038704353184631769 -0.025278478267280372 0 0.00049240524505323726 -0.024943068956623946 0 0.0010755899108987155 -0.025236568309209784 0 0.00066397535162189721 -0.025444648609227578 0 0.0010755899108987155 -0.025236568309209784 0 0.00066397535162189721 -0.025444648609227578 0 0.00083308613191307565 -0.025942876289968417 0 0.00066397535162189721 -0.025444648609227578 0 0.0003965589369147484 -0.025730082065793514 0 0.00083308613191307565 -0.025942876289968417 0 -6.0822059033232765e-05 -0.025308879615117887 0 0.00038704353184631769 -0.025278478267280372 0 0.0003965589369147484 -0.025730082065793514 0 0.00038704353184631769 -0.025278478267280372 0 0.00066397535162189721 -0.025444648609227578 0 0.0003965589369147484 -0.025730082065793514 0 -0.0002041108926578667 -0.025772457748707733 0 0.0003965589369147484 -0.025730082065793514 0 0.00091412768462572583 -0.026676577976445858 0 0.00091412768462572583 -0.026676577976445858 0 -5.8175566509906732e-05 -0.026760736471840636 0 0.00055408590798238281 -0.027263697125286448 0 -6.0271768696926329e-05 -0.025867409127722524 0 0.00091412768462572583 -0.026676577976445858 0 -5.8175566509906732e-05 -0.026760736471840636 0 0.00067592172607475328 -0.024142468404196774 0 0.00098709952683621307 -0.024760705285194515 0 0.0003965589369147484 -0.025730082065793514 0 0.00083308613191307565 -0.025942876289968417 0 0.00091412768462572583 -0.026676577976445858 0 0.0016475584772744575 -0.026849214293880902 0 0.00083308613191307565 -0.025942876289968417 0 0.00091412768462572583 -0.026676577976445858 0 -5.8175566509906732e-05 -0.026760736471840636 0 -0.00049551780751410659 -0.026317176930366799 0 -0.001072669218619519 -0.026732348569977304 0 -6.0271768696926329e-05 -0.025867409127722524 0 -5.8175566509906732e-05 -0.026760736471840636 0 -0.00049551780751410659 -0.026317176930366799 0 0.0010547358200873917 -0.019776211119587966 0 0.0010589800223321183 -0.019781225769509019 0 0.001060875447030273 -0.019789355920648267 0 -0.00077719164295085585 -0.025780082805488391 0 -0.00049551780751410659 -0.026317176930366799 0 -0.001072669218619519 -0.026732348569977304 0 0.00069524191940778849 -0.020472729782260828 0 0.00081834884354065106 -0.020196730871500309 0 0.0010589800223321183 -0.019781225769509019 0 0.001060875447030273 -0.019789355920648267 0 0.0010343602725632602 -0.019790854624224197 0 0.001001269456103287 -0.019787816660977422 0 0.0010121329986406032 -0.019784069589622581 0 0.0010343602725632602 -0.019790854624224197 0 0.001001269456103287 -0.019787816660977422 0 0.0010343602725632602 -0.019790854624224197 0 0.0010099255240890914 -0.019804102660205124 0 0.0010121329986406032 -0.019784069589622581 0 0.00099263717279800116 -0.019754061636611281 0 0.001032586965141521 -0.019741494140746947 0 0.001001269456103287 -0.019787816660977422 0 0.00097338693541066854 -0.019768834933560117 0 0.0010121329986406032 -0.019784069589622581 0 0.00097338693541066854 -0.019768834933560117 0 0.0010121329986406032 -0.019784069589622581 0 0.00099263717279800116 -0.019754061636611281 0 0.00097338693541066854 -0.019768834933560117 0 0.00099263717279800116 -0.019754061636611281 0 0.00096499453156794303 -0.019741479587438191 0 7.3077526793082414e-05 -0.023273419860048557 0 8.4747144888367438e-05 -0.022097979439327231 0 0.00069524191940778849 -0.020472729782260828 0 0.00012726034900730724 -0.021764136123526998 0 0.001060875447030273 -0.019789355920648267 0 0.0010405882086126524 -0.01981887386228251 0 0.0010435835925645446 -0.019821894129253611 0 0.0010547358200873917 -0.019776211119587966 0 0.001060875447030273 -0.019789355920648267 0 0.0010405882086126524 -0.01981887386228251 0 -0.00077719164295085585 -0.025780082805488391 0 -0.001072669218619519 -0.026732348569977304 0 -0.0012026369478113476 -0.024919770871842346 0 -0.00077719164295085585 -0.025780082805488391 0 -0.0010578839491355951 -0.025038716502041189 0 -0.0012026369478113476 -0.024919770871842346 0 0.00016782108485999318 -0.022603234849218452 0 0.00016276086812715273 -0.022500418364864602 0 -0.00075295595762484393 -0.025208679373472775 0 -0.0011950435011077783 -0.024900269145894601 0 -0.000925564865485676 -0.024766522891884711 0 -0.000925564865485676 -0.024766522891884711 0 -0.0010656193012014514 -0.024566157518954083 0 -0.0011770178252461538 -0.024708725677809178 0 -0.0011950435011077783 -0.024900269145894601 0 -0.000925564865485676 -0.024766522891884711 0 -0.0011770178252461538 -0.024708725677809178 0 -0.000925564865485676 -0.024766522891884711 0 -0.0010656193012014514 -0.024566157518954083 0 -0.00079278980570106252 -0.024417224547994602 0 -0.0010656193012014514 -0.024566157518954083 0 -0.0013587276135524752 -0.024469390858880374 0 -0.0010489629904735147 -0.024376014102584387 0 -0.0010656193012014514 -0.024566157518954083 0 -0.0010489629904735147 -0.024376014102584387 0 -0.00079278980570106252 -0.024417224547994602 0 -0.0010656193012014514 -0.024566157518954083 0 -0.0013587276135524752 -0.024469390858880374 0 -0.0011770178252461538 -0.024708725677809178 0 2.9122541244708293e-05 -0.021962370876656433 0 8.4747144888367438e-05 -0.022097979439327231 0 -0.0013587276135524752 -0.024469390858880374 0 -0.0011770178252461538 -0.024708725677809178 0 -0.0013383593634734932 -0.024781975529325467 0 -0.00035359854414874803 -0.02184939214668695 0 -0.00037435214736463243 -0.02154741276154214 0 -0.00026387748261467011 -0.021637878141825041 0 8.4747144888367438e-05 -0.022097979439327231 0 0.00012726034900730724 -0.021764136123526998 0 -0.0011950435011077783 -0.024900269145894601 0 -0.0011770178252461538 -0.024708725677809178 0 -0.0013383593634734932 -0.024781975529325467 0 0.00016276086812715273 -0.022500418364864602 0 8.4747144888367438e-05 -0.022097979439327231 0 2.9122541244708293e-05 -0.021962370876656433 0 0.00012726034900730724 -0.021764136123526998 0 0.00012726034900730724 -0.021764136123526998 0 0.00014238672092687778 -0.02099995969662094 0 -0.00030269035697784907 -0.019674918132619235 0 -0.00021141343916649901 -0.019951485828489716 0 2.4368218509248829e-05 -0.019939712020788314 0 -0.00033766064034463923 -0.019758605459602077 0 -0.00030269035697784907 -0.019674918132619235 0 -0.00021141343916649901 -0.019951485828489716 0 -0.0013587276135524752 -0.024469390858880374 0 -0.00093862547776491184 -0.02403724457049581 0 -0.0010489629904735147 -0.024376014102584387 0 -0.00093862547776491184 -0.02403724457049581 0 -0.0010489629904735147 -0.024376014102584387 0 -0.00079278980570106252 -0.024417224547994602 0 0.001032586965141521 -0.019741494140746947 0 0.00098085657357513357 -0.019706232012768627 0 0.00097537598659772323 -0.019697988025484565 0 0.001032586965141521 -0.019741494140746947 0 0.00098732918925407346 -0.019731944561759245 0 0.00098085657357513357 -0.019706232012768627 0 0.00012726034900730724 -0.021764136123526998 0 0.00043907358338564139 -0.020671016673444786 0 0.00042391155521973652 -0.021216818787070317 0 0.00023571552392194709 -0.021057094898195228 0 0.00015042005488934157 -0.021039274533355034 0 0.00098732918925407346 -0.019731944561759245 0 0.00096499453156794303 -0.019741479587438191 0 0.00095739396940803612 -0.0197141122841854 0 0.00099263717279800116 -0.019754061636611281 0 0.00098732918925407346 -0.019731944561759245 0 0.00096499453156794303 -0.019741479587438191 0 0.00099263717279800116 -0.019754061636611281 0 0.001032586965141521 -0.019741494140746947 0 0.00098732918925407346 -0.019731944561759245 0 0.00098732918925407346 -0.019731944561759245 0 0.00098085657357513357 -0.019706232012768627 0 0.00095739396940803612 -0.0197141122841854 0 0.00043803984753367056 -0.020663129698222645 0 0.00043907358338564139 -0.020671016673444786 0 0.00098085657357513357 -0.019706232012768627 0 0.00097430072590995931 -0.019694763256375484 0 0.00095739396940803612 -0.0197141122841854 0 2.4368218509248829e-05 -0.019939712020788314 0 5.3572420893124669e-05 -0.020370181652040683 0 0.00036470240435322739 -0.020224339394650133 0 2.4368218509248829e-05 -0.019939712020788314 0 -0.00011186613097591854 -0.02016159599527988 0 5.3572420893124669e-05 -0.020370181652040683 0 0.00023571552392194709 -0.021057094898195228 0 0.00015042005488934157 -0.021039274533355034 0 4.7433997239183123e-05 -0.020897918656356911 0 0.00014238672092687778 -0.02099995969662094 0 0.00038749581522515964 -0.020546940302667294 0 -0.00021141343916649901 -0.019951485828489716 0 2.4368218509248829e-05 -0.019939712020788314 0 -0.00011186613097591854 -0.02016159599527988 0 -0.00011186613097591854 -0.02016159599527988 0 -0.00031340229185280419 -0.02034212776390338 0 5.3572420893124669e-05 -0.020370181652040683 0 5.3572420893124669e-05 -0.020370181652040683 0 0.00025330854476225087 -0.020440072814057512 0 0.00036470240435322739 -0.020224339394650133 0 2.9122541244708293e-05 -0.021962370876656433 0 -0.0001176100819162225 -0.021548758910529625 0 -0.00021141343916649901 -0.019951485828489716 0 -0.00011186613097591854 -0.02016159599527988 0 -0.00031340229185280419 -0.02034212776390338 0 -0.0013587276135524752 -0.024469390858880374 0 -0.00093862547776491184 -0.02403724457049581 0 -0.00075244091530970211 -0.023202896001320149 0 -0.00033766064034463923 -0.019758605459602077 0 -0.00021141343916649901 -0.019951485828489716 0 -0.00031340229185280419 -0.02034212776390338 0 2.9122541244708293e-05 -0.021962370876656433 0 -0.0003070465923731153 -0.022563891398349065 0 -0.0002598974117514838 -0.022174439539453035 0 -0.00025740342880351018 -0.022271620888276614 0 -0.00029761227444160952 -0.022258239631313247 0 -0.00075244091530970211 -0.023202896001320149 0 -0.00037498307955177067 -0.023431471655397506 0 -0.00057248803297372164 -0.023687730815224187 0 -0.00075244091530970211 -0.023202896001320149 0 -0.00014622904030021263 -0.023181514124297913 0 -0.00017118230518888859 -0.022901210719049648 0 -0.00014622904030021263 -0.023181514124297913 0 -0.00037498307955177067 -0.023431471655397506 0 -4.8866139774695977e-05 -0.023586144003388473 0 -0.00075244091530970211 -0.023202896001320149 0 -0.00014622904030021263 -0.023181514124297913 0 -0.00037498307955177067 -0.023431471655397506 0 -0.00037498307955177067 -0.023431471655397506 0 -0.00025182897657091176 -0.023742564727764634 0 -0.00057248803297372164 -0.023687730815224187 0 -0.00037498307955177067 -0.023431471655397506 0 -4.8866139774695977e-05 -0.023586144003388473 0 -0.00025182897657091176 -0.023742564727764634 0 -4.8866139774695977e-05 -0.023586144003388473 0 -0.00025182897657091176 -0.023742564727764634 0 7.8073183750355761e-05 -0.023907430458042205 0 -0.00093862547776491184 -0.02403724457049581 0 -0.00075244091530970211 -0.023202896001320149 0 -0.00057248803297372164 -0.023687730815224187 0 -0.00025182897657091176 -0.023742564727764634 0 -0.00057248803297372164 -0.023687730815224187 0 -0.00055725956892933035 -0.024040224952294662 0 -0.00093862547776491184 -0.02403724457049581 0 -0.00057248803297372164 -0.023687730815224187 0 -0.00055725956892933035 -0.024040224952294662 0 -0.00093862547776491184 -0.02403724457049581 0 -0.00055725956892933035 -0.024040224952294662 0 -0.00079278980570106252 -0.024417224547994602 0 -0.00055725956892933035 -0.024040224952294662 0 -0.00079278980570106252 -0.024417224547994602 0 -0.00049029031793825829 -0.024394428076806474 0 -0.00025182897657091176 -0.023742564727764634 0 -0.00055725956892933035 -0.024040224952294662 0 -0.00012594113323559917 -0.024176748006777778 0 -0.00025182897657091176 -0.023742564727764634 0 -0.00012594113323559917 -0.024176748006777778 0 7.8073183750355761e-05 -0.023907430458042205 0 -0.00055725956892933035 -0.024040224952294662 0 -0.00012594113323559917 -0.024176748006777778 0 -0.00049029031793825829 -0.024394428076806474 0 -0.00012594113323559917 -0.024176748006777778 0 -0.00020449654823779184 -0.024568885725162373 0 -0.00049029031793825829 -0.024394428076806474 0 -0.00020449654823779184 -0.024568885725162373 0 -0.00057294849078083849 -0.024715901276931844 0 -0.00049029031793825829 -0.024394428076806474 0 -0.00012594113323559917 -0.024176748006777778 0 -0.00020449654823779184 -0.024568885725162373 0 0.00019028215060379745 -0.024560445509493968 0 0.00011531266990637967 -0.024932975326958057 0 -0.00020449654823779184 -0.024568885725162373 0 0.00019028215060379745 -0.024560445509493968 0 -0.00027004006278266577 -0.024948263589371748 0 0.00011531266990637967 -0.024932975326958057 0 -0.00020449654823779184 -0.024568885725162373 0 -0.00027004006278266577 -0.024948263589371748 0 -0.00020449654823779184 -0.024568885725162373 0 -0.00057294849078083849 -0.024715901276931844 0 -0.000925564865485676 -0.024766522891884711 0 -0.00057294849078083849 -0.024715901276931844 0 -0.00079278980570106252 -0.024417224547994602 0 -0.00057294849078083849 -0.024715901276931844 0 -0.00079278980570106252 -0.024417224547994602 0 -0.00049029031793825829 -0.024394428076806474 0 -0.00083766228596460397 -0.031429802660466209 0 -0.00085483176466361066 -0.031868780344815488 0 -0.0010372631734110391 -0.031428855773429611 0 -0.00026055540551383094 -0.028694731372751584 0 -0.0005249053018318953 -0.02786045943567474 0 0.0010755899108987155 -0.025236568309209784 0 0.00035356539509311666 -0.024413993449340796 0 0.000442732569912238 -0.023719773493154982 0 0.00049240524505323726 -0.024943068956623946 0 0.0010755899108987155 -0.025236568309209784 0 0.00035356539509311666 -0.024413993449340796 0 0.00049240524505323726 -0.024943068956623946 0 0.00019028215060379745 -0.024560445509493968 0 0.00035356539509311666 -0.024413993449340796 0 0.00011531266990637967 -0.024932975326958057 0 0.00049240524505323726 -0.024943068956623946 0 0.00019028215060379745 -0.024560445509493968 0 -0.00012594113323559917 -0.024176748006777778 0 0.00035356539509311666 -0.024413993449340796 0 7.8073183750355761e-05 -0.023907430458042205 0 0.00035356539509311666 -0.024413993449340796 0 0.000442732569912238 -0.023719773493154982 0 7.8073183750355761e-05 -0.023907430458042205 0 -0.00012594113323559917 -0.024176748006777778 0 0.00019028215060379745 -0.024560445509493968 0 0.00035356539509311666 -0.024413993449340796 0 -0.00052909331258683295 -0.030995929996149717 0 -0.00077267361896023634 -0.028393544679201341 0 -0.00083766228596460397 -0.031429802660466209 0 -0.0010372631734110391 -0.031428855773429611 0 -0.00094011181651306819 -0.03088077858834468 0 -0.0005249053018318953 -0.02786045943567474 0 -0.00080530484021335913 -0.027519347038641499 0 -0.00014622904030021263 -0.023181514124297913 0 0.000442732569912238 -0.023719773493154982 0 -0.00017118230518888859 -0.022901210719049648 0 -0.00014622904030021263 -0.023181514124297913 0 -4.8866139774695977e-05 -0.023586144003388473 0 0.000442732569912238 -0.023719773493154982 0 -4.8866139774695977e-05 -0.023586144003388473 0 0.000442732569912238 -0.023719773493154982 0 7.8073183750355761e-05 -0.023907430458042205 0 -0.0010372631734110391 -0.031428855773429611 0 -0.00094011181651306819 -0.03088077858834468 0 -0.0012241676386876316 -0.03087640278344108 0 -0.00070659093956634085 -0.032731413328714119 0 -0.0006894320296913772 -0.032296274434524382 0 -0.00067382487010100227 -0.032733652831457426 0 0.000442732569912238 -0.023719773493154982 0 -0.00017118230518888859 -0.022901210719049648 0 -0.00014752079268008194 -0.022522262424741868 0 -0.00077267361896023634 -0.028393544679201341 0 -0.00080530484021335913 -0.027519347038641499 0 0.00071328372721685118 -0.027315251456001201 0 8.7115345506324636e-05 -0.027313441702192291 0 0.0004018217736574369 -0.026937132596521359 0 -0.00029761227444160952 -0.022258239631313247 0 -0.00030666726836169804 -0.022386454134545604 0 -0.00028159313768130317 -0.022316593397262809 0 -0.0003070465923731153 -0.022563891398349065 0 -0.00031924389852047794 -0.022549606228853814 0 -0.00075244091530970211 -0.023202896001320149 0 -0.00025251287042875461 -0.022537326978080755 0 -0.00030666726836169804 -0.022386454134545604 0 -0.00075244091530970211 -0.023202896001320149 0 -0.00017118230518888859 -0.022901210719049648 0 -0.00025251287042875461 -0.022537326978080755 0 -0.00017118230518888859 -0.022901210719049648 0 -0.00025251287042875461 -0.022537326978080755 0 -0.00014752079268008194 -0.022522262424741868 0 -0.00080294773521842101 -0.027510751534606716 0 -0.00080530484021335913 -0.027519347038641499 0 -0.00025251287042875461 -0.022537326978080755 0 -0.0002189936659105347 -0.022446598799078885 0 -0.00030666726836169804 -0.022386454134545604 0 -0.0002189936659105347 -0.022446598799078885 0 -0.00030666726836169804 -0.022386454134545604 0 -0.00045881123479451271 -0.022373112925753065 0 -0.00080530484021335913 -0.027519347038641499 0 -0.00086230414656965793 -0.025308496090272237 0 8.7115345506324636e-05 -0.027313441702192291 0 0.0004018217736574369 -0.026937132596521359 0 -0.00029428328480488584 -0.026153263710942929 0 -0.00032270053275948663 -0.02234597112168735 0 -0.00030666726836169804 -0.022386454134545604 0 -0.00045881123479451271 -0.022373112925753065 0 -0.00032270053275948663 -0.02234597112168735 0 -0.00030666726836169804 -0.022386454134545604 0 -0.00028159313768130317 -0.022316593397262809 0 0.00053476240941654769 -0.026463195003285686 0 0.0004018217736574369 -0.026937132596521359 0 -0.00029428328480488584 -0.026153263710942929 0 3.5198196586180207e-05 -0.025393152999606473 0 0.00034954672123690614 -0.025063346224658976 0 0.00038425805170758272 -0.025526819604258646 0 -0.00077267361896023634 -0.028393544679201341 0 -0.00060979330979041367 -0.027010660836740766 0 0.00071328372721685118 -0.027315251456001201 0 0.00053476240941654769 -0.026463195003285686 0 0.0004018217736574369 -0.026937132596521359 0 4.4597869603474116e-05 -0.025948165295874723 0 0.00038425805170758272 -0.025526819604258646 0 0.00035218542573671474 -0.025593652469635422 0 0.00053476240941654769 -0.026463195003285686 0 0.00035218542573671474 -0.025593652469635422 0 -0.00029428328480488584 -0.026153263710942929 0 -0.00060979330979041367 -0.027010660836740766 0 -0.00055625671242114387 -0.026606174919886368 0 -0.00086230414656965793 -0.025308496090272237 0 -0.00080866468091077466 -0.024827441779931715 0 -0.00029428328480488584 -0.026153263710942929 0 -1.4680725790089446e-05 -0.02511952693236208 0 -0.00017203597290768623 -0.023901448045676166 0 0.00035218542573671474 -0.025593652469635422 0 -0.00029428328480488584 -0.026153263710942929 0 -1.4680725790089446e-05 -0.02511952693236208 0 0.00035218542573671474 -0.025593652469635422 0 2.3514089999448936e-05 -0.024851572852240933 0 -1.4680725790089446e-05 -0.02511952693236208 0 2.3514089999448936e-05 -0.024851572852240933 0 1.4293785024964426e-06 -0.025821886275044864 0 -1.4207242417428646e-06 -0.023989832009478237 0 2.3514089999448936e-05 -0.024851572852240933 0 -1.4680725790089446e-05 -0.02511952693236208 0 -0.00017203597290768623 -0.023901448045676166 0 2.3514089999448936e-05 -0.024851572852240933 0 -0.00017203597290768623 -0.023901448045676166 0 -1.4207242417428646e-06 -0.023989832009478237 0 0.00017416935697488388 -0.026113871370505182 0 0.00035218542573671474 -0.025593652469635422 0 1.4293785024964426e-06 -0.025821886275044864 0 0.00035218542573671474 -0.025593652469635422 0 2.3514089999448936e-05 -0.024851572852240933 0 1.4293785024964426e-06 -0.025821886275044864 0 0.00011606899239072231 -0.021935845921658845 0 8.8103342621202255e-07 -0.022159377911027234 0 -1.4316854567598885e-05 -0.022602585322967956 0 0.00011606899239072231 -0.021935845921658845 0 8.8103342621202255e-07 -0.022159377911027234 0 0.00026659265766098151 -0.021413774211868544 0 8.8103342621202255e-07 -0.022159377911027234 0 -1.4207242417428646e-06 -0.023989832009478237 0 -1.4316854567598885e-05 -0.022602585322967956 0 -0.00017203597290768623 -0.023901448045676166 0 -1.4207242417428646e-06 -0.023989832009478237 0 -1.4316854567598885e-05 -0.022602585322967956 0 -0.00012221803885133448 -0.022056742557591543 0 -0.00014390204923856589 -0.021769763481371964 0 -0.00045881123479451271 -0.022373112925753065 0 -0.00017203597290768623 -0.023901448045676166 0 -1.4316854567598885e-05 -0.022602585322967956 0 -0.00045881123479451271 -0.022373112925753065 0 -1.4316854567598885e-05 -0.022602585322967956 0 -0.00020804211411197879 -0.022324323009082703 0 -1.4316854567598885e-05 -0.022602585322967956 0 0.00022062433426027267 -0.021442469124425243 0 -0.00033906221483183245 -0.020940168361250306 0 0.00011606899239072231 -0.021935845921658845 0 -1.4316854567598885e-05 -0.022602585322967956 0 0.00022062433426027267 -0.021442469124425243 0 0.00011606899239072231 -0.021935845921658845 0 0.00022062433426027267 -0.021442469124425243 0 0.00026659265766098151 -0.021413774211868544 0 0.00022062433426027267 -0.021442469124425243 0 0.00031681056159030616 -0.020980462625167406 0 -0.00033906221483183245 -0.020940168361250306 0 0.00031681056159030616 -0.020980462625167406 0 -0.00033906221483183245 -0.020940168361250306 0 0.00020809911704697953 -0.020686959167766517 0 -0.00032270053275948663 -0.02234597112168735 0 -0.00045881123479451271 -0.022373112925753065 0 -0.00020804211411197879 -0.022324323009082703 0 -0.00032270053275948663 -0.02234597112168735 0 -0.00020804211411197879 -0.022324323009082703 0 -0.00028159313768130317 -0.022316593397262809 0 -0.0001176100819162225 -0.021548758910529625 0 -0.00014390204923856589 -0.021769763481371964 0 -0.00025740342880351018 -0.022271620888276614 0 -0.00020804211411197879 -0.022324323009082703 0 -0.00028159313768130317 -0.022316593397262809 0 -0.00031340229185280419 -0.02034212776390338 0 -0.00033906221483183245 -0.020940168361250306 0 5.3572420893124669e-05 -0.020370181652040683 0 -0.00025740342880351018 -0.022271620888276614 0 -0.00029761227444160952 -0.022258239631313247 0 -0.00028159313768130317 -0.022316593397262809 0 -0.00033906221483183245 -0.020940168361250306 0 0.00020809911704697953 -0.020686959167766517 0 5.3572420893124669e-05 -0.020370181652040683 0 0.00020809911704697953 -0.020686959167766517 0 5.3572420893124669e-05 -0.020370181652040683 0 0.00025330854476225087 -0.020440072814057512 0 0.00045221339753562321 -0.020392234001368258 0 0.00038749581522515964 -0.020546940302667294 0 0.00049520629797076339 -0.02027292012154492 0 0.00038749581522515964 -0.020546940302667294 0 0.00038988980011821889 -0.02053546203709003 0 0.00057166750607898773 -0.02068229406287599 0 0.00036470240435322739 -0.020224339394650133 0 0.00025330854476225087 -0.020440072814057512 0 0.00038988980011821889 -0.02053546203709003 0 0.00036470240435322739 -0.020224339394650133 0 0.00089817855458269185 -0.019631923438426308 0 0.00094081017050858949 -0.019589889044487104 0 0.0010864189835518082 -0.01979549332278643 0 0.00020809911704697953 -0.020686959167766517 0 0.00025330854476225087 -0.020440072814057512 0 0.00038988980011821889 -0.02053546203709003 0 0.00038988980011821889 -0.02053546203709003 0 0.00048470471325247789 -0.020673421050727454 0 0.00044894377121717577 -0.020763780868287413 0 0.00038988980011821889 -0.02053546203709003 0 0.00048470471325247789 -0.020673421050727454 0 0.00057166750607898773 -0.02068229406287599 0 0.0005131831457143816 -0.020709916647142553 0 0.00048470471325247789 -0.020673421050727454 0 0.00057166750607898773 -0.02068229406287599 0 0.0005131831457143816 -0.020709916647142553 0 0.00048470471325247789 -0.020673421050727454 0 0.00044894377121717577 -0.020763780868287413 0 0.00020809911704697953 -0.020686959167766517 0 0.00038988980011821889 -0.02053546203709003 0 0.00044894377121717577 -0.020763780868287413 0 0.00056921264842343467 -0.020104016240465747 0 0.00057248026165668904 -0.020251485358877934 0 0.00089817855458269185 -0.019631923438426308 0 0.00071719757787892476 -0.01958545046517569 0 0.00094492780129231215 -0.019760364460974577 0 0.00071719757787892476 -0.01958545046517569 0 0.00080051125107484717 -0.019653042702498645 0 0.00087881717383299894 -0.019636859213494232 0 0.00094081017050858949 -0.019589889044487104 0 0.00086234621761604676 -0.01957086340865306 0 0.00082180126487568913 -0.019514637651484267 0 0.00089817855458269185 -0.019631923438426308 0 0.00094081017050858949 -0.019589889044487104 0 0.00086234621761604676 -0.01957086340865306 0 0.00089817855458269185 -0.019631923438426308 0 0.00086234621761604676 -0.01957086340865306 0 0.00071719757787892476 -0.01958545046517569 0 0.00086234621761604676 -0.01957086340865306 0 0.00082180126487568913 -0.019514637651484267 0 0.00071719757787892476 -0.01958545046517569 0 0.00094081017050858949 -0.019589889044487104 0 0.00082180126487568913 -0.019514637651484267 0 0.00079299967967643413 -0.019361180207850354 0 0.00057166750607898773 -0.02068229406287599 0 0.00053232299807933283 -0.020717500651171377 0 0.00045497826070714406 -0.020652085793532147 0 0.00049520629797076339 -0.02027292012154492 0 0.0005521251230618502 -0.020117197779339922 0 0.0005131831457143816 -0.020709916647142553 0 0.00057166750607898773 -0.02068229406287599 0 0.00053232299807933283 -0.020717500651171377 0 0.00053232299807933283 -0.020717500651171377 0 0.0005386372766597626 -0.020704219723455965 0 0.00045497826070714406 -0.020652085793532147 0 0.00031681056159030616 -0.020980462625167406 0 0.00020809911704697953 -0.020686959167766517 0 0.00044894377121717577 -0.020763780868287413 0 0.0005131831457143816 -0.020709916647142553 0 0.00053232299807933283 -0.020717500651171377 0 0.00044894377121717577 -0.020763780868287413 0 0.00053232299807933283 -0.020717500651171377 0 0.00044894377121717577 -0.020763780868287413 0 0.00045902645283361866 -0.020885494773101858 0 0.00053232299807933283 -0.020717500651171377 0 0.0005386372766597626 -0.020704219723455965 0 0.00045902645283361866 -0.020885494773101858 0 0.00022062433426027267 -0.021442469124425243 0 0.00031681056159030616 -0.020980462625167406 0 0.00045902645283361866 -0.020885494773101858 0 0.00031681056159030616 -0.020980462625167406 0 0.00044894377121717577 -0.020763780868287413 0 0.00045902645283361866 -0.020885494773101858 0 0.00042907705115985666 -0.020965141298506188 0 0.00053442655142967336 -0.020477945724591232 0 0.00026659265766098151 -0.021413774211868544 0 0.00022062433426027267 -0.021442469124425243 0 0.00045902645283361866 -0.020885494773101858 0 0.00042907705115985666 -0.020965141298506188 0 0.00022062433426027267 -0.021442469124425243 0 0.00042907705115985666 -0.020965141298506188 0 0.00026659265766098151 -0.021413774211868544 0 0.0005386372766597626 -0.020704219723455965 0 0.00045902645283361866 -0.020885494773101858 0 0.00042907705115985666 -0.020965141298506188 0 0.0005386372766597626 -0.020704219723455965 0 0.00045497826070714406 -0.020652085793532147 0 0.00053442655142967336 -0.020477945724591232 0 0.00053442655142967336 -0.020477945724591232 0 0.00051733620828500596 -0.019865626170531538 0 0.00026659265766098151 -0.021413774211868544 0 0.0005386372766597626 -0.020704219723455965 0 0.00042907705115985666 -0.020965141298506188 0 0.00053442655142967336 -0.020477945724591232 0 0.00045497826070714406 -0.020652085793532147 0 0.00051394987065046631 -0.020001566698385695 0 0.00053442655142967336 -0.020477945724591232 0 0.00051394987065046631 -0.020001566698385695 0 0.00053442655142967336 -0.020477945724591232 0 0.00051733620828500596 -0.019865626170531538 0 2.0714638120668933e-07 -0.020328691547091562 0 -5.2617332846272668e-06 -0.019817050275356095 0 0.00026659265766098151 -0.021413774211868544 0 0.00031652377637515571 -0.019296675507035527 0 0.00032604502515636637 -0.019687270780171528 0 8.8103342621202255e-07 -0.022159377911027234 0 2.0714638120668933e-07 -0.020328691547091562 0 0.00026659265766098151 -0.021413774211868544 0 1.1896682942120189e-06 -0.016667061163102168 0 -3.3679702646282469e-07 -0.018498118080456368 0 8.931717633774091e-06 -0.017907601043854564 0 0.00051733620828500596 -0.019865626170531538 0 0.00071651460520614238 -0.018164576657180697 0 0.00056114143292630497 -0.018941926999759315 0 -5.2617332846272668e-06 -0.019817050275356095 0 -3.3679702646282469e-07 -0.018498118080456368 0 8.931717633774091e-06 -0.017907601043854564 0 0.00031652377637515571 -0.019296675507035527 0 0.00026651046087296861 -0.018574710188694193 0 2.0714638120668933e-07 -0.020328691547091562 0 -5.2617332846272668e-06 -0.019817050275356095 0 -3.3679702646282469e-07 -0.018498118080456368 0 0.0005521251230618502 -0.020117197779339922 0 0.00054155168642625517 -0.019996491802351808 0 0.00045497826070714406 -0.020652085793532147 0 0.00051394987065046631 -0.020001566698385695 0 0.00052794299666266168 -0.019183633992859467 0 0.00062871875119237231 -0.018887585139950171 0 0.00064256130468842623 -0.018860886646804628 0 0.00051733620828500596 -0.019865626170531538 0 0.00056114143292630497 -0.018941926999759315 0 0.00052794299666266168 -0.019183633992859467 0 0.00056114143292630497 -0.018941926999759315 0 0.00052794299666266168 -0.019183633992859467 0 0.00062874225721983382 -0.019250406021039859 0 0.00079299967967643413 -0.019361180207850354 0 0.00052794299666266168 -0.019183633992859467 0 0.00062874225721983382 -0.019250406021039859 0 0.00056114143292630497 -0.018941926999759315 0 0.00069956974733090531 -0.018227327980583116 0 0.00054642293619700899 -0.018018909826579135 0 0.00056114143292630497 -0.018941926999759315 0 0.00062874225721983382 -0.019250406021039859 0 0.00060110558745801528 -0.019505481298167402 0 0.00051394987065046631 -0.020001566698385695 0 0.00051733620828500596 -0.019865626170531538 0 0.00052794299666266168 -0.019183633992859467 0 0.00071651460520614238 -0.018164576657180697 0 0.00056114143292630497 -0.018941926999759315 0 0.00071586810591426156 -0.018269240272742467 0 0.00056114143292630497 -0.018941926999759315 0 0.00069956974733090531 -0.018227327980583116 0 0.00071586810591426156 -0.018269240272742467 0 0.00063181370817590524 -0.017880269671556891 0 0.00071651460520614238 -0.018164576657180697 0 0.00071586810591426156 -0.018269240272742467 0 0.00063181370817590524 -0.017880269671556891 0 0.00071586810591426156 -0.018269240272742467 0 0.00069056020786111374 -0.018073820074040962 0 0.00069956974733090531 -0.018227327980583116 0 0.00071586810591426156 -0.018269240272742467 0 0.00069056020786111374 -0.018073820074040962 0 0.00069956974733090531 -0.018227327980583116 0 0.00069056020786111374 -0.018073820074040962 0 0.00065260890869188687 -0.018090292621020302 0 0.00069956974733090531 -0.018227327980583116 0 0.00065260890869188687 -0.018090292621020302 0 0.00054642293619700899 -0.018018909826579135 0 0.00065260890869188687 -0.018090292621020302 0 0.00054642293619700899 -0.018018909826579135 0 0.00060657819210885983 -0.018136260411143794 0 0.00082180126487568913 -0.019514637651484267 0 0.00079299967967643413 -0.019361180207850354 0 0.00060110558745801528 -0.019505481298167402 0 0.00082180126487568913 -0.019514637651484267 0 0.00060110558745801528 -0.019505481298167402 0 0.00071719757787892476 -0.01958545046517569 0 0.00079299967967643413 -0.019361180207850354 0 0.00062874225721983382 -0.019250406021039859 0 0.00060110558745801528 -0.019505481298167402 0 0.00064256130468842623 -0.018860886646804628 0 0.00069215564337885645 -0.018933644023828033 0 0.00054642293619700899 -0.018018909826579135 0 0.00060657819210885983 -0.018136260411143794 0 0.0006689376667567674 -0.018185047964243663 0 0.00060110558745801528 -0.019505481298167402 0 0.00071719757787892476 -0.01958545046517569 0 0.00073465881484172883 -0.019654677058221482 0 0.00071719757787892476 -0.01958545046517569 0 0.00073465881484172883 -0.019654677058221482 0 0.00080051125107484717 -0.019653042702498645 0 0.00059032665074823206 -0.018133350576752319 0 0.00065260890869188687 -0.018090292621020302 0 0.00060657819210885983 -0.018136260411143794 0 0.00053594319878078652 -0.018228409771658544 0 0.00060657819210885983 -0.018136260411143794 0 0.00060457899942916035 -0.018234409618505549 0 0.0003431257764840207 -0.018474642913477331 0 0.00051018649869540576 -0.018706110855010685 0 0.00060657819210885983 -0.018136260411143794 0 0.00060457899942916035 -0.018234409618505549 0 0.0006689376667567674 -0.018185047964243663 0 0.0005122334819088858 -0.018899195454211065 0 0.00066635699894026493 -0.019068985686960655 0 0.00047710788098462374 -0.019098519681669368 0 0.00031490304551127363 -0.018952036078082265 0 0.0005122334819088858 -0.018899195454211065 0 0.00047710788098462374 -0.019098519681669368 0 0.00075330451039133054 -0.019091046020711253 0 0.00069215564337885645 -0.018933644023828033 0 0.00051018649869540576 -0.018706110855010685 0 0.00075330451039133054 -0.019091046020711253 0 0.00060457899942916035 -0.018234409618505549 0 0.00068749657580257089 -0.018313517718309958 0 0.0006689376667567674 -0.018185047964243663 0 0.00078926919087218361 -0.019747082746451986 0 0.00073465881484172883 -0.019654677058221482 0 0.00081239590116293935 -0.019693693477867272 0 0.00073465881484172883 -0.019654677058221482 0 0.00080051125107484717 -0.019653042702498645 0 0.00081239590116293935 -0.019693693477867272 0 0.00080051125107484717 -0.019653042702498645 0 0.00087881717383299894 -0.019636859213494232 0 0.00086035267050272538 -0.019682178297134718 0 0.00080051125107484717 -0.019653042702498645 0 0.00086035267050272538 -0.019682178297134718 0 0.00081239590116293935 -0.019693693477867272 0 0.00043907358338564139 -0.020671016673444786 0 0.00057248026165668904 -0.020251485358877934 0 0.00097430072590995931 -0.019694763256375484 0 0.00087881717383299894 -0.019636859213494232 0 0.00091151928716678749 -0.019690980430914478 0 0.00089817855458269185 -0.019631923438426308 0 0.00094492780129231215 -0.019760364460974577 0 0.0010899400549876689 -0.019799969006662456 0 0.0011771749699388257 -0.019922120978059333 0 0.00094492780129231215 -0.019760364460974577 0 0.0010899400549876689 -0.019799969006662456 0 0.00087881717383299894 -0.019636859213494232 0 0.00086035267050272538 -0.019682178297134718 0 0.00091151928716678749 -0.019690980430914478 0 0.00043907358338564139 -0.020671016673444786 0 0.00038749581522515964 -0.020546940302667294 0 0.00091151928716678749 -0.019690980430914478 0 0.00095739396940803612 -0.0197141122841854 0 0.00092548092259983963 -0.019743511513411489 0 0.00097430072590995931 -0.019694763256375484 0 0.00091151928716678749 -0.019690980430914478 0 0.00095739396940803612 -0.0197141122841854 0 0.00091151928716678749 -0.019690980430914478 0 0.00092548092259983963 -0.019743511513411489 0 0.00086303549731255014 -0.019731212092222894 0 0.00096499453156794303 -0.019741479587438191 0 0.00095739396940803612 -0.0197141122841854 0 0.00092548092259983963 -0.019743511513411489 0 0.00078926919087218361 -0.019747082746451986 0 0.00081239590116293935 -0.019693693477867272 0 0.00086303549731255014 -0.019731212092222894 0 0.00086035267050272538 -0.019682178297134718 0 0.00081239590116293935 -0.019693693477867272 0 0.00086303549731255014 -0.019731212092222894 0 0.00086035267050272538 -0.019682178297134718 0 0.00091151928716678749 -0.019690980430914478 0 0.00086303549731255014 -0.019731212092222894 0 0.00065786002429602105 -0.019107322090498577 0 0.00082425280950408999 -0.019283855158558679 0 0.00067398483378801745 -0.019251210667631285 0 0.00075330451039133054 -0.019091046020711253 0 0.00090158745413586555 -0.019402593749178739 0 0.00092548092259983963 -0.019743511513411489 0 0.00086303549731255014 -0.019731212092222894 0 0.00090335314470497995 -0.019798492180969438 0 0.00078926919087218361 -0.019747082746451986 0 0.00086303549731255014 -0.019731212092222894 0 0.00090335314470497995 -0.019798492180969438 0 0.001001269456103287 -0.019787816660977422 0 0.00097338693541066854 -0.019768834933560117 0 0.00090335314470497995 -0.019798492180969438 0 0.00097338693541066854 -0.019768834933560117 0 0.00092548092259983963 -0.019743511513411489 0 0.00090335314470497995 -0.019798492180969438 0 0.00097338693541066854 -0.019768834933560117 0 0.00096499453156794303 -0.019741479587438191 0 0.00092548092259983963 -0.019743511513411489 0 0.00082425280950408999 -0.019283855158558679 0 0.00085712447623463562 -0.019435225514861397 0 0.00098657118731182067 -0.019495694294550628 0 0.001001269456103287 -0.019787816660977422 0 0.00090335314470497995 -0.019798492180969438 0 0.0010099255240890914 -0.019804102660205124 0 0.00090158745413586555 -0.019402593749178739 0 0.0009904790246222238 -0.019556107333171455 0 0.00082425280950408999 -0.019283855158558679 0 0.00085712447623463562 -0.019435225514861397 0 0.00070459892178982987 -0.019408614381771282 0 0.00082425280950408999 -0.019283855158558679 0 0.00070459892178982987 -0.019408614381771282 0 0.00067398483378801745 -0.019251210667631285 0 0.00070459892178982987 -0.019408614381771282 0 0.00056532206479081176 -0.019411396725300525 0 0.00067398483378801745 -0.019251210667631285 0 0.00056532206479081176 -0.019411396725300525 0 0.00054046512236835065 -0.019235346340837761 0 0.00067398483378801745 -0.019251210667631285 0 0.00040297035697068728 -0.019274359815450531 0 0.00056532206479081176 -0.019411396725300525 0 0.00054046512236835065 -0.019235346340837761 0 0.00040297035697068728 -0.019274359815450531 0 0.00056532206479081176 -0.019411396725300525 0 0.00043030807144010585 -0.019525134662501373 0 0.00066635699894026493 -0.019068985686960655 0 0.00047710788098462374 -0.019098519681669368 0 0.00054046512236835065 -0.019235346340837761 0 0.00040297035697068728 -0.019274359815450531 0 0.00047710788098462374 -0.019098519681669368 0 0.00054046512236835065 -0.019235346340837761 0 0.00066635699894026493 -0.019068985686960655 0 0.00054046512236835065 -0.019235346340837761 0 0.00067398483378801745 -0.019251210667631285 0 0.00075330451039133054 -0.019091046020711253 0 0.00074759452449645817 -0.019121168911693756 0 0.00064829736276027727 -0.019630096700188397 0 0.00043030807144010585 -0.019525134662501373 0 0.00051051976582335663 -0.019767513389840747 0 0.00056532206479081176 -0.019411396725300525 0 0.00064829736276027727 -0.019630096700188397 0 0.00043030807144010585 -0.019525134662501373 0 0.00070459892178982987 -0.019408614381771282 0 0.00056532206479081176 -0.019411396725300525 0 0.00064829736276027727 -0.019630096700188397 0 0.00085712447623463562 -0.019435225514861397 0 0.00070459892178982987 -0.019408614381771282 0 0.00079674380997756303 -0.019536612332009325 0 0.00070459892178982987 -0.019408614381771282 0 0.00064829736276027727 -0.019630096700188397 0 0.00079674380997756303 -0.019536612332009325 0 0.00085712447623463562 -0.019435225514861397 0 0.00089883444549892762 -0.019541293641444434 0 0.00098657118731182067 -0.019495694294550628 0 0.00089883444549892762 -0.019541293641444434 0 0.00098086659934120161 -0.019627209376901752 0 0.00098657118731182067 -0.019495694294550628 0 0.00085712447623463562 -0.019435225514861397 0 0.00079674380997756303 -0.019536612332009325 0 0.00089883444549892762 -0.019541293641444434 0 0.00079674380997756303 -0.019536612332009325 0 0.00089883444549892762 -0.019541293641444434 0 0.00089251567820414657 -0.019642558032173855 0 0.00079674380997756303 -0.019536612332009325 0 0.00089251567820414657 -0.019642558032173855 0 0.00080306433807244952 -0.019688771385040625 0 0.00089883444549892762 -0.019541293641444434 0 0.00089251567820414657 -0.019642558032173855 0 0.00098086659934120161 -0.019627209376901752 0 0.00089251567820414657 -0.019642558032173855 0 0.00080306433807244952 -0.019688771385040625 0 0.00089545890175746776 -0.019795292409297057 0 0.00089251567820414657 -0.019642558032173855 0 0.00089545890175746776 -0.019795292409297057 0 0.00099756426509001531 -0.019711552393010184 0 0.00089251567820414657 -0.019642558032173855 0 0.00099756426509001531 -0.019711552393010184 0 0.00098086659934120161 -0.019627209376901752 0 0.00064829736276027727 -0.019630096700188397 0 0.00079674380997756303 -0.019536612332009325 0 0.00080306433807244952 -0.019688771385040625 0 0.00064829736276027727 -0.019630096700188397 0 0.00080306433807244952 -0.019688771385040625 0 0.00077129018845861037 -0.019822314639269967 0 0.00080306433807244952 -0.019688771385040625 0 0.00077129018845861037 -0.019822314639269967 0 0.00089545890175746776 -0.019795292409297057 0 0.00077129018845861037 -0.019822314639269967 0 0.00072324576480490156 -0.019945293274657949 0 0.00064688248296407259 -0.019834157640862007 0 0.00078085719774681039 -0.020134972787099484 0 0.00075046534730878792 -0.020559659582938299 0 0.00089545890175746776 -0.019795292409297057 0 0.00083928541058180808 -0.020130602016503265 0 0.0010264266163290293 -0.019911807878765196 0 0.00077129018845861037 -0.019822314639269967 0 0.00089545890175746776 -0.019795292409297057 0 0.00090342629710111707 -0.01997336187872777 0 0.00077129018845861037 -0.019822314639269967 0 0.00090342629710111707 -0.01997336187872777 0 0.00072324576480490156 -0.019945293274657949 0 0.00090342629710111707 -0.01997336187872777 0 0.00072324576480490156 -0.019945293274657949 0 0.00075147403872567525 -0.020063720883483183 0 0.00072324576480490156 -0.019945293274657949 0 0.00060725312375614995 -0.019959631628276853 0 0.00064688248296407259 -0.019834157640862007 0 0.00072324576480490156 -0.019945293274657949 0 0.00060725312375614995 -0.019959631628276853 0 0.00075147403872567525 -0.020063720883483183 0 0.00064829736276027727 -0.019630096700188397 0 0.00077129018845861037 -0.019822314639269967 0 0.00064688248296407259 -0.019834157640862007 0 0.00064829736276027727 -0.019630096700188397 0 0.00064688248296407259 -0.019834157640862007 0 0.00051051976582335663 -0.019767513389840747 0 0.00060725312375614995 -0.019959631628276853 0 0.00064688248296407259 -0.019834157640862007 0 0.00051051976582335663 -0.019767513389840747 0 0.00040856499882156261 -0.019940669801414113 0 0.00060725312375614995 -0.019959631628276853 0 0.00051051976582335663 -0.019767513389840747 0 0.00040856499882156261 -0.019940669801414113 0 0.00060725312375614995 -0.019959631628276853 0 0.00052243226729561747 -0.020123613718744916 0 0.00060725312375614995 -0.019959631628276853 0 0.00052243226729561747 -0.020123613718744916 0 0.00073863278241101545 -0.020224797170707499 0 0.00060725312375614995 -0.019959631628276853 0 0.00073863278241101545 -0.020224797170707499 0 0.00097026987265854423 -0.020165730787700013 0 0.00027965477940637771 -0.020934439422557426 0 0.00034635240508847678 -0.021317991149312196 0 0.00073863278241101545 -0.020224797170707499 0 0.00086801052183985324 -0.020360308622617691 0 0.00097026987265854423 -0.020165730787700013 0 0.00073863278241101545 -0.020224797170707499 0 0.00086801052183985324 -0.020360308622617691 0 0.00073144567304938039 -0.02055139054024516 0 0.00052243226729561747 -0.020123613718744916 0 0.00073863278241101545 -0.020224797170707499 0 0.00073144567304938039 -0.02055139054024516 0 0.00052243226729561747 -0.020123613718744916 0 0.00077276442299187016 -0.020414132141142498 0 0.00069922055072937385 -0.020347685382111132 0 0.00077276442299187016 -0.020414132141142498 0 0.00069922055072937385 -0.020347685382111132 0 0.00061613937755084587 -0.02045237327332489 0 0.00086801052183985324 -0.020360308622617691 0 0.00073144567304938039 -0.02055139054024516 0 0.00090547544332463578 -0.020512338976527787 0 0.00066936306433922467 -0.020336279559525224 0 0.00078244975323996015 -0.020521904051741771 0 0.00032066944532038814 -0.020296491793803734 0 0.00052243226729561747 -0.020123613718744916 0 0.00069922055072937385 -0.020347685382111132 0 0.00035252951851731993 -0.020276834002777386 0 0.00069922055072937385 -0.020347685382111132 0 0.00061613937755084587 -0.02045237327332489 0 0.00031836387051214311 -0.020276690803534489 0 0.00048901202953339953 -0.020304773324307916 0 0.00035252951851731993 -0.020276834002777386 0 0.00052458344072531878 -0.020585542070826045 0 0.00061613937755084587 -0.02045237327332489 0 0.00052458344072531878 -0.020585542070826045 0 0.00061613937755084587 -0.02045237327332489 0 0.0007550767995253315 -0.020657213718233102 0 0.00078244975323996015 -0.020521904051741771 0 0.00097339576023996912 -0.020834910116221312 0 0.00077276442299187016 -0.020414132141142498 0 0.0007550767995253315 -0.020657213718233102 0 0.0010207473640791113 -0.020793189465568337 0 0.00077276442299187016 -0.020414132141142498 0 0.00061613937755084587 -0.02045237327332489 0 0.0007550767995253315 -0.020657213718233102 0 0.00073144567304938039 -0.02055139054024516 0 0.00098224078015889506 -0.020664453713517252 0 0.00090547544332463578 -0.020512338976527787 0 0.0007550767995253315 -0.020657213718233102 0 0.00063916340173285585 -0.020839244680817017 0 0.0010207473640791113 -0.020793189465568337 0 0.00052458344072531878 -0.020585542070826045 0 0.0007550767995253315 -0.020657213718233102 0 0.00063916340173285585 -0.020839244680817017 0 0.00042474323453223602 -0.020764801490099474 0 0.00052458344072531878 -0.020585542070826045 0 0.00063916340173285585 -0.020839244680817017 0 0.0012424783015890311 -0.020967132763461752 0 0.0011284145242751841 -0.020798512752397434 0 0.0013070845049629979 -0.020797268784955004 0 0.0012424783015890311 -0.020967132763461752 0 0.0013070845049629979 -0.020797268784955004 0 0.0013767590022460733 -0.020911059030318743 0 0.0013070845049629979 -0.020797268784955004 0 0.0013767590022460733 -0.020911059030318743 0 0.0013895631402342852 -0.020825534813680831 0 0.0012424783015890311 -0.020967132763461752 0 0.0013767590022460733 -0.020911059030318743 0 0.0014195289268201571 -0.021058644342350167 0 0.0012424783015890311 -0.020967132763461752 0 0.0009961875269366093 -0.020948366531655837 0 0.0011284145242751841 -0.020798512752397434 0 0.0011284145242751841 -0.020798512752397434 0 0.0011003276327830958 -0.020652482251146777 0 0.0011926672082530055 -0.020695687611378549 0 0.00073144567304938039 -0.02055139054024516 0 0.0009961875269366093 -0.020948366531655837 0 0.00098224078015889506 -0.020664453713517252 0 0.0011284145242751841 -0.020798512752397434 0 0.00098224078015889506 -0.020664453713517252 0 0.0011003276327830958 -0.020652482251146777 0 0.0009961875269366093 -0.020948366531655837 0 0.0011284145242751841 -0.020798512752397434 0 0.00098224078015889506 -0.020664453713517252 0 0.00098224078015889506 -0.020664453713517252 0 0.00090547544332463578 -0.020512338976527787 0 0.0010392444757616277 -0.020529769319630048 0 0.00098224078015889506 -0.020664453713517252 0 0.0011003276327830958 -0.020652482251146777 0 0.0010392444757616277 -0.020529769319630048 0 0.0011003276327830958 -0.020652482251146777 0 0.0011587405534704534 -0.02056994668052527 0 0.0010392444757616277 -0.020529769319630048 0 0.0011587405534704534 -0.02056994668052527 0 0.0012420320898219686 -0.020626731474246724 0 0.0012352718279230843 -0.020540337389924092 0 0.0012420320898219686 -0.020626731474246724 0 0.00131540259716079 -0.020667180277642663 0 0.0012352718279230843 -0.020540337389924092 0 0.0012420320898219686 -0.020626731474246724 0 0.0011926672082530055 -0.020695687611378549 0 0.0012925976731465753 -0.020694930225418469 0 0.0011587405534704534 -0.02056994668052527 0 0.0012420320898219686 -0.020626731474246724 0 0.0011926672082530055 -0.020695687611378549 0 0.0011003276327830958 -0.020652482251146777 0 0.0011587405534704534 -0.02056994668052527 0 0.0011926672082530055 -0.020695687611378549 0 0.0011284145242751841 -0.020798512752397434 0 0.0011926672082530055 -0.020695687611378549 0 0.0013070845049629979 -0.020797268784955004 0 0.0013070845049629979 -0.020797268784955004 0 0.0013120684046800371 -0.020712498328927523 0 0.0014035445214146589 -0.020754935255174162 0 0.0013070845049629979 -0.020797268784955004 0 0.0012925976731465753 -0.020694930225418469 0 0.0013144507461669685 -0.020668265968995802 0 0.001216258090948322 -0.022879090097434912 0 0.0012150944371290501 -0.023100003225615933 0 0.0011926672082530055 -0.020695687611378549 0 0.0013070845049629979 -0.020797268784955004 0 0.0012925976731465753 -0.020694930225418469 0 0.0012150944371290501 -0.023100003225615933 0 0.00099258407788240096 -0.024678926995847679 0 0.0012420320898219686 -0.020626731474246724 0 0.0012925976731465753 -0.020694930225418469 0 0.00131540259716079 -0.020667180277642663 0 0.0012215036383447521 -0.023087557272329376 0 0.0012150944371290501 -0.023100003225615933 0 0.0012150944371290501 -0.023100003225615933 0 0.00065399120936641617 -0.022736569498287607 0 0.0013845203183653391 -0.023782719408936056 0 0.0013870954794564687 -0.024489861897214093 0 0.0010317333073933137 -0.02424435036416743 0 0.0011399756516146545 -0.020424523423859298 0 0.0013187238834227292 -0.020411521529263114 0 0.00097026987265854423 -0.020165730787700013 0 0.00131540259716079 -0.020667180277642663 0 0.0012352718279230843 -0.020540337389924092 0 0.0013187238834227292 -0.020411521529263114 0 0.00065399120936641617 -0.022736569498287607 0 0.00099258407788240096 -0.024678926995847679 0 0.0012352718279230843 -0.020540337389924092 0 0.0011399756516146545 -0.020424523423859298 0 0.0013187238834227292 -0.020411521529263114 0 0.0011587405534704534 -0.02056994668052527 0 0.0012352718279230843 -0.020540337389924092 0 0.0011399756516146545 -0.020424523423859298 0 0.00090547544332463578 -0.020512338976527787 0 0.0010392444757616277 -0.020529769319630048 0 0.0009846152349587483 -0.020398514642133627 0 0.0011587405534704534 -0.02056994668052527 0 0.0011399756516146545 -0.020424523423859298 0 0.0010392444757616277 -0.020529769319630048 0 0.0011399756516146545 -0.020424523423859298 0 0.0010392444757616277 -0.020529769319630048 0 0.0009846152349587483 -0.020398514642133627 0 0.0011399756516146545 -0.020424523423859298 0 0.0009846152349587483 -0.020398514642133627 0 0.00097026987265854423 -0.020165730787700013 0 0.00086801052183985324 -0.020360308622617691 0 0.0009846152349587483 -0.020398514642133627 0 0.00097026987265854423 -0.020165730787700013 0 0.00086801052183985324 -0.020360308622617691 0 0.00090547544332463578 -0.020512338976527787 0 0.0009846152349587483 -0.020398514642133627 0 0.00083928541058180808 -0.020130602016503265 0 0.00082405245707295471 -0.020508728321817403 0 0.0009667925693335656 -0.020290541310738975 0 0.00075046534730878792 -0.020559659582938299 0 0.00065399120936641617 -0.022736569498287607 0 0.00065399120936641617 -0.022736569498287607 0 0.00034635240508847678 -0.021317991149312196 0 0.00090342629710111707 -0.01997336187872777 0 0.00090603963977905306 -0.020179028743490722 0 0.00075147403872567525 -0.020063720883483183 0 0.000460322074591169 -0.02627075802460329 0 0.00067525533725937693 -0.025588302995430853 0 0.0009667925693335656 -0.020290541310738975 0 0.0011342576275038582 -0.020290794433340906 0 0.0010553991010482321 -0.020119601739074632 0 0.0009667925693335656 -0.020290541310738975 0 0.0011342576275038582 -0.020290794433340906 0 0.00094801095035477588 -0.02046277267074741 0 -0.00070092886649718224 -0.031627435759259935 0 -0.00021679302645749937 -0.031760815978142592 0 -0.00026326137302102839 -0.03102979650394733 0 -0.00070092886649718224 -0.031627435759259935 0 -0.00049872767319709477 -0.032148363343410466 0 -0.00021679302645749937 -0.031760815978142592 0 -0.00070092886649718224 -0.031627435759259935 0 -0.00049872767319709477 -0.032148363343410466 0 -0.00077674127695392351 -0.032219241017097083 0 -0.00049872767319709477 -0.032148363343410466 0 -0.00023706778316332175 -0.032459996504792643 0 -0.00021679302645749937 -0.031760815978142592 0 -0.00077674127695392351 -0.032219241017097083 0 -0.00054248220672363317 -0.032464225056177867 0 -0.0009095392563337497 -0.032547050371748869 0 -0.00049872767319709477 -0.032148363343410466 0 -0.00077674127695392351 -0.032219241017097083 0 -0.00054248220672363317 -0.032464225056177867 0 -0.00049872767319709477 -0.032148363343410466 0 -0.00054248220672363317 -0.032464225056177867 0 -0.00023706778316332175 -0.032459996504792643 0 -0.00070092886649718224 -0.031627435759259935 0 -0.00077674127695392351 -0.032219241017097083 0 -0.0011074617821157167 -0.032184549348038459 0 0.0011342576275038582 -0.020290794433340906 0 0.00098134813014455501 -0.020526319998593886 0 0.00094801095035477588 -0.02046277267074741 0 0.00098573567858826344 -0.020530436133382499 0 0.00094801095035477588 -0.02046277267074741 0 0.00093769234321103376 -0.020593744163982394 0 0.00082405245707295471 -0.020508728321817403 0 0.0009667925693335656 -0.020290541310738975 0 0.00094801095035477588 -0.02046277267074741 0 0.00082405245707295471 -0.020508728321817403 0 0.00094801095035477588 -0.02046277267074741 0 0.00093769234321103376 -0.020593744163982394 0 0.00067525533725937693 -0.025588302995430853 0 0.00061884509320254597 -0.025429701872540129 0 -0.00077674127695392351 -0.032219241017097083 0 -0.0011074617821157167 -0.032184549348038459 0 -0.0009095392563337497 -0.032547050371748869 0 0.00067525533725937693 -0.025588302995430853 0 0.00086139907007900661 -0.026121604836369407 0 0.00099258407788240096 -0.024678926995847679 0 0.00086139907007900661 -0.026121604836369407 0 0.00025549738660046278 -0.024435540154998277 0 -0.00015021023722707185 -0.024967867626733732 0 0.00096589994929219714 -0.025740282266545012 0 0.00067525533725937693 -0.025588302995430853 0 0.00099258407788240096 -0.024678926995847679 0 0.0013120684046800371 -0.020712498328927523 0 0.0013995959616231902 -0.020606484035615547 0 0.0014106166017419314 -0.020693301133127767 0 0.0013995959616231902 -0.020606484035615547 0 0.0014106166017419314 -0.020693301133127767 0 0.0014985072572917357 -0.02067380575065272 0 0.0013120684046800371 -0.020712498328927523 0 0.0014106166017419314 -0.020693301133127767 0 0.0014035445214146589 -0.020754935255174162 0 0.001485993446889244 -0.020766598211607493 0 0.0014985072572917357 -0.02067380575065272 0 0.0016562090499582728 -0.020864581775101955 0 0.0013070845049629979 -0.020797268784955004 0 0.0014035445214146589 -0.020754935255174162 0 0.0013895631402342852 -0.020825534813680831 0 0.0014106166017419314 -0.020693301133127767 0 0.0014035445214146589 -0.020754935255174162 0 0.001485993446889244 -0.020766598211607493 0 0.0014035445214146589 -0.020754935255174162 0 0.0013895631402342852 -0.020825534813680831 0 0.0014690695226144154 -0.020842726149533992 0 0.0014035445214146589 -0.020754935255174162 0 0.001485993446889244 -0.020766598211607493 0 0.0014690695226144154 -0.020842726149533992 0 0.0014106166017419314 -0.020693301133127767 0 0.001485993446889244 -0.020766598211607493 0 0.0014985072572917357 -0.02067380575065272 0 0.00086139907007900661 -0.026121604836369407 0 0.00082227263093385885 -0.026783480749985898 0 0.00086139907007900661 -0.026121604836369407 0 0.001329819493317853 -0.027443250181010653 0 -0.00054248220672363317 -0.032464225056177867 0 -0.0009095392563337497 -0.032547050371748869 0 -0.00028468090393255022 -0.032896995118903108 0 -0.00045773394374814305 -0.032756188407051592 0 -0.00028468090393255022 -0.032896995118903108 0 -0.00027483170464045938 -0.033009431763955183 0 -0.00054248220672363317 -0.032464225056177867 0 -0.00028468090393255022 -0.032896995118903108 0 -0.00023706778316332175 -0.032459996504792643 0 -0.00027483170464045938 -0.033009431763955183 0 -7.5851976853790975e-05 -0.033030814203650116 0 -3.5397124473394164e-05 -0.032988235819343265 0 -0.00027483170464045938 -0.033009431763955183 0 -7.5851976853790975e-05 -0.033030814203650116 0 -0.00015009266714999624 -0.032998275772538888 0 -0.00028468090393255022 -0.032896995118903108 0 -0.00027483170464045938 -0.033009431763955183 0 -0.00015009266714999624 -0.032998275772538888 0 0.0016562090499582728 -0.020864581775101955 0 0.0015207137208602284 -0.020973587313963617 0 0.0017222177306501826 -0.02114727561472745 0 0.0015207137208602284 -0.020973587313963617 0 0.0013767590022460733 -0.020911059030318743 0 0.0014195289268201571 -0.021058644342350167 0 0.0015207137208602284 -0.020973587313963617 0 0.0013767590022460733 -0.020911059030318743 0 0.0014690695226144154 -0.020842726149533992 0 0.0013767590022460733 -0.020911059030318743 0 0.0013895631402342852 -0.020825534813680831 0 0.0014690695226144154 -0.020842726149533992 0 0.001485993446889244 -0.020766598211607493 0 0.0016562090499582728 -0.020864581775101955 0 0.0014690695226144154 -0.020842726149533992 0 0.0016562090499582728 -0.020864581775101955 0 0.0015207137208602284 -0.020973587313963617 0 0.0014690695226144154 -0.020842726149533992 0 -0.00012551509954795482 -0.0331531101099053 0 -3.4083621487679312e-05 -0.033034925127679776 0 9.1560396998863346e-05 -0.03306237043978618 0 -0.00012551509954795482 -0.0331531101099053 0 -0.00016877885644237569 -0.033030261125486779 0 -3.4083621487679312e-05 -0.033034925127679776 0 -0.00016877885644237569 -0.033030261125486779 0 -3.4083621487679312e-05 -0.033034925127679776 0 -6.7708214928474821e-05 -0.032974702893672984 0 -3.4083621487679312e-05 -0.033034925127679776 0 -7.5851976853790975e-05 -0.033030814203650116 0 -6.7708214928474821e-05 -0.032974702893672984 0 -7.5851976853790975e-05 -0.033030814203650116 0 -0.00015009266714999624 -0.032998275772538888 0 9.1560396998863346e-05 -0.03306237043978618 0 -3.4083621487679312e-05 -0.033034925127679776 0 -7.5851976853790975e-05 -0.033030814203650116 0 9.1560396998863346e-05 -0.03306237043978618 0 9.1560396998863346e-05 -0.03306237043978618 0 -5.964064888926121e-05 -0.032689532749084024 0 0.00063531797975306485 -0.032179440875105256 0 -0.00015009266714999624 -0.032998275772538888 0 9.1560396998863346e-05 -0.03306237043978618 0 -5.964064888926121e-05 -0.032689532749084024 0 -0.00028468090393255022 -0.032896995118903108 0 -0.00015009266714999624 -0.032998275772538888 0 -5.964064888926121e-05 -0.032689532749084024 0 -0.00028468090393255022 -0.032896995118903108 0 -5.964064888926121e-05 -0.032689532749084024 0 -0.00023706778316332175 -0.032459996504792643 0 0.00020364816585343213 -0.032899159128376036 0 0.00024980534853847865 -0.032766370144993881 0 9.1560396998863346e-05 -0.03306237043978618 0 3.944355705613067e-05 -0.033705037731532946 0 -0.0001807305925825153 -0.033420523762346131 0 -0.00012551509954795482 -0.0331531101099053 0 9.1560396998863346e-05 -0.03306237043978618 0 -0.0001807305925825153 -0.033420523762346131 0 3.944355705613067e-05 -0.033705037731532946 0 -0.00016084296892567078 -0.033661441085617 0 -0.0001807305925825153 -0.033420523762346131 0 0.00063531797975306485 -0.032179440875105256 0 2.5089904514625973e-05 -0.032111218145554316 0 0.00035054036506130604 -0.031409847032372276 0 3.944355705613067e-05 -0.033705037731532946 0 -0.0001525965396757714 -0.033959921794754856 0 -0.00016084296892567078 -0.033661441085617 0 0.00015316591641923621 -0.030982185210582682 0 0.00017660664769914494 -0.030138208191185439 0 -0.00023706778316332175 -0.032459996504792643 0 2.5089904514625973e-05 -0.032111218145554316 0 -0.00048121498124863236 -0.031478487806573384 0 -5.964064888926121e-05 -0.032689532749084024 0 -0.00023706778316332175 -0.032459996504792643 0 2.5089904514625973e-05 -0.032111218145554316 0 -5.964064888926121e-05 -0.032689532749084024 0 0.00063531797975306485 -0.032179440875105256 0 2.5089904514625973e-05 -0.032111218145554316 0 -0.00048121498124863236 -0.031478487806573384 0 -1.7062086825437363e-05 -0.030902121090569466 0 0.00035054036506130604 -0.031409847032372276 0 2.5089904514625973e-05 -0.032111218145554316 0 -0.00048121498124863236 -0.031478487806573384 0 0.00035054036506130604 -0.031409847032372276 0 0.00017660664769914494 -0.030138208191185439 0 0.00025269621960116913 -0.027159152705341472 0 -0.00048121498124863236 -0.031478487806573384 0 -1.7062086825437363e-05 -0.030902121090569466 0 -0.00063493779241833583 -0.030356949749963891 0 -1.7062086825437363e-05 -0.030902121090569466 0 0.00035054036506130604 -0.031409847032372276 0 0.00054539941607658433 -0.030816714765176289 0 0.00063531797975306485 -0.032179440875105256 0 0.00035054036506130604 -0.031409847032372276 0 0.0011418158727996026 -0.031027376274866278 0 0.00024980534853847865 -0.032766370144993881 0 0.00031895664785215296 -0.032421106640225697 0 3.944355705613067e-05 -0.033705037731532946 0 -0.00014403851530518389 -0.034153847394669909 0 -0.0001525965396757714 -0.033959921794754856 0 0.00035054036506130604 -0.031409847032372276 0 0.0011418158727996026 -0.031027376274866278 0 0.00054539941607658433 -0.030816714765176289 0 0.0011418158727996026 -0.031027376274866278 0 0.00054539941607658433 -0.030816714765176289 0 0.00088345115176674993 -0.030331780417474415 0 0.00054539941607658433 -0.030816714765176289 0 0.00029564150717496188 -0.030287806127561989 0 0.00088345115176674993 -0.030331780417474415 0 0.00029564150717496188 -0.030287806127561989 0 0.00088345115176674993 -0.030331780417474415 0 0.00080843887298569304 -0.029753119729372366 0 0.00088345115176674993 -0.030331780417474415 0 0.00080843887298569304 -0.029753119729372366 0 0.0016506070154129087 -0.029755355438872245 0 0.00029564150717496188 -0.030287806127561989 0 0.00080843887298569304 -0.029753119729372366 0 0.00012587622595827461 -0.029239607882713334 0 0.00080843887298569304 -0.029753119729372366 0 0.0010262980035771732 -0.029023623685334454 0 0.0016506070154129087 -0.029755355438872245 0 0.00080843887298569304 -0.029753119729372366 0 0.0010262980035771732 -0.029023623685334454 0 0.00012587622595827461 -0.029239607882713334 0 -8.0460186194723416e-05 -0.028309150370062347 0 0.00025269621960116913 -0.027159152705341472 0 4.9326353819778951e-05 -0.029108732606923215 0 -0.00078434986100537501 -0.030196868548489471 0 -0.00092263488801226114 -0.028502449929438983 0 0.00029564150717496188 -0.030287806127561989 0 0.00012587622595827461 -0.029239607882713334 0 -0.00063493779241833583 -0.030356949749963891 0 -1.7062086825437363e-05 -0.030902121090569466 0 0.00029564150717496188 -0.030287806127561989 0 -0.00063493779241833583 -0.030356949749963891 0 -1.7062086825437363e-05 -0.030902121090569466 0 0.00054539941607658433 -0.030816714765176289 0 0.00029564150717496188 -0.030287806127561989 0 0.000460322074591169 -0.02627075802460329 0 0.00025269621960116913 -0.027159152705341472 0 0.0011342576275038582 -0.020290794433340906 0 0.0012541740546428133 -0.020076494581855741 0 0.0010553991010482321 -0.020119601739074632 0 0.0012541740546428133 -0.020076494581855741 0 0.0010553991010482321 -0.020119601739074632 0 0.0010264266163290293 -0.019911807878765196 0 0.00083928541058180808 -0.020130602016503265 0 0.0009667925693335656 -0.020290541310738975 0 0.0010553991010482321 -0.020119601739074632 0 0.00083928541058180808 -0.020130602016503265 0 0.0010553991010482321 -0.020119601739074632 0 0.0010264266163290293 -0.019911807878765196 0 0.0012541740546428133 -0.020076494581855741 0 0.0011044460634258382 -0.019830101410533402 0 0.0011595221524162164 -0.019771047323822566 0 0.0012541740546428133 -0.020076494581855741 0 0.0010264266163290293 -0.019911807878765196 0 0.0011044460634258382 -0.019830101410533402 0 0.00025269621960116913 -0.027159152705341472 0 0.00011886922824933937 -0.024482382732877377 0 0.0011595221524162164 -0.019771047323822566 0 0.0011149368383539778 -0.019751699892914098 0 0.0010790828598082687 -0.019769232415390716 0 0.0011044460634258382 -0.019830101410533402 0 0.0011595221524162164 -0.019771047323822566 0 0.0011149368383539778 -0.019751699892914098 0 0.0010264266163290293 -0.019911807878765196 0 0.0011044460634258382 -0.019830101410533402 0 0.00099756426509001531 -0.019711552393010184 0 0.00089545890175746776 -0.019795292409297057 0 0.0010264266163290293 -0.019911807878765196 0 0.00099756426509001531 -0.019711552393010184 0 0.0011149368383539778 -0.019751699892914098 0 0.00099756426509001531 -0.019711552393010184 0 0.00098086659934120161 -0.019627209376901752 0 0.0011044460634258382 -0.019830101410533402 0 0.0011149368383539778 -0.019751699892914098 0 0.00099756426509001531 -0.019711552393010184 0 0.0011149368383539778 -0.019751699892914098 0 0.00098086659934120161 -0.019627209376901752 0 0.00098657118731182067 -0.019495694294550628 0 0.0010373029888180185 -0.019618321032027215 0 0.0009904790246222238 -0.019556107333171455 0 0.0011149368383539778 -0.019751699892914098 0 0.0010343602725632602 -0.019790854624224197 0 0.0010099255240890914 -0.019804102660205124 0 0.0010589800223321183 -0.019781225769509019 0 0.0010343602725632602 -0.019790854624224197 0 0.0010790828598082687 -0.019769232415390716 0 0.0010547358200873917 -0.019776211119587966 0 0.0011595221524162164 -0.019771047323822566 0 0.0010790828598082687 -0.019769232415390716 0 0.0011149368383539778 -0.019751699892914098 0 0.0010343602725632602 -0.019790854624224197 0 0.0010790828598082687 -0.019769232415390716 0 7.3077526793082414e-05 -0.023273419860048557 0 0.00011886922824933937 -0.024482382732877377 0 0.0010547358200873917 -0.019776211119587966 0 0.0010589800223321183 -0.019781225769509019 0 0.0010790828598082687 -0.019769232415390716 0 -0.001072669218619519 -0.026732348569977304 0 -0.00092263488801226114 -0.028502449929438983 0 -0.0001674431641771029 -0.027584922187743156 0 -5.8175566509906732e-05 -0.026760736471840636 0 -0.001072669218619519 -0.026732348569977304 0 -0.0001674431641771029 -0.027584922187743156 0 -5.8175566509906732e-05 -0.026760736471840636 0 -0.0001674431641771029 -0.027584922187743156 0 0.00055408590798238281 -0.027263697125286448 0 -0.0001674431641771029 -0.027584922187743156 0 0.00055408590798238281 -0.027263697125286448 0 0.00093625960250729259 -0.02802451352757802 0 0.00091412768462572583 -0.026676577976445858 0 0.00055408590798238281 -0.027263697125286448 0 0.0012430259019558 -0.027443726688081163 0 0.00055408590798238281 -0.027263697125286448 0 0.00093625960250729259 -0.02802451352757802 0 0.0012430259019558 -0.027443726688081163 0 -0.0001674431641771029 -0.027584922187743156 0 0.00093625960250729259 -0.02802451352757802 0 -2.9091357014343994e-05 -0.02830739212947617 0 0.0010262980035771732 -0.029023623685334454 0 0.00012587622595827461 -0.029239607882713334 0 0.00093625960250729259 -0.02802451352757802 0 4.9326353819778951e-05 -0.029108732606923215 0 0.00093625960250729259 -0.02802451352757802 0 -2.9091357014343994e-05 -0.02830739212947617 0 -8.0460186194723416e-05 -0.028309150370062347 0 0.00015177569770182282 -0.028206259230953067 0 4.9326353819778951e-05 -0.029108732606923215 0 -0.00092263488801226114 -0.028502449929438983 0 -2.9091357014343994e-05 -0.02830739212947617 0 -0.00092263488801226114 -0.028502449929438983 0 -0.0001674431641771029 -0.027584922187743156 0 -2.9091357014343994e-05 -0.02830739212947617 0 -0.00022145218927847437 -0.034594422020242037 0 -0.00023731126815689031 -0.034596595761145106 0 -0.00022729135288755253 -0.034593549231038696 0 0.0010262980035771732 -0.029023623685334454 0 0.00093625960250729259 -0.02802451352757802 0 0.0021615759413000485 -0.028398591655976604 0 -0.00014379243283454979 -0.029783289757487862 0 -4.6915521943729333e-05 -0.032022839214479348 0 0.0016475584772744575 -0.026849214293880902 0 0.0021615759413000485 -0.028398591655976604 0 0.0012430259019558 -0.027443726688081163 0 0.00093625960250729259 -0.02802451352757802 0 0.0021615759413000485 -0.028398591655976604 0 0.0012430259019558 -0.027443726688081163 0 0.0016475584772744575 -0.026849214293880902 0 0.00091412768462572583 -0.026676577976445858 0 0.0012430259019558 -0.027443726688081163 0 -0.00049702035516683684 -0.032961796176494522 0 -4.6915521943729333e-05 -0.032022839214479348 0 -0.0010232796845889203 -0.031654178063149213 0 -0.00083704474492448159 -0.031656463737779326 0 -0.00091607717294282126 -0.031396100291875936 0 -0.00023657008781656903 -0.034600251578237838 0 -0.00022145218927847437 -0.034594422020242037 0 -0.00023731126815689031 -0.034596595761145106 0 -0.000249948506518558 -0.034602440668639017 0 -0.00023657008781656903 -0.034600251578237838 0 -0.00023731126815689031 -0.034596595761145106 0 -0.000249948506518558 -0.034602440668639017 0 -0.00023731126815689031 -0.034596595761145106 0 -0.0002522769201318403 -0.034591075907435612 0 -0.000249948506518558 -0.034602440668639017 0 -0.0002522769201318403 -0.034591075907435612 0 -0.0002625375328315615 -0.034577211701064633 0 -0.00029201424992923611 -0.034304326555873552 0 -0.0001771799444487469 -0.034656226543089627 0 -0.00025542617987816467 -0.034593250940289692 0 -0.00028405804983073037 -0.034595468352124348 0 -0.0002625375328315615 -0.034577211701064633 0 -0.0002522769201318403 -0.034591075907435612 0 -0.00025542617987816467 -0.034593250940289692 0 -0.0002625375328315615 -0.034577211701064633 0 -0.00023731126815689031 -0.034596595761145106 0 -0.00025542617987816467 -0.034593250940289692 0 -0.00022729135288755253 -0.034593549231038696 0 -0.00023731126815689031 -0.034596595761145106 0 -0.0002522769201318403 -0.034591075907435612 0 -0.00025542617987816467 -0.034593250940289692 0 -0.00022729135288755253 -0.034593549231038696 0 -0.00025604862629457343 -0.034578550868291313 0 -0.00017948327795130257 -0.03457614134987063 0 -0.00025542617987816467 -0.034593250940289692 0 -0.00022729135288755253 -0.034593549231038696 0 -0.00025604862629457343 -0.034578550868291313 0 -0.00025542617987816467 -0.034593250940289692 0 -0.00025604862629457343 -0.034578550868291313 0 -0.00028405804983073037 -0.034595468352124348 0 -0.00025604862629457343 -0.034578550868291313 0 -0.00028405804983073037 -0.034595468352124348 0 -0.00033515897145556893 -0.0345693257875518 0 -0.00025604862629457343 -0.034578550868291313 0 -0.00023766789816160805 -0.034504401871590373 0 -0.00017948327795130257 -0.03457614134987063 0 -0.00025604862629457343 -0.034578550868291313 0 -0.00023766789816160805 -0.034504401871590373 0 -0.00033515897145556893 -0.0345693257875518 0 -0.00014680347772328753 -0.034111078077818387 0 -0.00018076654004325413 -0.034153862441848377 0 -0.00017510361054582795 -0.034196692684305287 0 -0.00014680347772328753 -0.034111078077818387 0 -0.00017590173557369045 -0.034140980844263293 0 -0.00018076654004325413 -0.034153862441848377 0 -0.00016947979984411658 -0.03404463357053604 0 -0.00014680347772328753 -0.034111078077818387 0 -0.00018800264359323507 -0.03410618927715596 0 -0.00022145218927847437 -0.034594422020242037 0 -0.00022729135288755253 -0.034593549231038696 0 -0.00017948327795130257 -0.03457614134987063 0 -4.6915521943729333e-05 -0.032022839214479348 0 0.00011199611757052793 -0.033879793759969766 0 -4.6915521943729333e-05 -0.032022839214479348 0 0.0003106782329836886 -0.031996904139705754 0 0.0010262980035771732 -0.029023623685334454 0 0.0021615759413000485 -0.028398591655976604 0 0.0016506070154129087 -0.029755355438872245 0 0.0011418158727996026 -0.031027376274866278 0 0.00088345115176674993 -0.030331780417474415 0 0.0016506070154129087 -0.029755355438872245 0 0.00031895664785215296 -0.032421106640225697 0 0.0003106782329836886 -0.031996904139705754 0 -0.00014680347772328753 -0.034111078077818387 0 -0.00018800264359323507 -0.03410618927715596 0 -0.00017590173557369045 -0.034140980844263293 0 -0.00014403851530518389 -0.034153847394669909 0 -0.00018800264359323507 -0.03410618927715596 0 -0.00017590173557369045 -0.034140980844263293 0 -0.00014403851530518389 -0.034153847394669909 0 -0.00017590173557369045 -0.034140980844263293 0 -0.00018500229103276351 -0.034122741939303217 0 -0.00014403851530518389 -0.034153847394669909 0 -0.00018500229103276351 -0.034122741939303217 0 -0.0001525965396757714 -0.033959921794754856 0 -0.00018500229103276351 -0.034122741939303217 0 -0.0001525965396757714 -0.033959921794754856 0 -0.000160898539247223 -0.034263513250357203 0 -0.00017590173557369045 -0.034140980844263293 0 -0.00018500229103276351 -0.034122741939303217 0 -0.00018076654004325413 -0.034153862441848377 0 -0.00014680347772328753 -0.034111078077818387 0 -0.00017510361054582795 -0.034196692684305287 0 -0.00017250658532423792 -0.034302226885364204 0 0.00011199611757052793 -0.033879793759969766 0 6.9694340348442816e-05 -0.034111423959767032 0 -0.00018500229103276351 -0.034122741939303217 0 -0.00017510361054582795 -0.034196692684305287 0 -0.000160898539247223 -0.034263513250357203 0 -0.00018500229103276351 -0.034122741939303217 0 -0.00018076654004325413 -0.034153862441848377 0 -0.00017510361054582795 -0.034196692684305287 0 -0.00017510361054582795 -0.034196692684305287 0 -0.000160898539247223 -0.034263513250357203 0 -0.00017250658532423792 -0.034302226885364204 0 -0.00064200709254730618 -0.033662680729016202 0 -0.00042781640287289203 -0.033650238171205916 0 -0.00055030212091871982 -0.033466558257668172 0 -0.00033908486243666995 -0.033566565912154754 0 -0.00042781640287289203 -0.033650238171205916 0 -0.00055030212091871982 -0.033466558257668172 0 -0.00064200709254730618 -0.033662680729016202 0 -0.00055030212091871982 -0.033466558257668172 0 -0.00074905749197462426 -0.033471581514575764 0 -0.00022030340645560502 -0.034029432514936779 0 -0.00037815352521161389 -0.034011386067342102 0 -0.0001525965396757714 -0.033959921794754856 0 -0.00064200709254730618 -0.033662680729016202 0 -0.00042781640287289203 -0.033650238171205916 0 -0.0001525965396757714 -0.033959921794754856 0 -0.00033908486243666995 -0.033566565912154754 0 -0.00016084296892567078 -0.033661441085617 0 -0.0001525965396757714 -0.033959921794754856 0 -0.00033908486243666995 -0.033566565912154754 0 -0.00042781640287289203 -0.033650238171205916 0 -0.00033908486243666995 -0.033566565912154754 0 -0.00016084296892567078 -0.033661441085617 0 -0.0001807305925825153 -0.033420523762346131 0 -0.00033908486243666995 -0.033566565912154754 0 -0.0001807305925825153 -0.033420523762346131 0 -0.00033104053434720001 -0.033256144538182542 0 -0.00033908486243666995 -0.033566565912154754 0 -0.00033104053434720001 -0.033256144538182542 0 -0.00055030212091871982 -0.033466558257668172 0 -0.00012551509954795482 -0.0331531101099053 0 -0.0001807305925825153 -0.033420523762346131 0 -0.00033104053434720001 -0.033256144538182542 0 -0.00055030212091871982 -0.033466558257668172 0 -0.00052064044501316581 -0.033215184426881872 0 -0.00069362226328068216 -0.033297224519455382 0 -0.00033104053434720001 -0.033256144538182542 0 -0.00055030212091871982 -0.033466558257668172 0 -0.00052064044501316581 -0.033215184426881872 0 -0.00052064044501316581 -0.033215184426881872 0 -0.00038835602209513043 -0.033052384788503954 0 -0.00064210350752071002 -0.033037219530757236 0 -0.00052064044501316581 -0.033215184426881872 0 -0.00069362226328068216 -0.033297224519455382 0 -0.00064210350752071002 -0.033037219530757236 0 -0.00016877885644237569 -0.033030261125486779 0 -0.00033104053434720001 -0.033256144538182542 0 -0.00038835602209513043 -0.033052384788503954 0 -0.00033104053434720001 -0.033256144538182542 0 -0.00052064044501316581 -0.033215184426881872 0 -0.00038835602209513043 -0.033052384788503954 0 -0.00012551509954795482 -0.0331531101099053 0 -0.00016877885644237569 -0.033030261125486779 0 -0.00033104053434720001 -0.033256144538182542 0 -0.00085490265621631885 -0.033156662612618674 0 -0.0010954934792749167 -0.033240814545163949 0 -0.00099896424475035147 -0.032939099958261248 0 -0.00085490265621631885 -0.033156662612618674 0 -0.00087055297901526189 -0.033355618293661751 0 -0.0010954934792749167 -0.033240814545163949 0 -0.00085490265621631885 -0.033156662612618674 0 -0.00069362226328068216 -0.033297224519455382 0 -0.00064210350752071002 -0.033037219530757236 0 -0.00085490265621631885 -0.033156662612618674 0 -0.00069362226328068216 -0.033297224519455382 0 -0.00087055297901526189 -0.033355618293661751 0 -0.00074905749197462426 -0.033471581514575764 0 -0.00087055297901526189 -0.033355618293661751 0 -0.00098034314980981435 -0.0335194220486306 0 -0.00069362226328068216 -0.033297224519455382 0 -0.00074905749197462426 -0.033471581514575764 0 -0.00087055297901526189 -0.033355618293661751 0 -0.00055030212091871982 -0.033466558257668172 0 -0.00069362226328068216 -0.033297224519455382 0 -0.00074905749197462426 -0.033471581514575764 0 -0.00087055297901526189 -0.033355618293661751 0 -0.00098034314980981435 -0.0335194220486306 0 -0.0010954934792749167 -0.033240814545163949 0 -0.00033291139965720043 -0.034258121388298486 0 -0.00029510321821913868 -0.034396450520714293 0 -0.00046888985018943838 -0.034312456881561759 0 -0.00037815352521161389 -0.034011386067342102 0 -0.00063942491854819213 -0.034006159647062939 0 -0.00064200709254730618 -0.033662680729016202 0 -0.00074905749197462426 -0.033471581514575764 0 -0.00098034314980981435 -0.0335194220486306 0 -0.00033291139965720043 -0.034258121388298486 0 -0.00017250658532423792 -0.034302226885364204 0 -0.00029510321821913868 -0.034396450520714293 0 -0.000160898539247223 -0.034263513250357203 0 -0.00033291139965720043 -0.034258121388298486 0 -0.00017250658532423792 -0.034302226885364204 0 -0.00023766789816160805 -0.034504401871590373 0 -0.00017948327795130257 -0.03457614134987063 0 -0.00017250658532423792 -0.034302226885364204 0 -0.00023766789816160805 -0.034504401871590373 0 -0.00017250658532423792 -0.034302226885364204 0 -0.00029510321821913868 -0.034396450520714293 0 -0.00023766789816160805 -0.034504401871590373 0 -0.00029510321821913868 -0.034396450520714293 0 -0.00033515897145556893 -0.0345693257875518 0 -0.00029510321821913868 -0.034396450520714293 0 -0.00033515897145556893 -0.0345693257875518 0 -0.00046888985018943838 -0.034312456881561759 0 -0.00033515897145556893 -0.0345693257875518 0 -0.00022241734161729699 -0.034857655948037455 0 -0.00024617559899665036 -0.034684280351498432 0 -0.00033172471855767781 -0.034672148073433995 0 -0.00034424807758086238 -0.034680805268425707 0 -0.00033515897145556893 -0.0345693257875518 0 -0.00056306013379369281 -0.034437433966538041 0 -0.00046888985018943838 -0.034312456881561759 0 -0.00022241734161729699 -0.034857655948037455 0 -5.3962990246643069e-05 -0.034997425410070761 0 -2.3707662227228768e-05 -0.034942202585159246 0 -0.00022241734161729699 -0.034857655948037455 0 -2.3707662227228768e-05 -0.034942202585159246 0 -0.00024617559899665036 -0.034684280351498432 0 -0.00060947692065262495 -0.034271625490430668 0 -0.00068713759744741998 -0.0342421198476172 0 -0.00075595569338788411 -0.034326217350463123 0 -0.00034424807758086238 -0.034680805268425707 0 -0.00032449541654385947 -0.034716283440661737 0 -0.00056306013379369281 -0.034437433966538041 0 -0.00060947692065262495 -0.034271625490430668 0 -0.00075595569338788411 -0.034326217350463123 0 -0.00060947692065262495 -0.034271625490430668 0 -0.00068713759744741998 -0.0342421198476172 0 -0.00061886676478207494 -0.034196811283349116 0 -0.00033291139965720043 -0.034258121388298486 0 -0.00046888985018943838 -0.034312456881561759 0 -0.00061727483794129547 -0.034184269860709535 0 -0.00056306013379369281 -0.034437433966538041 0 -0.00060947692065262495 -0.034271625490430668 0 -0.00046888985018943838 -0.034312456881561759 0 -0.00060947692065262495 -0.034271625490430668 0 -0.00046888985018943838 -0.034312456881561759 0 -0.00061727483794129547 -0.034184269860709535 0 -0.00063942491854819213 -0.034006159647062939 0 -0.00071256028740969196 -0.034132572511839827 0 -0.00098034314980981435 -0.0335194220486306 0 -0.0013343657886874323 -0.033419871659027392 0 -0.0010954934792749167 -0.033240814545163949 0 -0.00070883916931981485 -0.034145299056514943 0 -0.00071256028740969196 -0.034132572511839827 0 -0.00068713759744741998 -0.0342421198476172 0 -0.00061886676478207494 -0.034196811283349116 0 -0.00075903833682917747 -0.034212166700043511 0 -0.00071256028740969196 -0.034132572511839827 0 -0.00065631060620943065 -0.034038100226548934 0 -1.8995992496708981e-05 -0.034970786740475782 0 -1.2505656983925012e-05 -0.03499138117253027 0 -6.9733775855279907e-06 -0.034981514683046819 0 -1.2505656983925012e-05 -0.03499138117253027 0 -3.2753584053008168e-06 -0.034994029079276408 0 -6.9733775855279907e-06 -0.034981514683046819 0 -0.001361353378944802 -0.033109394148657371 0 -0.0010954934792749167 -0.033240814545163949 0 -0.0012150086876865764 -0.03294578608234576 0 -0.0013343657886874323 -0.033419871659027392 0 -0.001361353378944802 -0.033109394148657371 0 -0.0010954934792749167 -0.033240814545163949 0 -8.3740804652451233e-07 -0.034998731999360898 0 -8.7631892645762769e-10 -0.034999994770382264 0 -5.5704404939506203e-07 -0.034999287546434936 0 -8.3740804652451233e-07 -0.034998731999360898 0 -1.3156317498900896e-06 -0.034997295830946913 0 -7.8629665613155167e-07 -0.034998481914791553 0 -8.3740804652451233e-07 -0.034998731999360898 0 -8.7631892645762769e-10 -0.034999994770382264 0 -1.3156317498900896e-06 -0.034997295830946913 0 -0.0001779796274754448 -0.034826225584856881 0 -0.00018879534353704344 -0.034793443023478872 0 -3.2753584053008168e-06 -0.034994029079276408 0 5.4287416974743014e-06 -0.034980636271202251 0 -6.9733775855279907e-06 -0.034981514683046819 0 -1.3156317498900896e-06 -0.034997295830946913 0 -3.2753584053008168e-06 -0.034994029079276408 0 -7.8629665613155167e-07 -0.034998481914791553 0 -1.8995992496708981e-05 -0.034970786740475782 0 -6.9733775855279907e-06 -0.034981514683046819 0 6.9589201803539458e-06 -0.034978351161134208 0 -0.00071256028740969196 -0.034132572511839827 0 -0.00019314237893314632 -0.034779423772641913 0 -0.00061886676478207494 -0.034196811283349116 0 -0.00075903833682917747 -0.034212166700043511 0 -0.00086928756827329718 -0.034134572713073019 0 5.4287416974743014e-06 -0.034980636271202251 0 -6.9733775855279907e-06 -0.034981514683046819 0 6.9589201803539458e-06 -0.034978351161134208 0 -0.00068713759744741998 -0.0342421198476172 0 -0.00075903833682917747 -0.034212166700043511 0 -0.00076639630232797822 -0.034253993793987705 0 -0.00075903833682917747 -0.034212166700043511 0 -0.00084121287976034903 -0.034226875366199491 0 -0.00076639630232797822 -0.034253993793987705 0 -0.00075903833682917747 -0.034212166700043511 0 -0.00084121287976034903 -0.034226875366199491 0 -0.00086928756827329718 -0.034134572713073019 0 -0.00019314237893314632 -0.034779423772641913 0 -9.7945520773323267e-05 -0.034863243564889547 0 -6.6592162909805164e-07 -0.034998841930943145 0 -5.5704404939506203e-07 -0.034999287546434936 0 -4.0603996895930906e-07 -0.034999642150279307 0 -0.00084121287976034903 -0.034226875366199491 0 -0.00086928756827329718 -0.034134572713073019 0 -0.00093449598892104242 -0.034233488444886016 0 -8.7631892645762769e-10 -0.034999994770382264 0 -5.5704404939506203e-07 -0.034999287546434936 0 -1.3970700785251282e-09 -0.034999998850998297 0 -7.8629665613155167e-07 -0.034998481914791553 0 -6.6592162909805164e-07 -0.034998841930943145 0 -5.5704404939506203e-07 -0.034999287546434936 0 -8.3740804652451233e-07 -0.034998731999360898 0 -7.8629665613155167e-07 -0.034998481914791553 0 -5.5704404939506203e-07 -0.034999287546434936 0 -0.00018879534353704344 -0.034793443023478872 0 -0.00019314237893314632 -0.034779423772641913 0 -5.5704404939506203e-07 -0.034999287546434936 0 -4.0603996895930906e-07 -0.034999642150279307 0 -1.3970700785251282e-09 -0.034999998850998297 0 -9.7945520773323267e-05 -0.034863243564889547 0 -2.0743743621264434e-07 -0.034999294212884786 0 -4.6820473491388172e-08 -0.034999867903083862 0 8.8165750626642092e-11 -0.034999999502274504 0 -1.4961207125375257e-10 -0.035000000022810542 0 -1.2914403227342133e-05 -0.035018309556499039 0 -1.6572320909108148e-08 -0.034999844219486459 0 -5.3962990246643069e-05 -0.034997425410070761 0 -9.7945520773323267e-05 -0.034863243564889547 0 -4.9012659612090675e-07 -0.034999529225833201 0 -1.6572320909108148e-08 -0.034999844219486459 0 -5.3962990246643069e-05 -0.034997425410070761 0 -2.3707662227228768e-05 -0.034942202585159246 0 -9.7945520773323267e-05 -0.034863243564889547 0 -0.00032449541654385947 -0.034716283440661737 0 -0.00084121287976034903 -0.034226875366199491 0 -0.00093449598892104242 -0.034233488444886016 0 -0.00075595569338788411 -0.034326217350463123 0 -0.00068713759744741998 -0.0342421198476172 0 -0.00076639630232797822 -0.034253993793987705 0 -0.00075595569338788411 -0.034326217350463123 0 -0.00084121287976034903 -0.034226875366199491 0 -0.00076639630232797822 -0.034253993793987705 0 -0.00075595569338788411 -0.034326217350463123 0 -1.6572320909108148e-08 -0.034999844219486459 0 -2.3707662227228768e-05 -0.034942202585159246 0 -7.026487622264789e-09 -0.034999905593012366 0 -2.3707662227228768e-05 -0.034942202585159246 0 -1.9175216377799584e-05 -0.034993674850316986 0 -7.026487622264789e-09 -0.034999905593012366 0 -7.0772882624504604e-05 -0.034846422187414822 0 -0.00011129989379468702 -0.034782896435209966 0 -2.3707662227228768e-05 -0.034942202585159246 0 -0.00024617559899665036 -0.034684280351498432 0 -0.00018719329645672437 -0.034597306817711754 0 -0.00028405804983073037 -0.034595468352124348 0 -0.00033515897145556893 -0.0345693257875518 0 -0.00024617559899665036 -0.034684280351498432 0 -0.00028405804983073037 -0.034595468352124348 0 -0.00024617559899665036 -0.034684280351498432 0 -0.00018719329645672437 -0.034597306817711754 0 -0.00011129989379468702 -0.034782896435209966 0 -0.0001771799444487469 -0.034656226543089627 0 -0.00028405804983073037 -0.034595468352124348 0 -0.00018719329645672437 -0.034597306817711754 0 -0.0002625375328315615 -0.034577211701064633 0 -1.9175216377799584e-05 -0.034993674850316986 0 -2.1305008625119296e-05 -0.034990527500230587 0 -0.00016614840838333997 -0.035048476380943772 0 -0.00023463834735760119 -0.034611862830010047 0 -0.00016614840838333997 -0.035048476380943772 0 -1.982041009257311e-05 -0.034891132466906463 0 -0.00023463834735760119 -0.034611862830010047 0 -0.00062387397162583594 -0.034684717098733144 0 -0.00016614840838333997 -0.035048476380943772 0 -2.1305008625119296e-05 -0.034990527500230587 0 -0.00016614840838333997 -0.035048476380943772 0 -1.982041009257311e-05 -0.034891132466906463 0 -2.1305008625119296e-05 -0.034990527500230587 0 -1.982041009257311e-05 -0.034891132466906463 0 -1.5810415368058968e-05 -0.03495732563375413 0 -1.9175216377799584e-05 -0.034993674850316986 0 -2.1305008625119296e-05 -0.034990527500230587 0 -7.026487622264789e-09 -0.034999905593012366 0 -2.9030847261740691e-05 -0.034970833750621433 0 -1.5810415368058968e-05 -0.03495732563375413 0 -7.026487622264789e-09 -0.034999905593012366 0 -2.1305008625119296e-05 -0.034990527500230587 0 -1.5810415368058968e-05 -0.03495732563375413 0 -7.026487622264789e-09 -0.034999905593012366 0 1.6869900156138014e-05 -0.034986651297114556 0 1.1367145001819366e-05 -0.034995487364984215 0 1.3568208072350287e-05 -0.035000574241432172 0 -5.5690286795679081e-05 -0.034817604208383875 0 -7.0804021615255492e-05 -0.034729767062628703 0 9.9932393172830849e-06 -0.034991808092124613 0 6.4951474811966705e-06 -0.034995684444362074 0 6.2947018606160882e-06 -0.034988470514873353 0 6.4951474811966705e-06 -0.034995684444362074 0 9.476522137875611e-07 -0.034994621590584994 0 6.2947018606160882e-06 -0.034988470514873353 0 9.9932393172830849e-06 -0.034991808092124613 0 1.6869900156138014e-05 -0.034986651297114556 0 1.1367145001819366e-05 -0.034995487364984215 0 9.9932393172830849e-06 -0.034991808092124613 0 1.6869900156138014e-05 -0.034986651297114556 0 6.2947018606160882e-06 -0.034988470514873353 0 1.1367145001819366e-05 -0.034995487364984215 0 9.0446018747302868e-06 -0.034999758389305753 0 1.3568208072350287e-05 -0.035000574241432172 0 1.1367145001819366e-05 -0.034995487364984215 0 6.4951474811966705e-06 -0.034995684444362074 0 9.0446018747302868e-06 -0.034999758389305753 0 9.9932393172830849e-06 -0.034991808092124613 0 1.1367145001819366e-05 -0.034995487364984215 0 6.4951474811966705e-06 -0.034995684444362074 0 6.4951474811966705e-06 -0.034995684444362074 0 5.5586522733695171e-06 -0.034999300267628958 0 9.0446018747302868e-06 -0.034999758389305753 0 6.4951474811966705e-06 -0.034995684444362074 0 5.5586522733695171e-06 -0.034999300267628958 0 3.1165410255824294e-06 -0.034997268201668083 0 5.5586522733695171e-06 -0.034999300267628958 0 3.1165410255824294e-06 -0.034997268201668083 0 5.8515355725621932e-07 -0.034999329866675116 0 6.4951474811966705e-06 -0.034995684444362074 0 3.1165410255824294e-06 -0.034997268201668083 0 9.476522137875611e-07 -0.034994621590584994 0 3.1165410255824294e-06 -0.034997268201668083 0 5.8515355725621932e-07 -0.034999329866675116 0 9.476522137875611e-07 -0.034994621590584994 0 5.0265440883198935e-10 -0.035000002236071893 0 9.476522137875611e-07 -0.034994621590584994 0 -2.7845152669559717e-09 -0.034999957090050569 0 5.0265440883198935e-10 -0.035000002236071893 0 5.8515355725621932e-07 -0.034999329866675116 0 9.476522137875611e-07 -0.034994621590584994 0 9.476522137875611e-07 -0.034994621590584994 0 -2.7845152669559717e-09 -0.034999957090050569 0 2.3954655150330374e-06 -0.034986624130089426 0 9.476522137875611e-07 -0.034994621590584994 0 2.3954655150330374e-06 -0.034986624130089426 0 6.2947018606160882e-06 -0.034988470514873353 0 2.3954655150330374e-06 -0.034986624130089426 0 8.623713323003435e-06 -0.034975264690560851 0 2.9254537000694406e-06 -0.034970776698408167 0 8.623713323003435e-06 -0.034975264690560851 0 1.5996335140612179e-05 -0.03498839796339874 0 1.970204628393647e-05 -0.034940688047475597 0 2.3954655150330374e-06 -0.034986624130089426 0 6.2947018606160882e-06 -0.034988470514873353 0 8.623713323003435e-06 -0.034975264690560851 0 1.6869900156138014e-05 -0.034986651297114556 0 6.2947018606160882e-06 -0.034988470514873353 0 8.623713323003435e-06 -0.034975264690560851 0 1.6869900156138014e-05 -0.034986651297114556 0 8.623713323003435e-06 -0.034975264690560851 0 1.5996335140612179e-05 -0.03498839796339874 0 6.4872945342266046e-06 -0.034902928166083737 0 3.4794155820914791e-05 -0.034844277996840721 0 1.970204628393647e-05 -0.034940688047475597 0 -0.00010979348380342616 -0.034823990611393449 0 -8.4702259520838945e-05 -0.03487426795918451 0 6.4872945342266046e-06 -0.034902928166083737 0 1.0403658351110769e-05 -0.03486105570624886 0 -2.7426188592333895e-06 -0.034862524678492816 0 1.0403658351110769e-05 -0.03486105570624886 0 -2.7426188592333895e-06 -0.034862524678492816 0 5.7792357753479217e-06 -0.0348372698856848 0 1.0403658351110769e-05 -0.03486105570624886 0 3.4794155820914791e-05 -0.034844277996840721 0 5.7792357753479217e-06 -0.0348372698856848 0 6.4872945342266046e-06 -0.034902928166083737 0 1.0403658351110769e-05 -0.03486105570624886 0 3.4794155820914791e-05 -0.034844277996840721 0 6.4872945342266046e-06 -0.034902928166083737 0 -2.7426188592333895e-06 -0.034862524678492816 0 -1.6068740059200085e-05 -0.034876992983841913 0 -2.7426188592333895e-06 -0.034862524678492816 0 -2.0651729331529915e-05 -0.034837479903550926 0 -7.4902441711242167e-06 -0.034838968206878096 0 -2.7426188592333895e-06 -0.034862524678492816 0 -7.4902441711242167e-06 -0.034838968206878096 0 5.7792357753479217e-06 -0.0348372698856848 0 -2.0651729331529915e-05 -0.034837479903550926 0 -3.5320442054357319e-05 -0.034837420312278551 0 -1.6068740059200085e-05 -0.034876992983841913 0 -2.7426188592333895e-06 -0.034862524678492816 0 -2.0651729331529915e-05 -0.034837479903550926 0 -1.6068740059200085e-05 -0.034876992983841913 0 -2.0651729331529915e-05 -0.034837479903550926 0 -1.0092312726892479e-05 -0.034819895159451865 0 -2.4741052740599695e-05 -0.034813433454018439 0 -1.0092312726892479e-05 -0.034819895159451865 0 5.7792357753479217e-06 -0.0348372698856848 0 5.9121114452738979e-06 -0.034812437662292639 0 -2.0651729331529915e-05 -0.034837479903550926 0 -7.4902441711242167e-06 -0.034838968206878096 0 -1.0092312726892479e-05 -0.034819895159451865 0 -7.4902441711242167e-06 -0.034838968206878096 0 -1.0092312726892479e-05 -0.034819895159451865 0 5.7792357753479217e-06 -0.0348372698856848 0 -1.0092312726892479e-05 -0.034819895159451865 0 5.9121114452738979e-06 -0.034812437662292639 0 -1.1791544157335212e-05 -0.03479872966574727 0 -2.4741052740599695e-05 -0.034813433454018439 0 -1.1791544157335212e-05 -0.03479872966574727 0 -3.2037208939544633e-05 -0.034793661712745914 0 -1.0092312726892479e-05 -0.034819895159451865 0 -2.4741052740599695e-05 -0.034813433454018439 0 -1.1791544157335212e-05 -0.03479872966574727 0 1.5996335140612179e-05 -0.03498839796339874 0 -2.6015364899289246e-06 -0.034937452890715287 0 2.0043739325937762e-05 -0.034948002668700996 0 1.6869900156138014e-05 -0.034986651297114556 0 1.5996335140612179e-05 -0.03498839796339874 0 2.0043739325937762e-05 -0.034948002668700996 0 -0.00010979348380342616 -0.034823990611393449 0 -0.00020238304875812291 -0.034608160757299493 0 3.4794155820914791e-05 -0.034844277996840721 0 5.9121114452738979e-06 -0.034812437662292639 0 2.0227857441450186e-05 -0.034791265113512951 0 3.4794155820914791e-05 -0.034844277996840721 0 5.7792357753479217e-06 -0.0348372698856848 0 5.9121114452738979e-06 -0.034812437662292639 0 2.0227857441450186e-05 -0.034791265113512951 0 -9.3410490158854049e-06 -0.034776500365255286 0 9.7300981240629708e-06 -0.034753723481443677 0 -0.00020238304875812291 -0.034608160757299493 0 -0.0004301051300179566 -0.033912112296787894 0 -2.6015364899289246e-06 -0.034937452890715287 0 1.6901278459493443e-05 -0.034888658856197415 0 2.0043739325937762e-05 -0.034948002668700996 0 5.9121114452738979e-06 -0.034812437662292639 0 2.0227857441450186e-05 -0.034791265113512951 0 1.0260792206930009e-06 -0.034794298620829493 0 2.0227857441450186e-05 -0.034791265113512951 0 1.0260792206930009e-06 -0.034794298620829493 0 -9.3410490158854049e-06 -0.034776500365255286 0 -1.1791544157335212e-05 -0.03479872966574727 0 -9.3410490158854049e-06 -0.034776500365255286 0 -3.2037208939544633e-05 -0.034793661712745914 0 5.9121114452738979e-06 -0.034812437662292639 0 1.0260792206930009e-06 -0.034794298620829493 0 -1.1791544157335212e-05 -0.03479872966574727 0 1.0260792206930009e-06 -0.034794298620829493 0 -1.1791544157335212e-05 -0.03479872966574727 0 -9.3410490158854049e-06 -0.034776500365255286 0 -0.00050689324901909442 -0.033776417374853838 0 -0.00047074142979573773 -0.033472949242231459 0 -0.0013147343739617001 -0.032167762982109487 0 -0.0011025665008687609 -0.032327973138974488 0 -0.00098531642232525742 -0.032153920112576853 0 -9.3410490158854049e-06 -0.034776500365255286 0 5.9577614696526235e-06 -0.034751203040748142 0 -3.7743599184744228e-05 -0.034757004885169904 0 -2.6015364899289246e-06 -0.034937452890715287 0 1.6901278459493443e-05 -0.034888658856197415 0 -1.6653054603426247e-05 -0.034862311693346137 0 -0.00012600584283809657 -0.034381798545019708 0 -0.0004301051300179566 -0.033912112296787894 0 -0.00012600584283809657 -0.034381798545019708 0 -0.00019934312413271256 -0.034153218115510316 0 -9.3410490158854049e-06 -0.034776500365255286 0 9.7300981240629708e-06 -0.034753723481443677 0 5.9577614696526235e-06 -0.034751203040748142 0 -0.0004301051300179566 -0.033912112296787894 0 -0.00050689324901909442 -0.033776417374853838 0 -0.00088968753931503101 -0.033227246688286888 0 -0.00077697946721455612 -0.033966082572009247 0 5.5482595349210098e-05 -0.033952824347082598 0 -0.0004301051300179566 -0.033912112296787894 0 -0.00046533596564595967 -0.033813316432746966 0 -0.00046533596564595967 -0.033813316432746966 0 -0.00050689324901909442 -0.033776417374853838 0 -0.00037257835907643832 -0.033762954765708959 0 0.00012194465507051267 -0.034142394358725535 0 -0.00032739370968137268 -0.034234904847491046 0 -0.00046533596564595967 -0.033813316432746966 0 -0.00019934312413271256 -0.034153218115510316 0 0.00012194465507051267 -0.034142394358725535 0 0.00013486929873190344 -0.034227313136922427 0 -0.00032739370968137268 -0.034234904847491046 0 -2.399788310659804e-06 -0.034997855596052972 0 -1.6556328088695247e-06 -0.034999234525190451 0 -2.2063747011559813e-06 -0.034998645035789859 0 -0.00019934312413271256 -0.034153218115510316 0 -6.8174836086386785e-05 -0.034618308458785725 0 -6.7270584134136714e-07 -0.034997001941176088 0 -7.8425263980984607e-08 -0.034998437066705468 0 -1.9487995832258579e-07 -0.034998301021354608 0 -6.2437640962204615e-07 -0.034997593006864398 0 -6.7270584134136714e-07 -0.034997001941176088 0 -1.9487995832258579e-07 -0.034998301021354608 0 -0.00012600584283809657 -0.034381798545019708 0 -7.0804021615255492e-05 -0.034729767062628703 0 -0.00012600584283809657 -0.034381798545019708 0 2.5235947132484073e-05 -0.03461639853696423 0 1.3334591429527931e-05 -0.035006764252729507 0 7.5502006526045812e-06 -0.035003625774650687 0 1.3568208072350287e-05 -0.035000574241432172 0 -6.2437640962204615e-07 -0.034997593006864398 0 -1.9487995832258579e-07 -0.034998301021354608 0 -4.1706209379690559e-08 -0.034998822640061635 0 -1.9487995832258579e-07 -0.034998301021354608 0 -4.1706209379690559e-08 -0.034998822640061635 0 1.5591656587459973e-07 -0.034999517124282446 0 5.5586522733695171e-06 -0.034999300267628958 0 7.5502006526045812e-06 -0.035003625774650687 0 9.0446018747302868e-06 -0.034999758389305753 0 7.5502006526045812e-06 -0.035003625774650687 0 9.0446018747302868e-06 -0.034999758389305753 0 1.3568208072350287e-05 -0.035000574241432172 0 5.0265440883198935e-10 -0.035000002236071893 0 1.5591656587459973e-07 -0.034999517124282446 0 2.5316281812256882e-10 -0.034999995554783447 0 5.0265440883198935e-10 -0.035000002236071893 0 5.8515355725621932e-07 -0.034999329866675116 0 1.5591656587459973e-07 -0.034999517124282446 0 5.8515355725621932e-07 -0.034999329866675116 0 -4.1706209379690559e-08 -0.034998822640061635 0 1.5591656587459973e-07 -0.034999517124282446 0 6.0323691905819685e-05 -0.034680356281728081 0 2.5235947132484073e-05 -0.03461639853696423 0 5.5586522733695171e-06 -0.034999300267628958 0 5.8515355725621932e-07 -0.034999329866675116 0 7.5502006526045812e-06 -0.035003625774650687 0 -6.8174836086386785e-05 -0.034618308458785725 0 -9.8810280062595595e-08 -0.034998882427792977 0 -7.8425263980984607e-08 -0.034998437066705468 0 1.5591656587459973e-07 -0.034999517124282446 0 2.5316281812256882e-10 -0.034999995554783447 0 -7.8425263980984607e-08 -0.034998437066705468 0 -1.9487995832258579e-07 -0.034998301021354608 0 1.5591656587459973e-07 -0.034999517124282446 0 -1.6556328088695247e-06 -0.034999234525190451 0 -1.1077314666346849e-09 -0.034999999941638507 0 -1.3126861281462235e-06 -0.034999304902815338 0 -1.1077314666346849e-09 -0.034999999941638507 0 -1.3126861281462235e-06 -0.034999304902815338 0 -1.3065223241016627e-09 -0.034999998637185011 0 -2.399788310659804e-06 -0.034997855596052972 0 -2.2063747011559813e-06 -0.034998645035789859 0 -3.1167697336630813e-06 -0.034997927056691108 0 -1.6556328088695247e-06 -0.034999234525190451 0 -1.3126861281462235e-06 -0.034999304902815338 0 -2.2063747011559813e-06 -0.034998645035789859 0 -1.3126861281462235e-06 -0.034999304902815338 0 -2.2063747011559813e-06 -0.034998645035789859 0 -2.4099142860754054e-06 -0.034998792982197886 0 -2.2063747011559813e-06 -0.034998645035789859 0 -2.4099142860754054e-06 -0.034998792982197886 0 -3.1167697336630813e-06 -0.034997927056691108 0 -1.3126861281462235e-06 -0.034999304902815338 0 -2.4099142860754054e-06 -0.034998792982197886 0 -1.3936000221636677e-06 -0.034999309865765181 0 -2.4099142860754054e-06 -0.034998792982197886 0 -3.4403927485893199e-06 -0.034998642554125145 0 -3.1167697336630813e-06 -0.034997927056691108 0 -2.4099142860754054e-06 -0.034998792982197886 0 -3.4403927485893199e-06 -0.034998642554125145 0 -1.3936000221636677e-06 -0.034999309865765181 0 -1.3065223241016627e-09 -0.034999998637185011 0 -1.3936000221636677e-06 -0.034999309865765181 0 -8.27935990398862e-10 -0.034999998277612993 0 -1.3126861281462235e-06 -0.034999304902815338 0 -1.3065223241016627e-09 -0.034999998637185011 0 -1.3936000221636677e-06 -0.034999309865765181 0 -1.3936000221636677e-06 -0.034999309865765181 0 -8.27935990398862e-10 -0.034999998277612993 0 -1.5761560987200473e-06 -0.034998066567402453 0 -3.4403927485893199e-06 -0.034998642554125145 0 -1.5761560987200473e-06 -0.034998066567402453 0 -6.3512476528550678e-06 -0.034997817644149297 0 -3.4403927485893199e-06 -0.034998642554125145 0 -1.3936000221636677e-06 -0.034999309865765181 0 -1.5761560987200473e-06 -0.034998066567402453 0 -1.3156317498900896e-06 -0.034997295830946913 0 -3.2753584053008168e-06 -0.034994029079276408 0 -1.5761560987200473e-06 -0.034998066567402453 0 -3.2753584053008168e-06 -0.034994029079276408 0 -1.5761560987200473e-06 -0.034998066567402453 0 -6.3512476528550678e-06 -0.034997817644149297 0 -8.7631892645762769e-10 -0.034999994770382264 0 -8.27935990398862e-10 -0.034999998277612993 0 -1.5761560987200473e-06 -0.034998066567402453 0 -8.7631892645762769e-10 -0.034999994770382264 0 -1.3156317498900896e-06 -0.034997295830946913 0 -1.5761560987200473e-06 -0.034998066567402453 0 -0.0010954934792749167 -0.033240814545163949 0 -0.0012150086876865764 -0.03294578608234576 0 -0.00099896424475035147 -0.032939099958261248 0 -0.0012150086876865764 -0.03294578608234576 0 -0.0011203527372238493 -0.03272109277165091 0 -0.00099896424475035147 -0.032939099958261248 0 -0.00065631060620943065 -0.034038100226548934 0 -0.00058738370273137095 -0.033920818444631601 0 -0.001361353378944802 -0.033109394148657371 0 -0.0012150086876865764 -0.03294578608234576 0 -0.0013803299769857957 -0.032796671234910521 0 -1.2505656983925012e-05 -0.03499138117253027 0 -3.2753584053008168e-06 -0.034994029079276408 0 -6.3512476528550678e-06 -0.034997817644149297 0 -0.0012150086876865764 -0.03294578608234576 0 -0.0013803299769857957 -0.032796671234910521 0 -0.0011203527372238493 -0.03272109277165091 0 -0.0013803299769857957 -0.032796671234910521 0 -0.0011203527372238493 -0.03272109277165091 0 -0.001262643409469802 -0.032599212674518749 0 -0.0011203527372238493 -0.03272109277165091 0 -0.0011315576206593363 -0.032524982911281877 0 -0.001262643409469802 -0.032599212674518749 0 -0.0011315576206593363 -0.032524982911281877 0 -0.001262643409469802 -0.032599212674518749 0 -0.0012828236884733278 -0.032475229093606187 0 -0.0013803299769857957 -0.032796671234910521 0 -0.001262643409469802 -0.032599212674518749 0 -0.0013872458077351716 -0.032503416243188914 0 -3.4403927485893199e-06 -0.034998642554125145 0 -6.3512476528550678e-06 -0.034997817644149297 0 -3.1167697336630813e-06 -0.034997927056691108 0 -0.00058738370273137095 -0.033920818444631601 0 -0.00046244335751328638 -0.03387243383396777 0 -0.001262643409469802 -0.032599212674518749 0 -0.0012828236884733278 -0.032475229093606187 0 -0.0013872458077351716 -0.032503416243188914 0 -0.0013198950262313829 -0.0322134226519179 0 -0.0012984271715487487 -0.032212884994441797 0 -0.0012828236884733278 -0.032475229093606187 0 -0.00046533596564595967 -0.033813316432746966 0 -0.00067659733084568931 -0.033085605337563453 0 -0.0013998101633752719 -0.032267398541985251 0 -0.0012828236884733278 -0.032475229093606187 0 -0.0013872458077351716 -0.032503416243188914 0 -0.001315278863312404 -0.032266551484060518 0 -0.0013998101633752719 -0.032267398541985251 0 -0.0012828236884733278 -0.032475229093606187 0 -0.00019934312413271256 -0.034153218115510316 0 -0.00046244335751328638 -0.03387243383396777 0 -0.00050689324901909442 -0.033776417374853838 0 -0.0010586542081995438 -0.033018905274013591 0 -0.0012984271715487487 -0.032212884994441797 0 -0.0012828236884733278 -0.032475229093606187 0 -0.0010955646039247614 -0.032363454454902671 0 -0.0011315576206593363 -0.032524982911281877 0 -0.0012828236884733278 -0.032475229093606187 0 -0.0010955646039247614 -0.032363454454902671 0 -0.0010586542081995438 -0.033018905274013591 0 -0.0011064010057062915 -0.032882488972875643 0 -0.0011025665008687609 -0.032327973138974488 0 -0.00085039128696535473 -0.032306077622203999 0 -0.00098531642232525742 -0.032153920112576853 0 -0.0011025665008687609 -0.032327973138974488 0 -0.00085039128696535473 -0.032306077622203999 0 -0.00088329742237791184 -0.032503254278193006 0 -0.00085039128696535473 -0.032306077622203999 0 -0.00088329742237791184 -0.032503254278193006 0 -0.00063171559183220025 -0.03241194109974882 0 -0.00085039128696535473 -0.032306077622203999 0 -0.00063171559183220025 -0.03241194109974882 0 -0.00064202909907685318 -0.032133437287803629 0 -0.00088329742237791184 -0.032503254278193006 0 -0.00063928666039068623 -0.032711884433265274 0 -0.00063171559183220025 -0.03241194109974882 0 -0.0011315576206593363 -0.032524982911281877 0 -0.0010955646039247614 -0.032363454454902671 0 -0.00088329742237791184 -0.032503254278193006 0 -0.0011203527372238493 -0.03272109277165091 0 -0.0011315576206593363 -0.032524982911281877 0 -0.00088329742237791184 -0.032503254278193006 0 -0.0011203527372238493 -0.03272109277165091 0 -0.00088329742237791184 -0.032503254278193006 0 -0.00089493632949338672 -0.032740186647974116 0 -0.0011203527372238493 -0.03272109277165091 0 -0.00089493632949338672 -0.032740186647974116 0 -0.00099896424475035147 -0.032939099958261248 0 -0.00088329742237791184 -0.032503254278193006 0 -0.00089493632949338672 -0.032740186647974116 0 -0.00063928666039068623 -0.032711884433265274 0 -0.00089493632949338672 -0.032740186647974116 0 -0.00063928666039068623 -0.032711884433265274 0 -0.0007956759155973716 -0.032899997242151514 0 -0.00085490265621631885 -0.033156662612618674 0 -0.0007956759155973716 -0.032899997242151514 0 -0.00064210350752071002 -0.033037219530757236 0 -0.00063928666039068623 -0.032711884433265274 0 -0.0007956759155973716 -0.032899997242151514 0 -0.00064210350752071002 -0.033037219530757236 0 -0.00085490265621631885 -0.033156662612618674 0 -0.0007956759155973716 -0.032899997242151514 0 -0.00099896424475035147 -0.032939099958261248 0 -0.00089493632949338672 -0.032740186647974116 0 -0.0007956759155973716 -0.032899997242151514 0 -0.00099896424475035147 -0.032939099958261248 0 -0.0002374147574107191 -0.032923394012600624 0 -0.00046154116285195316 -0.032892911627049666 0 -0.00035224944575486207 -0.032740314758411417 0 -0.00038835602209513043 -0.033052384788503954 0 -0.0002374147574107191 -0.032923394012600624 0 -0.00046154116285195316 -0.032892911627049666 0 -0.00016877885644237569 -0.033030261125486779 0 -0.00038835602209513043 -0.033052384788503954 0 -0.0002374147574107191 -0.032923394012600624 0 -0.00038835602209513043 -0.033052384788503954 0 -0.00064210350752071002 -0.033037219530757236 0 -0.00046154116285195316 -0.032892911627049666 0 -0.00063928666039068623 -0.032711884433265274 0 -0.00064210350752071002 -0.033037219530757236 0 -0.00046154116285195316 -0.032892911627049666 0 -0.00063928666039068623 -0.032711884433265274 0 -0.00035224944575486207 -0.032740314758411417 0 -0.00039423408078095108 -0.032518537417037099 0 -0.00063928666039068623 -0.032711884433265274 0 -0.00046154116285195316 -0.032892911627049666 0 -0.00035224944575486207 -0.032740314758411417 0 -0.00035224944575486207 -0.032740314758411417 0 -0.00022401329365731806 -0.032629318376871413 0 -0.00012303282522708379 -0.03284413569963246 0 -0.0002374147574107191 -0.032923394012600624 0 -0.00035224944575486207 -0.032740314758411417 0 -0.00012303282522708379 -0.03284413569963246 0 -0.00035224944575486207 -0.032740314758411417 0 -0.00022401329365731806 -0.032629318376871413 0 -0.00039423408078095108 -0.032518537417037099 0 -0.00022401329365731806 -0.032629318376871413 0 -0.00039423408078095108 -0.032518537417037099 0 -0.00013149700233375602 -0.032487578893372129 0 -0.00039423408078095108 -0.032518537417037099 0 -0.00017538068710257448 -0.032302256183402552 0 -0.00013149700233375602 -0.032487578893372129 0 -0.00063928666039068623 -0.032711884433265274 0 -0.00039423408078095108 -0.032518537417037099 0 -0.00063171559183220025 -0.03241194109974882 0 -0.00063171559183220025 -0.03241194109974882 0 -0.00042818206849167825 -0.032293834683053024 0 -0.00064202909907685318 -0.032133437287803629 0 -0.00039423408078095108 -0.032518537417037099 0 -0.00063171559183220025 -0.03241194109974882 0 -0.00042818206849167825 -0.032293834683053024 0 -0.00039423408078095108 -0.032518537417037099 0 -0.00042818206849167825 -0.032293834683053024 0 -0.00017538068710257448 -0.032302256183402552 0 -0.00042818206849167825 -0.032293834683053024 0 -0.00028729682100755028 -0.032104678019188718 0 -0.00017538068710257448 -0.032302256183402552 0 -6.4141809689618014e-05 -0.034776217530749408 0 -6.7129003319680685e-05 -0.034778046264563552 0 -5.7950869348560491e-05 -0.034774222449215846 0 -6.7129003319680685e-05 -0.034778046264563552 0 -6.0438775654597354e-05 -0.034775343606261201 0 -6.7999590195926864e-05 -0.034781278810742028 0 -6.7129003319680685e-05 -0.034778046264563552 0 -6.0438775654597354e-05 -0.034775343606261201 0 -5.7950869348560491e-05 -0.034774222449215846 0 -6.7129003319680685e-05 -0.034778046264563552 0 -6.2538479340854501e-05 -0.034779155889060019 0 -6.7330980271529769e-05 -0.034785156591351854 0 -6.7129003319680685e-05 -0.034778046264563552 0 -6.498951846082459e-05 -0.03476813563501694 0 -6.2538479340854501e-05 -0.034779155889060019 0 -6.7129003319680685e-05 -0.034778046264563552 0 -6.7999590195926864e-05 -0.034781278810742028 0 -6.7330980271529769e-05 -0.034785156591351854 0 -6.4141809689618014e-05 -0.034776217530749408 0 -6.7129003319680685e-05 -0.034778046264563552 0 -6.498951846082459e-05 -0.03476813563501694 0 -0.00014768314521998124 -0.032730826523627653 0 -0.00033197906586066473 -0.033178015534566292 0 -0.00042818206849167825 -0.032293834683053024 0 -0.00028729682100755028 -0.032104678019188718 0 -0.00064202909907685318 -0.032133437287803629 0 -0.00033197906586066473 -0.033178015534566292 0 -0.00047074142979573773 -0.033472949242231459 0 -6.498951846082459e-05 -0.03476813563501694 0 -4.6955229663329749e-05 -0.03477629238225001 0 -6.2538479340854501e-05 -0.034779155889060019 0 -0.00085039128696535473 -0.032306077622203999 0 -0.00064202909907685318 -0.032133437287803629 0 -0.00098531642232525742 -0.032153920112576853 0 -6.498951846082459e-05 -0.03476813563501694 0 -3.7743599184744228e-05 -0.034757004885169904 0 -4.6955229663329749e-05 -0.03477629238225001 0 -9.3410490158854049e-06 -0.034776500365255286 0 -3.7743599184744228e-05 -0.034757004885169904 0 -4.6955229663329749e-05 -0.03477629238225001 0 -9.3410490158854049e-06 -0.034776500365255286 0 -4.6955229663329749e-05 -0.03477629238225001 0 -3.2037208939544633e-05 -0.034793661712745914 0 -4.6955229663329749e-05 -0.03477629238225001 0 -3.2037208939544633e-05 -0.034793661712745914 0 -5.5271952897296293e-05 -0.034791551992472372 0 -4.6955229663329749e-05 -0.03477629238225001 0 -6.2538479340854501e-05 -0.034779155889060019 0 -5.5271952897296293e-05 -0.034791551992472372 0 -6.2538479340854501e-05 -0.034779155889060019 0 -5.5271952897296293e-05 -0.034791551992472372 0 -6.7330980271529769e-05 -0.034785156591351854 0 -5.5271952897296293e-05 -0.034791551992472372 0 -6.4102806023839744e-05 -0.0347945799061413 0 -6.7330980271529769e-05 -0.034785156591351854 0 -5.5271952897296293e-05 -0.034791551992472372 0 -5.5586117054355107e-05 -0.034803837075341459 0 -4.0617797460512665e-05 -0.03481355338779818 0 -5.5271952897296293e-05 -0.034791551992472372 0 -5.5586117054355107e-05 -0.034803837075341459 0 -6.4102806023839744e-05 -0.0347945799061413 0 -5.5586117054355107e-05 -0.034803837075341459 0 -6.4102806023839744e-05 -0.0347945799061413 0 -6.4570918902237857e-05 -0.034804027199546901 0 -3.2037208939544633e-05 -0.034793661712745914 0 -5.5271952897296293e-05 -0.034791551992472372 0 -4.0617797460512665e-05 -0.03481355338779818 0 -2.4741052740599695e-05 -0.034813433454018439 0 -3.2037208939544633e-05 -0.034793661712745914 0 -4.0617797460512665e-05 -0.03481355338779818 0 -5.5586117054355107e-05 -0.034803837075341459 0 -4.0617797460512665e-05 -0.03481355338779818 0 -5.0192808161867529e-05 -0.034822819289073402 0 -2.0651729331529915e-05 -0.034837479903550926 0 -2.4741052740599695e-05 -0.034813433454018439 0 -4.0617797460512665e-05 -0.03481355338779818 0 -3.5320442054357319e-05 -0.034837420312278551 0 -3.9712959196784841e-05 -0.034853522962419503 0 -1.6068740059200085e-05 -0.034876992983841913 0 -2.0651729331529915e-05 -0.034837479903550926 0 -4.0617797460512665e-05 -0.03481355338779818 0 -3.5320442054357319e-05 -0.034837420312278551 0 -4.0617797460512665e-05 -0.03481355338779818 0 -3.5320442054357319e-05 -0.034837420312278551 0 -5.0192808161867529e-05 -0.034822819289073402 0 -3.5320442054357319e-05 -0.034837420312278551 0 -5.0192808161867529e-05 -0.034822819289073402 0 -3.9712959196784841e-05 -0.034853522962419503 0 -6.4570918902237857e-05 -0.034804027199546901 0 -5.0192808161867529e-05 -0.034822819289073402 0 -6.2773450165016202e-05 -0.03482665857470163 0 -5.5586117054355107e-05 -0.034803837075341459 0 -6.4570918902237857e-05 -0.034804027199546901 0 -5.0192808161867529e-05 -0.034822819289073402 0 -5.0192808161867529e-05 -0.034822819289073402 0 -6.2773450165016202e-05 -0.03482665857470163 0 -3.9712959196784841e-05 -0.034853522962419503 0 -6.4570918902237857e-05 -0.034804027199546901 0 -6.2773450165016202e-05 -0.03482665857470163 0 -7.2643755941243253e-05 -0.03479575944270015 0 -8.2093584479745515e-05 -0.034773225071698916 0 -6.4668807960571221e-05 -0.034775954636105798 0 -7.3704517497404857e-05 -0.034787444142351701 0 -6.2773450165016202e-05 -0.03482665857470163 0 -7.2643755941243253e-05 -0.03479575944270015 0 -8.2093584479745515e-05 -0.034773225071698916 0 -7.2643755941243253e-05 -0.03479575944270015 0 -8.2093584479745515e-05 -0.034773225071698916 0 -7.3704517497404857e-05 -0.034787444142351701 0 -6.4570918902237857e-05 -0.034804027199546901 0 -7.2643755941243253e-05 -0.03479575944270015 0 -7.3704517497404857e-05 -0.034787444142351701 0 -8.2093584479745515e-05 -0.034773225071698916 0 -6.4668807960571221e-05 -0.034775954636105798 0 -5.0029882458733208e-05 -0.034757547824213919 0 -8.2093584479745515e-05 -0.034773225071698916 0 -5.0029882458733208e-05 -0.034757547824213919 0 -7.7696632989923453e-05 -0.03473610004892648 0 -6.4668807960571221e-05 -0.034775954636105798 0 -6.7999590195926864e-05 -0.034781278810742028 0 -7.3704517497404857e-05 -0.034787444142351701 0 -6.4668807960571221e-05 -0.034775954636105798 0 -6.0438775654597354e-05 -0.034775343606261201 0 -6.7999590195926864e-05 -0.034781278810742028 0 -6.7999590195926864e-05 -0.034781278810742028 0 -6.7330980271529769e-05 -0.034785156591351854 0 -7.3704517497404857e-05 -0.034787444142351701 0 -6.4102806023839744e-05 -0.0347945799061413 0 -6.7330980271529769e-05 -0.034785156591351854 0 -7.3704517497404857e-05 -0.034787444142351701 0 -6.4102806023839744e-05 -0.0347945799061413 0 -6.4570918902237857e-05 -0.034804027199546901 0 -7.3704517497404857e-05 -0.034787444142351701 0 -4.168433570333094e-05 -0.034763180073341199 0 -4.7308779122706518e-05 -0.03476839327868967 0 -4.9734708154855565e-05 -0.034766449734950404 0 -4.168433570333094e-05 -0.034763180073341199 0 -4.7308779122706518e-05 -0.03476839327868967 0 -4.0379554407297571e-05 -0.034765562463162931 0 -6.4668807960571221e-05 -0.034775954636105798 0 -6.0438775654597354e-05 -0.034775343606261201 0 -4.9734708154855565e-05 -0.034766449734950404 0 -6.0438775654597354e-05 -0.034775343606261201 0 -4.7308779122706518e-05 -0.03476839327868967 0 -4.9734708154855565e-05 -0.034766449734950404 0 -4.9734708154855565e-05 -0.034766449734950404 0 -5.0029882458733208e-05 -0.034757547824213919 0 -4.3023586968276445e-05 -0.034758634482574803 0 -2.6862375462912732e-05 -0.034524336686132924 0 4.1329789808106683e-05 -0.034413359508436672 0 -6.4668807960571221e-05 -0.034775954636105798 0 -4.9734708154855565e-05 -0.034766449734950404 0 -5.0029882458733208e-05 -0.034757547824213919 0 -4.168433570333094e-05 -0.034763180073341199 0 -4.9734708154855565e-05 -0.034766449734950404 0 -4.3023586968276445e-05 -0.034758634482574803 0 4.1329789808106683e-05 -0.034413359508436672 0 0.00020893795743881507 -0.034195146624849675 0 -4.168433570333094e-05 -0.034763180073341199 0 -4.3023586968276445e-05 -0.034758634482574803 0 -3.416310344204437e-05 -0.034757883365487477 0 -2.2906625440640241e-05 -0.034604750075055313 0 0.00010106663862807714 -0.034555907517341042 0 -2.3127374158835821e-07 -0.034540499239002077 0 9.8887813495760328e-05 -0.034289086658490037 0 0.00022660423276034405 -0.034182848029011149 0 8.1031335667095089e-05 -0.034087302685414191 0 9.8887813495760328e-05 -0.034289086658490037 0 8.1031335667095089e-05 -0.034087302685414191 0 -1.3518845790975878e-05 -0.03434382822186665 0 9.8887813495760328e-05 -0.034289086658490037 0 0.00022660423276034405 -0.034182848029011149 0 0.00012814939442860822 -0.034449717667647567 0 0.00020893795743881507 -0.034195146624849675 0 0.00020232837790266225 -0.034233979104391229 0 0.00057106544982438287 -0.03416673900649176 0 8.1031335667095089e-05 -0.034087302685414191 0 0.00036981666859310132 -0.033794795127579609 0 0.00020893795743881507 -0.034195146624849675 0 0.00019303861740097296 -0.034187311838199702 0 0.00036981666859310132 -0.033794795127579609 0 0.00043608851153654468 -0.033360790633691614 0 -0.00023883301853610666 -0.033870449627959924 0 0.00057106544982438287 -0.03416673900649176 0 0.00036981666859310132 -0.033794795127579609 0 0.00063121073918399114 -0.033207367939929469 0 0.00020893795743881507 -0.034195146624849675 0 0.00036569345799467875 -0.033231542648519199 0 0.00036981666859310132 -0.033794795127579609 0 0.00043608851153654468 -0.033360790633691614 0 0.00063121073918399114 -0.033207367939929469 0 0.00043608851153654468 -0.033360790633691614 0 0.00035552412927397176 -0.033145610588610409 0 0.00027307698231298743 -0.033157766737769455 0 -4.168433570333094e-05 -0.034763180073341199 0 -3.416310344204437e-05 -0.034757883365487477 0 -3.7799938509889292e-05 -0.034762704469793272 0 -3.416310344204437e-05 -0.034757883365487477 0 -3.7799938509889292e-05 -0.034762704469793272 0 -3.502740489811476e-05 -0.03476430543522159 0 -3.7799938509889292e-05 -0.034762704469793272 0 -4.0379554407297571e-05 -0.034765562463162931 0 -3.502740489811476e-05 -0.03476430543522159 0 -4.168433570333094e-05 -0.034763180073341199 0 -3.7799938509889292e-05 -0.034762704469793272 0 -4.0379554407297571e-05 -0.034765562463162931 0 0.00036569345799467875 -0.033231542648519199 0 0.00073094836367740789 -0.030181832437195466 0 -4.0379554407297571e-05 -0.034765562463162931 0 -3.502740489811476e-05 -0.03476430543522159 0 -4.1110636075941854e-05 -0.034768179150667183 0 -3.502740489811476e-05 -0.03476430543522159 0 -4.1110636075941854e-05 -0.034768179150667183 0 -3.4752322252506955e-05 -0.034767154693182693 0 0.00063121073918399114 -0.033207367939929469 0 0.00048534772263410085 -0.032951841739501088 0 0.00064009731428332512 -0.032745924823466596 0 0.00035552412927397176 -0.033145610588610409 0 0.00038004054111913236 -0.03304918693666313 0 0.00028486335316685058 -0.033050228847891751 0 0.00043608851153654468 -0.033360790633691614 0 0.00035552412927397176 -0.033145610588610409 0 0.00045361118934956742 -0.03314333488473694 0 0.00035552412927397176 -0.033145610588610409 0 0.00045361118934956742 -0.03314333488473694 0 0.00038004054111913236 -0.03304918693666313 0 0.00063121073918399114 -0.033207367939929469 0 0.00045361118934956742 -0.03314333488473694 0 0.00048534772263410085 -0.032951841739501088 0 0.00043608851153654468 -0.033360790633691614 0 0.00063121073918399114 -0.033207367939929469 0 0.00045361118934956742 -0.03314333488473694 0 0.00038004054111913236 -0.03304918693666313 0 0.00029004035958120588 -0.032928871686397833 0 0.00028486335316685058 -0.033050228847891751 0 0.00048534772263410085 -0.032951841739501088 0 0.00038004054111913236 -0.03304918693666313 0 0.00029004035958120588 -0.032928871686397833 0 0.00045361118934956742 -0.03314333488473694 0 0.00048534772263410085 -0.032951841739501088 0 0.00038004054111913236 -0.03304918693666313 0 0.00085439418662213882 -0.028907976787636108 0 0.00054242341382888294 -0.029388121014555135 0 0.00048534772263410085 -0.032951841739501088 0 0.00042398371991943376 -0.032763238999787322 0 0.00029004035958120588 -0.032928871686397833 0 0.00048534772263410085 -0.032951841739501088 0 0.00042398371991943376 -0.032763238999787322 0 0.00064009731428332512 -0.032745924823466596 0 0.00085439418662213882 -0.028907976787636108 0 0.0011498105044825209 -0.026714653546390511 0 0.00085439418662213882 -0.028907976787636108 0 0.00073094836367740789 -0.030181832437195466 0 0.00072865846568239019 -0.028286545131506729 0 -0.00013193215018000864 -0.028298785195355107 0 -0.0002089773906443601 -0.0292248882797944 0 0.00073094836367740789 -0.030181832437195466 0 0.00011966313593224572 -0.031887207273502888 0 0.00049755697044990839 -0.03204734491903867 0 9.3000756428106103e-05 -0.032071245267094282 0 0.0004057877657410705 -0.032233584241336946 0 -4.1110636075941854e-05 -0.034768179150667183 0 -3.4752322252506955e-05 -0.034767154693182693 0 -4.8914160717364208e-05 -0.034774414279158783 0 0.00073094836367740789 -0.030181832437195466 0 0.0011498105044825209 -0.026714653546390511 0 -4.7308779122706518e-05 -0.03476839327868967 0 -4.1110636075941854e-05 -0.034768179150667183 0 -4.8914160717364208e-05 -0.034774414279158783 0 -4.7308779122706518e-05 -0.03476839327868967 0 -4.0379554407297571e-05 -0.034765562463162931 0 -4.1110636075941854e-05 -0.034768179150667183 0 -6.0438775654597354e-05 -0.034775343606261201 0 -4.7308779122706518e-05 -0.03476839327868967 0 -5.7950869348560491e-05 -0.034774222449215846 0 -4.7308779122706518e-05 -0.03476839327868967 0 -4.8914160717364208e-05 -0.034774414279158783 0 -5.7950869348560491e-05 -0.034774222449215846 0 -0.00014768314521998124 -0.032730826523627653 0 0.00011966313593224572 -0.031887207273502888 0 -0.00028729682100755028 -0.032104678019188718 0 9.3000756428106103e-05 -0.032071245267094282 0 -0.00017538068710257448 -0.032302256183402552 0 -6.4141809689618014e-05 -0.034776217530749408 0 -4.8914160717364208e-05 -0.034774414279158783 0 -5.7950869348560491e-05 -0.034774222449215846 0 9.3000756428106103e-05 -0.032071245267094282 0 -0.00017538068710257448 -0.032302256183402552 0 5.277746111184852e-05 -0.032358979293202854 0 -0.00017538068710257448 -0.032302256183402552 0 5.277746111184852e-05 -0.032358979293202854 0 -0.00013149700233375602 -0.032487578893372129 0 9.3000756428106103e-05 -0.032071245267094282 0 0.00020600051450410912 -0.032279928855263658 0 0.0004057877657410705 -0.032233584241336946 0 9.3000756428106103e-05 -0.032071245267094282 0 0.00020600051450410912 -0.032279928855263658 0 5.277746111184852e-05 -0.032358979293202854 0 0.00020600051450410912 -0.032279928855263658 0 5.277746111184852e-05 -0.032358979293202854 0 0.00027334178499472777 -0.032455639590603623 0 0.00027334178499472777 -0.032455639590603623 0 1.6432189652103132e-05 -0.032539482152583822 0 7.7488628321168641e-05 -0.032645426463540989 0 5.277746111184852e-05 -0.032358979293202854 0 0.00027334178499472777 -0.032455639590603623 0 1.6432189652103132e-05 -0.032539482152583822 0 0.00077918082753724346 -0.028176687910047012 0 0.00065768951199056294 -0.027796881587201179 0 0.0019516949676191991 -0.022849840131198344 0 0.0024739627780232098 -0.022300433262579064 0 0.0019902763060546001 -0.022194088932213692 0 0.00089910207524915872 -0.02733480648344894 0 0.00065768951199056294 -0.027796881587201179 0 5.277746111184852e-05 -0.032358979293202854 0 -0.00013149700233375602 -0.032487578893372129 0 1.6432189652103132e-05 -0.032539482152583822 0 1.6432189652103132e-05 -0.032539482152583822 0 -8.7042315600112759e-05 -0.032668594811544847 0 8.0945506164659752e-05 -0.032652878774676028 0 -0.00013149700233375602 -0.032487578893372129 0 1.6432189652103132e-05 -0.032539482152583822 0 -8.7042315600112759e-05 -0.032668594811544847 0 -0.00022401329365731806 -0.032629318376871413 0 -0.00013149700233375602 -0.032487578893372129 0 -8.7042315600112759e-05 -0.032668594811544847 0 -0.00022401329365731806 -0.032629318376871413 0 -0.00012303282522708379 -0.03284413569963246 0 -8.7042315600112759e-05 -0.032668594811544847 0 -0.00012303282522708379 -0.03284413569963246 0 -4.6260661209456221e-05 -0.032795523504999015 0 -6.4028242618243452e-05 -0.032902107923204769 0 -0.00012303282522708379 -0.03284413569963246 0 -8.7042315600112759e-05 -0.032668594811544847 0 8.0945506164659752e-05 -0.032652878774676028 0 -5.8494130015849201e-05 -0.02892538089740149 0 0.00065768951199056294 -0.027796881587201179 0 0.0024739627780232098 -0.022300433262579064 0 0.0019902763060546001 -0.022194088932213692 0 0.0019977423860876612 -0.021462671676573983 0 0.00065768951199056294 -0.027796881587201179 0 0.00078232759229908617 -0.027280176138682506 0 -4.6260661209456221e-05 -0.032795523504999015 0 -6.4028242618243452e-05 -0.032902107923204769 0 -3.5397124473394164e-05 -0.032988235819343265 0 -6.4028242618243452e-05 -0.032902107923204769 0 -3.5397124473394164e-05 -0.032988235819343265 0 -6.7708214928474821e-05 -0.032974702893672984 0 -7.5851976853790975e-05 -0.033030814203650116 0 -3.5397124473394164e-05 -0.032988235819343265 0 -6.7708214928474821e-05 -0.032974702893672984 0 -0.00016877885644237569 -0.033030261125486779 0 -0.0002374147574107191 -0.032923394012600624 0 -6.7708214928474821e-05 -0.032974702893672984 0 -0.0002374147574107191 -0.032923394012600624 0 -0.00012303282522708379 -0.03284413569963246 0 -6.7708214928474821e-05 -0.032974702893672984 0 -0.00012303282522708379 -0.03284413569963246 0 -6.4028242618243452e-05 -0.032902107923204769 0 -6.7708214928474821e-05 -0.032974702893672984 0 0.0015575250278755625 -0.02124740657430917 0 0.0014195289268201571 -0.021058644342350167 0 0.0012234405985954815 -0.021242622481242684 0 0.0015575250278755625 -0.02124740657430917 0 0.0014195289268201571 -0.021058644342350167 0 0.00156077343280082 -0.021121377500765978 0 0.0015207137208602284 -0.020973587313963617 0 0.0014195289268201571 -0.021058644342350167 0 0.00156077343280082 -0.021121377500765978 0 0.0016423707276326384 -0.021792879424261564 0 0.0015600608725246637 -0.022625788123971164 0 0.0015207137208602284 -0.020973587313963617 0 0.00156077343280082 -0.021121377500765978 0 0.0017222177306501826 -0.02114727561472745 0 0.00082227263093385885 -0.026783480749985898 0 0.00078232759229908617 -0.027280176138682506 0 0.0015575250278755625 -0.02124740657430917 0 0.00156077343280082 -0.021121377500765978 0 0.0017222177306501826 -0.02114727561472745 0 0.0016562090499582728 -0.020864581775101955 0 0.0019977423860876612 -0.021462671676573983 0 0.0017222177306501826 -0.02114727561472745 0 0.0015575250278755625 -0.02124740657430917 0 0.0017222177306501826 -0.02114727561472745 0 0.0016419636677960092 -0.021405571972942197 0 0.0019977423860876612 -0.021462671676573983 0 0.0017222177306501826 -0.02114727561472745 0 0.0015352473828016591 -0.022192939161030167 0 0.0019902763060546001 -0.022194088932213692 0 0.0019977423860876612 -0.021462671676573983 0 0.0015352473828016591 -0.022192939161030167 0 0.0015575250278755625 -0.02124740657430917 0 0.0014471379408838888 -0.021422655121400194 0 0.0012234405985954815 -0.021242622481242684 0 0.0015575250278755625 -0.02124740657430917 0 0.0016419636677960092 -0.021405571972942197 0 0.0014471379408838888 -0.021422655121400194 0 0.0014471379408838888 -0.021422655121400194 0 0.0014994528921259663 -0.021611410535688821 0 0.0013084066393511912 -0.02166652239285231 0 0.0016419636677960092 -0.021405571972942197 0 0.0014471379408838888 -0.021422655121400194 0 0.0014994528921259663 -0.021611410535688821 0 0.0016419636677960092 -0.021405571972942197 0 0.0014994528921259663 -0.021611410535688821 0 0.0016116333439121517 -0.021755196908127411 0 0.0015600608725246637 -0.022625788123971164 0 0.0011498105044825209 -0.026714653546390511 0 0.0019516949676191991 -0.022849840131198344 0 0.0015352473828016591 -0.022192939161030167 0 0.0013833884588649108 -0.02343283894025789 0 0.0019516949676191991 -0.022849840131198344 0 0.0019902763060546001 -0.022194088932213692 0 0.0015352473828016591 -0.022192939161030167 0 0.00027334178499472777 -0.032455639590603623 0 0.00047884933389405178 -0.032251584639194461 0 0.0004057877657410705 -0.032233584241336946 0 0.00089910207524915872 -0.02733480648344894 0 0.0011498105044825209 -0.026714653546390511 0 0.00020600051450410912 -0.032279928855263658 0 0.00027334178499472777 -0.032455639590603623 0 0.0004057877657410705 -0.032233584241336946 0 0.00049755697044990839 -0.03204734491903867 0 0.00048117974148866369 -0.032252448835869668 0 0.0004057877657410705 -0.032233584241336946 0 0.0011498105044825209 -0.026714653546390511 0 0.0011634678439455069 -0.026769867544252094 0 0.0016079985803684217 -0.022077338984755713 0 0.0018120761701328979 -0.021874258957687562 0 0.0014343221354197397 -0.021749652484312907 0 0.0014994528921259663 -0.021611410535688821 0 0.0016116333439121517 -0.021755196908127411 0 0.0013084066393511912 -0.02166652239285231 0 0.0011498105044825209 -0.026714653546390511 0 0.000864785090899443 -0.024120098040972513 0 0.0013084066393511912 -0.02166652239285231 0 0.00098189667136452051 -0.021564965099296014 0 0.0012234405985954815 -0.021242622481242684 0 0.0014471379408838888 -0.021422655121400194 0 0.0013084066393511912 -0.02166652239285231 0 0.0012234405985954815 -0.021242622481242684 0 0.0014343221354197397 -0.021749652484312907 0 0.0010442558039879717 -0.021612452491571496 0 0.0011796228318867808 -0.02207406491849195 0 0.0010442558039879717 -0.021612452491571496 0 0.0008669226465278316 -0.021835751890704243 0 0.0011796228318867808 -0.02207406491849195 0 0.000864785090899443 -0.024120098040972513 0 0.00070676958998015164 -0.022960618018742579 0 0.00098189667136452051 -0.021564965099296014 0 0.0012234405985954815 -0.021242622481242684 0 0.00085918410682023054 -0.021315185710813925 0 0.0012234405985954815 -0.021242622481242684 0 0.00098113964533442567 -0.021110905750257834 0 0.00085918410682023054 -0.021315185710813925 0 0.0010207473640791113 -0.020793189465568337 0 0.0012234405985954815 -0.021242622481242684 0 0.00098113964533442567 -0.021110905750257834 0 0.00097339576023996912 -0.020834910116221312 0 0.0010859637616489929 -0.021023406983148051 0 0.0012424783015890311 -0.020967132763461752 0 0.0009961875269366093 -0.020948366531655837 0 0.0012234405985954815 -0.021242622481242684 0 0.0012424783015890311 -0.020967132763461752 0 0.0014195289268201571 -0.021058644342350167 0 0.0012234405985954815 -0.021242622481242684 0 0.00063916340173285585 -0.020839244680817017 0 0.00075158853573488601 -0.021071208575369892 0 0.00044543173410477245 -0.021027258980870083 0 0.00075158853573488601 -0.021071208575369892 0 0.00060777824569195279 -0.021227824179546533 0 0.00044543173410477245 -0.021027258980870083 0 0.00042474323453223602 -0.020764801490099474 0 0.00063916340173285585 -0.020839244680817017 0 0.00044543173410477245 -0.021027258980870083 0 0.0010207473640791113 -0.020793189465568337 0 0.00098113964533442567 -0.021110905750257834 0 0.00075158853573488601 -0.021071208575369892 0 0.00063916340173285585 -0.020839244680817017 0 0.0010207473640791113 -0.020793189465568337 0 0.00075158853573488601 -0.021071208575369892 0 0.00075158853573488601 -0.021071208575369892 0 0.00085918410682023054 -0.021315185710813925 0 0.00060777824569195279 -0.021227824179546533 0 0.00098113964533442567 -0.021110905750257834 0 0.00075158853573488601 -0.021071208575369892 0 0.00085918410682023054 -0.021315185710813925 0 0.00060777824569195279 -0.021227824179546533 0 0.00042368699351622707 -0.021285439479039162 0 0.00044543173410477245 -0.021027258980870083 0 0.00085918410682023054 -0.021315185710813925 0 0.00060777824569195279 -0.021227824179546533 0 0.00063118478667360226 -0.021459550636155639 0 0.00060777824569195279 -0.021227824179546533 0 0.00063118478667360226 -0.021459550636155639 0 0.00042368699351622707 -0.021285439479039162 0 0.00063118478667360226 -0.021459550636155639 0 0.00060419969966323537 -0.021725524401426541 0 0.00034917786978436757 -0.021580368756053524 0 0.00063118478667360226 -0.021459550636155639 0 0.00074796950381732458 -0.021691439553220285 0 0.00060419969966323537 -0.021725524401426541 0 0.00070676958998015164 -0.022960618018742579 0 0.00058624042946368686 -0.022610343311407502 0 0.00098189667136452051 -0.021564965099296014 0 0.00085918410682023054 -0.021315185710813925 0 0.00063118478667360226 -0.021459550636155639 0 0.0010442558039879717 -0.021612452491571496 0 0.00063118478667360226 -0.021459550636155639 0 0.00074796950381732458 -0.021691439553220285 0 0.0010442558039879717 -0.021612452491571496 0 0.00074796950381732458 -0.021691439553220285 0 0.0008669226465278316 -0.021835751890704243 0 0.00074796950381732458 -0.021691439553220285 0 0.0008669226465278316 -0.021835751890704243 0 0.0007182400680027396 -0.02186800331619838 0 0.0008669226465278316 -0.021835751890704243 0 0.0007182400680027396 -0.02186800331619838 0 0.00072638926210384072 -0.022074351784290205 0 0.00060419969966323537 -0.021725524401426541 0 0.00065209507396391485 -0.022027638258730383 0 0.00034917786978436757 -0.021580368756053524 0 0.00036882344238035804 -0.024279513137103356 0 7.1230851660215787e-05 -0.022827906852075482 0 0.00060419969966323537 -0.021725524401426541 0 0.0007182400680027396 -0.02186800331619838 0 0.00065209507396391485 -0.022027638258730383 0 0.00036882344238035804 -0.024279513137103356 0 -4.9814251048947826e-05 -0.022075481067640648 0 0.00074796950381732458 -0.021691439553220285 0 0.00060419969966323537 -0.021725524401426541 0 0.0007182400680027396 -0.02186800331619838 0 0.00069624813617480538 -0.025338783451161521 0 0.00036086722232500694 -0.026259541027619307 0 7.8562492816237943e-05 -0.032908426884743693 0 7.7796682881975927e-05 -0.03291701227209038 0 8.0108049275720629e-05 -0.032885292542402862 0 0.00092784758491867424 -0.021709568712518768 0 0.00099242840554723496 -0.02175421634164202 0 0.00059698630962774313 -0.021745449445745059 0 0.0007182400680027396 -0.02186800331619838 0 0.00065209507396391485 -0.022027638258730383 0 0.00072638926210384072 -0.022074351784290205 0 0.00036882344238035804 -0.024279513137103356 0 0.00069624813617480538 -0.025338783451161521 0 7.8562492816237943e-05 -0.032908426884743693 0 7.7796682881975927e-05 -0.03291701227209038 0 7.757164300170347e-05 -0.032909921251674495 0 7.7796682881975927e-05 -0.03291701227209038 0 8.486382988644879e-05 -0.032945568049018478 0 7.7173522313380292e-05 -0.032923193677825431 0 7.7796682881975927e-05 -0.03291701227209038 0 7.7173522313380292e-05 -0.032923193677825431 0 8.0108049275720629e-05 -0.032885292542402862 0 8.486382988644879e-05 -0.032945568049018478 0 0.00011150990657074451 -0.032978646488059787 0 9.2101064210589256e-05 -0.032978216865643097 0 7.7796682881975927e-05 -0.03291701227209038 0 8.486382988644879e-05 -0.032945568049018478 0 8.2635448503242206e-05 -0.03292783498723377 0 8.486382988644879e-05 -0.032945568049018478 0 8.2635448503242206e-05 -0.03292783498723377 0 9.4609019565827543e-05 -0.032940145697826981 0 8.486382988644879e-05 -0.032945568049018478 0 9.4609019565827543e-05 -0.032940145697826981 0 0.00011150990657074451 -0.032978646488059787 0 9.4609019565827543e-05 -0.032940145697826981 0 0.00011967273192142612 -0.032939739899660481 0 0.00011150990657074451 -0.032978646488059787 0 0.00069624813617480538 -0.025338783451161521 0 0.00070906260386196162 -0.027211000288753558 0 6.3901430605561011e-05 -0.032900171487638644 0 7.757164300170347e-05 -0.032909921251674495 0 0.00014909571107282586 -0.032888650859376145 0 9.4609019565827543e-05 -0.032940145697826981 0 7.757164300170347e-05 -0.032909921251674495 0 0.00011967273192142612 -0.032939739899660481 0 0.0008669226465278316 -0.021835751890704243 0 0.00072638926210384072 -0.022074351784290205 0 0.0011796228318867808 -0.02207406491849195 0 7.7796682881975927e-05 -0.03291701227209038 0 8.2635448503242206e-05 -0.03292783498723377 0 7.757164300170347e-05 -0.032909921251674495 0 8.2635448503242206e-05 -0.03292783498723377 0 9.4609019565827543e-05 -0.032940145697826981 0 7.757164300170347e-05 -0.032909921251674495 0 0.00069624813617480538 -0.025338783451161521 0 0.0007805545138028871 -0.025475444573225207 0 7.757164300170347e-05 -0.032909921251674495 0 0.00014909571107282586 -0.032888650859376145 0 0.00011967273192142612 -0.032939739899660481 0 0.00014909571107282586 -0.032888650859376145 0 0.00018156143851187433 -0.033000966338058733 0 0.00011967273192142612 -0.032939739899660481 0 0.00085439418662213882 -0.028907976787636108 0 0.00070906260386196162 -0.027211000288753558 0 0.00034941767582878262 -0.032862185137276845 0 0.00014909571107282586 -0.032888650859376145 0 0.00029004035958120588 -0.032928871686397833 0 0.00014909571107282586 -0.032888650859376145 0 0.00029004035958120588 -0.032928871686397833 0 0.00018156143851187433 -0.033000966338058733 0 0.0016079985803684217 -0.022077338984755713 0 0.0014343221354197397 -0.021749652484312907 0 0.0011796228318867808 -0.02207406491849195 0 0.00018156143851187433 -0.033000966338058733 0 0.00013279694596001035 -0.033039163092217855 0 0.00027307698231298743 -0.033157766737769455 0 0.00029004035958120588 -0.032928871686397833 0 0.00018156143851187433 -0.033000966338058733 0 0.00028486335316685058 -0.033050228847891751 0 0.00018156143851187433 -0.033000966338058733 0 0.00028486335316685058 -0.033050228847891751 0 0.00027307698231298743 -0.033157766737769455 0 0.00035552412927397176 -0.033145610588610409 0 0.00028486335316685058 -0.033050228847891751 0 0.00027307698231298743 -0.033157766737769455 0 0.00018156143851187433 -0.033000966338058733 0 0.00011967273192142612 -0.032939739899660481 0 0.00011150990657074451 -0.032978646488059787 0 0.00018156143851187433 -0.033000966338058733 0 0.00011150990657074451 -0.032978646488059787 0 0.00013279694596001035 -0.033039163092217855 0 4.0139374055235235e-05 -0.033158385259175589 0 -0.00022268577990409234 -0.032991868121985034 0 0.00011150990657074451 -0.032978646488059787 0 0.00013279694596001035 -0.033039163092217855 0 9.2101064210589256e-05 -0.032978216865643097 0 0.00013279694596001035 -0.033039163092217855 0 0.00017113614368416592 -0.033104893149183232 0 8.7477680941270048e-05 -0.032983471011786641 0 0.00013279694596001035 -0.033039163092217855 0 0.00017113614368416592 -0.033104893149183232 0 0.00027307698231298743 -0.033157766737769455 0 0.00024464595417448957 -0.033169077378554714 0 4.0139374055235235e-05 -0.033158385259175589 0 8.1031335667095089e-05 -0.034087302685414191 0 0.00036981666859310132 -0.033794795127579609 0 -0.00023883301853610666 -0.033870449627959924 0 0.00043608851153654468 -0.033360790633691614 0 0.00017113614368416592 -0.033104893149183232 0 0.00027307698231298743 -0.033157766737769455 0 8.1031335667095089e-05 -0.034087302685414191 0 -0.00022910698530551526 -0.034230225941550056 0 -1.3518845790975878e-05 -0.03434382822186665 0 8.1031335667095089e-05 -0.034087302685414191 0 -0.00023883301853610666 -0.033870449627959924 0 -0.00022910698530551526 -0.034230225941550056 0 -0.00023883301853610666 -0.033870449627959924 0 -0.00022910698530551526 -0.034230225941550056 0 -0.00047063210707958935 -0.034068961223126283 0 -0.00022910698530551526 -0.034230225941550056 0 -0.00047063210707958935 -0.034068961223126283 0 -0.00039645023903098209 -0.034307030014767301 0 -0.00022268577990409234 -0.032991868121985034 0 -0.00039609363483363963 -0.032498089788904456 0 -0.00047063210707958935 -0.034068961223126283 0 -0.00059970744907278026 -0.034316025048403649 0 -0.00066828577759484671 -0.034171094355499802 0 8.7477680941270048e-05 -0.032983471011786641 0 7.7173522313380292e-05 -0.032923193677825431 0 7.7418131693725122e-05 -0.032906546113514235 0 8.486382988644879e-05 -0.032945568049018478 0 7.7173522313380292e-05 -0.032923193677825431 0 9.2101064210589256e-05 -0.032978216865643097 0 8.7477680941270048e-05 -0.032983471011786641 0 7.7173522313380292e-05 -0.032923193677825431 0 9.2101064210589256e-05 -0.032978216865643097 0 0.00013279694596001035 -0.033039163092217855 0 8.7477680941270048e-05 -0.032983471011786641 0 9.2101064210589256e-05 -0.032978216865643097 0 -0.00049284754125554985 -0.034426032163379548 0 -0.00035733710753937053 -0.034503970537677758 0 -0.00039645023903098209 -0.034307030014767301 0 -0.00049284754125554985 -0.034426032163379548 0 -0.00035733710753937053 -0.034503970537677758 0 -0.00048349648098069324 -0.034563525220767742 0 -0.00049284754125554985 -0.034426032163379548 0 -0.00059942984916453921 -0.034472471177349633 0 -0.00059970744907278026 -0.034316025048403649 0 -0.00049284754125554985 -0.034426032163379548 0 -0.00059942984916453921 -0.034472471177349633 0 -0.00048349648098069324 -0.034563525220767742 0 -0.00059942984916453921 -0.034472471177349633 0 -0.00059970744907278026 -0.034316025048403649 0 -0.00070292608240368618 -0.034417842884248054 0 -0.00047063210707958935 -0.034068961223126283 0 -0.00059970744907278026 -0.034316025048403649 0 -0.00039645023903098209 -0.034307030014767301 0 -0.00049284754125554985 -0.034426032163379548 0 -0.00059970744907278026 -0.034316025048403649 0 -0.00039645023903098209 -0.034307030014767301 0 -0.00022910698530551526 -0.034230225941550056 0 -0.00011236301396525968 -0.03441514943118628 0 -0.00023828667390489902 -0.034430258466945057 0 -0.00022910698530551526 -0.034230225941550056 0 -0.00039645023903098209 -0.034307030014767301 0 -0.00023828667390489902 -0.034430258466945057 0 -0.00022910698530551526 -0.034230225941550056 0 -1.3518845790975878e-05 -0.03434382822186665 0 -0.00011236301396525968 -0.03441514943118628 0 -1.3518845790975878e-05 -0.03434382822186665 0 -0.00011236301396525968 -0.03441514943118628 0 7.3243047741167178e-06 -0.034499794393852992 0 -0.00011236301396525968 -0.03441514943118628 0 7.3243047741167178e-06 -0.034499794393852992 0 -0.0001092704051592782 -0.034535008539225337 0 -0.00011236301396525968 -0.03441514943118628 0 -0.0001092704051592782 -0.034535008539225337 0 -0.00023828667390489902 -0.034430258466945057 0 -0.0001092704051592782 -0.034535008539225337 0 -0.00021378488687332875 -0.034580096849116226 0 -0.00010413295181433687 -0.034643364541709618 0 7.3243047741167178e-06 -0.034499794393852992 0 -0.0001092704051592782 -0.034535008539225337 0 -1.2676451564049796e-05 -0.034626116998932165 0 -0.00035733710753937053 -0.034503970537677758 0 -0.00039645023903098209 -0.034307030014767301 0 -0.00023828667390489902 -0.034430258466945057 0 -0.0001092704051592782 -0.034535008539225337 0 -0.00023828667390489902 -0.034430258466945057 0 -0.00021378488687332875 -0.034580096849116226 0 -0.00035733710753937053 -0.034503970537677758 0 -0.00023828667390489902 -0.034430258466945057 0 -0.00021378488687332875 -0.034580096849116226 0 -0.00035733710753937053 -0.034503970537677758 0 -0.00021378488687332875 -0.034580096849116226 0 -0.00032313961611310586 -0.034653184798290416 0 -0.00021378488687332875 -0.034580096849116226 0 -0.00032313961611310586 -0.034653184798290416 0 -0.00015621987997476651 -0.03471931241333278 0 -0.00021378488687332875 -0.034580096849116226 0 -0.00015621987997476651 -0.03471931241333278 0 -0.00010413295181433687 -0.034643364541709618 0 -0.00032313961611310586 -0.034653184798290416 0 -0.00015621987997476651 -0.03471931241333278 0 -0.00019042258736880245 -0.034848367128035906 0 -1.2676451564049796e-05 -0.034626116998932165 0 -4.1428449077318365e-05 -0.034756087980318678 0 3.3642215749099644e-05 -0.034808326679430783 0 -1.2676451564049796e-05 -0.034626116998932165 0 -0.00010413295181433687 -0.034643364541709618 0 -4.1428449077318365e-05 -0.034756087980318678 0 -0.0001092704051592782 -0.034535008539225337 0 -1.2676451564049796e-05 -0.034626116998932165 0 -0.00010413295181433687 -0.034643364541709618 0 -0.00015621987997476651 -0.03471931241333278 0 -0.00010413295181433687 -0.034643364541709618 0 -4.1428449077318365e-05 -0.034756087980318678 0 8.963423931100282e-06 -0.034678951277007597 0 -1.3521372599201297e-05 -0.034697474292760176 0 -4.1428449077318365e-05 -0.034756087980318678 0 -3.811961680915954e-05 -0.034877472299311249 0 3.3642215749099644e-05 -0.034808326679430783 0 -3.811961680915954e-05 -0.034877472299311249 0 -3.9840064089640385e-05 -0.03483516504904885 0 3.3642215749099644e-05 -0.034808326679430783 0 -0.00015621987997476651 -0.03471931241333278 0 -4.1428449077318365e-05 -0.034756087980318678 0 -3.811961680915954e-05 -0.034877472299311249 0 9.3782276291847681e-05 -0.034984907286811147 0 0.00041474527490114964 -0.035020075983776412 0 0.00020723587250286079 -0.034792883444191194 0 -0.00015621987997476651 -0.03471931241333278 0 -3.811961680915954e-05 -0.034877472299311249 0 -0.00019042258736880245 -0.034848367128035906 0 0.00036988338901418203 -0.03219822225124206 0 0.00035233911876445234 -0.032104436268204674 0 -3.811961680915954e-05 -0.034877472299311249 0 9.3782276291847681e-05 -0.034984907286811147 0 7.3584402115141863e-05 -0.034856191395191312 0 -0.00032313961611310586 -0.034653184798290416 0 -0.00019042258736880245 -0.034848367128035906 0 -0.00049172902874995651 -0.034730565535085071 0 0.00035233911876445234 -0.032104436268204674 0 0.00056949338080270926 -0.031907237235709089 0 0.00035233911876445234 -0.032104436268204674 0 0.00036117077703655946 -0.031828502998513926 0 0.0002946821705480607 -0.030702731698492677 0 0.00066575092964778031 -0.030638591551075695 0 0.0007266611493429889 -0.030804951385805489 0 -0.00032313961611310586 -0.034653184798290416 0 -0.00049172902874995651 -0.034730565535085071 0 -0.00048349648098069324 -0.034563525220767742 0 -0.00035733710753937053 -0.034503970537677758 0 -0.00032313961611310586 -0.034653184798290416 0 -0.00048349648098069324 -0.034563525220767742 0 -0.00049172902874995651 -0.034730565535085071 0 -0.00061579067257948815 -0.03460563868625554 0 -0.00075206322849815136 -0.034615948736865854 0 0.00036117077703655946 -0.031828502998513926 0 0.00048988831333437522 -0.030983253494062443 0 -0.00059942984916453921 -0.034472471177349633 0 -0.00061579067257948815 -0.03460563868625554 0 -0.00068668115015049639 -0.034508226280125627 0 -0.00059942984916453921 -0.034472471177349633 0 -0.00048349648098069324 -0.034563525220767742 0 -0.00061579067257948815 -0.03460563868625554 0 -0.00049172902874995651 -0.034730565535085071 0 -0.00048349648098069324 -0.034563525220767742 0 -0.00061579067257948815 -0.03460563868625554 0 0.0007266611493429889 -0.030804951385805489 0 0.0010388928192205098 -0.030574456879867734 0 0.001160902367095751 -0.030907676015250702 0 0.00066575092964778031 -0.030638591551075695 0 0.0007266611493429889 -0.030804951385805489 0 0.0010388928192205098 -0.030574456879867734 0 0.00056949338080270926 -0.031907237235709089 0 0.0010294033915392204 -0.031293946215714283 0 0.00041474527490114964 -0.035020075983776412 0 0.0004786030765247662 -0.034735682456849312 0 0.00075669250950310377 -0.035029245261953695 0 0.0004786030765247662 -0.034735682456849312 0 0.00075669250950310377 -0.035029245261953695 0 0.00083453843318130713 -0.034781359014805016 0 0.00041474527490114964 -0.035020075983776412 0 0.0004786030765247662 -0.034735682456849312 0 0.00020723587250286079 -0.034792883444191194 0 0.0004786030765247662 -0.034735682456849312 0 0.00012843423008587215 -0.034538182240971146 0 0.00020723587250286079 -0.034792883444191194 0 0.0004786030765247662 -0.034735682456849312 0 0.0004086795602973709 -0.034411155703651358 0 0.00012843423008587215 -0.034538182240971146 0 0.0004786030765247662 -0.034735682456849312 0 0.0006833670932673571 -0.034533890865686583 0 0.0004086795602973709 -0.034411155703651358 0 0.0004786030765247662 -0.034735682456849312 0 0.0006833670932673571 -0.034533890865686583 0 0.00083453843318130713 -0.034781359014805016 0 0.0006833670932673571 -0.034533890865686583 0 0.0004086795602973709 -0.034411155703651358 0 0.00065044941882771393 -0.034246146692962984 0 0.0004086795602973709 -0.034411155703651358 0 0.00014829700417775277 -0.034316411141438914 0 0.00040140576740911328 -0.034125594233059858 0 0.0004086795602973709 -0.034411155703651358 0 0.00065044941882771393 -0.034246146692962984 0 0.00040140576740911328 -0.034125594233059858 0 0.00065044941882771393 -0.034246146692962984 0 0.00063710542215938092 -0.034031219357336481 0 0.00040140576740911328 -0.034125594233059858 0 -4.9830040288855282e-05 -0.034244436310577747 0 0.00014829700417775277 -0.034316411141438914 0 0.00013998378855858891 -0.034031931461071113 0 0.00014829700417775277 -0.034316411141438914 0 0.00013998378855858891 -0.034031931461071113 0 0.00040140576740911328 -0.034125594233059858 0 0.0004086795602973709 -0.034411155703651358 0 0.00014829700417775277 -0.034316411141438914 0 0.00012843423008587215 -0.034538182240971146 0 -4.9830040288855282e-05 -0.034244436310577747 0 0.00014829700417775277 -0.034316411141438914 0 -6.1365522424892767e-05 -0.034525552601270562 0 0.00014829700417775277 -0.034316411141438914 0 0.00012843423008587215 -0.034538182240971146 0 -6.1365522424892767e-05 -0.034525552601270562 0 4.5321183219377321e-05 -0.034626927641424443 0 8.963423931100282e-06 -0.034678951277007597 0 0.00012843423008587215 -0.034538182240971146 0 -7.315440561551562e-06 -0.034659276627666019 0 -6.1365522424892767e-05 -0.034525552601270562 0 0.00012843423008587215 -0.034538182240971146 0 0.00020723587250286079 -0.034792883444191194 0 -3.9840064089640385e-05 -0.03483516504904885 0 0.00020723587250286079 -0.034792883444191194 0 7.3584402115141863e-05 -0.034856191395191312 0 -3.9840064089640385e-05 -0.03483516504904885 0 9.3782276291847681e-05 -0.034984907286811147 0 0.00020723587250286079 -0.034792883444191194 0 7.3584402115141863e-05 -0.034856191395191312 0 -3.811961680915954e-05 -0.034877472299311249 0 7.3584402115141863e-05 -0.034856191395191312 0 -3.9840064089640385e-05 -0.03483516504904885 0 -0.0001031659892523569 -0.0346713330342533 0 -0.00018513431357931911 -0.034605922838427602 0 -0.00010102392758529731 -0.034714275657968002 0 -7.315440561551562e-06 -0.034659276627666019 0 -0.0001031659892523569 -0.0346713330342533 0 -6.1365522424892767e-05 -0.034525552601270562 0 -3.8624914090098673e-05 -0.034697288892279882 0 -9.2726284354970878e-05 -0.034718324885370168 0 -0.00010102392758529731 -0.034714275657968002 0 -0.0001042190857109181 -0.034566238533785897 0 -0.00010478637281512306 -0.034628241196486366 0 -0.0001042190857109181 -0.034566238533785897 0 -9.8907622188253847e-05 -0.034388713874788743 0 -0.00018513431357931911 -0.034605922838427602 0 -6.1365522424892767e-05 -0.034525552601270562 0 -0.00024503029968634695 -0.034356378789593411 0 -0.0001031659892523569 -0.0346713330342533 0 -0.00018513431357931911 -0.034605922838427602 0 -6.1365522424892767e-05 -0.034525552601270562 0 -4.9830040288855282e-05 -0.034244436310577747 0 -6.1365522424892767e-05 -0.034525552601270562 0 -0.00024503029968634695 -0.034356378789593411 0 2.635928253425226e-05 -0.034522229223742401 0 -9.9193284602912415e-05 -0.034367499108289422 0 -0.00012374531897667125 -0.034618911488092333 0 -3.8624914090098673e-05 -0.034697288892279882 0 2.635928253425226e-05 -0.034522229223742401 0 -0.00012374531897667125 -0.034618911488092333 0 2.635928253425226e-05 -0.034522229223742401 0 -9.9193284602912415e-05 -0.034367499108289422 0 -2.852788206545402e-05 -0.034230817631986404 0 -9.8907622188253847e-05 -0.034388713874788743 0 -8.4107855134888261e-05 -0.034143174570971539 0 2.635928253425226e-05 -0.034522229223742401 0 -2.852788206545402e-05 -0.034230817631986404 0 2.0754028096357402e-05 -0.034204532107058511 0 -0.00024503029968634695 -0.034356378789593411 0 -0.00016309396335623615 -0.034180860184288141 0 -0.00026841776436796293 -0.034043697664307281 0 -4.9830040288855282e-05 -0.034244436310577747 0 -0.00024503029968634695 -0.034356378789593411 0 -0.00016309396335623615 -0.034180860184288141 0 -4.9830040288855282e-05 -0.034244436310577747 0 -0.00016309396335623615 -0.034180860184288141 0 -8.7083899790567839e-05 -0.034073932013565789 0 -0.00022797121470997773 -0.034597996158078133 0 -0.00021496467821584969 -0.034663164642613147 0 -0.00019543893507554798 -0.034373756696284265 0 -0.00023702593293375569 -0.034660305788504132 0 -0.00044456521960300262 -0.034397929799689836 0 -0.00019543893507554798 -0.034373756696284265 0 -0.00035018309192845297 -0.034273016604690794 0 -0.0002861883065192607 -0.034207176306392244 0 -0.00019543893507554798 -0.034373756696284265 0 -9.9193284602912415e-05 -0.034367499108289422 0 -0.00017265634379236787 -0.034238315536824791 0 -0.00019543893507554798 -0.034373756696284265 0 -9.9193284602912415e-05 -0.034367499108289422 0 -0.00012374531897667125 -0.034618911488092333 0 -0.00012374531897667125 -0.034618911488092333 0 -0.00023702593293375569 -0.034660305788504132 0 -0.00017033176279528491 -0.034702341258351817 0 -0.00019543893507554798 -0.034373756696284265 0 -0.00012374531897667125 -0.034618911488092333 0 -0.00023702593293375569 -0.034660305788504132 0 -0.00012374531897667125 -0.034618911488092333 0 -0.00017033176279528491 -0.034702341258351817 0 -0.00011842893185380289 -0.034710657245894352 0 -3.8624914090098673e-05 -0.034697288892279882 0 -0.00012374531897667125 -0.034618911488092333 0 -0.00011842893185380289 -0.034710657245894352 0 -3.8624914090098673e-05 -0.034697288892279882 0 -0.00011842893185380289 -0.034710657245894352 0 -9.2726284354970878e-05 -0.034718324885370168 0 -0.00017033176279528491 -0.034702341258351817 0 -0.00011842893185380289 -0.034710657245894352 0 -0.00013395371108854839 -0.034720814771546898 0 -0.00011842893185380289 -0.034710657245894352 0 -0.00010177732255285263 -0.034715095291918609 0 -0.00013395371108854839 -0.034720814771546898 0 -0.00010177732255285263 -0.034715095291918609 0 -8.40260824404603e-05 -0.034700080319579447 0 -0.00010860838325556772 -0.034719866613797515 0 -0.00010177732255285263 -0.034715095291918609 0 -0.00010860838325556772 -0.034719866613797515 0 -0.00013395371108854839 -0.034720814771546898 0 -0.00010177732255285263 -0.034715095291918609 0 -8.40260824404603e-05 -0.034700080319579447 0 -7.4539631605143917e-05 -0.034692604791465777 0 -8.40260824404603e-05 -0.034700080319579447 0 -7.4539631605143917e-05 -0.034692604791465777 0 -5.4394419287942238e-05 -0.034659285508566638 0 -7.4539631605143917e-05 -0.034692604791465777 0 -9.2726284354970878e-05 -0.034718324885370168 0 -8.2569419080594353e-05 -0.034689846675259747 0 -7.4539631605143917e-05 -0.034692604791465777 0 -8.2569419080594353e-05 -0.034689846675259747 0 -4.3514858951333553e-05 -0.034640768497537992 0 -0.00010177732255285263 -0.034715095291918609 0 -7.4539631605143917e-05 -0.034692604791465777 0 -9.2726284354970878e-05 -0.034718324885370168 0 -0.00011842893185380289 -0.034710657245894352 0 -0.00010177732255285263 -0.034715095291918609 0 -9.2726284354970878e-05 -0.034718324885370168 0 -9.2726284354970878e-05 -0.034718324885370168 0 -0.00010102392758529731 -0.034714275657968002 0 -8.2569419080594353e-05 -0.034689846675259747 0 -0.0001031659892523569 -0.0346713330342533 0 -0.00010102392758529731 -0.034714275657968002 0 -9.7882372957634037e-05 -0.034716062594006503 0 -7.315440561551562e-06 -0.034659276627666019 0 -0.0001031659892523569 -0.0346713330342533 0 -9.7882372957634037e-05 -0.034716062594006503 0 -0.00010102392758529731 -0.034714275657968002 0 -9.7882372957634037e-05 -0.034716062594006503 0 -0.00011123836549877734 -0.034668399959676618 0 -1.2676451564049796e-05 -0.034626116998932165 0 3.3642215749099644e-05 -0.034808326679430783 0 0.00012263546396800226 -0.034552559257424113 0 -1.3521372599201297e-05 -0.034697474292760176 0 -4.5939012784333725e-06 -0.034654644902129418 0 -0.00010102392758529731 -0.034714275657968002 0 -8.2569419080594353e-05 -0.034689846675259747 0 -0.00011123836549877734 -0.034668399959676618 0 -8.2569419080594353e-05 -0.034689846675259747 0 -0.00011123836549877734 -0.034668399959676618 0 -4.3514858951333553e-05 -0.034640768497537992 0 -4.5939012784333725e-06 -0.034654644902129418 0 1.1869096274846514e-06 -0.034629403062007388 0 0.00012263546396800226 -0.034552559257424113 0 9.2535133557254714e-05 -0.034494026131137306 0 -2.3127374158835821e-07 -0.034540499239002077 0 -0.00011123836549877734 -0.034668399959676618 0 -2.3127374158835821e-07 -0.034540499239002077 0 -4.3514858951333553e-05 -0.034640768497537992 0 7.3243047741167178e-06 -0.034499794393852992 0 -1.2676451564049796e-05 -0.034626116998932165 0 0.00012263546396800226 -0.034552559257424113 0 7.3243047741167178e-06 -0.034499794393852992 0 0.00012263546396800226 -0.034552559257424113 0 9.2535133557254714e-05 -0.034494026131137306 0 7.3243047741167178e-06 -0.034499794393852992 0 6.1248808811049691e-05 -0.034443450530066408 0 9.2535133557254714e-05 -0.034494026131137306 0 -1.3518845790975878e-05 -0.03434382822186665 0 7.3243047741167178e-06 -0.034499794393852992 0 6.1248808811049691e-05 -0.034443450530066408 0 6.1248808811049691e-05 -0.034443450530066408 0 9.2535133557254714e-05 -0.034494026131137306 0 0.00012814939442860822 -0.034449717667647567 0 9.8887813495760328e-05 -0.034289086658490037 0 6.1248808811049691e-05 -0.034443450530066408 0 0.00012814939442860822 -0.034449717667647567 0 9.8887813495760328e-05 -0.034289086658490037 0 -1.3518845790975878e-05 -0.03434382822186665 0 6.1248808811049691e-05 -0.034443450530066408 0 9.2535133557254714e-05 -0.034494026131137306 0 0.00012814939442860822 -0.034449717667647567 0 -2.3127374158835821e-07 -0.034540499239002077 0 0.00010106663862807714 -0.034555907517341042 0 0.00012814939442860822 -0.034449717667647567 0 -2.3127374158835821e-07 -0.034540499239002077 0 -5.5405813707532028e-05 -0.034662862437684128 0 -2.2906625440640241e-05 -0.034604750075055313 0 -3.6218544082322915e-05 -0.034611115258449496 0 -2.3127374158835821e-07 -0.034540499239002077 0 -3.6218544082322915e-05 -0.034611115258449496 0 -4.3514858951333553e-05 -0.034640768497537992 0 -2.2906625440640241e-05 -0.034604750075055313 0 -2.3127374158835821e-07 -0.034540499239002077 0 -3.6218544082322915e-05 -0.034611115258449496 0 -5.5405813707532028e-05 -0.034662862437684128 0 -3.6218544082322915e-05 -0.034611115258449496 0 -5.4051534262526195e-05 -0.034658739183769924 0 -5.5405813707532028e-05 -0.034662862437684128 0 -5.4051534262526195e-05 -0.034658739183769924 0 -6.5409402722697784e-05 -0.034690350110078726 0 -5.4051534262526195e-05 -0.034658739183769924 0 -5.4394419287942238e-05 -0.034659285508566638 0 -7.2121913444257905e-05 -0.034687124676518792 0 -3.6218544082322915e-05 -0.034611115258449496 0 -5.4051534262526195e-05 -0.034658739183769924 0 -5.4394419287942238e-05 -0.034659285508566638 0 -8.40260824404603e-05 -0.034700080319579447 0 -5.4394419287942238e-05 -0.034659285508566638 0 -7.2121913444257905e-05 -0.034687124676518792 0 -7.4539631605143917e-05 -0.034692604791465777 0 -5.4394419287942238e-05 -0.034659285508566638 0 -4.3514858951333553e-05 -0.034640768497537992 0 -3.6218544082322915e-05 -0.034611115258449496 0 -5.4394419287942238e-05 -0.034659285508566638 0 -4.3514858951333553e-05 -0.034640768497537992 0 -8.5795978112040419e-05 -0.034705017928381411 0 -9.4705045012112644e-05 -0.034708857859344175 0 -9.0557712639800328e-05 -0.034726094546241718 0 -8.5795978112040419e-05 -0.034705017928381411 0 -7.2121913444257905e-05 -0.034687124676518792 0 -6.5409402722697784e-05 -0.034690350110078726 0 -8.5795978112040419e-05 -0.034705017928381411 0 -7.2121913444257905e-05 -0.034687124676518792 0 -9.7341004340156437e-05 -0.034718280969393576 0 -5.4051534262526195e-05 -0.034658739183769924 0 -7.2121913444257905e-05 -0.034687124676518792 0 -6.5409402722697784e-05 -0.034690350110078726 0 -5.5405813707532028e-05 -0.034662862437684128 0 -6.5409402722697784e-05 -0.034690350110078726 0 -7.7696632989923453e-05 -0.03473610004892648 0 -8.5795978112040419e-05 -0.034705017928381411 0 -6.5409402722697784e-05 -0.034690350110078726 0 -7.7696632989923453e-05 -0.03473610004892648 0 -2.6862375462912732e-05 -0.034524336686132924 0 -4.9418048693138301e-05 -0.034558689779398612 0 -8.5795978112040419e-05 -0.034705017928381411 0 -7.7696632989923453e-05 -0.03473610004892648 0 -9.4705045012112644e-05 -0.034708857859344175 0 -6.5458254106298011e-05 -0.034802750549864515 0 -6.1128330738934004e-05 -0.034809282904134785 0 -8.2093584479745515e-05 -0.034773225071698916 0 -7.7696632989923453e-05 -0.03473610004892648 0 -9.4705045012112644e-05 -0.034708857859344175 0 -6.2773450165016202e-05 -0.03482665857470163 0 -6.1157982886609407e-05 -0.034884418849907166 0 -3.9712959196784841e-05 -0.034853522962419503 0 -6.2773450165016202e-05 -0.03482665857470163 0 -8.2093584479745515e-05 -0.034773225071698916 0 -6.1157982886609407e-05 -0.034884418849907166 0 -6.1157982886609407e-05 -0.034884418849907166 0 -2.2295221256680548e-05 -0.034895735677330141 0 -3.9712959196784841e-05 -0.034853522962419503 0 -2.2295221256680548e-05 -0.034895735677330141 0 -3.9712959196784841e-05 -0.034853522962419503 0 -1.6068740059200085e-05 -0.034876992983841913 0 -6.1128330738934004e-05 -0.034809282904134785 0 -4.4966883399001014e-05 -0.034828104050742797 0 -6.1157982886609407e-05 -0.034884418849907166 0 -2.2295221256680548e-05 -0.034895735677330141 0 -9.1253637352845101e-06 -0.034920002777164498 0 -9.4705045012112644e-05 -0.034708857859344175 0 -9.0557712639800328e-05 -0.034726094546241718 0 -5.355783942328805e-05 -0.034748086195816291 0 -9.0557712639800328e-05 -0.034726094546241718 0 -5.355783942328805e-05 -0.034748086195816291 0 -9.0649654788791133e-05 -0.03476239245521074 0 -5.355783942328805e-05 -0.034748086195816291 0 -5.960990009138074e-05 -0.03481690656716542 0 -9.0649654788791133e-05 -0.03476239245521074 0 -5.960990009138074e-05 -0.03481690656716542 0 -9.0649654788791133e-05 -0.03476239245521074 0 -9.4622071852115569e-05 -0.034789406175896431 0 -9.0649654788791133e-05 -0.03476239245521074 0 -0.00011467038552877679 -0.034742589247116824 0 -9.7341004340156437e-05 -0.034718280969393576 0 -9.0557712639800328e-05 -0.034726094546241718 0 -9.0649654788791133e-05 -0.03476239245521074 0 -9.7341004340156437e-05 -0.034718280969393576 0 -8.5795978112040419e-05 -0.034705017928381411 0 -9.0557712639800328e-05 -0.034726094546241718 0 -9.7341004340156437e-05 -0.034718280969393576 0 -8.40260824404603e-05 -0.034700080319579447 0 -7.2121913444257905e-05 -0.034687124676518792 0 -9.7341004340156437e-05 -0.034718280969393576 0 -8.40260824404603e-05 -0.034700080319579447 0 -9.7341004340156437e-05 -0.034718280969393576 0 -0.00010860838325556772 -0.034719866613797515 0 -0.00011467038552877679 -0.034742589247116824 0 -9.7341004340156437e-05 -0.034718280969393576 0 -0.00010860838325556772 -0.034719866613797515 0 -0.00011467038552877679 -0.034742589247116824 0 -0.00010860838325556772 -0.034719866613797515 0 -0.00013395371108854839 -0.034720814771546898 0 -0.00017033176279528491 -0.034702341258351817 0 -0.00013395371108854839 -0.034720814771546898 0 -0.00014909146640604084 -0.034732504794353448 0 -0.00011467038552877679 -0.034742589247116824 0 -0.00013395371108854839 -0.034720814771546898 0 -0.00014909146640604084 -0.034732504794353448 0 -0.00011467038552877679 -0.034742589247116824 0 -0.00014909146640604084 -0.034732504794353448 0 -9.4622071852115569e-05 -0.034789406175896431 0 -0.00014909146640604084 -0.034732504794353448 0 -0.00012528651053370364 -0.034782319286268439 0 -9.4622071852115569e-05 -0.034789406175896431 0 -0.00023702593293375569 -0.034660305788504132 0 -0.00017033176279528491 -0.034702341258351817 0 -0.00014909146640604084 -0.034732504794353448 0 -0.00023702593293375569 -0.034660305788504132 0 -0.00014909146640604084 -0.034732504794353448 0 -0.00012528651053370364 -0.034782319286268439 0 -0.00023702593293375569 -0.034660305788504132 0 -0.00012528651053370364 -0.034782319286268439 0 -0.00017738238414355371 -0.034838093311463869 0 -0.00012528651053370364 -0.034782319286268439 0 -0.00017738238414355371 -0.034838093311463869 0 -9.2992566248478397e-05 -0.034871618761650347 0 -0.00021496467821584969 -0.034663164642613147 0 -0.00010008217584414394 -0.034804842332586815 0 -0.00023007008083152225 -0.034651481595503776 0 -0.00021496467821584969 -0.034663164642613147 0 -4.7904903320526487e-05 -0.034912385360291377 0 -9.2992566248478397e-05 -0.034871618761650347 0 -6.1634672021467445e-05 -0.03485638940116164 0 -4.896561537074781e-05 -0.03488009437746098 0 -0.00010008217584414394 -0.034804842332586815 0 -0.00012528651053370364 -0.034782319286268439 0 -9.2992566248478397e-05 -0.034871618761650347 0 -6.1634672021467445e-05 -0.03485638940116164 0 -6.1634672021467445e-05 -0.03485638940116164 0 -9.4622071852115569e-05 -0.034789406175896431 0 -4.9029435135371888e-05 -0.034848569643656478 0 -0.00012528651053370364 -0.034782319286268439 0 -6.1634672021467445e-05 -0.03485638940116164 0 -9.4622071852115569e-05 -0.034789406175896431 0 -9.0649654788791133e-05 -0.03476239245521074 0 -0.00011467038552877679 -0.034742589247116824 0 -9.4622071852115569e-05 -0.034789406175896431 0 -5.960990009138074e-05 -0.03481690656716542 0 -9.4622071852115569e-05 -0.034789406175896431 0 -4.9029435135371888e-05 -0.034848569643656478 0 -5.960990009138074e-05 -0.03481690656716542 0 -4.9029435135371888e-05 -0.034848569643656478 0 -1.0132808074657063e-05 -0.03488624144282703 0 -2.6086255286013734e-05 -0.034895014320768185 0 -6.8283728708074449e-06 -0.034941934246080025 0 -1.0132808074657063e-05 -0.03488624144282703 0 -4.9029435135371888e-05 -0.034848569643656478 0 -2.6086255286013734e-05 -0.034895014320768185 0 -1.0132808074657063e-05 -0.03488624144282703 0 -2.6086255286013734e-05 -0.034895014320768185 0 -9.0364822132364225e-06 -0.034946535828393056 0 -6.8283728708074449e-06 -0.034941934246080025 0 -6.1634672021467445e-05 -0.03485638940116164 0 -4.9029435135371888e-05 -0.034848569643656478 0 -2.6086255286013734e-05 -0.034895014320768185 0 -4.7904903320526487e-05 -0.034912385360291377 0 -6.1634672021467445e-05 -0.03485638940116164 0 -2.5211577929932561e-05 -0.034919020115421917 0 -6.1634672021467445e-05 -0.03485638940116164 0 -2.6086255286013734e-05 -0.034895014320768185 0 -2.5211577929932561e-05 -0.034919020115421917 0 -2.6086255286013734e-05 -0.034895014320768185 0 -2.5211577929932561e-05 -0.034919020115421917 0 -9.0364822132364225e-06 -0.034946535828393056 0 -2.5211577929932561e-05 -0.034919020115421917 0 -1.0643256948845958e-05 -0.034955734968633245 0 -9.0364822132364225e-06 -0.034946535828393056 0 -2.5211577929932561e-05 -0.034919020115421917 0 -1.771868751898069e-05 -0.034950506898089963 0 -1.0643256948845958e-05 -0.034955734968633245 0 -4.7904903320526487e-05 -0.034912385360291377 0 -2.5211577929932561e-05 -0.034919020115421917 0 -1.771868751898069e-05 -0.034950506898089963 0 -4.896561537074781e-05 -0.03488009437746098 0 -1.9962693101209499e-05 -0.034919533205896053 0 6.217031958790011e-10 -0.034999963238550508 0 -1.7275908725546883e-06 -0.034989133831789268 0 -2.3476430211932102e-06 -0.034977984699716524 0 -1.7275908725546883e-06 -0.034989133831789268 0 -1.0643256948845958e-05 -0.034955734968633245 0 -2.3476430211932102e-06 -0.034977984699716524 0 -1.771868751898069e-05 -0.034950506898089963 0 -1.7275908725546883e-06 -0.034989133831789268 0 -1.0643256948845958e-05 -0.034955734968633245 0 -1.9962693101209499e-05 -0.034919533205896053 0 -7.8302635964455468e-06 -0.034933049290674534 0 -2.6518470985190013e-05 -0.034980836077414951 0 -1.7275908725546883e-06 -0.034989133831789268 0 -1.3519058201528558e-05 -0.034989906798043896 0 -1.0643256948845958e-05 -0.034955734968633245 0 -9.0364822132364225e-06 -0.034946535828393056 0 -2.3476430211932102e-06 -0.034977984699716524 0 -9.0364822132364225e-06 -0.034946535828393056 0 -2.3476430211932102e-06 -0.034977984699716524 0 9.3308548082627532e-10 -0.034999938790005992 0 6.217031958790011e-10 -0.034999963238550508 0 -2.3476430211932102e-06 -0.034977984699716524 0 9.3308548082627532e-10 -0.034999938790005992 0 -9.0364822132364225e-06 -0.034946535828393056 0 9.3308548082627532e-10 -0.034999938790005992 0 -6.8283728708074449e-06 -0.034941934246080025 0 9.3308548082627532e-10 -0.034999938790005992 0 -6.8283728708074449e-06 -0.034941934246080025 0 -5.4280506172196954e-09 -0.034999931218455661 0 -6.8283728708074449e-06 -0.034941934246080025 0 -5.4280506172196954e-09 -0.034999931218455661 0 -4.8902133151717075e-06 -0.034953367415427754 0 -5.4280506172196954e-09 -0.034999931218455661 0 -4.8902133151717075e-06 -0.034953367415427754 0 -9.6862029655135292e-10 -0.034999942812868598 0 -4.8902133151717075e-06 -0.034953367415427754 0 -9.6862029655135292e-10 -0.034999942812868598 0 -2.2312788352240374e-06 -0.034949314524544507 0 -6.8283728708074449e-06 -0.034941934246080025 0 -4.8902133151717075e-06 -0.034953367415427754 0 -1.0132808074657063e-05 -0.03488624144282703 0 -1.0132808074657063e-05 -0.03488624144282703 0 9.7181285951663622e-08 -0.034931402433050901 0 -2.2312788352240374e-06 -0.034949314524544507 0 -9.1253637352845101e-06 -0.034920002777164498 0 -1.0132808074657063e-05 -0.03488624144282703 0 9.7181285951663622e-08 -0.034931402433050901 0 -5.355783942328805e-05 -0.034748086195816291 0 -5.960990009138074e-05 -0.03481690656716542 0 -1.0132808074657063e-05 -0.03488624144282703 0 -4.4966883399001014e-05 -0.034828104050742797 0 -3.3123941229557999e-05 -0.034843307737138424 0 -4.8902133151717075e-06 -0.034953367415427754 0 -1.0132808074657063e-05 -0.03488624144282703 0 -2.2312788352240374e-06 -0.034949314524544507 0 9.7181285951663622e-08 -0.034931402433050901 0 1.970204628393647e-05 -0.034940688047475597 0 -2.2312788352240374e-06 -0.034949314524544507 0 -2.2295221256680548e-05 -0.034895735677330141 0 -9.1253637352845101e-06 -0.034920002777164498 0 9.7181285951663622e-08 -0.034931402433050901 0 6.4872945342266046e-06 -0.034902928166083737 0 9.7181285951663622e-08 -0.034931402433050901 0 -1.6068740059200085e-05 -0.034876992983841913 0 -2.2295221256680548e-05 -0.034895735677330141 0 9.7181285951663622e-08 -0.034931402433050901 0 -1.6068740059200085e-05 -0.034876992983841913 0 6.4872945342266046e-06 -0.034902928166083737 0 9.7181285951663622e-08 -0.034931402433050901 0 1.970204628393647e-05 -0.034940688047475597 0 8.623713323003435e-06 -0.034975264690560851 0 1.970204628393647e-05 -0.034940688047475597 0 2.9254537000694406e-06 -0.034970776698408167 0 1.970204628393647e-05 -0.034940688047475597 0 2.9254537000694406e-06 -0.034970776698408167 0 -2.2312788352240374e-06 -0.034949314524544507 0 -2.7845152669559717e-09 -0.034999957090050569 0 2.9254537000694406e-06 -0.034970776698408167 0 -9.6862029655135292e-10 -0.034999942812868598 0 -2.7845152669559717e-09 -0.034999957090050569 0 2.3954655150330374e-06 -0.034986624130089426 0 2.9254537000694406e-06 -0.034970776698408167 0 2.9254537000694406e-06 -0.034970776698408167 0 -9.6862029655135292e-10 -0.034999942812868598 0 -2.2312788352240374e-06 -0.034949314524544507 0 0.0029841881718860887 -0.020807333866969202 0 0.0030894412083443223 -0.020803266458133338 0 0.0029846604612808959 -0.020892827693204066 0 0.0030894412083443223 -0.020803266458133338 0 0.0029846604612808959 -0.020892827693204066 0 0.0031494435718171575 -0.020894816238323208 0 0.0029846604612808959 -0.020892827693204066 0 0.0031494435718171575 -0.020894816238323208 0 0.0030349827732094269 -0.021059513276682863 0 0.0029846604612808959 -0.020892827693204066 0 0.0029001025498011966 -0.020839739244243597 0 0.0028766385281275273 -0.020963439357717915 0 0.0029001025498011966 -0.020839739244243597 0 0.0028766385281275273 -0.020963439357717915 0 0.0028032673039508384 -0.020857598528905244 0 0.0029001025498011966 -0.020839739244243597 0 0.0028262967056233135 -0.020760738551646726 0 0.0028032673039508384 -0.020857598528905244 0 0.0029294738713601712 -0.020782867319503212 0 0.0029001025498011966 -0.020839739244243597 0 0.0028262967056233135 -0.020760738551646726 0 0.0029841881718860887 -0.020807333866969202 0 0.0029294738713601712 -0.020782867319503212 0 0.0029001025498011966 -0.020839739244243597 0 0.0029841881718860887 -0.020807333866969202 0 0.0029846604612808959 -0.020892827693204066 0 0.0029001025498011966 -0.020839739244243597 0 0.0028262967056233135 -0.020760738551646726 0 0.0030070466876769963 -0.020723746520408804 0 0.0027142332382071601 -0.020727107040440864 0 0.0025117947399556288 -0.013159994881452633 0 0.0039622958255937169 -0.01357731577314588 0 0.0010627587667464693 -0.013711537450238058 0 0.0029748197677516106 -0.018134833302771977 0 0.0023042655463959517 -0.01529564611931674 0 0.0029294738713601712 -0.020782867319503212 0 0.0028262967056233135 -0.020760738551646726 0 0.0030070466876769963 -0.020723746520408804 0 0.0025117947399556288 -0.013159994881452633 0 0.0016688929434138895 -0.01281408225311406 0 0.0022534893029549402 -0.012446174427616974 0 0.0025117947399556288 -0.013159994881452633 0 0.003033209992148009 -0.012297735258815426 0 0.0022534893029549402 -0.012446174427616974 0 0.0025117947399556288 -0.013159994881452633 0 0.0033009473962144651 -0.013201592192116769 0 0.0039622958255937169 -0.01357731577314588 0 0.0025117947399556288 -0.013159994881452633 0 0.0033009473962144651 -0.013201592192116769 0 0.003033209992148009 -0.012297735258815426 0 0.0033009473962144651 -0.013201592192116769 0 0.003551414534264578 -0.012702028955274931 0 0.003033209992148009 -0.012297735258815426 0 0.0033009473962144651 -0.013201592192116769 0 0.003551414534264578 -0.012702028955274931 0 0.0037109833168744912 -0.013183149420275082 0 0.0040137173527741319 -0.013182935501246933 0 0.0039622958255937169 -0.01357731577314588 0 0.0057315971843730044 -0.013533102019882001 0 0.003551414534264578 -0.012702028955274931 0 0.0040137173527741319 -0.013182935501246933 0 0.0037109833168744912 -0.013183149420275082 0 0.0033009473962144651 -0.013201592192116769 0 0.0037109833168744912 -0.013183149420275082 0 0.0039622958255937169 -0.01357731577314588 0 0.0040137173527741319 -0.013182935501246933 0 0.0037109833168744912 -0.013183149420275082 0 0.0039622958255937169 -0.01357731577314588 0 0.0029841881718860887 -0.020807333866969202 0 0.0030894412083443223 -0.020803266458133338 0 0.0030070466876769963 -0.020723746520408804 0 0.0029841881718860887 -0.020807333866969202 0 0.0029294738713601712 -0.020782867319503212 0 0.0030070466876769963 -0.020723746520408804 0 0.0029748197677516106 -0.018134833302771977 0 0.0014949890039229247 -0.021762499643924064 0 0.0030894412083443223 -0.020803266458133338 0 0.0030070466876769963 -0.020723746520408804 0 0.0033411894310061063 -0.02068125076437478 0 0.0014949890039229247 -0.021762499643924064 0 0.00080889306156916359 -0.018296917065876928 0 0.0040137173527741319 -0.013182935501246933 0 0.0057315971843730044 -0.013533102019882001 0 0.0046609857884089027 -0.012459153393087346 0 -0.0012377696592786179 -0.021692742006253467 0 -0.001058084826595725 -0.021499072899636332 0 -0.00088517592755150195 -0.021697752222046878 0 0.0014949890039229247 -0.021762499643924064 0 -2.8553736602606634e-05 -0.024598206549021867 0 0.0014949890039229247 -0.021762499643924064 0 0.0024652276593650152 -0.024983584216796244 0 0.0033411894310061063 -0.02068125076437478 0 0.0033141535838301897 -0.021029756300028103 0 0.0035857359357379642 -0.020862717169268557 0 0.0033411894310061063 -0.02068125076437478 0 0.0031494435718171575 -0.020894816238323208 0 0.0033141535838301897 -0.021029756300028103 0 0.0030894412083443223 -0.020803266458133338 0 0.0033411894310061063 -0.02068125076437478 0 0.0031494435718171575 -0.020894816238323208 0 0.0031494435718171575 -0.020894816238323208 0 0.0033141535838301897 -0.021029756300028103 0 0.0030349827732094269 -0.021059513276682863 0 0.0033141535838301897 -0.021029756300028103 0 0.0031570970948548416 -0.021227270739652242 0 0.0030349827732094269 -0.021059513276682863 0 0.0033141535838301897 -0.021029756300028103 0 0.0033039116414584416 -0.021331385753630219 0 0.0035594290385101614 -0.021156674493304932 0 0.0033141535838301897 -0.021029756300028103 0 0.0035857359357379642 -0.020862717169268557 0 0.0035594290385101614 -0.021156674493304932 0 0.0033039116414584416 -0.021331385753630219 0 0.0035594290385101614 -0.021156674493304932 0 0.0037153289883874951 -0.021540335610220427 0 0.0033039116414584416 -0.021331385753630219 0 0.0031570970948548416 -0.021227270739652242 0 0.0031413993793900806 -0.0213497678672326 0 0.0033141535838301897 -0.021029756300028103 0 0.0033039116414584416 -0.021331385753630219 0 0.0031570970948548416 -0.021227270739652242 0 0.0031570970948548416 -0.021227270739652242 0 0.0029833834927551458 -0.02127576757503993 0 0.0031413993793900806 -0.0213497678672326 0 0.0031570970948548416 -0.021227270739652242 0 0.0029833834927551458 -0.02127576757503993 0 0.0030349827732094269 -0.021059513276682863 0 0.0029846604612808959 -0.020892827693204066 0 0.0030349827732094269 -0.021059513276682863 0 0.0028766385281275273 -0.020963439357717915 0 0.0030349827732094269 -0.021059513276682863 0 0.0028766385281275273 -0.020963439357717915 0 0.0028438456735366069 -0.021119409549232832 0 0.0029833834927551458 -0.02127576757503993 0 0.0030349827732094269 -0.021059513276682863 0 0.0028438456735366069 -0.021119409549232832 0 0.0029833834927551458 -0.02127576757503993 0 0.0028438456735366069 -0.021119409549232832 0 0.0028160032783808267 -0.021260522491320707 0 0.0028438456735366069 -0.021119409549232832 0 0.0026448384979566347 -0.021150541205762072 0 0.0028160032783808267 -0.021260522491320707 0 0.0025295061356888347 -0.019769942691159698 0 0.0018382285150943291 -0.019837770377578921 0 0.0021093035976305695 -0.020419070909674451 0 0.0025295061356888347 -0.019769942691159698 0 0.0018382285150943291 -0.019837770377578921 0 0.0023496061562034475 -0.018972821923862928 0 0.0026448384979566347 -0.021150541205762072 0 0.00273971437035603 -0.020974999794904657 0 0.002573974228678228 -0.020905692010734021 0 0.0023875548655414502 -0.019863071302838254 0 0.0017806152636954614 -0.017389886967062531 0 0.0028438456735366069 -0.021119409549232832 0 0.0026448384979566347 -0.021150541205762072 0 0.00273971437035603 -0.020974999794904657 0 0.0028766385281275273 -0.020963439357717915 0 0.0028438456735366069 -0.021119409549232832 0 0.00273971437035603 -0.020974999794904657 0 0.0012590098202703828 -0.012134251969200769 0 0.0011848051339329194 -0.01209044337257323 0 0.0011773682869292645 -0.020087070627461741 0 0.0018382285150943291 -0.019837770377578921 0 0.0015985703080416474 -0.019074984014942696 0 0.0011773682869292645 -0.020087070627461741 0 0.0018382285150943291 -0.019837770377578921 0 0.0016416242871570748 -0.020403402875978884 0 0.0018382285150943291 -0.019837770377578921 0 0.0015985703080416474 -0.019074984014942696 0 0.0025126791443512838 -0.018715402031403892 0 0.0014725862843680329 -0.01864660347322256 0 0.0017806152636954614 -0.017389886967062531 0 0.0013029140628895975 -0.0041591793452389293 0 0.00080318632073010144 -0.0050580763940808243 0 0.0013094758406192201 -0.0049118854019849926 0 0.00080318632073010144 -0.0050580763940808243 0 0.0013094758406192201 -0.0049118854019849926 0 0.0011689981877488803 -0.0054297162205093211 0 0.0015435921769615503 -0.005266308347045924 0 0.0013094758406192201 -0.0049118854019849926 0 0.0011689981877488803 -0.0054297162205093211 0 0.00080318632073010144 -0.0050580763940808243 0 0.0011689981877488803 -0.0054297162205093211 0 0.00082943814620460305 -0.0056440738520404845 0 0.0015194339000833147 -0.0056186002657472502 0 0.0011689981877488803 -0.0054297162205093211 0 0.0011502813988736101 -0.0059402514514311595 0 0.0011689981877488803 -0.0054297162205093211 0 0.00082943814620460305 -0.0056440738520404845 0 0.0011502813988736101 -0.0059402514514311595 0 0.0011848051339329194 -0.01209044337257323 0 0.0010106320456446348 -0.012223807022437944 0 0.0015985703080416474 -0.019074984014942696 0 0.002138141053743704 -0.017968184523654021 0 0.0025126791443512838 -0.018715402031403892 0 0.00080318632073010144 -0.0050580763940808243 0 0.00082943814620460305 -0.0056440738520404845 0 0.00033537224791884828 -0.0059715870958869724 0 0.00010939906486247593 -0.0060402226721551879 0 0.00064833009476184011 -0.0063810583533990663 0 0.00096227539707002352 -0.006003167440241792 0 0.0010106320456446348 -0.012223807022437944 0 0.0011709745339552344 -0.0099034943202785577 0 0.00082943814620460305 -0.0056440738520404845 0 0.00033537224791884828 -0.0059715870958869724 0 0.0011502813988736101 -0.0059402514514311595 0 0.00010939906486247593 -0.0060402226721551879 0 -0.00027849226307013526 -0.0067992331417067184 0 0.00030883673633748664 -0.0065833643175334721 0 0.00010939906486247593 -0.0060402226721551879 0 0.00064833009476184011 -0.0063810583533990663 0 0.00030883673633748664 -0.0065833643175334721 0 0.00064833009476184011 -0.0063810583533990663 0 0.0010057724355559351 -0.0064575409003378437 0 0.00096227539707002352 -0.006003167440241792 0 0.0014184874451791413 -0.0062241553266614734 0 0.0010057724355559351 -0.0064575409003378437 0 0.00096227539707002352 -0.006003167440241792 0 0.00273971437035603 -0.020974999794904657 0 0.0027000842853038493 -0.020841725229325026 0 0.002573974228678228 -0.020905692010734021 0 0.0027000842853038493 -0.020841725229325026 0 0.0028032673039508384 -0.020857598528905244 0 0.0027235574403752221 -0.020729258051435467 0 0.0028262967056233135 -0.020760738551646726 0 0.0028032673039508384 -0.020857598528905244 0 0.0027142332382071601 -0.020727107040440864 0 0.0028901327113052704 -0.01652956908899483 0 0.0023042655463959517 -0.01529564611931674 0 0.00273971437035603 -0.020974999794904657 0 0.0027000842853038493 -0.020841725229325026 0 0.0028032673039508384 -0.020857598528905244 0 0.0028766385281275273 -0.020963439357717915 0 0.00273971437035603 -0.020974999794904657 0 0.0028032673039508384 -0.020857598528905244 0 0.0017806152636954614 -0.017389886967062531 0 0.0014385402297442125 -0.013392389076266458 0 0.0027000842853038493 -0.020841725229325026 0 0.002573974228678228 -0.020905692010734021 0 0.0026714459183761435 -0.020729556573241267 0 0.002138141053743704 -0.017968184523654021 0 0.0025126791443512838 -0.018715402031403892 0 0.0023457732383656382 -0.017964351553741122 0 0.0017806152636954614 -0.017389886967062531 0 0.0018956044728901953 -0.014879226626757145 0 0.0024397143289745802 -0.014464509893071558 0 0.0026446176948115236 -0.015374226591202684 0 0.0018895607859714079 -0.015386335468054683 0 0.0010106320456446348 -0.012223807022437944 0 0.0010229935211553954 -0.010778256880402971 0 0.00078971059244002857 -0.01274661915068658 0 0.00024224796077548523 -0.012701937298544885 0 0.00038664490030929777 -0.012458650764832706 0 0.001490503269650988 -0.012439763297772539 0 0.0012106528946357752 -0.012444420455453782 0 0.00088262357776914104 -0.013614614245100933 0 0.0012106528946357752 -0.012444420455453782 0 0.00078971059244002857 -0.01274661915068658 0 0.00088262357776914104 -0.013614614245100933 0 0.0012106528946357752 -0.012444420455453782 0 0.00078971059244002857 -0.01274661915068658 0 0.00038664490030929777 -0.012458650764832706 0 0.0014385402297442125 -0.013392389076266458 0 0.0018956044728901953 -0.014879226626757145 0 0.0010106320456446348 -0.012223807022437944 0 0.0014385402297442125 -0.013392389076266458 0 0.00078971059244002857 -0.01274661915068658 0 0.00024224796077548523 -0.012701937298544885 0 0.00088262357776914104 -0.013614614245100933 0 0.00077427226132948984 -0.013310438188980495 0 0.0010627587667464693 -0.013711537450238058 0 0.0016688929434138895 -0.01281408225311406 0 0.0020335326651384844 -0.014196505566227754 0 0.0018956044728901953 -0.014879226626757145 0 0.0018956044728901953 -0.014879226626757145 0 0.0023042655463959517 -0.01529564611931674 0 0.0027000842853038493 -0.020841725229325026 0 0.0026714459183761435 -0.020729556573241267 0 0.0027235574403752221 -0.020729258051435467 0 0.001867754367514273 -0.017375483388359706 0 0.0035921966503651803 -0.014466819007904426 0 -0.00012584288894249536 -0.014525907280883949 0 0.0020335326651384844 -0.014196505566227754 0 0.0023042655463959517 -0.01529564611931674 0 0.0025117947399556288 -0.013159994881452633 0 0.0010627587667464693 -0.013711537450238058 0 0.0016688929434138895 -0.01281408225311406 0 0.0016688929434138895 -0.01281408225311406 0 0.0017941236300392247 -0.01149668460834343 0 0.0022534893029549402 -0.012446174427616974 0 0.0014513439349838346 -0.012102876637882089 0 0.0021801752570445249 -0.010866391590374481 0 0.0014612108110408761 -0.010883347859979568 0 0.00077427226132948984 -0.013310438188980495 0 0.0016688929434138895 -0.01281408225311406 0 0.0017941236300392247 -0.01149668460834343 0 0.0020335326651384844 -0.014196505566227754 0 0.0025736539094562399 -0.012267223657337782 0 0.0021801752570445249 -0.010866391590374481 0 0.0014612108110408761 -0.010883347859979568 0 0.0017980941700583728 -0.010262901484104065 0 0.0014513439349838346 -0.012102876637882089 0 0.0014612108110408761 -0.010883347859979568 0 0.00069787282330389065 -0.011028081821703308 0 0.0020335326651384844 -0.014196505566227754 0 0.0010229935211553954 -0.010778256880402971 0 0.0010229935211553954 -0.010778256880402971 0 0.00062064571153573058 -0.0093272997356549179 0 0.0014612108110408761 -0.010883347859979568 0 0.00069787282330389065 -0.011028081821703308 0 0.0011179510550099992 -0.010201955800059481 0 0.0010229935211553954 -0.010778256880402971 0 0.0010386462509322919 -0.010722447879849314 0 0.0011179510550099992 -0.010201955800059481 0 0.00065006873484932674 -0.009492106036958577 0 -3.399402756817291e-05 -0.010018286669501034 0 0.00068416027025902616 -0.011043316562522422 0 0.0011179510550099992 -0.010201955800059481 0 -3.399402756817291e-05 -0.010018286669501034 0 0.00065006873484932674 -0.009492106036958577 0 -3.399402756817291e-05 -0.010018286669501034 0 0.00038121823704779086 -0.0086526730017311062 0 0.0011179510550099992 -0.010201955800059481 0 0.00065006873484932674 -0.009492106036958577 0 0.0011335376931833879 -0.0090890213572113153 0 0.0011179510550099992 -0.010201955800059481 0 0.0018624840024377086 -0.0094504672145183984 0 0.0011335376931833879 -0.0090890213572113153 0 0.0018624840024377086 -0.0094504672145183984 0 0.002199349284554251 -0.01007092780685322 0 0.0017980941700583728 -0.010262901484104065 0 0.0018624840024377086 -0.0094504672145183984 0 0.002199349284554251 -0.01007092780685322 0 0.0029456939781311942 -0.0096784130842303556 0 0.0021801752570445249 -0.010866391590374481 0 0.002199349284554251 -0.01007092780685322 0 0.0017980941700583728 -0.010262901484104065 0 0.0014612108110408761 -0.010883347859979568 0 0.0011179510550099992 -0.010201955800059481 0 0.0017980941700583728 -0.010262901484104065 0 0.0011179510550099992 -0.010201955800059481 0 0.0018624840024377086 -0.0094504672145183984 0 0.0017980941700583728 -0.010262901484104065 0 0.0015531709795016848 -0.0069172545189776086 0 0.00086513227645774733 -0.0068243310331551387 0 0.0012423328016464407 -0.0072313816264799801 0 0.0014176062058229 -0.0065947461203129413 0 0.0010057724355559351 -0.0064575409003378437 0 0.00086513227645774733 -0.0068243310331551387 0 0.00064833009476184011 -0.0063810583533990663 0 0.0010057724355559351 -0.0064575409003378437 0 0.00086513227645774733 -0.0068243310331551387 0 0.00086513227645774733 -0.0068243310331551387 0 0.00038180406350301336 -0.0070042693809737842 0 0.00080522569942079267 -0.0073735633991684254 0 -0.00027849226307013526 -0.0067992331417067184 0 0.00038180406350301336 -0.0070042693809737842 0 0.00010633511503834313 -0.0073416617920209109 0 -0.00027849226307013526 -0.0067992331417067184 0 0.00038180406350301336 -0.0070042693809737842 0 0.00030883673633748664 -0.0065833643175334721 0 0.00086513227645774733 -0.0068243310331551387 0 0.00038180406350301336 -0.0070042693809737842 0 0.00030883673633748664 -0.0065833643175334721 0 0.00064833009476184011 -0.0063810583533990663 0 0.00086513227645774733 -0.0068243310331551387 0 0.00030883673633748664 -0.0065833643175334721 0 0.00010633511503834313 -0.0073416617920209109 0 0.00080522569942079267 -0.0073735633991684254 0 0.00049045832935681205 -0.0078831391659111537 0 0.00038180406350301336 -0.0070042693809737842 0 0.00010633511503834313 -0.0073416617920209109 0 0.00080522569942079267 -0.0073735633991684254 0 0.00062064571153573058 -0.0093272997356549179 0 0.00079934853808855328 -0.0086606551946262489 0 0.0014135275835698727 -0.0076026457119549862 0 0.00080522569942079267 -0.0073735633991684254 0 0.0012423328016464407 -0.0072313816264799801 0 0.0014135275835698727 -0.0076026457119549862 0 0.00080522569942079267 -0.0073735633991684254 0 0.00049045832935681205 -0.0078831391659111537 0 0.00086513227645774733 -0.0068243310331551387 0 0.00080522569942079267 -0.0073735633991684254 0 0.0012423328016464407 -0.0072313816264799801 0 0.0014372814630755665 -0.0079712063515847541 0 0.001230448197907295 -0.0079267373814858166 0 0.0013670984021930939 -0.0080789000621672973 0 0.0015129567979417992 -0.008100111391279901 0 0.00079934853808855328 -0.0086606551946262489 0 0.0015217932912865754 -0.0077150426406376958 0 0.0014372814630755665 -0.0079712063515847541 0 0.001230448197907295 -0.0079267373814858166 0 0.0013825533570259701 -0.008192085979413035 0 0.0014006128218826475 -0.0081244882055796878 0 0.0013670984021930939 -0.0080789000621672973 0 -3.399402756817291e-05 -0.010018286669501034 0 -0.00075664980870319683 -0.0089829503006570947 0 0.00038121823704779086 -0.0086526730017311062 0 0.0013825533570259701 -0.008192085979413035 0 0.0014006128218826475 -0.0081244882055796878 0 0.0014579041021911105 -0.0082531827415333846 0 0.00079934853808855328 -0.0086606551946262489 0 0.00082020554063229301 -0.0086035398607190085 0 0.00079934853808855328 -0.0086606551946262489 0 0.0009719518685479061 -0.0085747461905364003 0 0.0014166307118903072 -0.0080816169791452681 0 0.0014194323824876774 -0.0081048110607123084 0 0.0014006128218826475 -0.0081244882055796878 0 0.0014194323824876774 -0.0081048110607123084 0 0.0014006128218826475 -0.0081244882055796878 0 0.0013670984021930939 -0.0080789000621672973 0 0.0014979875338376959 -0.0080960015021408257 0 0.0014194323824876774 -0.0081048110607123084 0 0.0014735647884509212 -0.0080706395806945993 0 0.0014194323824876774 -0.0081048110607123084 0 0.0013670984021930939 -0.0080789000621672973 0 0.0014735647884509212 -0.0080706395806945993 0 0.0014372814630755665 -0.0079712063515847541 0 0.0013670984021930939 -0.0080789000621672973 0 0.0014735647884509212 -0.0080706395806945993 0 0.0018624840024377086 -0.0094504672145183984 0 0.0018094407556728343 -0.0083284280914069884 0 0.0029456939781311942 -0.0096784130842303556 0 0.0016205822871154651 -0.0083350648451954758 0 0.0016138540714476005 -0.008782321155843785 0 0.0011335376931833879 -0.0090890213572113153 0 0.0016205822871154651 -0.0083350648451954758 0 0.0018094407556728343 -0.0083284280914069884 0 0.0016138540714476005 -0.008782321155843785 0 0.0018624840024377086 -0.0094504672145183984 0 0.0018094407556728343 -0.0083284280914069884 0 0.0016138540714476005 -0.008782321155843785 0 0.0018624840024377086 -0.0094504672145183984 0 0.0016138540714476005 -0.008782321155843785 0 0.0011335376931833879 -0.0090890213572113153 0 0.00065006873484932674 -0.009492106036958577 0 0.0011335376931833879 -0.0090890213572113153 0 0.00038121823704779086 -0.0086526730017311062 0 0.0016205822871154651 -0.0083350648451954758 0 0.0011335376931833879 -0.0090890213572113153 0 0.00038121823704779086 -0.0086526730017311062 0 0.001123745874739649 -0.0085230868340711568 0 0.0009719518685479061 -0.0085747461905364003 0 0.0014166307118903072 -0.0080816169791452681 0 0.0014006128218826475 -0.0081244882055796878 0 0.0014579041021911105 -0.0082531827415333846 0 0.0014166307118903072 -0.0080816169791452681 0 0.0016205822871154651 -0.0083350648451954758 0 0.0014579041021911105 -0.0082531827415333846 0 0.0014166307118903072 -0.0080816169791452681 0 0.0016205822871154651 -0.0083350648451954758 0 0.0018094407556728343 -0.0083284280914069884 0 -0.00016262017517957144 -0.01402281096550418 0 -0.00012602084385427532 -0.014636138675607225 0 -0.0017547599365970094 -0.019795753064629749 0 -0.0018559105853282836 -0.019618952183741278 0 -0.0018773987888032291 -0.019745516748974779 0 -0.0018559105853282836 -0.019618952183741278 0 -0.0018773987888032291 -0.019745516748974779 0 -0.0019648213658770802 -0.019660418057368203 0 -0.00192448395797052 -0.019823052322231343 0 -0.0018773987888032291 -0.019745516748974779 0 -0.0019648213658770802 -0.019660418057368203 0 -0.0016648504546929591 -0.020595148879706086 0 -0.0018075661485210477 -0.020815856127616817 0 -0.0016027616970650538 -0.020908711062104447 0 -0.0016648504546929591 -0.020595148879706086 0 -0.0016027616970650538 -0.020908711062104447 0 -0.0014456954874486156 -0.020735555511275094 0 -0.0016027616970650538 -0.020908711062104447 0 -0.0017329577000639144 -0.021175305020316278 0 -0.001428605923704145 -0.021060885454484059 0 -0.0016027616970650538 -0.020908711062104447 0 -0.001428605923704145 -0.021060885454484059 0 -0.0014456954874486156 -0.020735555511275094 0 -0.00012602084385427532 -0.014636138675607225 0 0.00037015352291954937 -0.016231572676111142 0 -0.0018075661485210477 -0.020815856127616817 0 -0.0016027616970650538 -0.020908711062104447 0 -0.0017329577000639144 -0.021175305020316278 0 -0.0018559105853282836 -0.019618952183741278 0 -0.0019648213658770802 -0.019660418057368203 0 -0.001998569091220885 -0.019438118655924212 0 0.0018094407556728343 -0.0083284280914069884 0 0.0034170496036466788 -0.0099093011153635006 0 0.0029456939781311942 -0.0096784130842303556 0 -0.00054672785498768839 -0.019221422124666945 0 0.00037015352291954937 -0.016231572676111142 0 0.0021801752570445249 -0.010866391590374481 0 0.002199349284554251 -0.01007092780685322 0 0.0029456939781311942 -0.0096784130842303556 0 0.0017941236300392247 -0.01149668460834343 0 0.0028745375831270357 -0.010928051605305715 0 0.0029456939781311942 -0.0096784130842303556 0 0.0025736539094562399 -0.012267223657337782 0 0.0028695474516935854 -0.011469361508308852 0 0.00037015352291954937 -0.016231572676111142 0 0.00092775509916861196 -0.014278559670683854 0 0.0028745375831270357 -0.010928051605305715 0 0.0034170496036466788 -0.0099093011153635006 0 0.0037845393001613823 -0.011537469824375741 0 0.0028745375831270357 -0.010928051605305715 0 0.0034170496036466788 -0.0099093011153635006 0 0.0029456939781311942 -0.0096784130842303556 0 -0.0017329577000639144 -0.021175305020316278 0 -0.0014835967835422879 -0.021434640275393182 0 -0.001428605923704145 -0.021060885454484059 0 0.00037015352291954937 -0.016231572676111142 0 0.00080889306156916359 -0.018296917065876928 0 0.0036412785219691892 -0.011478900396665605 0 0.0038369392666518713 -0.012325345406829823 0 0.0046609857884089027 -0.012459153393087346 0 0.0040137173527741319 -0.013182935501246933 0 0.0038369392666518713 -0.012325345406829823 0 0.0046609857884089027 -0.012459153393087346 0 0.003551414534264578 -0.012702028955274931 0 0.0040137173527741319 -0.013182935501246933 0 0.0037845393001613823 -0.011537469824375741 0 0.001159683360232148 -0.013947854220189876 0 0.00092775509916861196 -0.014278559670683854 0 0.003551414534264578 -0.012702028955274931 0 0.0037845393001613823 -0.011537469824375741 0 0.003033209992148009 -0.012297735258815426 0 0.0017941236300392247 -0.01149668460834343 0 0.003033209992148009 -0.012297735258815426 0 0.0022534893029549402 -0.012446174427616974 0 0.0017941236300392247 -0.01149668460834343 0 0.0028745375831270357 -0.010928051605305715 0 0.003033209992148009 -0.012297735258815426 0 0.0028745375831270357 -0.010928051605305715 0 0.0037845393001613823 -0.011537469824375741 0 0.003033209992148009 -0.012297735258815426 0 -0.0012377696592786179 -0.021692742006253467 0 -0.001058084826595725 -0.021499072899636332 0 -0.0014835967835422879 -0.021434640275393182 0 -0.001058084826595725 -0.021499072899636332 0 -0.0014835967835422879 -0.021434640275393182 0 -0.0011441071199772526 -0.021232885401366246 0 -0.0014835967835422879 -0.021434640275393182 0 -0.0011441071199772526 -0.021232885401366246 0 -0.001428605923704145 -0.021060885454484059 0 -0.0011441071199772526 -0.021232885401366246 0 -0.0011676286772285679 -0.020875603919487278 0 -0.00098739017919706787 -0.021043666461053302 0 -0.0011441071199772526 -0.021232885401366246 0 -0.001428605923704145 -0.021060885454484059 0 -0.0011676286772285679 -0.020875603919487278 0 -0.001428605923704145 -0.021060885454484059 0 -0.0014456954874486156 -0.020735555511275094 0 -0.0011676286772285679 -0.020875603919487278 0 -0.0012529551043666679 -0.020636151148159945 0 -0.0014456954874486156 -0.020735555511275094 0 -0.0011676286772285679 -0.020875603919487278 0 -0.0010357887586333748 -0.020538916768033637 0 -0.0012529551043666679 -0.020636151148159945 0 -0.0011676286772285679 -0.020875603919487278 0 -0.0010357887586333748 -0.020538916768033637 0 -0.0011676286772285679 -0.020875603919487278 0 -0.00084086882681298119 -0.020858983098135154 0 -0.00084086882681298119 -0.020858983098135154 0 -0.00098739017919706787 -0.021043666461053302 0 -0.00079806963748833273 -0.021208168623930112 0 -0.0011676286772285679 -0.020875603919487278 0 -0.00084086882681298119 -0.020858983098135154 0 -0.00098739017919706787 -0.021043666461053302 0 -0.00084086882681298119 -0.020858983098135154 0 -0.00056307944747137936 -0.021009890192665262 0 -0.00079806963748833273 -0.021208168623930112 0 -0.00084086882681298119 -0.020858983098135154 0 -0.00058404705986026136 -0.020730751592291066 0 -0.00056307944747137936 -0.021009890192665262 0 -0.00075620517866243383 -0.020570208641994912 0 -0.00084086882681298119 -0.020858983098135154 0 -0.00058404705986026136 -0.020730751592291066 0 -0.00048332396147317226 -0.020994616992599288 0 -0.00037436962788982178 -0.02111725431683403 0 -0.00058404705986026136 -0.020730751592291066 0 -0.00027269512113988365 -0.020915084138684342 0 -0.00056307944747137936 -0.021009890192665262 0 -0.00032971257272847697 -0.020544341887031529 0 -0.00058404705986026136 -0.020730751592291066 0 -0.00035121140691600283 -0.020916651145928999 0 -0.00027269512113988365 -0.020915084138684342 0 -0.00037286219915600365 -0.021326200494965471 0 3.5392296182932383e-05 -0.021113660913062549 0 -0.00027269512113988365 -0.020915084138684342 0 -0.00056307944747137936 -0.021009890192665262 0 -0.00037286219915600365 -0.021326200494965471 0 -0.00056307944747137936 -0.021009890192665262 0 -0.00037286219915600365 -0.021326200494965471 0 -0.00079806963748833273 -0.021208168623930112 0 -0.00037286219915600365 -0.021326200494965471 0 -0.00073157762298487611 -0.02149306689309138 0 -0.00053069058268504128 -0.021709442280551956 0 -0.001058084826595725 -0.021499072899636332 0 -0.00073157762298487611 -0.02149306689309138 0 -0.00079806963748833273 -0.021208168623930112 0 -0.0011441071199772526 -0.021232885401366246 0 -0.00098739017919706787 -0.021043666461053302 0 -0.00079806963748833273 -0.021208168623930112 0 -0.001058084826595725 -0.021499072899636332 0 -0.0011441071199772526 -0.021232885401366246 0 -0.00079806963748833273 -0.021208168623930112 0 -0.00037286219915600365 -0.021326200494965471 0 -0.00073157762298487611 -0.02149306689309138 0 -0.00079806963748833273 -0.021208168623930112 0 0.00042368699351622707 -0.021285439479039162 0 9.5156129320228349e-05 -0.021145869680732503 0 0.00034917786978436757 -0.021580368756053524 0 0.00042368699351622707 -0.021285439479039162 0 0.00044543173410477245 -0.021027258980870083 0 9.5156129320228349e-05 -0.021145869680732503 0 0.00020383424391169104 -0.020789543337809351 0 0.00042474323453223602 -0.020764801490099474 0 0.00044543173410477245 -0.021027258980870083 0 -9.2908633629708542e-05 -0.020714291912891938 0 0.00020383424391169104 -0.020789543337809351 0 9.5156129320228349e-05 -0.021145869680732503 0 0.00020383424391169104 -0.020789543337809351 0 0.00044543173410477245 -0.021027258980870083 0 9.5156129320228349e-05 -0.021145869680732503 0 -9.2908633629708542e-05 -0.020714291912891938 0 -0.00035121140691600283 -0.020916651145928999 0 -0.00012937747165322862 -0.021084604510725666 0 -9.2908633629708542e-05 -0.020714291912891938 0 0.00012724560642882188 -0.020972795254091302 0 -0.00012937747165322862 -0.021084604510725666 0 0.00012724560642882188 -0.020972795254091302 0 -0.00012937747165322862 -0.021084604510725666 0 0.000118206652081476 -0.021273990184462979 0 -0.00016934033680803296 -0.021091663721924257 0 -0.00010621350424654378 -0.021353135169083683 0 -0.00037436962788982178 -0.02111725431683403 0 -0.00020203808409447542 -0.021410738493420456 0 -0.00037286219915600365 -0.021326200494965471 0 3.5392296182932383e-05 -0.021113660913062549 0 7.2633109226839739e-05 -0.021461654263326708 0 -0.00037286219915600365 -0.021326200494965471 0 7.2633109226839739e-05 -0.021461654263326708 0 -0.00016603015961629309 -0.021722468603779303 0 7.2633109226839739e-05 -0.021461654263326708 0 0.00034878584949259167 -0.021318046696491316 0 0.00039625674876623954 -0.021556927435074053 0 7.2633109226839739e-05 -0.021461654263326708 0 0.00039625674876623954 -0.021556927435074053 0 0.00021027208520323822 -0.021735084144635607 0 3.5392296182932383e-05 -0.021113660913062549 0 7.2633109226839739e-05 -0.021461654263326708 0 0.00034878584949259167 -0.021318046696491316 0 -0.00020203808409447542 -0.021410738493420456 0 -5.9418217685924123e-05 -0.021907131899841944 0 -0.00010621350424654378 -0.021353135169083683 0 -4.9814251048947826e-05 -0.022075481067640648 0 0.00012724560642882188 -0.020972795254091302 0 0.000118206652081476 -0.021273990184462979 0 0.00038279543796328528 -0.021282628405751104 0 -5.9418217685924123e-05 -0.021907131899841944 0 7.1230851660215787e-05 -0.022827906852075482 0 0.00034878584949259167 -0.021318046696491316 0 0.00039625674876623954 -0.021556927435074053 0 0.00066828429309433233 -0.021531486240383254 0 0.00039625674876623954 -0.021556927435074053 0 0.00066828429309433233 -0.021531486240383254 0 0.00059698630962774313 -0.021745449445745059 0 0.000118206652081476 -0.021273990184462979 0 0.00040332733070014038 -0.021481384792534388 0 0.00038279543796328528 -0.021282628405751104 0 0.00065186448180060282 -0.021648774132942843 0 0.00040332733070014038 -0.021481384792534388 0 0.00038279543796328528 -0.021282628405751104 0 0.00063118478667360226 -0.021459550636155639 0 0.00042368699351622707 -0.021285439479039162 0 0.00034917786978436757 -0.021580368756053524 0 7.7173522313380292e-05 -0.032923193677825431 0 8.0108049275720629e-05 -0.032885292542402862 0 8.7070415495081176e-05 -0.032877520194602106 0 0.00092784758491867424 -0.021709568712518768 0 0.00066828429309433233 -0.021531486240383254 0 0.00059698630962774313 -0.021745449445745059 0 8.0108049275720629e-05 -0.032885292542402862 0 9.2845006683668182e-05 -0.032856897678314255 0 9.2904102398190652e-05 -0.032848801731207668 0 0.00039625674876623954 -0.021556927435074053 0 0.00059698630962774313 -0.021745449445745059 0 0.00021027208520323822 -0.021735084144635607 0 0.00036086722232500694 -0.026259541027619307 0 0.00014723450376489985 -0.02657267744009837 0 8.0108049275720629e-05 -0.032885292542402862 0 9.2845006683668182e-05 -0.032856897678314255 0 8.7070415495081176e-05 -0.032877520194602106 0 9.2845006683668182e-05 -0.032856897678314255 0 9.2904102398190652e-05 -0.032848801731207668 0 9.8472927604753062e-05 -0.032806951676052 0 7.2633109226839739e-05 -0.021461654263326708 0 0.00021027208520323822 -0.021735084144635607 0 -0.00016603015961629309 -0.021722468603779303 0 0.00014723450376489985 -0.02657267744009837 0 -3.4257469414648151e-05 -0.026472392845723048 0 9.2845006683668182e-05 -0.032856897678314255 0 9.8472927604753062e-05 -0.032806951676052 0 9.9758060024088743e-05 -0.032818472464762313 0 9.749611631850759e-05 -0.032844719145016965 0 9.9758060024088743e-05 -0.032818472464762313 0 0.00010089727907645359 -0.032821297188659712 0 9.2845006683668182e-05 -0.032856897678314255 0 9.749611631850759e-05 -0.032844719145016965 0 9.9758060024088743e-05 -0.032818472464762313 0 0.00010089727907645359 -0.032821297188659712 0 0.00010036410492829412 -0.032822205516609991 0 0.00010215570419734028 -0.032831900740655506 0 9.749611631850759e-05 -0.032844719145016965 0 0.00010089727907645359 -0.032821297188659712 0 0.00010215570419734028 -0.032831900740655506 0 9.749611631850759e-05 -0.032844719145016965 0 9.3423574724520582e-05 -0.032856637172169766 0 0.00010215570419734028 -0.032831900740655506 0 9.3423574724520582e-05 -0.032856637172169766 0 8.9558504034156628e-05 -0.032855336494764492 0 0.00010215570419734028 -0.032831900740655506 0 9.2845006683668182e-05 -0.032856897678314255 0 9.749611631850759e-05 -0.032844719145016965 0 8.7070415495081176e-05 -0.032877520194602106 0 9.749611631850759e-05 -0.032844719145016965 0 8.7070415495081176e-05 -0.032877520194602106 0 9.3423574724520582e-05 -0.032856637172169766 0 8.7070415495081176e-05 -0.032877520194602106 0 9.3423574724520582e-05 -0.032856637172169766 0 8.8413765748716723e-05 -0.032871025326925839 0 8.7070415495081176e-05 -0.032877520194602106 0 8.8413765748716723e-05 -0.032871025326925839 0 8.388669470344679e-05 -0.032885497331682625 0 9.3423574724520582e-05 -0.032856637172169766 0 8.9558504034156628e-05 -0.032855336494764492 0 8.8413765748716723e-05 -0.032871025326925839 0 8.9558504034156628e-05 -0.032855336494764492 0 8.8413765748716723e-05 -0.032871025326925839 0 8.388669470344679e-05 -0.032885497331682625 0 8.9558504034156628e-05 -0.032855336494764492 0 8.388669470344679e-05 -0.032885497331682625 0 7.7418131693725122e-05 -0.032906546113514235 0 -0.00025884479123639681 -0.031319513742923924 0 -0.00039609363483363963 -0.032498089788904456 0 7.7173522313380292e-05 -0.032923193677825431 0 8.7070415495081176e-05 -0.032877520194602106 0 8.388669470344679e-05 -0.032885497331682625 0 7.7173522313380292e-05 -0.032923193677825431 0 8.388669470344679e-05 -0.032885497331682625 0 7.7418131693725122e-05 -0.032906546113514235 0 7.2986069425606928e-05 -0.032764750903008018 0 3.1708277740057266e-05 -0.032747669045354824 0 6.6263703617080533e-05 -0.032791434433803328 0 7.2986069425606928e-05 -0.032764750903008018 0 3.1708277740057266e-05 -0.032747669045354824 0 5.294175321789064e-05 -0.032714984632595132 0 -8.9827881952827534e-06 -0.032677935780168164 0 3.1708277740057266e-05 -0.032747669045354824 0 5.294175321789064e-05 -0.032714984632595132 0 -0.001058084826595725 -0.021499072899636332 0 -0.00073157762298487611 -0.02149306689309138 0 -0.00088517592755150195 -0.021697752222046878 0 7.2986069425606928e-05 -0.032764750903008018 0 5.294175321789064e-05 -0.032714984632595132 0 8.907458955473715e-05 -0.032762652530661428 0 -2.8553736602606634e-05 -0.024598206549021867 0 -0.00016399083420285369 -0.025916219721918432 0 -0.00073157762298487611 -0.02149306689309138 0 -0.00088517592755150195 -0.021697752222046878 0 -0.00053069058268504128 -0.021709442280551956 0 -0.00037286219915600365 -0.021326200494965471 0 -0.00016603015961629309 -0.021722468603779303 0 -0.00053069058268504128 -0.021709442280551956 0 -3.4257469414648151e-05 -0.026472392845723048 0 -0.00016399083420285369 -0.025916219721918432 0 9.8472927604753062e-05 -0.032806951676052 0 8.907458955473715e-05 -0.032762652530661428 0 9.9758060024088743e-05 -0.032818472464762313 0 8.907458955473715e-05 -0.032762652530661428 0 9.9758060024088743e-05 -0.032818472464762313 0 9.0425685342069217e-05 -0.032796661146351984 0 7.2986069425606928e-05 -0.032764750903008018 0 8.907458955473715e-05 -0.032762652530661428 0 9.0425685342069217e-05 -0.032796661146351984 0 9.9758060024088743e-05 -0.032818472464762313 0 9.0425685342069217e-05 -0.032796661146351984 0 0.00010089727907645359 -0.032821297188659712 0 0.00010089727907645359 -0.032821297188659712 0 8.9337411187896871e-05 -0.032814397586887221 0 0.00010036410492829412 -0.032822205516609991 0 9.0425685342069217e-05 -0.032796661146351984 0 0.00010089727907645359 -0.032821297188659712 0 8.9337411187896871e-05 -0.032814397586887221 0 0.0026176162405179538 -0.026766568956045074 0 0.0025588270879521938 -0.026190837900917918 0 0.0044681369290274645 -0.021549091925052583 0 0.0039824913473565987 -0.021115547719663133 0 0.0041015706808655355 -0.021756910791140276 0 7.2986069425606928e-05 -0.032764750903008018 0 9.0425685342069217e-05 -0.032796661146351984 0 6.6263703617080533e-05 -0.032791434433803328 0 9.0425685342069217e-05 -0.032796661146351984 0 8.9337411187896871e-05 -0.032814397586887221 0 6.6263703617080533e-05 -0.032791434433803328 0 0.0035857359357379642 -0.020862717169268557 0 0.0039824913473565987 -0.021115547719663133 0 0.0035594290385101614 -0.021156674493304932 0 0.0024652276593650152 -0.024983584216796244 0 0.0025588270879521938 -0.026190837900917918 0 0.0039824913473565987 -0.021115547719663133 0 0.0037153289883874951 -0.021540335610220427 0 0.0041015706808655355 -0.021756910791140276 0 0.0039824913473565987 -0.021115547719663133 0 0.0035594290385101614 -0.021156674493304932 0 0.0037153289883874951 -0.021540335610220427 0 0.0037153289883874951 -0.021540335610220427 0 0.0038532405233727665 -0.021964363534843784 0 0.0035055739735728769 -0.02214634403732078 0 0.0037153289883874951 -0.021540335610220427 0 0.0038532405233727665 -0.021964363534843784 0 0.0041015706808655355 -0.021756910791140276 0 0.003360610903998773 -0.02144707014080954 0 0.0035006487551085251 -0.021674318066298961 0 0.0033508346860421237 -0.021531748740393743 0 0.0035055739735728769 -0.02214634403732078 0 0.003892427632915169 -0.022368268455593917 0 0.0038746077371809066 -0.023046038234048914 0 0.0035840535119102067 -0.021854556938900548 0 0.0038911533159079479 -0.022290851075408256 0 0.0038532405233727665 -0.021964363534843784 0 0.0035055739735728769 -0.02214634403732078 0 0.003892427632915169 -0.022368268455593917 0 0.0038532405233727665 -0.021964363534843784 0 0.003892427632915169 -0.022368268455593917 0 0.0041150024666586063 -0.022130727753736725 0 0.0044670399966296459 -0.022613546197069144 0 0.0041035303217963484 -0.022595993805040238 0 0.0041150024666586063 -0.022130727753736725 0 0.003892427632915169 -0.022368268455593917 0 0.0041035303217963484 -0.022595993805040238 0 0.0041150024666586063 -0.022130727753736725 0 0.0044681369290274645 -0.021549091925052583 0 0.0041015706808655355 -0.021756910791140276 0 0.0044504292384117345 -0.022159600477024543 0 0.0041150024666586063 -0.022130727753736725 0 0.0041015706808655355 -0.021756910791140276 0 0.0044504292384117345 -0.022159600477024543 0 0.0038532405233727665 -0.021964363534843784 0 0.0041150024666586063 -0.022130727753736725 0 0.0041015706808655355 -0.021756910791140276 0 8.9337411187896871e-05 -0.032814397586887221 0 0.00010036410492829412 -0.032822205516609991 0 0.0001019127112042822 -0.032820100124795533 0 0.0027493447715739908 -0.027068712546097939 0 0.0037369002386726984 -0.026282727927042549 0 0.0026176162405179538 -0.026766568956045074 0 0.0027493447715739908 -0.027068712546097939 0 0.0044681369290274645 -0.021549091925052583 0 0.0049346528086151448 -0.022030735201121289 0 0.0044504292384117345 -0.022159600477024543 0 0.00010036410492829412 -0.032822205516609991 0 0.0001019127112042822 -0.032820100124795533 0 0.00010215570419734028 -0.032831900740655506 0 0.0048687790205035556 -0.022073630936461225 0 0.0046955539885387429 -0.022309787493707992 0 0.0052641524790122485 -0.02249974920818526 0 0.0038019619540652309 -0.025358161218553596 0 0.0028947142330152022 -0.027534575726372242 0 0.0027493447715739908 -0.027068712546097939 0 0.0028947142330152022 -0.027534575726372242 0 0.0049220229489209382 -0.022353877649650827 0 0.0053095653680298917 -0.022667288892746978 0 0.005748501702662512 -0.022610379376278637 0 0.0049220229489209382 -0.022353877649650827 0 0.004898688531094317 -0.02277691655261449 0 0.0053095653680298917 -0.022667288892746978 0 0.0044670399966296459 -0.022613546197069144 0 0.0041150024666586063 -0.022130727753736725 0 0.0049220229489209382 -0.022353877649650827 0 0.0041150024666586063 -0.022130727753736725 0 0.0044504292384117345 -0.022159600477024543 0 0.0046955539885387429 -0.022309787493707992 0 0.0048687790205035556 -0.022073630936461225 0 0.0044504292384117345 -0.022159600477024543 0 0.0046955539885387429 -0.022309787493707992 0 0.0038211897205469338 -0.024724396317717008 0 0.0038019619540652309 -0.025358161218553596 0 0.0044670399966296459 -0.022613546197069144 0 0.0049220229489209382 -0.022353877649650827 0 0.004898688531094317 -0.02277691655261449 0 0.0044670399966296459 -0.022613546197069144 0 0.004898688531094317 -0.02277691655261449 0 0.0045878927877296399 -0.022957499120234277 0 0.004898688531094317 -0.02277691655261449 0 0.0048101435692428137 -0.023126610068001686 0 0.0045878927877296399 -0.022957499120234277 0 0.004898688531094317 -0.02277691655261449 0 0.0048101435692428137 -0.023126610068001686 0 0.0052462654359361222 -0.023082833810786102 0 0.0048101435692428137 -0.023126610068001686 0 0.0045878927877296399 -0.022957499120234277 0 0.0045832911765955027 -0.023304586222084808 0 0.0048070651452296193 -0.023624342529830089 0 0.0047562855593918868 -0.023693740182419581 0 0.0047691216776116251 -0.023612657234998901 0 0.0046778542869140563 -0.025130776909038085 0 0.0028947142330152022 -0.027534575726372242 0 0.0053095653680298917 -0.022667288892746978 0 0.0052462654359361222 -0.023082833810786102 0 0.005748501702662512 -0.022610379376278637 0 0.004898688531094317 -0.02277691655261449 0 0.0053095653680298917 -0.022667288892746978 0 0.0052462654359361222 -0.023082833810786102 0 0.0049575041817593703 -0.023694161721559925 0 0.004788578728083164 -0.023610942382402102 0 0.0050650632279700724 -0.0236378996830473 0 0.0048070651452296193 -0.023624342529830089 0 0.004788578728083164 -0.023610942382402102 0 0.0047691216776116251 -0.023612657234998901 0 0.0047301575482235772 -0.026078219961046228 0 0.004370071173066291 -0.026557935889123141 0 0.0049575041817593703 -0.023694161721559925 0 0.004788578728083164 -0.023610942382402102 0 0.0048224344965273587 -0.023724154171322561 0 0.0045878927877296399 -0.022957499120234277 0 0.0045832911765955027 -0.023304586222084808 0 0.0043057733423896658 -0.023305513857992111 0 0.0048101435692428137 -0.023126610068001686 0 0.0045832911765955027 -0.023304586222084808 0 0.0047123512328181068 -0.023584203397407466 0 0.0048070651452296193 -0.023624342529830089 0 0.004788578728083164 -0.023610942382402102 0 0.0047123512328181068 -0.023584203397407466 0 0.0048101435692428137 -0.023126610068001686 0 0.0052462654359361222 -0.023082833810786102 0 0.0047123512328181068 -0.023584203397407466 0 0.0046778542869140563 -0.025130776909038085 0 0.0049608572273227049 -0.024644338343422827 0 0.004788578728083164 -0.023610942382402102 0 0.0047091961151610818 -0.023702800278769569 0 0.0048224344965273587 -0.023724154171322561 0 0.004788578728083164 -0.023610942382402102 0 0.0047123512328181068 -0.023584203397407466 0 0.0047091961151610818 -0.023702800278769569 0 0.0047123512328181068 -0.023584203397407466 0 0.0045383843506597264 -0.023564235015502685 0 0.0047091961151610818 -0.023702800278769569 0 0.0045832911765955027 -0.023304586222084808 0 0.0047123512328181068 -0.023584203397407466 0 0.0045383843506597264 -0.023564235015502685 0 0.0038911533159079479 -0.022290851075408256 0 0.0043651230402687469 -0.022750087307598303 0 0.0045383843506597264 -0.023564235015502685 0 0.0043057733423896658 -0.023305513857992111 0 0.0043444917178429437 -0.023861043474942254 0 0.0043057733423896658 -0.023305513857992111 0 0.0038746077371809066 -0.023046038234048914 0 0.0043444917178429437 -0.023861043474942254 0 0.0035006487551085251 -0.021674318066298961 0 0.0034627454300461408 -0.021906131511391723 0 0.0036430291563579842 -0.02194528316487309 0 0.0045832911765955027 -0.023304586222084808 0 0.0045383843506597264 -0.023564235015502685 0 0.0043057733423896658 -0.023305513857992111 0 0.0033930533077676647 -0.021785400926224878 0 0.0035006487551085251 -0.021674318066298961 0 0.0033208465869525848 -0.021694853523601853 0 0.0033930533077676647 -0.021785400926224878 0 0.0035006487551085251 -0.021674318066298961 0 0.0034627454300461408 -0.021906131511391723 0 0.0033930533077676647 -0.021785400926224878 0 0.0034627454300461408 -0.021906131511391723 0 0.0032885978658731023 -0.021867566415587871 0 0.0035006487551085251 -0.021674318066298961 0 0.0033208465869525848 -0.021694853523601853 0 0.0033508346860421237 -0.021531748740393743 0 0.003892427632915169 -0.022368268455593917 0 0.0041035303217963484 -0.022595993805040238 0 0.0038746077371809066 -0.023046038234048914 0 0.0041035303217963484 -0.022595993805040238 0 0.0038746077371809066 -0.023046038234048914 0 0.0042384119785846327 -0.022924200221050822 0 0.0044670399966296459 -0.022613546197069144 0 0.0045878927877296399 -0.022957499120234277 0 0.0042384119785846327 -0.022924200221050822 0 0.0044670399966296459 -0.022613546197069144 0 0.0041035303217963484 -0.022595993805040238 0 0.0042384119785846327 -0.022924200221050822 0 0.0045878927877296399 -0.022957499120234277 0 0.0043057733423896658 -0.023305513857992111 0 0.0042384119785846327 -0.022924200221050822 0 0.0043057733423896658 -0.023305513857992111 0 0.0038746077371809066 -0.023046038234048914 0 0.0042384119785846327 -0.022924200221050822 0 -0.00070292608240368618 -0.034417842884248054 0 -0.00076946532845689091 -0.034328578045420687 0 -0.00077959755044084312 -0.034450274686935824 0 -0.00059942984916453921 -0.034472471177349633 0 -0.00068668115015049639 -0.034508226280125627 0 -0.00070292608240368618 -0.034417842884248054 0 -0.00068668115015049639 -0.034508226280125627 0 -0.00070292608240368618 -0.034417842884248054 0 -0.00077959755044084312 -0.034450274686935824 0 -0.00059970744907278026 -0.034316025048403649 0 -0.00070292608240368618 -0.034417842884248054 0 -0.00076946532845689091 -0.034328578045420687 0 -0.00059970744907278026 -0.034316025048403649 0 -0.00066828577759484671 -0.034171094355499802 0 -0.00076946532845689091 -0.034328578045420687 0 -0.0008474297406496703 -0.034255091934219974 0 -0.00066828577759484671 -0.034171094355499802 0 -0.00076946532845689091 -0.034328578045420687 0 -0.00076946532845689091 -0.034328578045420687 0 -0.00085020308748570683 -0.034321501523366424 0 -0.00086787949187311147 -0.034359890154699202 0 -0.0008474297406496703 -0.034255091934219974 0 -0.00085020308748570683 -0.034321501523366424 0 -0.00086390767242479339 -0.034346376051817951 0 -0.0008474297406496703 -0.034255091934219974 0 -0.00076946532845689091 -0.034328578045420687 0 -0.00085020308748570683 -0.034321501523366424 0 -0.00076946532845689091 -0.034328578045420687 0 -0.00086787949187311147 -0.034359890154699202 0 -0.00077959755044084312 -0.034450274686935824 0 -0.00086787949187311147 -0.034359890154699202 0 -0.00077959755044084312 -0.034450274686935824 0 -0.00092292615300449299 -0.03451426478684895 0 0.00061793507511987734 -0.03178989286904918 0 0.0012017277845513025 -0.030242560558030211 0 -0.00085505350329056606 -0.03432337080325653 0 -0.00078158048996702716 -0.034290875347022902 0 -0.00087108198800966269 -0.034282538994733568 0 -0.00086787949187311147 -0.034359890154699202 0 -0.00085505350329056606 -0.03432337080325653 0 -0.00087108198800966269 -0.034282538994733568 0 -0.00085505350329056606 -0.03432337080325653 0 -0.00086390767242479339 -0.034346376051817951 0 -0.00078158048996702716 -0.034290875347022902 0 -0.00086787949187311147 -0.034359890154699202 0 -0.00085505350329056606 -0.03432337080325653 0 -0.00086390767242479339 -0.034346376051817951 0 -0.00025884479123639681 -0.031319513742923924 0 0.00075768887708139543 -0.029750524352538669 0 -0.00010331232656587164 -0.030006101729090517 0 0.00089237746510652911 -0.029065035254702436 0 0.001434353299310405 -0.029567624374737197 0 -0.00025884479123639681 -0.031319513742923924 0 0.0004374250775487829 -0.030451255077345349 0 -0.00085020308748570683 -0.034321501523366424 0 -0.00086787949187311147 -0.034359890154699202 0 -0.00086390767242479339 -0.034346376051817951 0 0.0027493447715739908 -0.027068712546097939 0 0.00075768887708139543 -0.029750524352538669 0 0.00089237746510652911 -0.029065035254702436 0 0.001434353299310405 -0.029567624374737197 0 0.0018345992672757943 -0.028811374914792531 0 0.0029613477935119424 -0.029131720342231333 0 0.001434353299310405 -0.029567624374737197 0 0.0018345992672757943 -0.028811374914792531 0 0.0004374250775487829 -0.030451255077345349 0 0.0028947142330152022 -0.027534575726372242 0 0.00089237746510652911 -0.029065035254702436 0 0.0018345992672757943 -0.028811374914792531 0 0.0019285970747131673 -0.028090214858589153 0 0.0029613477935119424 -0.029131720342231333 0 0.0018345992672757943 -0.028811374914792531 0 0.0019285970747131673 -0.028090214858589153 0 0.0028947142330152022 -0.027534575726372242 0 0.0025278181610074841 -0.028277452390771323 0 0.0047562855593918868 -0.023693740182419581 0 0.0047691216776116251 -0.023612657234998901 0 0.0046887055206605308 -0.023637115365008177 0 0.0020282989210905576 -0.028136155506442728 0 0.0030120572698244326 -0.029134443310678229 0 0.0027244540574938515 -0.028581484792906574 0 0.004370071173066291 -0.026557935889123141 0 0.0025278181610074841 -0.028277452390771323 0 0.0050650632279700724 -0.0236378996830473 0 0.005026027377219645 -0.023716891857626463 0 0.0050448077258253383 -0.023683279718416893 0 0.0049575041817593703 -0.023694161721559925 0 0.0050650632279700724 -0.0236378996830473 0 0.0050978016797161175 -0.023685081133273726 0 0.0050650632279700724 -0.0236378996830473 0 0.0050978016797161175 -0.023685081133273726 0 0.0050448077258253383 -0.023683279718416893 0 0.0050978016797161175 -0.023685081133273726 0 0.0050448077258253383 -0.023683279718416893 0 0.004998904994586697 -0.023629161175254251 0 0.0050448077258253383 -0.023683279718416893 0 0.0050187088091446994 -0.023713295414262644 0 0.004998904994586697 -0.023629161175254251 0 0.002309158167488196 -0.029232578466659734 0 0.0023671661203475834 -0.02929333979508136 0 0.002286997150178543 -0.029304079611516393 0 0.0023619766455037945 -0.028395925361976951 0 0.002983806432760213 -0.028341166237248715 0 0.005026027377219645 -0.023716891857626463 0 0.0050448077258253383 -0.023683279718416893 0 0.0050187088091446994 -0.023713295414262644 0 0.0016670856186131366 -0.030763520306765133 0 0.0016548610337380203 -0.030801194814136772 0 0.0014128925287572797 -0.030511354625067856 0 0.0023619766455037945 -0.028395925361976951 0 0.002198771311748584 -0.028591724084639201 0 0.0013054688948745436 -0.027381963963941918 0 0.0029928486184507461 -0.02908775294510323 0 0.0037028997985120433 -0.026899113336565757 0 0.0025278181610074841 -0.028277452390771323 0 0.002198771311748584 -0.028591724084639201 0 0.0025278181610074841 -0.028277452390771323 0 0.0023619766455037945 -0.028395925361976951 0 0.002198771311748584 -0.028591724084639201 0 0.0012017277845513025 -0.030242560558030211 0 0.0031475174901448725 -0.029107310817719237 0 0.0027244540574938515 -0.028581484792906574 0 0.0033663193268033695 -0.028431093238425818 0 0.0020282989210905576 -0.028136155506442728 0 0.0027244540574938515 -0.028581484792906574 0 0.0033663193268033695 -0.028431093238425818 0 0.0028947142330152022 -0.027534575726372242 0 0.0012017277845513025 -0.030242560558030211 0 0.0030120572698244326 -0.029134443310678229 0 0.0031475174901448725 -0.029107310817719237 0 0.0027244540574938515 -0.028581484792906574 0 0.002198771311748584 -0.028591724084639201 0 0.00048988831333437522 -0.030983253494062443 0 0.0012017277845513025 -0.030242560558030211 0 0.00048988831333437522 -0.030983253494062443 0 0.00084719015859050775 -0.03025284504839797 0 0.00088802154486171826 -0.030125875172741203 0 0.001150035773886618 -0.030196594130679957 0 -0.00077959755044084312 -0.034450274686935824 0 -0.00092292615300449299 -0.03451426478684895 0 -0.00072103763085169369 -0.034594183814899121 0 0.0016548610337380203 -0.030801194814136772 0 0.001160902367095751 -0.030907676015250702 0 0.0014128925287572797 -0.030511354625067856 0 0.0023619766455037945 -0.028395925361976951 0 0.0021026843354953039 -0.029971127345415353 0 0.0010388928192205098 -0.030574456879867734 0 0.001160902367095751 -0.030907676015250702 0 0.0014128925287572797 -0.030511354625067856 0 0.00010450620476117022 -0.031291583353563794 0 0.00048988831333437522 -0.030983253494062443 0 -0.00068668115015049639 -0.034508226280125627 0 -0.00077959755044084312 -0.034450274686935824 0 -0.00072103763085169369 -0.034594183814899121 0 -0.00061579067257948815 -0.03460563868625554 0 -0.00068668115015049639 -0.034508226280125627 0 -0.00072103763085169369 -0.034594183814899121 0 0.0006833670932673571 -0.034533890865686583 0 0.00097835069785372273 -0.034606249946290295 0 0.00083453843318130713 -0.034781359014805016 0 0.00097835069785372273 -0.034606249946290295 0 0.00083453843318130713 -0.034781359014805016 0 0.00108618588909756 -0.034790800942462362 0 0.00075669250950310377 -0.035029245261953695 0 0.00083453843318130713 -0.034781359014805016 0 0.0010347263966091914 -0.034948006493177919 0 0.00075669250950310377 -0.035029245261953695 0 0.0010347263966091914 -0.034948006493177919 0 0.0011104939793383699 -0.035023057070713223 0 0.0010294033915392204 -0.031293946215714283 0 0.0021026843354953039 -0.029971127345415353 0 0.00083453843318130713 -0.034781359014805016 0 0.0010347263966091914 -0.034948006493177919 0 0.00108618588909756 -0.034790800942462362 0 0.0010347263966091914 -0.034948006493177919 0 0.0012190557789998014 -0.034931945236380046 0 0.00108618588909756 -0.034790800942462362 0 0.0010347263966091914 -0.034948006493177919 0 0.0011320156812618782 -0.035059123004251999 0 0.0012190557789998014 -0.034931945236380046 0 0.0021902229765907925 -0.030173238370300823 0 0.0021026843354953039 -0.029971127345415353 0 0.0012190557789998014 -0.034931945236380046 0 0.00108618588909756 -0.034790800942462362 0 0.0013076274396339831 -0.03483393014908169 0 0.00108618588909756 -0.034790800942462362 0 0.0012118500441370239 -0.034653481457964944 0 0.0013076274396339831 -0.03483393014908169 0 0.00097835069785372273 -0.034606249946290295 0 0.00108618588909756 -0.034790800942462362 0 0.0012118500441370239 -0.034653481457964944 0 0.00097835069785372273 -0.034606249946290295 0 0.0012118500441370239 -0.034653481457964944 0 0.0012279838364182944 -0.034457878875043174 0 0.0012118500441370239 -0.034653481457964944 0 0.0013076274396339831 -0.03483393014908169 0 0.0017496329077916453 -0.034601127333685686 0 0.0013076274396339831 -0.03483393014908169 0 0.0015257622172105019 -0.035022741324923529 0 0.0017496329077916453 -0.034601127333685686 0 0.0011320156812618782 -0.035059123004251999 0 0.0012190557789998014 -0.034931945236380046 0 0.0015257622172105019 -0.035022741324923529 0 0.0021026843354953039 -0.029971127345415353 0 0.002983806432760213 -0.028341166237248715 0 0.0012190557789998014 -0.034931945236380046 0 0.0013076274396339831 -0.03483393014908169 0 0.0015257622172105019 -0.035022741324923529 0 0.0050978016797161175 -0.023685081133273726 0 0.004998904994586697 -0.023629161175254251 0 0.0052017069699503661 -0.023531611215237083 0 0.0062136305087118733 -0.02340065971997048 0 0.0059331468863643372 -0.023435688975048205 0 0.0060861818484605089 -0.023852996962806423 0 0.002983806432760213 -0.028341166237248715 0 0.004700367968184376 -0.026979197586590082 0 0.0059331468863643372 -0.023435688975048205 0 0.0060861818484605089 -0.023852996962806423 0 0.0058352836591271523 -0.023701284835097172 0 0.002983806432760213 -0.028341166237248715 0 0.0035430919988911238 -0.028946569364528517 0 0.0035430919988911238 -0.028946569364528517 0 0.0039567987345363312 -0.029028412665630277 0 0.0060861818484605089 -0.023852996962806423 0 0.005995755637830045 -0.024335352327237977 0 0.0057092158100911427 -0.023963304004042101 0 0.0017496329077916453 -0.034601127333685686 0 0.002143418242835626 -0.034098131176107001 0 0.0015496996083341581 -0.03413695529578905 0 0.002143418242835626 -0.034098131176107001 0 0.0015496996083341581 -0.03413695529578905 0 0.0014714905926343517 -0.033609058723325223 0 0.0015496996083341581 -0.03413695529578905 0 0.00084876484104833645 -0.033794223855425604 0 0.0014714905926343517 -0.033609058723325223 0 0.0012118500441370239 -0.034653481457964944 0 0.0017496329077916453 -0.034601127333685686 0 0.0012279838364182944 -0.034457878875043174 0 0.0017496329077916453 -0.034601127333685686 0 0.0015496996083341581 -0.03413695529578905 0 0.0012279838364182944 -0.034457878875043174 0 0.00097835069785372273 -0.034606249946290295 0 0.0012279838364182944 -0.034457878875043174 0 0.00089041261484901842 -0.034385196383312687 0 0.0010548991572140486 -0.034195543574078315 0 0.00092478928421353386 -0.033956021932330577 0 0.0012279838364182944 -0.034457878875043174 0 0.00089041261484901842 -0.034385196383312687 0 0.00094712873211402521 -0.034102262755028825 0 0.0015496996083341581 -0.03413695529578905 0 0.0012279838364182944 -0.034457878875043174 0 0.00084876484104833645 -0.033794223855425604 0 0.00065044941882771393 -0.034246146692962984 0 0.00094712873211402521 -0.034102262755028825 0 0.00063710542215938092 -0.034031219357336481 0 0.00065044941882771393 -0.034246146692962984 0 0.00089041261484901842 -0.034385196383312687 0 0.00094712873211402521 -0.034102262755028825 0 0.0006833670932673571 -0.034533890865686583 0 0.00097835069785372273 -0.034606249946290295 0 0.00089041261484901842 -0.034385196383312687 0 0.0006833670932673571 -0.034533890865686583 0 0.00065044941882771393 -0.034246146692962984 0 0.00089041261484901842 -0.034385196383312687 0 0.005198801505098479 -0.023580215709254292 0 0.0053802142793515691 -0.023679637088517603 0 0.0051539348377413622 -0.023865335582655845 0 0.005198801505098479 -0.023580215709254292 0 0.004845334715496738 -0.023708375859621822 0 0.0051539348377413622 -0.023865335582655845 0 0.0045582622196713154 -0.023312374721549584 0 0.0048170693462445688 -0.02348171066965336 0 0.0047553636067504063 -0.023190911667766073 0 0.0045582622196713154 -0.023312374721549584 0 0.0044749388985380126 -0.02291722130761828 0 0.0043804370185349124 -0.022951483641314524 0 0.0044194135937844423 -0.022897559347771389 0 0.0043804370185349124 -0.022951483641314524 0 0.0044194135937844423 -0.022897559347771389 0 0.0043756030905954318 -0.022890736828767497 0 0.0044194135937844423 -0.022897559347771389 0 0.0044131954411835515 -0.022848372222681552 0 0.0044638790932473747 -0.022886563718275431 0 0.0043756030905954318 -0.022890736828767497 0 0.0044131954411835515 -0.022848372222681552 0 0.0043403034468679942 -0.022832840746295949 0 0.004040075254770641 -0.022496539776608079 0 0.0038368168835753403 -0.022291166378872004 0 0.0044194135937844423 -0.022897559347771389 0 0.0043756030905954318 -0.022890736828767497 0 0.0044131954411835515 -0.022848372222681552 0 0.0044131954411835515 -0.022848372222681552 0 0.0044638790932473747 -0.022886563718275431 0 0.004487232031081023 -0.022863983831643241 0 0.004040075254770641 -0.022496539776608079 0 0.0043651230402687469 -0.022750087307598303 0 0.0044749388985380126 -0.02291722130761828 0 0.0044194135937844423 -0.022897559347771389 0 0.0044638790932473747 -0.022886563718275431 0 0.0044749388985380126 -0.02291722130761828 0 0.0044638790932473747 -0.022886563718275431 0 0.004496263146146786 -0.022881537289171448 0 0.0044638790932473747 -0.022886563718275431 0 0.004496263146146786 -0.022881537289171448 0 0.004487232031081023 -0.022863983831643241 0 0.0043677212145633625 -0.022754299983351954 0 0.0043651230402687469 -0.022750087307598303 0 0.0043444917178429437 -0.023861043474942254 0 0.0047091961151610818 -0.023702800278769569 0 0.0048004234132426552 -0.023868656939926083 0 0.004496263146146786 -0.022881537289171448 0 0.004487319463063741 -0.022863916289919142 0 0.0045720049801012521 -0.022882590331978835 0 0.0044749388985380126 -0.02291722130761828 0 0.004496263146146786 -0.022881537289171448 0 0.0045720049801012521 -0.022882590331978835 0 0.0047553636067504063 -0.023190911667766073 0 0.0048290047075990198 -0.023076265500041777 0 0.0043651230402687469 -0.022750087307598303 0 0.0048290047075990198 -0.023076265500041777 0 0.0045383843506597264 -0.023564235015502685 0 0.0043444917178429437 -0.023861043474942254 0 0.0047091961151610818 -0.023702800278769569 0 0.0047091961151610818 -0.023702800278769569 0 0.0048004234132426552 -0.023868656939926083 0 0.0048224344965273587 -0.023724154171322561 0 0.0055807253346744617 -0.023471694277846962 0 0.0055986906711622073 -0.023558574350516108 0 0.0053802142793515691 -0.023679637088517603 0 0.0056343622064935405 -0.023487741084893224 0 0.0055807253346744617 -0.023471694277846962 0 0.0055986906711622073 -0.023558574350516108 0 0.0048353162323560243 -0.023078052433582585 0 0.0048290047075990198 -0.023076265500041777 0 0.0059331468863643372 -0.023435688975048205 0 0.0055954471428572208 -0.023479979587218036 0 0.0057125001418536579 -0.023579106372228285 0 0.0050978016797161175 -0.023685081133273726 0 0.0052017069699503661 -0.023531611215237083 0 0.0055954471428572208 -0.023479979587218036 0 0.0050978016797161175 -0.023685081133273726 0 0.0056343622064935405 -0.023487741084893224 0 0.0055954471428572208 -0.023479979587218036 0 0.0049575041817593703 -0.023694161721559925 0 0.0050978016797161175 -0.023685081133273726 0 0.0048004234132426552 -0.023868656939926083 0 0.0050978016797161175 -0.023685081133273726 0 0.0056343622064935405 -0.023487741084893224 0 0.0056838455965559122 -0.02349989580903275 0 0.004700367968184376 -0.026979197586590082 0 0.0051163446589013927 -0.026574561601738524 0 0.0049333743097882965 -0.023214840693303072 0 0.0048290047075990198 -0.023076265500041777 0 0.0049575041817593703 -0.023694161721559925 0 0.0048004234132426552 -0.023868656939926083 0 0.0048224344965273587 -0.023724154171322561 0 0.0056343622064935405 -0.023487741084893224 0 0.0055986906711622073 -0.023558574350516108 0 0.0055954471428572208 -0.023479979587218036 0 0.0055986906711622073 -0.023558574350516108 0 0.0055954471428572208 -0.023479979587218036 0 0.0057125001418536579 -0.023579106372228285 0 0.0059331468863643372 -0.023435688975048205 0 0.0057125001418536579 -0.023579106372228285 0 0.0058352836591271523 -0.023701284835097172 0 0.0060861818484605089 -0.023852996962806423 0 0.0058352836591271523 -0.023701284835097172 0 0.0057092158100911427 -0.023963304004042101 0 0.0057125001418536579 -0.023579106372228285 0 0.0058352836591271523 -0.023701284835097172 0 0.0056419037959723065 -0.023700367301020524 0 0.0055986906711622073 -0.023558574350516108 0 0.0057125001418536579 -0.023579106372228285 0 0.0056419037959723065 -0.023700367301020524 0 0.0056419037959723065 -0.023700367301020524 0 0.0055356899517294616 -0.023823336967105972 0 0.0057092158100911427 -0.023963304004042101 0 0.0058352836591271523 -0.023701284835097172 0 0.0056419037959723065 -0.023700367301020524 0 0.0057092158100911427 -0.023963304004042101 0 0.005198801505098479 -0.023580215709254292 0 0.0055807253346744617 -0.023471694277846962 0 0.0053802142793515691 -0.023679637088517603 0 0.0053802142793515691 -0.023679637088517603 0 0.0055356899517294616 -0.023823336967105972 0 0.0053875703057631686 -0.023972195877711596 0 0.0055986906711622073 -0.023558574350516108 0 0.0056419037959723065 -0.023700367301020524 0 0.0053802142793515691 -0.023679637088517603 0 0.0056419037959723065 -0.023700367301020524 0 0.0053802142793515691 -0.023679637088517603 0 0.0055356899517294616 -0.023823336967105972 0 0.0055356899517294616 -0.023823336967105972 0 0.0053875703057631686 -0.023972195877711596 0 0.0057092158100911427 -0.023963304004042101 0 0.0053875703057631686 -0.023972195877711596 0 0.0057092158100911427 -0.023963304004042101 0 0.0054447878698226319 -0.024347947775351986 0 0.005995755637830045 -0.024335352327237977 0 0.0057092158100911427 -0.023963304004042101 0 0.0054447878698226319 -0.024347947775351986 0 0.0054447878698226319 -0.024347947775351986 0 0.0050924113753280887 -0.024202624547322416 0 0.0048913963426331399 -0.02467011844691468 0 0.0053875703057631686 -0.023972195877711596 0 0.0054447878698226319 -0.024347947775351986 0 0.0050924113753280887 -0.024202624547322416 0 0.0053802142793515691 -0.023679637088517603 0 0.0053875703057631686 -0.023972195877711596 0 0.0051539348377413622 -0.023865335582655845 0 0.0053875703057631686 -0.023972195877711596 0 0.0050924113753280887 -0.024202624547322416 0 0.0051539348377413622 -0.023865335582655845 0 0.0047681346251786331 -0.02361297503481985 0 0.004838526106813814 -0.024013031395618504 0 0.0046283155575758831 -0.023844921718635177 0 0.0050924113753280887 -0.024202624547322416 0 0.0051539348377413622 -0.023865335582655845 0 0.004838526106813814 -0.024013031395618504 0 0.0047681346251786331 -0.02361297503481985 0 0.0051539348377413622 -0.023865335582655845 0 0.004838526106813814 -0.024013031395618504 0 0.0048419536877226691 -0.024285643297401974 0 0.004550255768672018 -0.02425303565572394 0 0.0048913963426331399 -0.02467011844691468 0 0.0050924113753280887 -0.024202624547322416 0 0.0048419536877226691 -0.024285643297401974 0 0.0048913963426331399 -0.02467011844691468 0 0.004838526106813814 -0.024013031395618504 0 0.0048419536877226691 -0.024285643297401974 0 0.004550255768672018 -0.02425303565572394 0 0.0050924113753280887 -0.024202624547322416 0 0.004838526106813814 -0.024013031395618504 0 0.0048419536877226691 -0.024285643297401974 0 0.004269429239239471 -0.024258313711434255 0 0.0038245969637597976 -0.024336481662763088 0 0.003757435870277557 -0.024106990162881384 0 0.004269429239239471 -0.024258313711434255 0 0.0038245969637597976 -0.024336481662763088 0 0.0040501775379878481 -0.024494528941160301 0 0.004269429239239471 -0.024258313711434255 0 0.003757435870277557 -0.024106990162881384 0 0.0038081759344644516 -0.023827880886000269 0 0.0041597532839527749 -0.023510938972311331 0 0.0044511330829698059 -0.02385497708277123 0 0.0042032174177509957 -0.023167824635493998 0 0.0043870006412570156 -0.024219301158277813 0 0.003873904833030687 -0.023694978590967107 0 0.004550255768672018 -0.02425303565572394 0 0.0040375620921298816 -0.023700290974459224 0 0.0041958233720274293 -0.023742676674381475 0 0.0039748891897252647 -0.023658851923247851 0 0.0041597532839527749 -0.023510938972311331 0 0.0039618664978803937 -0.023257546931077365 0 0.0039748891897252647 -0.023658851923247851 0 0.0041597532839527749 -0.023510938972311331 0 0.0041958233720274293 -0.023742676674381475 0 0.003873904833030687 -0.023694978590967107 0 0.0038890747461757624 -0.02369794377885389 0 0.0041597532839527749 -0.023510938972311331 0 0.0041958233720274293 -0.023742676674381475 0 0.0044511330829698059 -0.02385497708277123 0 0.0046283155575758831 -0.023844921718635177 0 0.0044511330829698059 -0.02385497708277123 0 0.004510095525415962 -0.023696407636704966 0 0.004550255768672018 -0.02425303565572394 0 0.0041958233720274293 -0.023742676674381475 0 0.0044511330829698059 -0.02385497708277123 0 0.004838526106813814 -0.024013031395618504 0 0.004550255768672018 -0.02425303565572394 0 0.0046283155575758831 -0.023844921718635177 0 0.004550255768672018 -0.02425303565572394 0 0.0046283155575758831 -0.023844921718635177 0 0.0044511330829698059 -0.02385497708277123 0 0.0042419514464005839 -0.024104742134712066 0 0.0034929505239907109 -0.023713118867639726 0 0.0036947429072719195 -0.024161485253955513 0 0.0038991091328389243 -0.024393380462051025 0 0.0042419514464005839 -0.024104742134712066 0 0.0040884982774498429 -0.024761052242789065 0 0.0038991091328389243 -0.024393380462051025 0 0.0036947429072719195 -0.024161485253955513 0 0.0035608151399097302 -0.024547261159467124 0 0.0038991091328389243 -0.024393380462051025 0 0.0042419514464005839 -0.024104742134712066 0 0.0036947429072719195 -0.024161485253955513 0 0.0038245969637597976 -0.024336481662763088 0 0.0033268081160974586 -0.024166453556574392 0 0.0037251345034786027 -0.024711433227127877 0 0.0038245969637597976 -0.024336481662763088 0 0.003757435870277557 -0.024106990162881384 0 0.0033268081160974586 -0.024166453556574392 0 0.003757435870277557 -0.024106990162881384 0 0.0033268081160974586 -0.024166453556574392 0 0.0035648569943797842 -0.023944165012783684 0 0.0038081759344644516 -0.023827880886000269 0 0.0035648569943797842 -0.023944165012783684 0 0.0033674407137927282 -0.023730931450411261 0 0.0038821947740023672 -0.023402313989943576 0 0.0034198777457833049 -0.023291281104218364 0 0.003595149877853844 -0.023129850297672856 0 0.0033268081160974586 -0.024166453556574392 0 0.0035648569943797842 -0.023944165012783684 0 0.0033674407137927282 -0.023730931450411261 0 0.003873904833030687 -0.023694978590967107 0 0.0034579061762371379 -0.023573436752071748 0 0.003757435870277557 -0.024106990162881384 0 0.0038081759344644516 -0.023827880886000269 0 0.0035648569943797842 -0.023944165012783684 0 0.003873904833030687 -0.023694978590967107 0 0.003798041263629974 -0.023595926076508081 0 0.003683985651708624 -0.024148670935939722 0 0.0031446173812088511 -0.023490808814553538 0 0.0033268081160974586 -0.024166453556574392 0 0.0033674407137927282 -0.023730931450411261 0 0.0029304246513773085 -0.023632237609323301 0 0.0042419514464005839 -0.024104742134712066 0 0.0035476896661733133 -0.023104187635849562 0 0.0034929505239907109 -0.023713118867639726 0 0.0034579061762371379 -0.023573436752071748 0 0.0031446173812088511 -0.023490808814553538 0 0.0034198777457833049 -0.023291281104218364 0 0.0031097733240285142 -0.023056520748471341 0 0.0028845965090389548 -0.023124964353421488 0 0.0030223364763115905 -0.022859744577037946 0 0.0031097733240285142 -0.023056520748471341 0 0.0032793617678944088 -0.023027799467372909 0 0.0030223364763115905 -0.022859744577037946 0 0.0032793617678944088 -0.023027799467372909 0 0.0032107389948266818 -0.022781825733872975 0 0.0030223364763115905 -0.022859744577037946 0 0.0031097733240285142 -0.023056520748471341 0 0.002940153973175051 -0.022973702700277959 0 0.0034198777457833049 -0.023291281104218364 0 0.0031097733240285142 -0.023056520748471341 0 0.0032793617678944088 -0.023027799467372909 0 0.0032793617678944088 -0.023027799467372909 0 0.0032107389948266818 -0.022781825733872975 0 0.003409660857450608 -0.022882403115218004 0 0.0032793617678944088 -0.023027799467372909 0 0.003409660857450608 -0.022882403115218004 0 0.003595149877853844 -0.023129850297672856 0 0.003409660857450608 -0.022882403115218004 0 0.003595149877853844 -0.023129850297672856 0 0.0036032699335610545 -0.022790925306988934 0 0.0034198777457833049 -0.023291281104218364 0 0.0032793617678944088 -0.023027799467372909 0 0.003595149877853844 -0.023129850297672856 0 0.0039748891897252647 -0.023658851923247851 0 0.003595149877853844 -0.023129850297672856 0 0.0039618664978803937 -0.023257546931077365 0 0.003595149877853844 -0.023129850297672856 0 0.0039076658929559655 -0.022917378070219076 0 0.0039618664978803937 -0.023257546931077365 0 0.003595149877853844 -0.023129850297672856 0 0.0039076658929559655 -0.022917378070219076 0 0.0036032699335610545 -0.022790925306988934 0 0.0039076658929559655 -0.022917378070219076 0 0.0037249919967258737 -0.022458796921480784 0 0.0036032699335610545 -0.022790925306988934 0 0.0037249919967258737 -0.022458796921480784 0 0.0036032699335610545 -0.022790925306988934 0 0.0033995582149187477 -0.022566951024882553 0 0.003409660857450608 -0.022882403115218004 0 0.0036032699335610545 -0.022790925306988934 0 0.0033995582149187477 -0.022566951024882553 0 0.0033995582149187477 -0.022566951024882553 0 0.0029809069355514264 -0.022029025037675554 0 0.0029752124999427761 -0.022347941258099219 0 0.0037249919967258737 -0.022458796921480784 0 0.0033995582149187477 -0.022566951024882553 0 0.0029809069355514264 -0.022029025037675554 0 0.0032107389948266818 -0.022781825733872975 0 0.003409660857450608 -0.022882403115218004 0 0.0033995582149187477 -0.022566951024882553 0 0.0032107389948266818 -0.022781825733872975 0 0.0033995582149187477 -0.022566951024882553 0 0.0031729435574871035 -0.022579396897360979 0 0.0033995582149187477 -0.022566951024882553 0 0.0031729435574871035 -0.022579396897360979 0 0.0029752124999427761 -0.022347941258099219 0 0.0031729435574871035 -0.022579396897360979 0 0.0029861581813489229 -0.0225792838444678 0 0.0029752124999427761 -0.022347941258099219 0 0.0032107389948266818 -0.022781825733872975 0 0.0031729435574871035 -0.022579396897360979 0 0.0029861581813489229 -0.0225792838444678 0 0.0030223364763115905 -0.022859744577037946 0 0.0032107389948266818 -0.022781825733872975 0 0.0029861581813489229 -0.0225792838444678 0 0.0041558347217258117 -0.023296819818132426 0 0.0041245247583547584 -0.022971427184428943 0 0.0044511330829698059 -0.02385497708277123 0 0.0045288048875528116 -0.023532727200334256 0 0.004510095525415962 -0.023696407636704966 0 0.0043804370185349124 -0.022951483641314524 0 0.0043756030905954318 -0.022890736828767497 0 0.0043248356761474574 -0.022923172288995038 0 0.0045582622196713154 -0.023312374721549584 0 0.0041245247583547584 -0.022971427184428943 0 0.0045582622196713154 -0.023312374721549584 0 0.0045413296979903983 -0.023346936639732051 0 0.0047057332306984397 -0.023623914783756868 0 0.0045288048875528116 -0.023532727200334256 0 0.004510095525415962 -0.023696407636704966 0 0.0047681346251786331 -0.02361297503481985 0 0.0046283155575758831 -0.023844921718635177 0 0.004510095525415962 -0.023696407636704966 0 0.0044511330829698059 -0.02385497708277123 0 0.0046624184084025407 -0.022938725731356784 0 0.0042032174177509957 -0.023167824635493998 0 0.0039076658929559655 -0.022917378070219076 0 0.0046624184084025407 -0.022938725731356784 0 0.0042032174177509957 -0.023167824635493998 0 0.0039076658929559655 -0.022917378070219076 0 0.0042032174177509957 -0.023167824635493998 0 0.0039618664978803937 -0.023257546931077365 0 0.0041597532839527749 -0.023510938972311331 0 0.0042032174177509957 -0.023167824635493998 0 0.0039618664978803937 -0.023257546931077365 0 0.0039076658929559655 -0.022917378070219076 0 0.0037249919967258737 -0.022458796921480784 0 0.0046624184084025407 -0.022938725731356784 0 0.0036371365193561245 -0.022544921608346664 0 0.0041245247583547584 -0.022971427184428943 0 0.0035959308484943982 -0.0223286079913118 0 0.0041756698250549123 -0.022618411476253243 0 0.003948751603617337 -0.022348447254544417 0 0.003948751603617337 -0.022348447254544417 0 0.0038688290929423416 -0.02222446816500873 0 0.0042553069710812488 -0.022174531704520495 0 0.0035959308484943982 -0.0223286079913118 0 0.003948751603617337 -0.022348447254544417 0 0.0038688290929423416 -0.02222446816500873 0 0.0041245247583547584 -0.022971427184428943 0 0.0038368168835753403 -0.022291166378872004 0 0.0043756030905954318 -0.022890736828767497 0 0.0043248356761474574 -0.022923172288995038 0 0.0043403034468679942 -0.022832840746295949 0 0.0041756698250549123 -0.022618411476253243 0 0.003948751603617337 -0.022348447254544417 0 0.0042553069710812488 -0.022174531704520495 0 0.0033930533077676647 -0.021785400926224878 0 0.0032885978658731023 -0.021867566415587871 0 0.0033208465869525848 -0.021694853523601853 0 0.0033135441746542198 -0.02175380864395416 0 0.003332588392949829 -0.021636364880958849 0 0.0032252719858196213 -0.021672110508159387 0 0.0038368168835753403 -0.022291166378872004 0 0.0037436860864754197 -0.02195525110567732 0 0.0037436860864754197 -0.02195525110567732 0 0.003715580110523929 -0.021846841496404552 0 0.003332588392949829 -0.021636364880958849 0 0.003272318682187734 -0.021551280568812951 0 0.0033508346860421237 -0.021531748740393743 0 0.003332588392949829 -0.021636364880958849 0 0.0032561266012826658 -0.021610559382288001 0 0.003272318682187734 -0.021551280568812951 0 0.003332588392949829 -0.021636364880958849 0 0.0032561266012826658 -0.021610559382288001 0 0.0032252719858196213 -0.021672110508159387 0 0.0031923390000536075 -0.021582657661604426 0 0.0031390781168135757 -0.021621185958922196 0 0.0031155737031636067 -0.021543301999579871 0 0.0032561266012826658 -0.021610559382288001 0 0.003272318682187734 -0.021551280568812951 0 0.0031923390000536075 -0.021582657661604426 0 0.0032561266012826658 -0.021610559382288001 0 0.0031923390000536075 -0.021582657661604426 0 0.0032252719858196213 -0.021672110508159387 0 0.0031923390000536075 -0.021582657661604426 0 0.0031390781168135757 -0.021621185958922196 0 0.0032252719858196213 -0.021672110508159387 0 0.0038368168835753403 -0.022291166378872004 0 0.0033759904746563404 -0.022029384288877744 0 0.0031390781168135757 -0.021621185958922196 0 0.0032252719858196213 -0.021672110508159387 0 0.0031215362280970663 -0.021714595263071918 0 0.0033135441746542198 -0.02175380864395416 0 0.0032252719858196213 -0.021672110508159387 0 0.0031215362280970663 -0.021714595263071918 0 0.0038688290929423416 -0.02222446816500873 0 0.0042553069710812488 -0.022174531704520495 0 0.0036743789878851576 -0.02204798529982788 0 0.0035959308484943982 -0.0223286079913118 0 0.0038688290929423416 -0.02222446816500873 0 0.0036743789878851576 -0.02204798529982788 0 0.0033759904746563404 -0.022029384288877744 0 0.0029567085018326134 -0.021873653837562412 0 0.0035959308484943982 -0.0223286079913118 0 0.0036743789878851576 -0.02204798529982788 0 0.0033315237902800132 -0.022078455709429137 0 0.0036743789878851576 -0.02204798529982788 0 0.0033315237902800132 -0.022078455709429137 0 0.0030703584294925401 -0.021909643300919789 0 0.0035959308484943982 -0.0223286079913118 0 0.0033315237902800132 -0.022078455709429137 0 0.0029809069355514264 -0.022029025037675554 0 0.0031215362280970663 -0.021714595263071918 0 0.0029209106025344322 -0.021700640213732057 0 0.0029810351829944026 -0.021634652214847668 0 0.0036371365193561245 -0.022544921608346664 0 0.0032874655661797761 -0.022318628151316147 0 0.0033315237902800132 -0.022078455709429137 0 0.0030703584294925401 -0.021909643300919789 0 0.0029809069355514264 -0.022029025037675554 0 0.0029125987788452142 -0.021526586408157432 0 0.0030456224442402496 -0.021589227933867083 0 0.0030462892132677079 -0.021448332628287228 0 0.0029810351829944026 -0.021634652214847668 0 0.0029125987788452142 -0.021526586408157432 0 0.0028329430183601195 -0.021580044254017456 0 0.0029209106025344322 -0.021700640213732057 0 0.0029810351829944026 -0.021634652214847668 0 0.0028329430183601195 -0.021580044254017456 0 0.0029810351829944026 -0.021634652214847668 0 0.0029125987788452142 -0.021526586408157432 0 0.0030456224442402496 -0.021589227933867083 0 0.0031215362280970663 -0.021714595263071918 0 0.0029810351829944026 -0.021634652214847668 0 0.0030456224442402496 -0.021589227933867083 0 0.0031390781168135757 -0.021621185958922196 0 0.0031215362280970663 -0.021714595263071918 0 0.0030456224442402496 -0.021589227933867083 0 0.0031390781168135757 -0.021621185958922196 0 0.0030456224442402496 -0.021589227933867083 0 0.0031155737031636067 -0.021543301999579871 0 0.0031155737031636067 -0.021543301999579871 0 0.0030462892132677079 -0.021448332628287228 0 0.0031936534245928022 -0.02145833033763421 0 0.0030456224442402496 -0.021589227933867083 0 0.0031155737031636067 -0.021543301999579871 0 0.0030462892132677079 -0.021448332628287228 0 0.0030462892132677079 -0.021448332628287228 0 0.0031413993793900806 -0.0213497678672326 0 0.0031936534245928022 -0.02145833033763421 0 0.0029125987788452142 -0.021526586408157432 0 0.0030462892132677079 -0.021448332628287228 0 0.0028686554344010936 -0.021391728450254534 0 0.0029833834927551458 -0.02127576757503993 0 0.0030462892132677079 -0.021448332628287228 0 0.0028686554344010936 -0.021391728450254534 0 0.0029833834927551458 -0.02127576757503993 0 0.0028686554344010936 -0.021391728450254534 0 0.0028160032783808267 -0.021260522491320707 0 0.0029833834927551458 -0.02127576757503993 0 0.0030462892132677079 -0.021448332628287228 0 0.0031413993793900806 -0.0213497678672326 0 0.0033039116414584416 -0.021331385753630219 0 0.0031413993793900806 -0.0213497678672326 0 0.0031936534245928022 -0.02145833033763421 0 0.0033039116414584416 -0.021331385753630219 0 0.0037153289883874951 -0.021540335610220427 0 0.0035055739735728769 -0.02214634403732078 0 0.0033039116414584416 -0.021331385753630219 0 0.003360610903998773 -0.02144707014080954 0 0.0032939319055231278 -0.021453435350943018 0 0.0033039116414584416 -0.021331385753630219 0 0.0032939319055231278 -0.021453435350943018 0 0.0031936534245928022 -0.02145833033763421 0 0.003454343490313103 -0.021622994515537054 0 0.0035840535119102067 -0.021854556938900548 0 0.003360610903998773 -0.02144707014080954 0 0.0032939319055231278 -0.021453435350943018 0 0.0033508346860421237 -0.021531748740393743 0 0.003272318682187734 -0.021551280568812951 0 0.0032939319055231278 -0.021453435350943018 0 0.0033508346860421237 -0.021531748740393743 0 0.003272318682187734 -0.021551280568812951 0 0.0032939319055231278 -0.021453435350943018 0 0.0031936534245928022 -0.02145833033763421 0 0.003272318682187734 -0.021551280568812951 0 0.0031923390000536075 -0.021582657661604426 0 0.0031936534245928022 -0.02145833033763421 0 0.0031923390000536075 -0.021582657661604426 0 0.0031155737031636067 -0.021543301999579871 0 0.0031936534245928022 -0.02145833033763421 0 0.0017463084056507834 -0.020908471932270571 0 0.0022554167446174455 -0.02110917042268369 0 0.001860788446515504 -0.02147014892073542 0 0.0017463084056507834 -0.020908471932270571 0 0.001860788446515504 -0.02147014892073542 0 0.0013189650379222004 -0.021281878029078743 0 0.0017463084056507834 -0.020908471932270571 0 0.0021093035976305695 -0.020419070909674451 0 0.0022554167446174455 -0.02110917042268369 0 0.0017463084056507834 -0.020908471932270571 0 0.0013370448732497305 -0.020727180945911947 0 0.0013189650379222004 -0.021281878029078743 0 0.00083715784392252328 -0.020913616375080345 0 0.0013370448732497305 -0.020727180945911947 0 0.0013189650379222004 -0.021281878029078743 0 0.0017463084056507834 -0.020908471932270571 0 0.0013370448732497305 -0.020727180945911947 0 0.0016416242871570748 -0.020403402875978884 0 0.00083715784392252328 -0.020913616375080345 0 0.0011773682869292645 -0.020087070627461741 0 0.0013370448732497305 -0.020727180945911947 0 0.0011773682869292645 -0.020087070627461741 0 0.0013370448732497305 -0.020727180945911947 0 0.0016416242871570748 -0.020403402875978884 0 0.0018382285150943291 -0.019837770377578921 0 0.0016416242871570748 -0.020403402875978884 0 0.0021093035976305695 -0.020419070909674451 0 0.0017463084056507834 -0.020908471932270571 0 0.0016416242871570748 -0.020403402875978884 0 0.0021093035976305695 -0.020419070909674451 0 0.0021093035976305695 -0.020419070909674451 0 0.0026844395764968011 -0.020614694193344978 0 0.0022554167446174455 -0.02110917042268369 0 0.0023875548655414502 -0.019863071302838254 0 0.0026046662178489969 -0.020743936456934692 0 0.0025295061356888347 -0.019769942691159698 0 0.0021093035976305695 -0.020419070909674451 0 0.0026844395764968011 -0.020614694193344978 0 0.0026448384979566347 -0.021150541205762072 0 0.0027278480421541315 -0.021354942274093798 0 0.0028160032783808267 -0.021260522491320707 0 0.0028686554344010936 -0.021391728450254534 0 0.0027278480421541315 -0.021354942274093798 0 0.0028160032783808267 -0.021260522491320707 0 0.0026046662178489969 -0.020743936456934692 0 0.0026741266919460358 -0.021048819272001393 0 0.0029125987788452142 -0.021526586408157432 0 0.0028686554344010936 -0.021391728450254534 0 0.0027511346197559789 -0.021469094328390063 0 0.0028686554344010936 -0.021391728450254534 0 0.0027278480421541315 -0.021354942274093798 0 0.0027511346197559789 -0.021469094328390063 0 0.0026844395764968011 -0.020614694193344978 0 0.0022554167446174455 -0.02110917042268369 0 0.0027511346197559789 -0.021469094328390063 0 0.0022554167446174455 -0.02110917042268369 0 0.0023654427788378889 -0.021676796588569174 0 0.001860788446515504 -0.02147014892073542 0 0.0022554167446174455 -0.02110917042268369 0 0.0023654427788378889 -0.021676796588569174 0 0.0027511346197559789 -0.021469094328390063 0 0.0023654427788378889 -0.021676796588569174 0 0.0027511346197559789 -0.021469094328390063 0 0.0028329430183601195 -0.021580044254017456 0 0.0029209106025344322 -0.021700640213732057 0 0.0023654427788378889 -0.021676796588569174 0 0.0028329430183601195 -0.021580044254017456 0 0.0029125987788452142 -0.021526586408157432 0 0.0027511346197559789 -0.021469094328390063 0 0.0028329430183601195 -0.021580044254017456 0 0.0030703584294925401 -0.021909643300919789 0 0.0023654427788378889 -0.021676796588569174 0 0.0027487382789406481 -0.021989223758154597 0 0.0029567085018326134 -0.021873653837562412 0 0.0026748301851190256 -0.02179657148766697 0 0.0030703584294925401 -0.021909643300919789 0 0.0029809069355514264 -0.022029025037675554 0 0.0027487382789406481 -0.021989223758154597 0 0.0027487382789406481 -0.021989223758154597 0 0.0027930654178136552 -0.02218515909509387 0 0.0025252419329385364 -0.02215384781836599 0 0.0029809069355514264 -0.022029025037675554 0 0.0027487382789406481 -0.021989223758154597 0 0.0027930654178136552 -0.02218515909509387 0 0.0029809069355514264 -0.022029025037675554 0 0.0027930654178136552 -0.02218515909509387 0 0.0029752124999427761 -0.022347941258099219 0 0.0023654427788378889 -0.021676796588569174 0 0.0025252419329385364 -0.02215384781836599 0 0.002112936288086442 -0.022200952335792706 0 0.0023654427788378889 -0.021676796588569174 0 0.002112936288086442 -0.022200952335792706 0 0.0019110260308805743 -0.021878380370109859 0 0.0023654427788378889 -0.021676796588569174 0 0.0027487382789406481 -0.021989223758154597 0 0.0025252419329385364 -0.02215384781836599 0 0.002112936288086442 -0.022200952335792706 0 0.0019110260308805743 -0.021878380370109859 0 0.0017048967702674043 -0.022228757167513803 0 0.0019110260308805743 -0.021878380370109859 0 0.0014908077416877165 -0.021755076933581238 0 0.0017048967702674043 -0.022228757167513803 0 0.0023654427788378889 -0.021676796588569174 0 0.0019110260308805743 -0.021878380370109859 0 0.001860788446515504 -0.02147014892073542 0 0.0019110260308805743 -0.021878380370109859 0 0.001860788446515504 -0.02147014892073542 0 0.0014908077416877165 -0.021755076933581238 0 0.001860788446515504 -0.02147014892073542 0 0.0013189650379222004 -0.021281878029078743 0 0.0014908077416877165 -0.021755076933581238 0 0.0013189650379222004 -0.021281878029078743 0 0.0011534206508140217 -0.021674288822523535 0 0.0014908077416877165 -0.021755076933581238 0 0.00094085308829961812 -0.021445511300239733 0 0.0013189650379222004 -0.021281878029078743 0 0.0011534206508140217 -0.021674288822523535 0 0.0011534206508140217 -0.021674288822523535 0 0.0014908077416877165 -0.021755076933581238 0 0.0012192210722323409 -0.021996235532255347 0 0.0012192210722323409 -0.021996235532255347 0 0.0013432372064583553 -0.022319870605272275 0 0.0017048967702674043 -0.022228757167513803 0 0.0014908077416877165 -0.021755076933581238 0 0.0012192210722323409 -0.021996235532255347 0 0.0017048967702674043 -0.022228757167513803 0 0.0013432372064583553 -0.022319870605272275 0 0.0017048967702674043 -0.022228757167513803 0 0.0018061511831871794 -0.022782153927759521 0 0.0013432372064583553 -0.022319870605272275 0 0.0018061511831871794 -0.022782153927759521 0 0.0013024839422188738 -0.022725548130653309 0 0.002112936288086442 -0.022200952335792706 0 0.0018061511831871794 -0.022782153927759521 0 0.0023520593956545236 -0.022546765508582665 0 0.002112936288086442 -0.022200952335792706 0 0.0017048967702674043 -0.022228757167513803 0 0.0018061511831871794 -0.022782153927759521 0 0.0023583483187895236 -0.023136579813195449 0 0.0026314033109624759 -0.023238451796594291 0 0.0018061511831871794 -0.022782153927759521 0 0.0026879351433231535 -0.022915997079704997 0 0.0022949556295233679 -0.023370176842107244 0 0.0018061511831871794 -0.022782153927759521 0 0.0018030447953432788 -0.023339156023559939 0 0.0022949556295233679 -0.023370176842107244 0 0.0018061511831871794 -0.022782153927759521 0 0.0014384853839567054 -0.023147799467178227 0 0.0018030447953432788 -0.023339156023559939 0 0.0014384853839567054 -0.023147799467178227 0 0.0011868506418276107 -0.023004719216335706 0 0.0013024839422188738 -0.022725548130653309 0 0.0011078589045688501 -0.023268654979693101 0 0.0014384853839567054 -0.023147799467178227 0 0.0011868506418276107 -0.023004719216335706 0 0.0018061511831871794 -0.022782153927759521 0 0.0014384853839567054 -0.023147799467178227 0 0.0013024839422188738 -0.022725548130653309 0 0.0030223364763115905 -0.022859744577037946 0 0.0028251624583677413 -0.022693087477908786 0 0.0029861581813489229 -0.0225792838444678 0 0.0028251624583677413 -0.022693087477908786 0 0.0029861581813489229 -0.0225792838444678 0 0.0027009366102233377 -0.022451356379577347 0 0.0027930654178136552 -0.02218515909509387 0 0.0029752124999427761 -0.022347941258099219 0 0.0027009366102233377 -0.022451356379577347 0 0.0029861581813489229 -0.0225792838444678 0 0.0029752124999427761 -0.022347941258099219 0 0.0027009366102233377 -0.022451356379577347 0 0.0027930654178136552 -0.02218515909509387 0 0.0025252419329385364 -0.02215384781836599 0 0.0027009366102233377 -0.022451356379577347 0 0.0028251624583677413 -0.022693087477908786 0 0.0027009366102233377 -0.022451356379577347 0 0.0026483765762165745 -0.022729099033511228 0 0.0027009366102233377 -0.022451356379577347 0 0.0023520593956545236 -0.022546765508582665 0 0.0026483765762165745 -0.022729099033511228 0 0.0025252419329385364 -0.02215384781836599 0 0.0027009366102233377 -0.022451356379577347 0 0.0023520593956545236 -0.022546765508582665 0 0.0025252419329385364 -0.02215384781836599 0 0.002112936288086442 -0.022200952335792706 0 0.0023520593956545236 -0.022546765508582665 0 0.0018061511831871794 -0.022782153927759521 0 0.0023520593956545236 -0.022546765508582665 0 0.0023411885051276226 -0.022938981772606191 0 0.0023520593956545236 -0.022546765508582665 0 0.0023411885051276226 -0.022938981772606191 0 0.0026483765762165745 -0.022729099033511228 0 0.0026314033109624759 -0.023238451796594291 0 0.0031446173812088511 -0.023490808814553538 0 0.0023411885051276226 -0.022938981772606191 0 0.002788129940890094 -0.022967494208614426 0 0.0028847505098820981 -0.023103663568922062 0 0.0023411885051276226 -0.022938981772606191 0 0.0026483765762165745 -0.022729099033511228 0 0.002788129940890094 -0.022967494208614426 0 0.0026879351433231535 -0.022915997079704997 0 0.0035476896661733133 -0.023104187635849562 0 0.0031675741799709711 -0.023318884784333246 0 0.0026483765762165745 -0.022729099033511228 0 0.002788129940890094 -0.022967494208614426 0 0.0028564853611209706 -0.022846179698203309 0 0.0031097733240285142 -0.023056520748471341 0 0.0028845965090389548 -0.023124964353421488 0 0.002940153973175051 -0.022973702700277959 0 0.0031271838380758821 -0.023466961096603373 0 0.0031446173812088511 -0.023490808814553538 0 0.002788129940890094 -0.022967494208614426 0 0.0028845965090389548 -0.023124964353421488 0 0.002940153973175051 -0.022973702700277959 0 0.0030223364763115905 -0.022859744577037946 0 0.002940153973175051 -0.022973702700277959 0 0.0028564853611209706 -0.022846179698203309 0 0.002788129940890094 -0.022967494208614426 0 0.002940153973175051 -0.022973702700277959 0 0.0028564853611209706 -0.022846179698203309 0 0.0028251624583677413 -0.022693087477908786 0 0.0026483765762165745 -0.022729099033511228 0 0.0028564853611209706 -0.022846179698203309 0 0.0030223364763115905 -0.022859744577037946 0 0.0028251624583677413 -0.022693087477908786 0 0.0028564853611209706 -0.022846179698203309 0 0.0035476896661733133 -0.023104187635849562 0 0.0034929505239907109 -0.023713118867639726 0 0.0031675741799709711 -0.023318884784333246 0 0.0034929505239907109 -0.023713118867639726 0 0.0031675741799709711 -0.023318884784333246 0 0.0029410897858936553 -0.02354296317054427 0 0.0034929505239907109 -0.023713118867639726 0 0.0029410897858936553 -0.02354296317054427 0 0.0031923842813154331 -0.024016686339725236 0 0.0029410897858936553 -0.02354296317054427 0 0.002568233602971435 -0.023900942434831648 0 0.0031923842813154331 -0.024016686339725236 0 0.0026879351433231535 -0.022915997079704997 0 0.0031675741799709711 -0.023318884784333246 0 0.0029410897858936553 -0.02354296317054427 0 0.0026879351433231535 -0.022915997079704997 0 0.0029410897858936553 -0.02354296317054427 0 0.0022949556295233679 -0.023370176842107244 0 0.0029410897858936553 -0.02354296317054427 0 0.002568233602971435 -0.023900942434831648 0 0.0022949556295233679 -0.023370176842107244 0 0.002568233602971435 -0.023900942434831648 0 0.0029864280052745284 -0.02441915215643942 0 0.0022726661236182662 -0.024553473064888726 0 0.002568233602971435 -0.023900942434831648 0 0.0029864280052745284 -0.02441915215643942 0 0.0031923842813154331 -0.024016686339725236 0 0.0029864280052745284 -0.02441915215643942 0 0.0031923842813154331 -0.024016686339725236 0 0.0035608151399097302 -0.024547261159467124 0 0.0031923842813154331 -0.024016686339725236 0 0.0036947429072719195 -0.024161485253955513 0 0.0035608151399097302 -0.024547261159467124 0 0.0034929505239907109 -0.023713118867639726 0 0.0031923842813154331 -0.024016686339725236 0 0.0036947429072719195 -0.024161485253955513 0 0.0015415179728165685 -0.023584441287465781 0 0.0012457521771798408 -0.023621557923545308 0 0.0015919596090173311 -0.024104532603153126 0 0.0015415179728165685 -0.023584441287465781 0 0.0019256951227748173 -0.023804312135488306 0 0.0015919596090173311 -0.024104532603153126 0 0.0015415179728165685 -0.023584441287465781 0 0.0012457521771798408 -0.023621557923545308 0 0.0013269093027062028 -0.023406786802501817 0 0.0011078589045688501 -0.023268654979693101 0 0.0012457521771798408 -0.023621557923545308 0 0.0013269093027062028 -0.023406786802501817 0 0.0011078589045688501 -0.023268654979693101 0 0.0014384853839567054 -0.023147799467178227 0 0.0013269093027062028 -0.023406786802501817 0 0.0014384853839567054 -0.023147799467178227 0 0.0015415179728165685 -0.023584441287465781 0 0.0013269093027062028 -0.023406786802501817 0 0.0014384853839567054 -0.023147799467178227 0 0.0015415179728165685 -0.023584441287465781 0 0.0018030447953432788 -0.023339156023559939 0 0.0018030447953432788 -0.023339156023559939 0 0.0022949556295233679 -0.023370176842107244 0 0.0019256951227748173 -0.023804312135488306 0 0.002568233602971435 -0.023900942434831648 0 0.0022949556295233679 -0.023370176842107244 0 0.0019256951227748173 -0.023804312135488306 0 0.0015415179728165685 -0.023584441287465781 0 0.0018030447953432788 -0.023339156023559939 0 0.0019256951227748173 -0.023804312135488306 0 0.0025531784378067879 -0.022745843428921587 0 0.0024125332724249738 -0.022057350211933217 0 0.0006572042627312378 -0.015729441614837095 0 0.00069980759474294911 -0.016373158267249721 0 0.0014590925730474931 -0.016122109119415255 0 0.002568233602971435 -0.023900942434831648 0 0.0019256951227748173 -0.023804312135488306 0 0.0022726661236182662 -0.024553473064888726 0 0.0015291657740609608 -0.020259526034310606 0 0.0024125332724249738 -0.022057350211933217 0 0.0019256951227748173 -0.023804312135488306 0 0.0015919596090173311 -0.024104532603153126 0 0.0022037577087392333 -0.024424165231086439 0 -4.3862174997066874e-05 -0.01579228943295502 0 0.0006572042627312378 -0.015729441614837095 0 8.4317424306076534e-05 -0.016150850146942033 0 -4.3862174997066874e-05 -0.01579228943295502 0 3.6557827128929749e-05 -0.015525893316397124 0 0.0006572042627312378 -0.015729441614837095 0 0.0012688707122718778 -0.018836207909074545 0 0.0015291657740609608 -0.020259526034310606 0 -9.0967354764994547e-05 -0.015370840960201347 0 3.6557827128929749e-05 -0.015525893316397124 0 0.0006572042627312378 -0.015729441614837095 0 0.0006572042627312378 -0.015729441614837095 0 0.00069980759474294911 -0.016373158267249721 0 8.4317424306076534e-05 -0.016150850146942033 0 0.0009552062980042774 -0.023785797085546186 0 0.0012457521771798408 -0.023621557923545308 0 0.0015919596090173311 -0.024104532603153126 0 0.00069980759474294911 -0.016373158267249721 0 8.4317424306076534e-05 -0.016150850146942033 0 -0.00034826271325496145 -0.016632469455776906 0 0.00069980759474294911 -0.016373158267249721 0 0.00076697552410121786 -0.017042833145286884 0 -0.00034826271325496145 -0.016632469455776906 0 0.0014590925730474931 -0.016122109119415255 0 0.0012424977968415565 -0.016831245340588736 0 0.0019830408884777026 -0.017162829902346233 0 0.00069980759474294911 -0.016373158267249721 0 0.0014590925730474931 -0.016122109119415255 0 0.0012424977968415565 -0.016831245340588736 0 0.00069980759474294911 -0.016373158267249721 0 0.0012424977968415565 -0.016831245340588736 0 0.00076697552410121786 -0.017042833145286884 0 0.0012424977968415565 -0.016831245340588736 0 0.0013273559503813412 -0.017488978494942006 0 0.00076697552410121786 -0.017042833145286884 0 0.0012424977968415565 -0.016831245340588736 0 0.0013273559503813412 -0.017488978494942006 0 0.0019830408884777026 -0.017162829902346233 0 0.00076697552410121786 -0.017042833145286884 0 0.00036268893334133408 -0.017745055894966999 0 -0.00034826271325496145 -0.016632469455776906 0 0.0013273559503813412 -0.017488978494942006 0 0.00076697552410121786 -0.017042833145286884 0 0.00036268893334133408 -0.017745055894966999 0 0.0035608151399097302 -0.024547261159467124 0 0.003322165956550268 -0.025066061470864879 0 0.0040884982774498429 -0.024761052242789065 0 0.0029864280052745284 -0.02441915215643942 0 0.0035608151399097302 -0.024547261159467124 0 0.003322165956550268 -0.025066061470864879 0 0.0049406489885112041 -0.025997129549390617 0 0.0044554365207102285 -0.025708555867606807 0 0.0047860743119065097 -0.025618149738468852 0 0.0024125332724249738 -0.022057350211933217 0 0.0029111594470426065 -0.021609279628855862 0 0.0029864280052745284 -0.02441915215643942 0 0.0022726661236182662 -0.024553473064888726 0 0.003322165956550268 -0.025066061470864879 0 0.0024125332724249738 -0.022057350211933217 0 0.0040462996954498225 -0.024110435332281868 0 0.0013273559503813412 -0.017488978494942006 0 0.0019830408884777026 -0.017162829902346233 0 0.0017452669800492515 -0.017949256946935159 0 0.0044554365207102285 -0.025708555867606807 0 0.0047860743119065097 -0.025618149738468852 0 0.004416712665197043 -0.025486802708732076 0 0.0047860743119065097 -0.025618149738468852 0 0.004416712665197043 -0.025486802708732076 0 0.004434858579634611 -0.025241301032535038 0 0.004416712665197043 -0.025486802708732076 0 0.0043828015132821611 -0.025390761281438464 0 0.00434836539837104 -0.025450695318433404 0 0.0044554365207102285 -0.025708555867606807 0 0.004416712665197043 -0.025486802708732076 0 0.00434836539837104 -0.025450695318433404 0 0.004434858579634611 -0.025241301032535038 0 0.0046900028772290962 -0.024566135227655741 0 0.0037770001775325876 -0.023202131117342571 0 0.004434858579634611 -0.025241301032535038 0 0.0043467333386158196 -0.025677779489045757 0 0.0044010622072636289 -0.025467055479281412 0 0.0043828015132821611 -0.025390761281438464 0 0.004434858579634611 -0.025241301032535038 0 0.0044010622072636289 -0.025467055479281412 0 0.004416712665197043 -0.025486802708732076 0 0.0043828015132821611 -0.025390761281438464 0 0.004434858579634611 -0.025241301032535038 0 0.0029111594470426065 -0.021609279628855862 0 0.0032429746493416291 -0.021457759990029579 0 0.0047860743119065097 -0.025618149738468852 0 0.004434858579634611 -0.025241301032535038 0 0.0046900028772290962 -0.024566135227655741 0 0.0019830408884777026 -0.017162829902346233 0 0.002564519866486625 -0.01832393740292974 0 0.0017452669800492515 -0.017949256946935159 0 0.002564519866486625 -0.01832393740292974 0 0.0017452669800492515 -0.017949256946935159 0 0.001772764776609652 -0.018546430074403465 0 0.001772764776609652 -0.018546430074403465 0 0.001980498219687711 -0.019282168082464003 0 0.0022510824030175553 -0.018756914073740905 0 0.001772764776609652 -0.018546430074403465 0 0.001980498219687711 -0.019282168082464003 0 0.0011871646813681736 -0.019047715744401401 0 0.001980498219687711 -0.019282168082464003 0 0.0022510824030175553 -0.018756914073740905 0 0.0025309994984518002 -0.019233264236616497 0 0.002564519866486625 -0.01832393740292974 0 0.0022510824030175553 -0.018756914073740905 0 0.0025309994984518002 -0.019233264236616497 0 0.002564519866486625 -0.01832393740292974 0 0.001772764776609652 -0.018546430074403465 0 0.0022510824030175553 -0.018756914073740905 0 0.0046900028772290962 -0.024566135227655741 0 0.0041522937508334835 -0.022725654201889486 0 0.0037770001775325876 -0.023202131117342571 0 0.0044081585673895855 -0.024862016528965698 0 0.0042910149739909193 -0.024493120419347227 0 0.0032429746493416291 -0.021457759990029579 0 0.0033967547857228757 -0.02133129849828359 0 0.002564519866486625 -0.01832393740292974 0 0.0025309994984518002 -0.019233264236616497 0 0.0031977165963850028 -0.019659475851428691 0 0.00036268893334133408 -0.017745055894966999 0 0.0004615477044462138 -0.01872097839403657 0 -0.00048406339797162144 -0.0180494613876254 0 0.00036268893334133408 -0.017745055894966999 0 0.0011079984809720905 -0.018248427402372695 0 0.0004615477044462138 -0.01872097839403657 0 0.0013273559503813412 -0.017488978494942006 0 0.00036268893334133408 -0.017745055894966999 0 0.0011079984809720905 -0.018248427402372695 0 0.0013273559503813412 -0.017488978494942006 0 0.0017452669800492515 -0.017949256946935159 0 0.0011079984809720905 -0.018248427402372695 0 0.0017452669800492515 -0.017949256946935159 0 0.001772764776609652 -0.018546430074403465 0 0.0011079984809720905 -0.018248427402372695 0 0.0011871646813681736 -0.019047715744401401 0 0.0004615477044462138 -0.01872097839403657 0 0.00079978784793024288 -0.019846205653535915 0 0.0011079984809720905 -0.018248427402372695 0 0.0011871646813681736 -0.019047715744401401 0 0.0004615477044462138 -0.01872097839403657 0 0.001772764776609652 -0.018546430074403465 0 0.0011079984809720905 -0.018248427402372695 0 0.0011871646813681736 -0.019047715744401401 0 0.0004615477044462138 -0.01872097839403657 0 0.00079978784793024288 -0.019846205653535915 0 -0.00012354350277963882 -0.019480900992531105 0 0.00019858204979220445 -0.020510449363352667 0 0.00079978784793024288 -0.019846205653535915 0 -0.00012354350277963882 -0.019480900992531105 0 0.00019858204979220445 -0.020510449363352667 0 -3.8544842766449891e-05 -0.021354188100790806 0 0.00098533377757978845 -0.021286228499105796 0 0.00019858204979220445 -0.020510449363352667 0 0.00079978784793024288 -0.019846205653535915 0 0.00098533377757978845 -0.021286228499105796 0 0.00079978784793024288 -0.019846205653535915 0 0.0016430753768659446 -0.020115077938486183 0 0.00098533377757978845 -0.021286228499105796 0 0.0016430753768659446 -0.020115077938486183 0 0.0019254365205471466 -0.020959198963739354 0 0.00098533377757978845 -0.021286228499105796 0 0.0011871646813681736 -0.019047715744401401 0 0.00079978784793024288 -0.019846205653535915 0 0.0016430753768659446 -0.020115077938486183 0 0.001980498219687711 -0.019282168082464003 0 0.0011871646813681736 -0.019047715744401401 0 0.0016430753768659446 -0.020115077938486183 0 0.001980498219687711 -0.019282168082464003 0 0.0023655721105121153 -0.019840232054217533 0 0.0016430753768659446 -0.020115077938486183 0 0.001980498219687711 -0.019282168082464003 0 0.0025309994984518002 -0.019233264236616497 0 0.0023655721105121153 -0.019840232054217533 0 0.0023655721105121153 -0.019840232054217533 0 0.0016430753768659446 -0.020115077938486183 0 0.0023434912217140378 -0.020535759846374294 0 0.0025309994984518002 -0.019233264236616497 0 0.0023655721105121153 -0.019840232054217533 0 0.0027097936445644516 -0.019731544254794717 0 0.0025309994984518002 -0.019233264236616497 0 0.0031977165963850028 -0.019659475851428691 0 0.0027097936445644516 -0.019731544254794717 0 0.0031977165963850028 -0.019659475851428691 0 0.0027097936445644516 -0.019731544254794717 0 0.0027609263446239027 -0.020216030561777714 0 0.0023655721105121153 -0.019840232054217533 0 0.0027097936445644516 -0.019731544254794717 0 0.0027609263446239027 -0.020216030561777714 0 0.0023655721105121153 -0.019840232054217533 0 0.0027609263446239027 -0.020216030561777714 0 0.0023434912217140378 -0.020535759846374294 0 0.0031977165963850028 -0.019659475851428691 0 0.0027609263446239027 -0.020216030561777714 0 0.0031470701300737656 -0.020706933970355914 0 0.0031977165963850028 -0.019659475851428691 0 0.0031470701300737656 -0.020706933970355914 0 0.003702819010945007 -0.021395033841752679 0 0.0031470701300737656 -0.020706933970355914 0 0.0028490871339874341 -0.020856172955777748 0 0.0031195315682437811 -0.021377649423383029 0 0.0027609263446239027 -0.020216030561777714 0 0.0028490871339874341 -0.020856172955777748 0 0.0023434912217140378 -0.020535759846374294 0 0.0028490871339874341 -0.020856172955777748 0 0.0025615143957543776 -0.021230137737734179 0 0.0023434912217140378 -0.020535759846374294 0 0.0027609263446239027 -0.020216030561777714 0 0.0031470701300737656 -0.020706933970355914 0 0.0028490871339874341 -0.020856172955777748 0 0.0028490871339874341 -0.020856172955777748 0 0.0025615143957543776 -0.021230137737734179 0 0.0031195315682437811 -0.021377649423383029 0 0.0025615143957543776 -0.021230137737734179 0 0.0031195315682437811 -0.021377649423383029 0 0.0029410505966522339 -0.021900207770956068 0 0.0031470701300737656 -0.020706933970355914 0 0.0031195315682437811 -0.021377649423383029 0 0.003702819010945007 -0.021395033841752679 0 0.0019254365205471466 -0.020959198963739354 0 0.0021581305717084318 -0.02174276073718822 0 0.00098533377757978845 -0.021286228499105796 0 0.0016430753768659446 -0.020115077938486183 0 0.0023434912217140378 -0.020535759846374294 0 0.0019254365205471466 -0.020959198963739354 0 0.0025615143957543776 -0.021230137737734179 0 0.0023434912217140378 -0.020535759846374294 0 0.0019254365205471466 -0.020959198963739354 0 0.0025615143957543776 -0.021230137737734179 0 0.0019254365205471466 -0.020959198963739354 0 0.0021581305717084318 -0.02174276073718822 0 0.0016361738039110379 -0.022284576895481772 0 0.0021581305717084318 -0.02174276073718822 0 0.0028215068876631731 -0.022916445337338869 0 0.0016361738039110379 -0.022284576895481772 0 0.0021581305717084318 -0.02174276073718822 0 0.00098533377757978845 -0.021286228499105796 0 0.0021581305717084318 -0.02174276073718822 0 0.0029410505966522339 -0.021900207770956068 0 0.0028215068876631731 -0.022916445337338869 0 0.0029410505966522339 -0.021900207770956068 0 0.0028215068876631731 -0.022916445337338869 0 0.0036644193465174366 -0.022362632691671977 0 0.0031195315682437811 -0.021377649423383029 0 0.0029410505966522339 -0.021900207770956068 0 0.0034947669455934979 -0.021747164229104728 0 0.0025615143957543776 -0.021230137737734179 0 0.0021581305717084318 -0.02174276073718822 0 0.0029410505966522339 -0.021900207770956068 0 0.0016361738039110379 -0.022284576895481772 0 0.00099267992405103079 -0.022851000269743217 0 0.00196107169468432 -0.02370245229195268 0 0.0016361738039110379 -0.022284576895481772 0 0.0028215068876631731 -0.022916445337338869 0 0.00196107169468432 -0.02370245229195268 0 0.00099267992405103079 -0.022851000269743217 0 -2.4168511134651324e-05 -0.022369264476353977 0 0.00098533377757978845 -0.021286228499105796 0 0.00099267992405103079 -0.022851000269743217 0 -2.4168511134651324e-05 -0.022369264476353977 0 0.0008455083393029974 -0.024258826971652526 0 -2.4168511134651324e-05 -0.022369264476353977 0 -3.8544842766449891e-05 -0.021354188100790806 0 0.00098533377757978845 -0.021286228499105796 0 0.0016361738039110379 -0.022284576895481772 0 0.00099267992405103079 -0.022851000269743217 0 0.00098533377757978845 -0.021286228499105796 0 0.0046307017151740936 -0.025851847506457269 0 0.0046437397824480899 -0.025790473225198261 0 0.0047721087072272262 -0.025834315764378613 0 0.0045857508747680457 -0.02584570548393398 0 0.0045841674067263333 -0.025789063163735269 0 0.0046437397824480899 -0.025790473225198261 0 0.0046307017151740936 -0.025851847506457269 0 0.0045857508747680457 -0.02584570548393398 0 0.0046437397824480899 -0.025790473225198261 0 0.0046307017151740936 -0.025851847506457269 0 0.0045857508747680457 -0.02584570548393398 0 0.0045814992447887008 -0.025853592600759836 0 0.0045857508747680457 -0.02584570548393398 0 0.0045439090554139023 -0.025859077271371385 0 0.0045814992447887008 -0.025853592600759836 0 0.0045857508747680457 -0.02584570548393398 0 0.0045439090554139023 -0.025859077271371385 0 0.0045380348374743787 -0.025839337292627506 0 0.0045439090554139023 -0.025859077271371385 0 0.0045380348374743787 -0.025839337292627506 0 0.0045020451271373454 -0.025874180020914454 0 0.0045857508747680457 -0.02584570548393398 0 0.0045380348374743787 -0.025839337292627506 0 0.0045841674067263333 -0.025789063163735269 0 0.0045380348374743787 -0.025839337292627506 0 0.0045841674067263333 -0.025789063163735269 0 0.0045521022169804255 -0.02576194925915927 0 0.0045841674067263333 -0.025789063163735269 0 0.0045521022169804255 -0.02576194925915927 0 0.0046074022041190715 -0.02569059110169182 0 0.0045380348374743787 -0.025839337292627506 0 0.0045521022169804255 -0.02576194925915927 0 0.0045139644213621228 -0.025836587467399828 0 0.0045521022169804255 -0.02576194925915927 0 0.0045621064516111138 -0.025705826519691045 0 0.0045881794914983468 -0.025644535727233457 0 0.0045521022169804255 -0.02576194925915927 0 0.0045285283982986063 -0.025794446134040618 0 0.0045621064516111138 -0.025705826519691045 0 0.0045521022169804255 -0.02576194925915927 0 0.0045285283982986063 -0.025794446134040618 0 0.0045139644213621228 -0.025836587467399828 0 0.0045521022169804255 -0.02576194925915927 0 0.0046074022041190715 -0.02569059110169182 0 0.0045881794914983468 -0.025644535727233457 0 0.0046740346770514198 -0.025616839454990274 0 0.0046437397824480899 -0.025790473225198261 0 0.0047721087072272262 -0.025834315764378613 0 0.0046074022041190715 -0.02569059110169182 0 0.0046740346770514198 -0.025616839454990274 0 0.0046502856674383213 -0.025485560978636669 0 0.0046740346770514198 -0.025616839454990274 0 0.0047721087072272262 -0.025834315764378613 0 0.0048676749509010461 -0.025120721017017018 0 0.0046074022041190715 -0.02569059110169182 0 0.0046740346770514198 -0.025616839454990274 0 0.0046437397824480899 -0.025790473225198261 0 0.0045841674067263333 -0.025789063163735269 0 0.0046074022041190715 -0.02569059110169182 0 0.0046437397824480899 -0.025790473225198261 0 0.0046047963711221265 -0.02278620570131662 0 0.0038376971530108715 -0.023451098868482657 0 0.0043021248228846624 -0.024272534958828494 0 0.0044572324225642919 -0.024274469657505803 0 0.0045960705210727993 -0.024527660222951962 0 0.0046047963711221265 -0.02278620570131662 0 0.0038376971530108715 -0.023451098868482657 0 0.0036644193465174366 -0.022362632691671977 0 0.0028215068876631731 -0.022916445337338869 0 0.0038376971530108715 -0.023451098868482657 0 0.0035414608796518984 -0.024168686116715511 0 0.0028215068876631731 -0.022916445337338869 0 0.0038376971530108715 -0.023451098868482657 0 0.0036644193465174366 -0.022362632691671977 0 0.0046047963711221265 -0.02278620570131662 0 0.0036644193465174366 -0.022362632691671977 0 0.003669371457428649 -0.021366358649201181 0 0.0036644193465174366 -0.022362632691671977 0 0.0034947669455934979 -0.021747164229104728 0 0.003669371457428649 -0.021366358649201181 0 0.0029410505966522339 -0.021900207770956068 0 0.0036644193465174366 -0.022362632691671977 0 0.0034947669455934979 -0.021747164229104728 0 0.0044572324225642919 -0.024274469657505803 0 0.0042478830889935947 -0.024078855737490874 0 0.0047721087072272262 -0.025834315764378613 0 0.0046167777510320593 -0.025850154664133627 0 0.0045239464770979359 -0.025853755609768676 0 0.0046307017151740936 -0.025851847506457269 0 0.0047721087072272262 -0.025834315764378613 0 0.0046167777510320593 -0.025850154664133627 0 0.0046307017151740936 -0.025851847506457269 0 0.0046167777510320593 -0.025850154664133627 0 0.0045878898011545771 -0.025828982960185026 0 0.0046167777510320593 -0.025850154664133627 0 0.0045562363729237595 -0.025813650102419129 0 0.0045239464770979359 -0.025853755609768676 0 0.0046167777510320593 -0.025850154664133627 0 0.0045562363729237595 -0.025813650102419129 0 0.0045878898011545771 -0.025828982960185026 0 0.0041522937508334835 -0.022725654201889486 0 0.003702819010945007 -0.021395033841752679 0 0.003669371457428649 -0.021366358649201181 0 0.0034947669455934979 -0.021747164229104728 0 0.003702819010945007 -0.021395033841752679 0 0.003669371457428649 -0.021366358649201181 0 0.0031195315682437811 -0.021377649423383029 0 0.0034947669455934979 -0.021747164229104728 0 0.003702819010945007 -0.021395033841752679 0 0.0041522937508334835 -0.022725654201889486 0 0.003669371457428649 -0.021366358649201181 0 0.0037770001775325876 -0.023202131117342571 0 0.0033967547857228757 -0.02133129849828359 0 0.0034507478323904839 -0.021319051269018865 0 0.0045239464770979359 -0.025853755609768676 0 0.0044962565026116924 -0.025749035216657307 0 0.0043467333386158196 -0.025677779489045757 0 0.0042478830889935947 -0.024078855737490874 0 0.0042910149739909193 -0.024493120419347227 0 0.0045562363729237595 -0.025813650102419129 0 0.0045239464770979359 -0.025853755609768676 0 0.0044962565026116924 -0.025749035216657307 0 0.0045878898011545771 -0.025828982960185026 0 0.0045453317168428408 -0.025771690597939975 0 0.0045618276520163247 -0.025782416883919679 0 0.0045562363729237595 -0.025813650102419129 0 0.0045878898011545771 -0.025828982960185026 0 0.0045453317168428408 -0.025771690597939975 0 0.0045562363729237595 -0.025813650102419129 0 0.0044962565026116924 -0.025749035216657307 0 0.0045453317168428408 -0.025771690597939975 0 0.0044962565026116924 -0.025749035216657307 0 0.0045453317168428408 -0.025771690597939975 0 0.0045101129771269177 -0.025702324781713977 0 0.0045453317168428408 -0.025771690597939975 0 0.00454693271804066 -0.025739879781860115 0 0.0045101129771269177 -0.025702324781713977 0 0.0045453317168428408 -0.025771690597939975 0 0.0045618276520163247 -0.025782416883919679 0 0.00454693271804066 -0.025739879781860115 0 0.0045618276520163247 -0.025782416883919679 0 0.0045742785820500646 -0.02581112262649396 0 0.0045626137219329649 -0.025770511413136622 0 0.0045618276520163247 -0.025782416883919679 0 0.0045626137219329649 -0.025770511413136622 0 0.00454693271804066 -0.025739879781860115 0 0.0045742785820500646 -0.02581112262649396 0 0.0045716294894154186 -0.025831979303770146 0 0.0045678506009844393 -0.025804825727635611 0 0.0045742785820500646 -0.02581112262649396 0 0.0045678506009844393 -0.025804825727635611 0 0.0045626137219329649 -0.025770511413136622 0 0.0045742785820500646 -0.02581112262649396 0 0.0045814992447887008 -0.025853592600759836 0 0.0045716294894154186 -0.025831979303770146 0 0.0045878898011545771 -0.025828982960185026 0 0.0045618276520163247 -0.025782416883919679 0 0.0045742785820500646 -0.02581112262649396 0 0.0046307017151740936 -0.025851847506457269 0 0.0045878898011545771 -0.025828982960185026 0 0.0045814992447887008 -0.025853592600759836 0 0.0045878898011545771 -0.025828982960185026 0 0.0045742785820500646 -0.02581112262649396 0 0.0045814992447887008 -0.025853592600759836 0 0.0045814992447887008 -0.025853592600759836 0 0.0045642752947663975 -0.025858206386542036 0 0.0045386884340449301 -0.025862472424596411 0 0.0045439090554139023 -0.025859077271371385 0 0.0045814992447887008 -0.025853592600759836 0 0.0045386884340449301 -0.025862472424596411 0 0.0045814992447887008 -0.025853592600759836 0 0.0045642752947663975 -0.025858206386542036 0 0.0045716294894154186 -0.025831979303770146 0 0.0045642752947663975 -0.025858206386542036 0 0.0045716294894154186 -0.025831979303770146 0 0.0045678506009844393 -0.025804825727635611 0 0.0045642752947663975 -0.025858206386542036 0 0.0045678506009844393 -0.025804825727635611 0 0.0045565028159548606 -0.025831584594952033 0 0.0045642752947663975 -0.025858206386542036 0 0.0045565028159548606 -0.025831584594952033 0 0.0045494863228869847 -0.025903967253688938 0 0.0045565028159548606 -0.025831584594952033 0 0.0045535452073390964 -0.025771442729516918 0 0.004560018062175872 -0.025764055473900784 0 0.0045565028159548606 -0.025831584594952033 0 0.0045535452073390964 -0.025771442729516918 0 0.0045494863228869847 -0.025903967253688938 0 0.0045535452073390964 -0.025771442729516918 0 0.004560018062175872 -0.025764055473900784 0 0.00456756534232222 -0.025699692997690624 0 0.0045678506009844393 -0.025804825727635611 0 0.0045565028159548606 -0.025831584594952033 0 0.004560018062175872 -0.025764055473900784 0 0.0045678506009844393 -0.025804825727635611 0 0.0045626137219329649 -0.025770511413136622 0 0.0045575862199696768 -0.025723955735828977 0 0.0045678506009844393 -0.025804825727635611 0 0.004560018062175872 -0.025764055473900784 0 0.0045575862199696768 -0.025723955735828977 0 0.00454693271804066 -0.025739879781860115 0 0.0045575862199696768 -0.025723955735828977 0 0.0045232914104798554 -0.025664908932015645 0 0.0045626137219329649 -0.025770511413136622 0 0.00454693271804066 -0.025739879781860115 0 0.0045575862199696768 -0.025723955735828977 0 0.0045575862199696768 -0.025723955735828977 0 0.0045390028723630571 -0.025635793365450295 0 0.0045232914104798554 -0.025664908932015645 0 0.0045575862199696768 -0.025723955735828977 0 0.00456756534232222 -0.025699692997690624 0 0.0045390028723630571 -0.025635793365450295 0 0.004560018062175872 -0.025764055473900784 0 0.0045575862199696768 -0.025723955735828977 0 0.00456756534232222 -0.025699692997690624 0 0.00456756534232222 -0.025699692997690624 0 0.0045390028723630571 -0.025635793365450295 0 0.0045883256420110562 -0.025627649000764235 0 0.0045390028723630571 -0.025635793365450295 0 0.0045883256420110562 -0.025627649000764235 0 0.0045015190411626556 -0.025521122648422712 0 0.0044796045856156921 -0.025330277658167914 0 0.0044940577830105619 -0.025388882547065627 0 0.0045535452073390964 -0.025771442729516918 0 0.00456756534232222 -0.025699692997690624 0 0.0045883256420110562 -0.025627649000764235 0 0.004131415999587525 -0.025272378572065018 0 0.0044564865431281492 -0.025048225199613253 0 0.0045528010609943012 -0.02535592782840794 0 0.0045535452073390964 -0.025771442729516918 0 0.0042412534518940642 -0.02537877633470513 0 0.0046046041816436784 -0.025441584143475596 0 0.0044796045856156921 -0.025330277658167914 0 0.0045945498325291089 -0.02536266192838187 0 0.0045361673666458602 -0.025463106688423932 0 0.0044796045856156921 -0.025330277658167914 0 0.0043467333386158196 -0.025677779489045757 0 0.0044259454294735597 -0.025583288541806203 0 0.0044010622072636289 -0.025467055479281412 0 0.0044259454294735597 -0.025583288541806203 0 0.004425417283422101 -0.025530340456599198 0 0.0044010622072636289 -0.025467055479281412 0 0.0043467333386158196 -0.025677779489045757 0 0.0044539883028777523 -0.025661880409697406 0 0.0044259454294735597 -0.025583288541806203 0 0.0044962565026116924 -0.025749035216657307 0 0.0043467333386158196 -0.025677779489045757 0 0.0044539883028777523 -0.025661880409697406 0 0.0044259454294735597 -0.025583288541806203 0 0.0044691733690949273 -0.025602723314724955 0 0.004425417283422101 -0.025530340456599198 0 0.0044539883028777523 -0.025661880409697406 0 0.0044259454294735597 -0.025583288541806203 0 0.0044691733690949273 -0.025602723314724955 0 0.0044691733690949273 -0.025602723314724955 0 0.0045232914104798554 -0.025664908932015645 0 0.004489912457249984 -0.025579823023525586 0 0.0044691733690949273 -0.025602723314724955 0 0.0045101129771269177 -0.025702324781713977 0 0.0045232914104798554 -0.025664908932015645 0 0.0044962565026116924 -0.025749035216657307 0 0.0044539883028777523 -0.025661880409697406 0 0.0045101129771269177 -0.025702324781713977 0 0.0044539883028777523 -0.025661880409697406 0 0.0044691733690949273 -0.025602723314724955 0 0.0045101129771269177 -0.025702324781713977 0 0.00454693271804066 -0.025739879781860115 0 0.0045101129771269177 -0.025702324781713977 0 0.0045232914104798554 -0.025664908932015645 0 0.0045390028723630571 -0.025635793365450295 0 0.0045232914104798554 -0.025664908932015645 0 0.004489912457249984 -0.025579823023525586 0 0.0045390028723630571 -0.025635793365450295 0 0.004489912457249984 -0.025579823023525586 0 0.0045015190411626556 -0.025521122648422712 0 0.004489912457249984 -0.025579823023525586 0 0.0044195367528432426 -0.02550343155792616 0 0.0045015190411626556 -0.025521122648422712 0 0.0044691733690949273 -0.025602723314724955 0 0.004489912457249984 -0.025579823023525586 0 0.0044195367528432426 -0.02550343155792616 0 0.0044195367528432426 -0.02550343155792616 0 0.00434836539837104 -0.025450695318433404 0 0.0045015190411626556 -0.025521122648422712 0 0.0044691733690949273 -0.025602723314724955 0 0.004425417283422101 -0.025530340456599198 0 0.0044195367528432426 -0.02550343155792616 0 0.004425417283422101 -0.025530340456599198 0 0.0044195367528432426 -0.02550343155792616 0 0.0043961879230223601 -0.025457623412859474 0 0.0043828015132821611 -0.025390761281438464 0 0.0043961879230223601 -0.025457623412859474 0 0.00434836539837104 -0.025450695318433404 0 0.0044195367528432426 -0.02550343155792616 0 0.0043961879230223601 -0.025457623412859474 0 0.00434836539837104 -0.025450695318433404 0 0.0043828015132821611 -0.025390761281438464 0 0.0043961879230223601 -0.025457623412859474 0 0.0044010622072636289 -0.025467055479281412 0 0.004425417283422101 -0.025530340456599198 0 0.0043961879230223601 -0.025457623412859474 0 0.0044010622072636289 -0.025467055479281412 0 0.0044434940240132481 -0.025395163898132456 0 0.0044940577830105619 -0.025388882547065627 0 0.0040462996954498225 -0.024110435332281868 0 0.0043660904102380878 -0.024582089084977606 0 0.0044554365207102285 -0.025708555867606807 0 0.00434836539837104 -0.025450695318433404 0 0.004367005785455051 -0.02542152358432052 0 0.00434836539837104 -0.025450695318433404 0 0.004367005785455051 -0.02542152358432052 0 0.0045131920150889111 -0.025456004108708231 0 0.003322165956550268 -0.025066061470864879 0 0.004367005785455051 -0.02542152358432052 0 0.0040606876957819766 -0.025100556736497134 0 0.004367005785455051 -0.02542152358432052 0 0.0040606876957819766 -0.025100556736497134 0 0.0043898722964367505 -0.025156708331719024 0 0.0043898722964367505 -0.025156708331719024 0 0.0045131920150889111 -0.025456004108708231 0 0.0047185213165819783 -0.024969982835050159 0 0.004367005785455051 -0.02542152358432052 0 0.0043898722964367505 -0.025156708331719024 0 0.0045131920150889111 -0.025456004108708231 0 0.0043898722964367505 -0.025156708331719024 0 0.0047185213165819783 -0.024969982835050159 0 0.0040884982774498429 -0.024761052242789065 0 0.0042419514464005839 -0.024104742134712066 0 0.0047185213165819783 -0.024969982835050159 0 0.0040884982774498429 -0.024761052242789065 0 0.003683985651708624 -0.024148670935939722 0 0.004144758409524418 -0.024798118858281537 0 0.003322165956550268 -0.025066061470864879 0 0.0040606876957819766 -0.025100556736497134 0 0.0040884982774498429 -0.024761052242789065 0 0.0040606876957819766 -0.025100556736497134 0 0.0043898722964367505 -0.025156708331719024 0 0.0040884982774498429 -0.024761052242789065 0 0.0038991091328389243 -0.024393380462051025 0 0.0035608151399097302 -0.024547261159467124 0 0.0040884982774498429 -0.024761052242789065 0 0.004131415999587525 -0.025272378572065018 0 0.0044564865431281492 -0.025048225199613253 0 0.0042247982520845799 -0.024759822849887803 0 0.0044564865431281492 -0.025048225199613253 0 0.0042247982520845799 -0.024759822849887803 0 0.0047438407457824324 -0.024692707846861471 0 0.004131415999587525 -0.025272378572065018 0 0.0037251345034786027 -0.024711433227127877 0 0.0042247982520845799 -0.024759822849887803 0 0.0044796045856156921 -0.025330277658167914 0 0.004144758409524418 -0.024798118858281537 0 0.0050787928632334495 -0.025553614820717347 0 0.0045131920150889111 -0.025456004108708231 0 0.0047185213165819783 -0.024969982835050159 0 0.0038245969637597976 -0.024336481662763088 0 0.0037251345034786027 -0.024711433227127877 0 0.0040501775379878481 -0.024494528941160301 0 0.0037251345034786027 -0.024711433227127877 0 0.0040501775379878481 -0.024494528941160301 0 0.0042247982520845799 -0.024759822849887803 0 0.004269429239239471 -0.024258313711434255 0 0.0040501775379878481 -0.024494528941160301 0 0.0042247982520845799 -0.024759822849887803 0 0.004269429239239471 -0.024258313711434255 0 0.0042247982520845799 -0.024759822849887803 0 0.0047438407457824324 -0.024692707846861471 0 0.0043870006412570156 -0.024219301158277813 0 0.0048001120919091006 -0.024638629919521135 0 0.0044564865431281492 -0.025048225199613253 0 0.0047438407457824324 -0.024692707846861471 0 0.004780913238830441 -0.0251392434907785 0 0.0044564865431281492 -0.025048225199613253 0 0.004780913238830441 -0.0251392434907785 0 0.0045528010609943012 -0.02535592782840794 0 0.0048913963426331399 -0.02467011844691468 0 0.0052662371080181309 -0.025140819055887161 0 0.0054934026506262669 -0.024752742367842844 0 0.0047438407457824324 -0.024692707846861471 0 0.004780913238830441 -0.0251392434907785 0 0.0052662371080181309 -0.025140819055887161 0 0.0048001120919091006 -0.024638629919521135 0 0.005026732093319386 -0.024865225411256592 0 0.0054447878698226319 -0.024347947775351986 0 0.0048913963426331399 -0.02467011844691468 0 0.0054934026506262669 -0.024752742367842844 0 0.005995755637830045 -0.024335352327237977 0 0.0054447878698226319 -0.024347947775351986 0 0.0054934026506262669 -0.024752742367842844 0 0.005995755637830045 -0.024335352327237977 0 0.0054934026506262669 -0.024752742367842844 0 0.0058910001093247146 -0.024911165139220572 0 0.0039567987345363312 -0.029028412665630277 0 0.0043290266769741943 -0.028846452167042836 0 0.0052662371080181309 -0.025140819055887161 0 0.0054934026506262669 -0.024752742367842844 0 0.0058910001093247146 -0.024911165139220572 0 0.0052662371080181309 -0.025140819055887161 0 0.0057517121610934537 -0.025585214295274772 0 0.0052533390635456896 -0.025664093649661272 0 0.0052662371080181309 -0.025140819055887161 0 0.0058910001093247146 -0.024911165139220572 0 0.0057517121610934537 -0.025585214295274772 0 0.0043290266769741943 -0.028846452167042836 0 0.0046964216861869242 -0.028401642721881563 0 0.0028600359458618371 -0.033295734043901758 0 0.003968039283080458 -0.031581110734697347 0 0.0023796335881257997 -0.031959165431062746 0 0.003968039283080458 -0.031581110734697347 0 0.0035383635157259698 -0.030191922204650497 0 0.0023796335881257997 -0.031959165431062746 0 0.0046964216861869242 -0.028401642721881563 0 0.0049791656988270863 -0.027846209186214596 0 0.003968039283080458 -0.031581110734697347 0 0.0035383635157259698 -0.030191922204650497 0 0.0048881486251840288 -0.029021907193856163 0 0.0057517121610934537 -0.025585214295274772 0 0.0053690632924071205 -0.026007531828609359 0 0.0052533390635456896 -0.025664093649661272 0 0.0057517121610934537 -0.025585214295274772 0 0.0053690632924071205 -0.026007531828609359 0 0.005567507756017066 -0.026405234044581234 0 0.0053690632924071205 -0.026007531828609359 0 0.0052533390635456896 -0.025664093649661272 0 0.0050562024612749237 -0.026011529501081612 0 0.0052533390635456896 -0.025664093649661272 0 0.0050262691963106777 -0.025720306165577474 0 0.0050562024612749237 -0.026011529501081612 0 0.0050262691963106777 -0.025720306165577474 0 0.0050562024612749237 -0.026011529501081612 0 0.004812081053921587 -0.025760483047539969 0 0.0050262691963106777 -0.025720306165577474 0 0.004812081053921587 -0.025760483047539969 0 0.0049905816193312365 -0.025457164038116174 0 0.0050562024612749237 -0.026011529501081612 0 0.0047934957008529703 -0.026018366406123782 0 0.004812081053921587 -0.025760483047539969 0 0.0047934957008529703 -0.026018366406123782 0 0.0046516266432570065 -0.025806469401524541 0 0.004812081053921587 -0.025760483047539969 0 0.0045535452073390964 -0.025771442729516918 0 0.0046516266432570065 -0.025806469401524541 0 0.0045494863228869847 -0.025903967253688938 0 0.0047934957008529703 -0.026018366406123782 0 0.0046516266432570065 -0.025806469401524541 0 0.0045494863228869847 -0.025903967253688938 0 0.0045535452073390964 -0.025771442729516918 0 0.0046516266432570065 -0.025806469401524541 0 0.0046829874153587435 -0.025632404033262571 0 0.0046516266432570065 -0.025806469401524541 0 0.004812081053921587 -0.025760483047539969 0 0.0046829874153587435 -0.025632404033262571 0 0.0045945498325291089 -0.02536266192838187 0 0.0047009965070022343 -0.025384464604804216 0 0.0046829874153587435 -0.025632404033262571 0 0.0046046041816436784 -0.025441584143475596 0 0.0049905816193312365 -0.025457164038116174 0 0.004780913238830441 -0.0251392434907785 0 0.0045528010609943012 -0.02535592782840794 0 0.0049905816193312365 -0.025457164038116174 0 0.004812081053921587 -0.025760483047539969 0 0.0046829874153587435 -0.025632404033262571 0 0.0049905816193312365 -0.025457164038116174 0 0.0045535452073390964 -0.025771442729516918 0 0.0046829874153587435 -0.025632404033262571 0 0.0046046041816436784 -0.025441584143475596 0 0.004780913238830441 -0.0251392434907785 0 0.0052662371080181309 -0.025140819055887161 0 0.0049905816193312365 -0.025457164038116174 0 0.0052662371080181309 -0.025140819055887161 0 0.0052533390635456896 -0.025664093649661272 0 0.0049905816193312365 -0.025457164038116174 0 0.0052533390635456896 -0.025664093649661272 0 0.0050262691963106777 -0.025720306165577474 0 0.0049905816193312365 -0.025457164038116174 0 0.00069345294976159468 -0.033211547954059152 0 0.00084876484104833645 -0.033794223855425604 0 0.0010107791440194056 -0.033228906929332981 0 0.00073537815637155814 -0.033596884727410986 0 0.00092478928421353386 -0.033956021932330577 0 0.00074724461162169143 -0.033823933439782135 0 0.00094712873211402521 -0.034102262755028825 0 0.00063710542215938092 -0.034031219357336481 0 0.00084876484104833645 -0.033794223855425604 0 0.0010107791440194056 -0.033228906929332981 0 0.0014714905926343517 -0.033609058723325223 0 0.00069345294976159468 -0.033211547954059152 0 0.0010107791440194056 -0.033228906929332981 0 0.0009807536889179457 -0.032981689302546892 0 0.0010107791440194056 -0.033228906929332981 0 0.0014714905926343517 -0.033609058723325223 0 0.001223672015291215 -0.032747848863302724 0 0.0014714905926343517 -0.033609058723325223 0 0.0019143747147752565 -0.033220081517754449 0 0.001223672015291215 -0.032747848863302724 0 0.002143418242835626 -0.034098131176107001 0 0.0014714905926343517 -0.033609058723325223 0 0.0019143747147752565 -0.033220081517754449 0 0.002143418242835626 -0.034098131176107001 0 0.0028600359458618371 -0.033295734043901758 0 0.0019143747147752565 -0.033220081517754449 0 0.0028600359458618371 -0.033295734043901758 0 0.0019143747147752565 -0.033220081517754449 0 0.0023796335881257997 -0.031959165431062746 0 0.0019143747147752565 -0.033220081517754449 0 0.0023796335881257997 -0.031959165431062746 0 0.001223672015291215 -0.032747848863302724 0 0.0023796335881257997 -0.031959165431062746 0 0.0020084019659153056 -0.030478480125668304 0 0.0010034483099885766 -0.031220366336535649 0 0.0035383635157259698 -0.030191922204650497 0 0.0023796335881257997 -0.031959165431062746 0 0.0020084019659153056 -0.030478480125668304 0 0.0018783326391024647 -0.031759567888616357 0 0.0021254472952075476 -0.03131449270202484 0 0.0020084019659153056 -0.030478480125668304 0 0.0010034483099885766 -0.031220366336535649 0 0.00095103873938072177 -0.029744135921223769 0 0.0011507478935254721 -0.032843538748732318 0 0.00094930579377756701 -0.032832441794938237 0 0.0011454308128745698 -0.032736548245163165 0 0.0011507478935254721 -0.032843538748732318 0 0.001223672015291215 -0.032747848863302724 0 0.0009807536889179457 -0.032981689302546892 0 0.0018783326391024647 -0.031759567888616357 0 0.0018055430036607275 -0.03198625195511156 0 0.0023796335881257997 -0.031959165431062746 0 0.0010034483099885766 -0.031220366336535649 0 0.001223672015291215 -0.032747848863302724 0 0.0010107791440194056 -0.033228906929332981 0 0.001223672015291215 -0.032747848863302724 0 0.0009807536889179457 -0.032981689302546892 0 0.0009807536889179457 -0.032981689302546892 0 0.00094930579377756701 -0.032832441794938237 0 0.00076342345119145415 -0.033112813775269929 0 0.0011507478935254721 -0.032843538748732318 0 0.0009807536889179457 -0.032981689302546892 0 0.00094930579377756701 -0.032832441794938237 0 0.0014315627975009671 -0.032359392232652523 0 0.0009747305501024917 -0.032865158603919503 0 0.0019438554114065074 -0.034083966092088039 0 0.0008357520305289904 -0.034039296280365464 0 0.00082687098046829678 -0.033640767352229595 0 0.00094930579377756701 -0.032832441794938237 0 0.00076342345119145415 -0.033112813775269929 0 0.00067449475872875136 -0.033065393931454384 0 0.00069345294976159468 -0.033211547954059152 0 0.0009807536889179457 -0.032981689302546892 0 0.00076342345119145415 -0.033112813775269929 0 0.0014346034861665298 -0.032657803013116098 0 0.0011476394392693808 -0.033286157386028657 0 0.000608159912162477 -0.032756314447944461 0 0.0014346034861665298 -0.032657803013116098 0 0.0011476394392693808 -0.033286157386028657 0 0.0022849916071329161 -0.033148224244774635 0 0.0019438554114065074 -0.034083966092088039 0 0.0011476394392693808 -0.033286157386028657 0 0.00082687098046829678 -0.033640767352229595 0 0.0019438554114065074 -0.034083966092088039 0 0.0011476394392693808 -0.033286157386028657 0 0.0022849916071329161 -0.033148224244774635 0 0.0019438554114065074 -0.034083966092088039 0 0.0022849916071329161 -0.033148224244774635 0 0.00315113096045726 -0.033900627734653466 0 0.0014315627975009671 -0.032359392232652523 0 0.0021254472952075476 -0.03131449270202484 0 0.0022849916071329161 -0.033148224244774635 0 0.0033223855967262832 -0.032603985095274082 0 0.00315113096045726 -0.033900627734653466 0 0.0027478721086317075 -0.03016545155637905 0 0.0021254472952075476 -0.03131449270202484 0 0.0030068518597687766 -0.027798360163904481 0 0.0029323264685195251 -0.028801437695527777 0 0.0035895442785418299 -0.028644560726194857 0 0.0035383635157259698 -0.030191922204650497 0 0.0020084019659153056 -0.030478480125668304 0 0.002475562777758318 -0.029263193984681697 0 0.0021254472952075476 -0.03131449270202484 0 0.00304310009849941 -0.030468716309474744 0 0.0020084019659153056 -0.030478480125668304 0 0.00095103873938072177 -0.029744135921223769 0 0.002475562777758318 -0.029263193984681697 0 0.0030068518597687766 -0.027798360163904481 0 0.0035895442785418299 -0.028644560726194857 0 0.003758935426998419 -0.028056042847750384 0 0.0030068518597687766 -0.027798360163904481 0 0.003758935426998419 -0.028056042847750384 0 0.0037731420224516852 -0.027383278806865367 0 0.0030068518597687766 -0.027798360163904481 0 0.0032402585636855372 -0.026848890258660031 0 0.0037731420224516852 -0.027383278806865367 0 0.0032402585636855372 -0.026848890258660031 0 0.0037731420224516852 -0.027383278806865367 0 0.0038224468690673703 -0.026584168688295294 0 0.0027478721086317075 -0.03016545155637905 0 0.0031220417773622682 -0.029023315525644508 0 0.0033223855967262832 -0.032603985095274082 0 0.003602880793321662 -0.031082659782468044 0 0.0021488947850512013 -0.031714579339139751 0 0.0014346034861665298 -0.032657803013116098 0 0.0022849916071329161 -0.033148224244774635 0 0.0021488947850512013 -0.031714579339139751 0 0.0022849916071329161 -0.033148224244774635 0 0.0033223855967262832 -0.032603985095274082 0 0.0021488947850512013 -0.031714579339139751 0 0.003602880793321662 -0.031082659782468044 0 0.0021488947850512013 -0.031714579339139751 0 0.0023563734740381296 -0.029609043537154822 0 0.0021488947850512013 -0.031714579339139751 0 0.0012867612617150604 -0.030478323437948252 0 0.00081613001624293016 -0.031880027665301972 0 0.0014346034861665298 -0.032657803013116098 0 0.0021488947850512013 -0.031714579339139751 0 0.00081613001624293016 -0.031880027665301972 0 0.0051548373234760947 -0.026744789225453959 0 0.0048071885922203452 -0.026870201616058808 0 0.0050967237941340606 -0.027289566324141656 0 0.0051548373234760947 -0.026744789225453959 0 0.0048071885922203452 -0.026870201616058808 0 0.0051721273281596985 -0.02639103242106244 0 0.0045642752947663975 -0.025858206386542036 0 0.0045386884340449301 -0.025862472424596411 0 0.0045149208028843644 -0.025862829288531529 0 0.0045386884340449301 -0.025862472424596411 0 0.0045149208028843644 -0.025862829288531529 0 0.0045014281459018028 -0.02587985093425757 0 0.0047934957008529703 -0.026018366406123782 0 0.0045494863228869847 -0.025903967253688938 0 0.0048071885922203452 -0.026870201616058808 0 0.0045642752947663975 -0.025858206386542036 0 0.0045494863228869847 -0.025903967253688938 0 0.0045149208028843644 -0.025862829288531529 0 0.004595192705935041 -0.026214122212518027 0 0.0046466812737265264 -0.026345904984118151 0 0.0047934957008529703 -0.026018366406123782 0 0.0048071885922203452 -0.026870201616058808 0 0.0049624060582995899 -0.026312821475413042 0 0.0050562024612749237 -0.026011529501081612 0 0.0047934957008529703 -0.026018366406123782 0 0.0049624060582995899 -0.026312821475413042 0 0.0050562024612749237 -0.026011529501081612 0 0.0049624060582995899 -0.026312821475413042 0 0.0051721273281596985 -0.02639103242106244 0 0.0048071885922203452 -0.026870201616058808 0 0.0049624060582995899 -0.026312821475413042 0 0.0051721273281596985 -0.02639103242106244 0 0.0053690632924071205 -0.026007531828609359 0 0.0050562024612749237 -0.026011529501081612 0 0.0051721273281596985 -0.02639103242106244 0 0.0053690632924071205 -0.026007531828609359 0 0.0051721273281596985 -0.02639103242106244 0 0.005567507756017066 -0.026405234044581234 0 0.0051548373234760947 -0.026744789225453959 0 0.0051721273281596985 -0.02639103242106244 0 0.005567507756017066 -0.026405234044581234 0 0.0035895442785418299 -0.028644560726194857 0 0.0042065328927777691 -0.028681436492651254 0 0.003758935426998419 -0.028056042847750384 0 0.0035383635157259698 -0.030191922204650497 0 0.002475562777758318 -0.029263193984681697 0 0.0042065328927777691 -0.028681436492651254 0 0.00304310009849941 -0.030468716309474744 0 0.0034917927745475022 -0.030169218781673141 0 0.0035383635157259698 -0.030191922204650497 0 0.0048881486251840288 -0.029021907193856163 0 0.0042065328927777691 -0.028681436492651254 0 0.003758935426998419 -0.028056042847750384 0 0.0043389178527204822 -0.027825842329529376 0 0.0037731420224516852 -0.027383278806865367 0 0.0042065328927777691 -0.028681436492651254 0 0.003758935426998419 -0.028056042847750384 0 0.0043389178527204822 -0.027825842329529376 0 0.0051548373234760947 -0.026744789225453959 0 0.005567507756017066 -0.026405234044581234 0 0.0050967237941340606 -0.027289566324141656 0 0.0048881486251840288 -0.029021907193856163 0 0.0043389178527204822 -0.027825842329529376 0 0.0050967237941340606 -0.027289566324141656 0 0.0048881486251840288 -0.029021907193856163 0 0.0042065328927777691 -0.028681436492651254 0 0.0043389178527204822 -0.027825842329529376 0 0.0049791656988270863 -0.027846209186214596 0 0.0050682167949073998 -0.027591917851179457 0 0.0043389178527204822 -0.027825842329529376 0 0.0044616506716200471 -0.027190368986756978 0 0.0050967237941340606 -0.027289566324141656 0 0.0044616506716200471 -0.027190368986756978 0 0.0050757133096346434 -0.02727398209281507 0 0.0050967237941340606 -0.027289566324141656 0 0.0043389178527204822 -0.027825842329529376 0 0.0044616506716200471 -0.027190368986756978 0 0.0037731420224516852 -0.027383278806865367 0 0.0044616506716200471 -0.027190368986756978 0 0.0043469298990172585 -0.026330245090753122 0 0.0038224468690673703 -0.026584168688295294 0 0.0044616506716200471 -0.027190368986756978 0 0.0037731420224516852 -0.027383278806865367 0 0.0038224468690673703 -0.026584168688295294 0 0.0044616506716200471 -0.027190368986756978 0 0.0050757133096346434 -0.02727398209281507 0 0.0043469298990172585 -0.026330245090753122 0 0.0044990597492814031 -0.025920706264194519 0 0.0044150873201621388 -0.026125701508197662 0 0.0043469298990172585 -0.026330245090753122 0 0.004659459354271013 -0.02644012023016392 0 0.0045858247139948793 -0.026375758964959799 0 0.0044592985879096563 -0.025975138516710367 0 0.0044990597492814031 -0.025920706264194519 0 0.0044150873201621388 -0.026125701508197662 0 0.0044637712600481133 -0.025954672184137453 0 0.0044592985879096563 -0.025975138516710367 0 0.0044150873201621388 -0.026125701508197662 0 0.0044637712600481133 -0.025954672184137453 0 0.0044833915593830613 -0.025933139125369105 0 0.0044150873201621388 -0.026125701508197662 0 0.0044592985879096563 -0.025975138516710367 0 0.0044990597492814031 -0.025920706264194519 0 0.0044803571675552448 -0.025914842293031513 0 0.0044637712600481133 -0.025954672184137453 0 0.0044592985879096563 -0.025975138516710367 0 0.0044803571675552448 -0.025914842293031513 0 0.0046466812737265264 -0.026345904984118151 0 0.004659459354271013 -0.02644012023016392 0 0.0044990597492814031 -0.025920706264194519 0 0.0044803571675552448 -0.025914842293031513 0 0.0045014281459018028 -0.02587985093425757 0 0.0045149208028843644 -0.025862829288531529 0 0.0044990597492814031 -0.025920706264194519 0 0.0045014281459018028 -0.02587985093425757 0 0.0048071885922203452 -0.026870201616058808 0 0.0050757133096346434 -0.02727398209281507 0 0.0050967237941340606 -0.027289566324141656 0 0.0045439090554139023 -0.025859077271371385 0 0.0045014281459018028 -0.02587985093425757 0 0.0045020451271373454 -0.025874180020914454 0 0.0045439090554139023 -0.025859077271371385 0 0.0045386884340449301 -0.025862472424596411 0 0.0045014281459018028 -0.02587985093425757 0 0.0044803571675552448 -0.025914842293031513 0 0.0045014281459018028 -0.02587985093425757 0 0.0045020451271373454 -0.025874180020914454 0 0.0044803571675552448 -0.025914842293031513 0 0.0045020451271373454 -0.025874180020914454 0 0.0044848048135064803 -0.025895769117128369 0 0.0045380348374743787 -0.025839337292627506 0 0.0045020451271373454 -0.025874180020914454 0 0.0045139644213621228 -0.025836587467399828 0 0.0045020451271373454 -0.025874180020914454 0 0.0045139644213621228 -0.025836587467399828 0 0.0044848048135064803 -0.025895769117128369 0 0.0045139644213621228 -0.025836587467399828 0 0.0044848048135064803 -0.025895769117128369 0 0.0044943055032728918 -0.02587622030981529 0 0.0044637712600481133 -0.025954672184137453 0 0.0044803571675552448 -0.025914842293031513 0 0.0044848048135064803 -0.025895769117128369 0 0.0044637712600481133 -0.025954672184137453 0 0.0044943055032728918 -0.02587622030981529 0 0.0044833915593830613 -0.025933139125369105 0 0.0044637712600481133 -0.025954672184137453 0 0.0044848048135064803 -0.025895769117128369 0 0.0044943055032728918 -0.02587622030981529 0 0.0045285283982986063 -0.025794446134040618 0 0.0045139644213621228 -0.025836587467399828 0 0.0044943055032728918 -0.02587622030981529 0 0.0045285283982986063 -0.025794446134040618 0 0.0044943055032728918 -0.02587622030981529 0 0.004525055301416509 -0.025815617253174668 0 0.004525055301416509 -0.025815617253174668 0 0.0045603627504640443 -0.025748010574149743 0 0.0045621064516111138 -0.025705826519691045 0 0.004525055301416509 -0.025815617253174668 0 0.0045271450202978942 -0.025846841905560105 0 0.0045603627504640443 -0.025748010574149743 0 0.004525055301416509 -0.025815617253174668 0 0.0044833915593830613 -0.025933139125369105 0 0.0045271450202978942 -0.025846841905560105 0 0.0044943055032728918 -0.02587622030981529 0 0.004525055301416509 -0.025815617253174668 0 0.0044833915593830613 -0.025933139125369105 0 0.0045271450202978942 -0.025846841905560105 0 0.0045900240827552608 -0.025764723379835323 0 0.0044816857098982244 -0.025957630375571569 0 0.0044833915593830613 -0.025933139125369105 0 0.0045271450202978942 -0.025846841905560105 0 0.0044816857098982244 -0.025957630375571569 0 0.0045271450202978942 -0.025846841905560105 0 0.0045603627504640443 -0.025748010574149743 0 0.0045900240827552608 -0.025764723379835323 0 0.0045900240827552608 -0.025764723379835323 0 0.0045300371887662021 -0.025888543135304282 0 0.0046629080118934223 -0.025720444730662526 0 0.0045900240827552608 -0.025764723379835323 0 0.0044816857098982244 -0.025957630375571569 0 0.0045300371887662021 -0.025888543135304282 0 0.0044816857098982244 -0.025957630375571569 0 0.0043590992353507753 -0.02612745359704418 0 0.0045300371887662021 -0.025888543135304282 0 0.0043590992353507753 -0.02612745359704418 0 0.0042643068665567906 -0.026021346124118681 0 0.0045300371887662021 -0.025888543135304282 0 0.0044816857098982244 -0.025957630375571569 0 0.0044150873201621388 -0.026125701508197662 0 0.0043590992353507753 -0.02612745359704418 0 0.0044833915593830613 -0.025933139125369105 0 0.0044816857098982244 -0.025957630375571569 0 0.0044150873201621388 -0.026125701508197662 0 0.0044150873201621388 -0.026125701508197662 0 0.0043469298990172585 -0.026330245090753122 0 0.0043590992353507753 -0.02612745359704418 0 0.0043469298990172585 -0.026330245090753122 0 0.0038224468690673703 -0.026584168688295294 0 0.003871417452472296 -0.026272792432669261 0 0.0043469298990172585 -0.026330245090753122 0 0.003871417452472296 -0.026272792432669261 0 0.0043590992353507753 -0.02612745359704418 0 0.003871417452472296 -0.026272792432669261 0 0.0043590992353507753 -0.02612745359704418 0 0.0042643068665567906 -0.026021346124118681 0 0.0042643068665567906 -0.026021346124118681 0 0.0040271512784085563 -0.025972820644616725 0 0.0044531315219118088 -0.025817230859843304 0 0.003871417452472296 -0.026272792432669261 0 0.0042643068665567906 -0.026021346124118681 0 0.0040271512784085563 -0.025972820644616725 0 0.003871417452472296 -0.026272792432669261 0 0.0040271512784085563 -0.025972820644616725 0 0.0036878741819658931 -0.025980165228981469 0 0.0040271512784085563 -0.025972820644616725 0 0.0036878741819658931 -0.025980165228981469 0 0.0041180326804064341 -0.025638021998738741 0 0.0040271512784085563 -0.025972820644616725 0 0.0044531315219118088 -0.025817230859843304 0 0.0041180326804064341 -0.025638021998738741 0 0.0044531315219118088 -0.025817230859843304 0 0.0045513965569886645 -0.025542415612902675 0 0.0041180326804064341 -0.025638021998738741 0 0.0044531315219118088 -0.025817230859843304 0 0.0047230444850312392 -0.025664336032430582 0 0.0045513965569886645 -0.025542415612902675 0 0.0044531315219118088 -0.025817230859843304 0 0.0047230444850312392 -0.025664336032430582 0 0.0046887629680692437 -0.025785847739208254 0 0.0045300371887662021 -0.025888543135304282 0 0.0046887629680692437 -0.025785847739208254 0 0.0046629080118934223 -0.025720444730662526 0 0.0044531315219118088 -0.025817230859843304 0 0.0045300371887662021 -0.025888543135304282 0 0.0046887629680692437 -0.025785847739208254 0 0.0042643068665567906 -0.026021346124118681 0 0.0044531315219118088 -0.025817230859843304 0 0.0045300371887662021 -0.025888543135304282 0 0.00106921503407829 -0.029031126807800272 0 0.0023563734740381296 -0.029609043537154822 0 0.0021286553796574276 -0.027977684995257004 0 0.00106921503407829 -0.029031126807800272 0 0.0012867612617150604 -0.030478323437948252 0 0.0023563734740381296 -0.029609043537154822 0 0.0021488947850512013 -0.031714579339139751 0 0.0012867612617150604 -0.030478323437948252 0 0.0023563734740381296 -0.029609043537154822 0 0.0023563734740381296 -0.029609043537154822 0 0.0037602320741108829 -0.029144651136908614 0 0.0021286553796574276 -0.027977684995257004 0 0.0033283532020722461 -0.028002889950323337 0 0.0033834827381119853 -0.027465627371952999 0 0.003602880793321662 -0.031082659782468044 0 0.0023563734740381296 -0.029609043537154822 0 0.0037602320741108829 -0.029144651136908614 0 0.0031220417773622682 -0.029023315525644508 0 0.0033283532020722461 -0.028002889950323337 0 0.0032402585636855372 -0.026848890258660031 0 0.0038224468690673703 -0.026584168688295294 0 0.0035245707865561265 -0.026419734127371388 0 0.003871417452472296 -0.026272792432669261 0 0.0035245707865561265 -0.026419734127371388 0 0.0034944940857900347 -0.026688604395308221 0 0.0038224468690673703 -0.026584168688295294 0 0.003871417452472296 -0.026272792432669261 0 0.0035245707865561265 -0.026419734127371388 0 0.003871417452472296 -0.026272792432669261 0 0.0036878741819658931 -0.025980165228981469 0 0.0034944940857900347 -0.026688604395308221 0 0.0036878741819658931 -0.025980165228981469 0 0.0034944940857900347 -0.026688604395308221 0 0.0031879933406657695 -0.025977481510226136 0 0.0034944940857900347 -0.026688604395308221 0 0.0021309648323231387 -0.026666976050394486 0 0.0031879933406657695 -0.025977481510226136 0 0.0037602320741108829 -0.029144651136908614 0 0.0034944940857900347 -0.026688604395308221 0 0.0021286553796574276 -0.027977684995257004 0 0.0034944940857900347 -0.026688604395308221 0 0.0021286553796574276 -0.027977684995257004 0 0.0021309648323231387 -0.026666976050394486 0 0.0021309648323231387 -0.026666976050394486 0 0.0024505473856490357 -0.025834660134315585 0 0.0031879933406657695 -0.025977481510226136 0 0.0021309648323231387 -0.026666976050394486 0 0.0012602376498544725 -0.02628082374262378 0 0.0018876383799492291 -0.025867757979416418 0 0.0021309648323231387 -0.026666976050394486 0 0.0012602376498544725 -0.02628082374262378 0 0.0011672501482725387 -0.027499733814773265 0 0.0021286553796574276 -0.027977684995257004 0 0.0021309648323231387 -0.026666976050394486 0 0.0011672501482725387 -0.027499733814773265 0 0.00106921503407829 -0.029031126807800272 0 0.0021286553796574276 -0.027977684995257004 0 0.0011672501482725387 -0.027499733814773265 0 0.0013733288128125942 -0.024788411704867327 0 0.0014909010227938521 -0.025447955385330057 0 0.0019775051014114106 -0.024035852833099433 0 0.0012498113062408968 -0.024965853608091514 0 0.0010963463752133014 -0.024936299697213629 0 0.0013733288128125942 -0.024788411704867327 0 0.0014909010227938521 -0.025447955385330057 0 0.00074460868517555443 -0.025545011313533934 0 0.0012602376498544725 -0.02628082374262378 0 0.0014909010227938521 -0.025447955385330057 0 0.00074460868517555443 -0.025545011313533934 0 0.0012602376498544725 -0.02628082374262378 0 0.0018876383799492291 -0.025867757979416418 0 0.0014909010227938521 -0.025447955385330057 0 0.0021309648323231387 -0.026666976050394486 0 0.0018876383799492291 -0.025867757979416418 0 0.0024505473856490357 -0.025834660134315585 0 0.0018876383799492291 -0.025867757979416418 0 0.0014909010227938521 -0.025447955385330057 0 0.0022869065755096868 -0.025214465810456201 0 0.0018876383799492291 -0.025867757979416418 0 0.0024505473856490357 -0.025834660134315585 0 0.0022869065755096868 -0.025214465810456201 0 0.0014909010227938521 -0.025447955385330057 0 0.0022869065755096868 -0.025214465810456201 0 0.0020114771799471169 -0.024506384937532599 0 0.0024505473856490357 -0.025834660134315585 0 0.0022869065755096868 -0.025214465810456201 0 0.0029814033590742721 -0.025280188025117081 0 0.0022869065755096868 -0.025214465810456201 0 0.0029814033590742721 -0.025280188025117081 0 0.00275585041006363 -0.024601835254399906 0 0.0024505473856490357 -0.025834660134315585 0 0.0029814033590742721 -0.025280188025117081 0 0.0031879933406657695 -0.025977481510226136 0 0.0036878741819658931 -0.025980165228981469 0 0.0031879933406657695 -0.025977481510226136 0 0.0035394255356567868 -0.025398086299587397 0 0.0029814033590742721 -0.025280188025117081 0 0.0031879933406657695 -0.025977481510226136 0 0.0035394255356567868 -0.025398086299587397 0 0.0029814033590742721 -0.025280188025117081 0 0.0035394255356567868 -0.025398086299587397 0 0.0034211059007126943 -0.024825520804084487 0 0.0029814033590742721 -0.025280188025117081 0 0.00275585041006363 -0.024601835254399906 0 0.0034211059007126943 -0.024825520804084487 0 0.0030994542079541341 -0.024122761079172252 0 0.00275585041006363 -0.024601835254399906 0 0.0034211059007126943 -0.024825520804084487 0 0.0023716572515848438 -0.02435477810391291 0 0.0018385268640890566 -0.02432770263283246 0 0.0030994542079541341 -0.024122761079172252 0 0.00275585041006363 -0.024601835254399906 0 0.0025684674499060105 -0.023936556602604037 0 0.0022869065755096868 -0.025214465810456201 0 0.00275585041006363 -0.024601835254399906 0 0.0020114771799471169 -0.024506384937532599 0 0.0010963463752133014 -0.024936299697213629 0 0.0018385268640890566 -0.02432770263283246 0 0.0012565905871794905 -0.024671104827233982 0 0.0012791643483253544 -0.024609288322205908 0 0.0013020756552006595 -0.024615727623112569 0 0.0010963463752133014 -0.024936299697213629 0 0.0012826670973153031 -0.024446478181225181 0 -0.00079493745176234065 -0.025870696246027072 0 -0.00084701081806393965 -0.025753564370824805 0 -0.00072655075722753747 -0.025681471189777559 0 0.00275585041006363 -0.024601835254399906 0 0.0020114771799471169 -0.024506384937532599 0 0.0025684674499060105 -0.023936556602604037 0 -0.00084701081806393965 -0.025753564370824805 0 -0.00096752022231753453 -0.025825972329287569 0 -0.00090777045577870516 -0.025630330293670168 0 -0.00079493745176234065 -0.025870696246027072 0 -0.00084701081806393965 -0.025753564370824805 0 -0.00096752022231753453 -0.025825972329287569 0 -0.00088438982089287361 -0.025979592654455132 0 -0.00079493745176234065 -0.025870696246027072 0 -0.00096752022231753453 -0.025825972329287569 0 0.00040494614109079914 -0.025392794863875606 0 0.0010963463752133014 -0.024936299697213629 0 0.0044398019379444939 -0.025147728808003037 0 0.004947075745433023 -0.024761287308402127 0 0.0049602811893551171 -0.02534900273802191 0 0.0047230444850312392 -0.025664336032430582 0 0.0045513965569886645 -0.025542415612902675 0 0.0049602811893551171 -0.02534900273802191 0 0.0044398019379444939 -0.025147728808003037 0 0.0045513965569886645 -0.025542415612902675 0 0.0049602811893551171 -0.02534900273802191 0 0.0044398019379444939 -0.025147728808003037 0 0.0045513965569886645 -0.025542415612902675 0 0.0041180326804064341 -0.025638021998738741 0 0.0036878741819658931 -0.025980165228981469 0 0.0035394255356567868 -0.025398086299587397 0 0.0041180326804064341 -0.025638021998738741 0 0.0035394255356567868 -0.025398086299587397 0 0.0041180326804064341 -0.025638021998738741 0 0.0039049210738233628 -0.025186013490664398 0 0.0035394255356567868 -0.025398086299587397 0 0.0039049210738233628 -0.025186013490664398 0 0.0034211059007126943 -0.024825520804084487 0 0.0044398019379444939 -0.025147728808003037 0 0.0039049210738233628 -0.025186013490664398 0 0.0039989430620526786 -0.024742979614518299 0 0.0044398019379444939 -0.025147728808003037 0 0.0041180326804064341 -0.025638021998738741 0 0.0039049210738233628 -0.025186013490664398 0 0.0039049210738233628 -0.025186013490664398 0 0.0039989430620526786 -0.024742979614518299 0 0.0034211059007126943 -0.024825520804084487 0 0.0039989430620526786 -0.024742979614518299 0 0.0034211059007126943 -0.024825520804084487 0 0.0036089986428838802 -0.024380112590254226 0 0.0030994542079541341 -0.024122761079172252 0 0.0034211059007126943 -0.024825520804084487 0 0.0036089986428838802 -0.024380112590254226 0 0.0030994542079541341 -0.024122761079172252 0 0.0036089986428838802 -0.024380112590254226 0 0.0034864757785585303 -0.023829766719515616 0 0.0039989430620526786 -0.024742979614518299 0 0.0039715924318051076 -0.024088122475442873 0 0.004480096744749429 -0.024414384852740525 0 0.0036089986428838802 -0.024380112590254226 0 0.0039715924318051076 -0.024088122475442873 0 0.0034864757785585303 -0.023829766719515616 0 0.0039989430620526786 -0.024742979614518299 0 0.0036089986428838802 -0.024380112590254226 0 0.0039715924318051076 -0.024088122475442873 0 0.0039715924318051076 -0.024088122475442873 0 0.0043399128599629711 -0.023996165802785685 0 0.004480096744749429 -0.024414384852740525 0 0.0043399128599629711 -0.023996165802785685 0 0.004480096744749429 -0.024414384852740525 0 0.0046730106210581554 -0.024005539015376238 0 0.0044398019379444939 -0.025147728808003037 0 0.0039989430620526786 -0.024742979614518299 0 0.004480096744749429 -0.024414384852740525 0 0.0044398019379444939 -0.025147728808003037 0 0.004480096744749429 -0.024414384852740525 0 0.004947075745433023 -0.024761287308402127 0 0.0045168972806838266 -0.02230526786462626 0 0.0054262029287938688 -0.022205062070176317 0 0.004480096744749429 -0.024414384852740525 0 0.004947075745433023 -0.024761287308402127 0 0.0048590280094403457 -0.02401105376337815 0 0.004480096744749429 -0.024414384852740525 0 0.0046730106210581554 -0.024005539015376238 0 0.0048590280094403457 -0.02401105376337815 0 0.0032143570310336025 -0.019896865320785034 0 0.0032076633919509755 -0.019902474273424838 0 0.0032290012808509684 -0.019917980312114777 0 0.0032076633919509755 -0.019902474273424838 0 0.0032120107354051859 -0.019913720319634298 0 0.0032290012808509684 -0.019917980312114777 0 0.0032076633919509755 -0.019902474273424838 0 0.0031997633641767513 -0.019906571934624896 0 0.0032120107354051859 -0.019913720319634298 0 0.0032076633919509755 -0.019902474273424838 0 0.0031961156663061346 -0.019894263099405816 0 0.0031997633641767513 -0.019906571934624896 0 0.0031961156663061346 -0.019894263099405816 0 0.0031981893403569771 -0.019890479699699308 0 0.0031903795948762768 -0.019887257106871784 0 0.0032076633919509755 -0.019902474273424838 0 0.0031961156663061346 -0.019894263099405816 0 0.0031981893403569771 -0.019890479699699308 0 0.0032143570310336025 -0.019896865320785034 0 0.0032076633919509755 -0.019902474273424838 0 0.0031981893403569771 -0.019890479699699308 0 0.0031981893403569771 -0.019890479699699308 0 0.0031874484188209895 -0.019882362563786973 0 0.003196169146546704 -0.019886320814903741 0 0.0032143570310336025 -0.019896865320785034 0 0.0031981893403569771 -0.019890479699699308 0 0.003196169146546704 -0.019886320814903741 0 0.0045168972806838266 -0.02230526786462626 0 0.0040027558995643841 -0.022823490052608954 0 0.0031874484188209895 -0.019882362563786973 0 0.0031892211831154042 -0.019864924544469625 0 0.0031816767772298621 -0.019838188683925173 0 0.0020709694890455595 -0.018852303781322865 0 0.0019966146689373815 -0.018288773208766217 0 0.0031981893403569771 -0.019890479699699308 0 0.0031874484188209895 -0.019882362563786973 0 0.0031903795948762768 -0.019887257106871784 0 0.0031874484188209895 -0.019882362563786973 0 0.0031917269197324397 -0.019884127603337132 0 0.0031876239453703516 -0.019897115793534693 0 0.0040027558995643841 -0.022823490052608954 0 0.0036344817645693117 -0.024107888438077908 0 0.0031874484188209895 -0.019882362563786973 0 0.003196169146546704 -0.019886320814903741 0 0.0031876239453703516 -0.019897115793534693 0 0.0030923996634488527 -0.022570792175576362 0 0.0020535544258634521 -0.02044702901001396 0 0.0033481593676521477 -0.02701349848763035 0 0.004374398520852133 -0.027024782617395954 0 0.0033728828816653672 -0.02779048423810402 0 0.0031917269197324397 -0.019884127603337132 0 0.0031959288590147237 -0.019850862331098312 0 0.0031892211831154042 -0.019864924544469625 0 0.0031874484188209895 -0.019882362563786973 0 0.0031917269197324397 -0.019884127603337132 0 0.0031892211831154042 -0.019864924544469625 0 0.0031917269197324397 -0.019884127603337132 0 0.0031959288590147237 -0.019850862331098312 0 0.0032177848162944639 -0.019855698691695164 0 0.0031959288590147237 -0.019850862331098312 0 0.0031892211831154042 -0.019864924544469625 0 0.0031816767772298621 -0.019838188683925173 0 0.0031959288590147237 -0.019850862331098312 0 0.0031816767772298621 -0.019838188683925173 0 0.0031910015482690015 -0.019821894164190317 0 0.0031959288590147237 -0.019850862331098312 0 0.0032177848162944639 -0.019855698691695164 0 0.0031910015482690015 -0.019821894164190317 0 0.0020535544258634521 -0.02044702901001396 0 0.0022508168520038443 -0.020365528778422414 0 0.0031326311874606732 -0.019721224335606288 0 0.0031612541543286922 -0.019820472460382505 0 0.0030808392383285064 -0.01975540172960126 0 0.00091889714542866228 -0.01580038049617196 0 0.0014915730381139373 -0.017785877361579723 0 0.0031326311874606732 -0.019721224335606288 0 0.0031612541543286922 -0.019820472460382505 0 0.0031910015482690015 -0.019821894164190317 0 -0.0037998431529894685 -0.0076750884703112839 0 -0.002458008666021205 -0.007866187289200733 0 -0.0018320219554110965 -0.0095395564542136244 0 0.0031612541543286922 -0.019820472460382505 0 0.0031910015482690015 -0.019821894164190317 0 0.0031970850035315241 -0.019821861798117738 0 -0.0037998431529894685 -0.0076750884703112839 0 -0.0056352861029897693 -0.0059430850537149195 0 -0.0037482938443918388 -0.0058481943362913335 0 0.00091889714542866228 -0.01580038049617196 0 0.0020918730957576056 -0.01561878519954445 0 -0.0037998431529894685 -0.0076750884703112839 0 -0.0029096808772852232 -0.0065851563135674194 0 -0.002458008666021205 -0.007866187289200733 0 -0.0037998431529894685 -0.0076750884703112839 0 -0.0029096808772852232 -0.0065851563135674194 0 -0.0037482938443918388 -0.0058481943362913335 0 0.0031961156663061346 -0.019894263099405816 0 0.0031903795948762768 -0.019887257106871784 0 0.0031876423335075363 -0.019891496781097386 0 0.0031816767772298621 -0.019838188683925173 0 0.0031910015482690015 -0.019821894164190317 0 0.0031970850035315241 -0.019821861798117738 0 0.0019966146689373815 -0.018288773208766217 0 0.0020918730957576056 -0.01561878519954445 0 0.0020918730957576056 -0.01561878519954445 0 0.005329447274541519 -0.018912261850163373 0 0.0024129766084084515 -0.016262680902951295 0 0.0023282579757271577 -0.016441228202848369 0 0.0026071659977224553 -0.01643769370841899 0 0.0031961156663061346 -0.019894263099405816 0 0.0031876423335075363 -0.019891496781097386 0 0.0031997633641767513 -0.019906571934624896 0 0.0020918730957576056 -0.01561878519954445 0 0.0019580752028909828 -0.014379592997427512 0 -0.0029416520328432428 -0.0056246332047451822 0 -0.0037482938443918388 -0.0058481943362913335 0 -0.0031455659878855883 -0.0047937003128040575 0 -0.0029096808772852232 -0.0065851563135674194 0 -0.0029416520328432428 -0.0056246332047451822 0 -0.0022521323255139695 -0.0058821725083179127 0 -0.0029096808772852232 -0.0065851563135674194 0 -0.0029416520328432428 -0.0056246332047451822 0 -0.0037482938443918388 -0.0058481943362913335 0 -0.0056352861029897693 -0.0059430850537149195 0 -0.0037482938443918388 -0.0058481943362913335 0 -0.0041010123717659837 -0.0049226980315223009 0 -0.0041010123717659837 -0.0049226980315223009 0 -0.0035609643460146182 -0.0043230965311424332 0 -0.0045630625654483579 -0.0037428620017674157 0 -0.0056352861029897693 -0.0059430850537149195 0 -0.0041010123717659837 -0.0049226980315223009 0 -0.0045630625654483579 -0.0037428620017674157 0 -0.0035609643460146182 -0.0043230965311424332 0 -0.0028209188229076036 -0.0042902811604789669 0 -0.0033123187373765265 -0.0037321195761204034 0 -0.0037482938443918388 -0.0058481943362913335 0 -0.0041010123717659837 -0.0049226980315223009 0 -0.0031455659878855883 -0.0047937003128040575 0 -0.0041010123717659837 -0.0049226980315223009 0 -0.0035609643460146182 -0.0043230965311424332 0 -0.0031455659878855883 -0.0047937003128040575 0 -0.0029416520328432428 -0.0056246332047451822 0 -0.0031455659878855883 -0.0047937003128040575 0 -0.002632754721325575 -0.0050439154963788724 0 -0.0031455659878855883 -0.0047937003128040575 0 -0.0027189399395542492 -0.0046129656512979237 0 -0.002632754721325575 -0.0050439154963788724 0 -0.0031455659878855883 -0.0047937003128040575 0 -0.0027189399395542492 -0.0046129656512979237 0 -0.0028209188229076036 -0.0042902811604789669 0 -0.0035609643460146182 -0.0043230965311424332 0 -0.0031455659878855883 -0.0047937003128040575 0 -0.0028209188229076036 -0.0042902811604789669 0 -0.0022832798003216536 -0.0043384063912500692 0 -0.002632754721325575 -0.0050439154963788724 0 -0.0022521323255139695 -0.0058821725083179127 0 -0.0022832798003216536 -0.0043384063912500692 0 -0.0017584799619880282 -0.0044350828104846828 0 -0.0019185358307593965 -0.0051256176562468649 0 -0.0022832798003216536 -0.0043384063912500692 0 -0.0022521323255139695 -0.0058821725083179127 0 -0.0011439360532246542 -0.006909155500322995 0 -0.001544048839133302 -0.0064387756215277788 0 -0.0012052142981409969 -0.0073360517936127837 0 -0.0028209188229076036 -0.0042902811604789669 0 -0.0022832798003216536 -0.0043384063912500692 0 -0.0023483489339780465 -0.0038540317842977912 0 -0.0027189399395542492 -0.0046129656512979237 0 -0.0028209188229076036 -0.0042902811604789669 0 -0.0022832798003216536 -0.0043384063912500692 0 -0.0027189399395542492 -0.0046129656512979237 0 -0.0022832798003216536 -0.0043384063912500692 0 -0.002632754721325575 -0.0050439154963788724 0 -0.0029416520328432428 -0.0056246332047451822 0 -0.002632754721325575 -0.0050439154963788724 0 -0.0022521323255139695 -0.0058821725083179127 0 -0.0017584799619880282 -0.0044350828104846828 0 -0.0012234025543265171 -0.0046775056694593579 0 -0.0019185358307593965 -0.0051256176562468649 0 -0.0022832798003216536 -0.0043384063912500692 0 -0.0017584799619880282 -0.0044350828104846828 0 -0.0019317197051939318 -0.0040361332095578224 0 -0.0017584799619880282 -0.0044350828104846828 0 -0.0014582348692816444 -0.0039803346417434408 0 -0.0019317197051939318 -0.0040361332095578224 0 -0.0012234025543265171 -0.0046775056694593579 0 -0.00018240696324124266 -0.00506341841980596 0 -0.00082958164896205469 -0.0040416085736604199 0 -0.0012234025543265171 -0.0046775056694593579 0 -0.00082958164896205469 -0.0040416085736604199 0 -0.0014582348692816444 -0.0039803346417434408 0 -0.0017584799619880282 -0.0044350828104846828 0 -0.0012234025543265171 -0.0046775056694593579 0 -0.0014582348692816444 -0.0039803346417434408 0 -0.0011575894105668714 -0.0053867187532625239 0 -0.00018240696324124266 -0.00506341841980596 0 -0.0011789905609980772 -0.0062865116977939145 0 -0.0012234025543265171 -0.0046775056694593579 0 -0.0011575894105668714 -0.0053867187532625239 0 -0.00018240696324124266 -0.00506341841980596 0 -0.0011575894105668714 -0.0053867187532625239 0 -0.0019185358307593965 -0.0051256176562468649 0 -0.0015661152818929047 -0.0060191989269017723 0 -0.0012234025543265171 -0.0046775056694593579 0 -0.0011575894105668714 -0.0053867187532625239 0 -0.0019185358307593965 -0.0051256176562468649 0 -0.0012052142981409969 -0.0073360517936127837 0 -0.00031620280036173264 -0.0097449122993444638 0 -0.002458008666021205 -0.007866187289200733 0 -0.0011439360532246542 -0.006909155500322995 0 -0.00013748731835294396 -0.0094622967555336047 0 -0.00090087661119641975 -0.0092944768975640364 0 -0.00031620280036173264 -0.0097449122993444638 0 -0.0029096808772852232 -0.0065851563135674194 0 -0.002458008666021205 -0.007866187289200733 0 -0.0021480942338449119 -0.0068329133131168817 0 -0.002458008666021205 -0.007866187289200733 0 -0.0021480942338449119 -0.0068329133131168817 0 -0.0011439360532246542 -0.006909155500322995 0 -0.0029096808772852232 -0.0065851563135674194 0 -0.0022521323255139695 -0.0058821725083179127 0 -0.0021480942338449119 -0.0068329133131168817 0 -0.0022521323255139695 -0.0058821725083179127 0 -0.0021480942338449119 -0.0068329133131168817 0 -0.0011439360532246542 -0.006909155500322995 0 0.0099103329855493201 0.004589305152117364 0 0.0081493528962154442 0.0048071039928819842 0 0.0080466796906983121 0.0022974249141306364 0 -0.00018240696324124266 -0.00506341841980596 0 -0.00010725237054256807 -0.003488840856597153 0 0.00083718373384587168 -0.0038015714018893409 0 0.0081493528962154442 0.0048071039928819842 0 0.0080466796906983121 0.0022974249141306364 0 0.0071270466977885463 0.0036404048824422047 0 0.0042532410949194781 -0.001908825354716591 0 0.0027025955877062798 -0.00093596936068726796 0 -0.00018240696324124266 -0.00506341841980596 0 -0.00010725237054256807 -0.003488840856597153 0 -0.00082958164896205469 -0.0040416085736604199 0 0.0042532410949194781 -0.001908825354716591 0 0.0010249162566476676 -0.0094456524998759415 0 0.0081493528962154442 0.0048071039928819842 0 0.0087490717016895647 0.0065017164003029638 0 0.0075564963481352231 0.0065048589005917545 0 0.0099103329855493201 0.004589305152117364 0 0.0081493528962154442 0.0048071039928819842 0 0.0087490717016895647 0.0065017164003029638 0 0.0087490717016895647 0.0065017164003029638 0 0.0081169680086172463 0.0079046190697909819 0 0.0075564963481352231 0.0065048589005917545 0 0.0087490717016895647 0.0065017164003029638 0 0.0090697729903473755 0.0074875078108833631 0 0.010040749101847157 0.007009191409140767 0 0.0087490717016895647 0.0065017164003029638 0 0.0090697729903473755 0.0074875078108833631 0 0.0081169680086172463 0.0079046190697909819 0 0.0099103329855493201 0.004589305152117364 0 0.010040749101847157 0.007009191409140767 0 0.011745127768068849 0.0068444054114478771 0 0.0099103329855493201 0.004589305152117364 0 0.0087490717016895647 0.0065017164003029638 0 0.010040749101847157 0.007009191409140767 0 0.010040749101847157 0.007009191409140767 0 0.0093693062433731992 0.0085321057897449551 0 0.011745127768068849 0.0068444054114478771 0 -7.309236548027517e-06 -0.024352505298016087 0 0.00040985587739863512 -0.024391158335702559 0 8.1935367200876863e-05 -0.024115041972884485 0 0.00082841264734572037 -0.017053455948301603 0 0.0020215953552019357 -0.020082407512338078 0 0.0032306696213808789 -0.008868424909877692 0 0.0010249162566476676 -0.0094456524998759415 0 0.0090697729903473755 0.0074875078108833631 0 0.010040749101847157 0.007009191409140767 0 0.0093693062433731992 0.0085321057897449551 0 0.0093693062433731992 0.0085321057897449551 0 0.0081169680086172463 0.0079046190697909819 0 0.0069823195154010923 0.010246190117367115 0 0.0090697729903473755 0.0074875078108833631 0 0.0093693062433731992 0.0085321057897449551 0 0.0081169680086172463 0.0079046190697909819 0 0.0014915730381139373 -0.017785877361579723 0 -0.00011703853650047024 -0.015476961361341988 0 0.00016829001128181091 -0.023111850462065195 0 0.00031225575254297092 -0.023254643816962406 0 0.00021374200594068599 -0.023266182886889378 0 -0.0018320219554110965 -0.0095395564542136244 0 -6.2098819479721007e-05 -0.0095392989849575286 0 0.00021362147620107564 -0.011418510611200375 0 6.886232467926899e-05 -0.023190414273052604 0 0.00016829001128181091 -0.023111850462065195 0 0.00021374200594068599 -0.023266182886889378 0 -0.002458008666021205 -0.007866187289200733 0 -0.0018320219554110965 -0.0095395564542136244 0 -6.2098819479721007e-05 -0.0095392989849575286 0 0.0020535544258634521 -0.02044702901001396 0 0.0014915730381139373 -0.017785877361579723 0 -0.0011575894105668714 -0.0053867187532625239 0 -0.0015661152818929047 -0.0060191989269017723 0 -0.0011789905609980772 -0.0062865116977939145 0 -0.00031620280036173264 -0.0097449122993444638 0 0.0010249162566476676 -0.0094456524998759415 0 -6.2098819479721007e-05 -0.0095392989849575286 0 0.00052262694782687644 -0.011038385410909537 0 0.00021362147620107564 -0.011418510611200375 0 0.00039697029369373748 -0.024541736686619825 0 0.00044953940470269436 -0.024478558555481644 0 0.00040985587739863512 -0.024391158335702559 0 -0.00031620280036173264 -0.0097449122993444638 0 0.00014902002605779577 -0.013787115805912686 0 0.0030478383918308236 -0.012740911454015959 0 -0.0031317995532320043 -0.0085032166618653534 0 -0.00010061944830657896 -0.0047816532382789047 0 0.0010249162566476676 -0.0094456524998759415 0 0.00014902002605779577 -0.013787115805912686 0 0.00014902002605779577 -0.013787115805912686 0 -0.00011703853650047024 -0.015476961361341988 0 0.00082841264734572037 -0.017053455948301603 0 0.0014032799535347554 -0.021623895140568471 0 0.00030098298184351837 -0.023270699693132821 0 0.00034130806929364192 -0.023318845585365577 0 0.00027769891337628194 -0.023299572699739639 0 0.00034130806929364192 -0.023318845585365577 0 0.00029517190691608991 -0.023393753617571272 0 0.00027769891337628194 -0.023299572699739639 0 -0.00011703853650047024 -0.015476961361341988 0 -0.00018921933573756564 -0.015623341219732585 0 -7.309236548027517e-06 -0.024352505298016087 0 0.00039697029369373748 -0.024541736686619825 0 0.00040985587739863512 -0.024391158335702559 0 0.00034130806929364192 -0.023318845585365577 0 0.00029517190691608991 -0.023393753617571272 0 0.00031242481127943464 -0.023472794203983547 0 0.00018194086356024689 -0.02005898781858325 0 0.0022453446783293929 -0.017525620358720635 0 -0.0025207496047264136 -0.013222288287556649 0 0.00014902002605779577 -0.013787115805912686 0 0.00082841264734572037 -0.017053455948301603 0 -0.00011703853650047024 -0.015476961361341988 0 0.00082841264734572037 -0.017053455948301603 0 0.0020535544258634521 -0.02044702901001396 0 0.0021918987685145695 -0.023719553205199657 0 0.00021374200594068599 -0.023266182886889378 0 0.00027769891337628194 -0.023299572699739639 0 0.00024827449242433426 -0.023461302880156586 0 6.886232467926899e-05 -0.023190414273052604 0 0.00021374200594068599 -0.023266182886889378 0 0.00024827449242433426 -0.023461302880156586 0 0.0033481593676521477 -0.02701349848763035 0 0.0033728828816653672 -0.02779048423810402 0 0.0026734964308097963 -0.0267884807585765 0 0.00029517190691608991 -0.023393753617571272 0 0.00027769891337628194 -0.023299572699739639 0 0.00024827449242433426 -0.023461302880156586 0 0.00031225575254297092 -0.023254643816962406 0 0.00021374200594068599 -0.023266182886889378 0 0.00027769891337628194 -0.023299572699739639 0 0.0031258911622065021 -0.026417677796147256 0 0.0026734964308097963 -0.0267884807585765 0 0.0027282210346188177 -0.025938015653762001 0 0.0033481593676521477 -0.02701349848763035 0 0.0031258911622065021 -0.026417677796147256 0 0.0026734964308097963 -0.0267884807585765 0 0.00031242481127943464 -0.023472794203983547 0 0.00035705031003425904 -0.023523863085962594 0 0.0003518578860737741 -0.023544004180810815 0 0.00029517190691608991 -0.023393753617571272 0 0.00024827449242433426 -0.023461302880156586 0 0.00031242481127943464 -0.023472794203983547 0 0.00024827449242433426 -0.023461302880156586 0 0.00031242481127943464 -0.023472794203983547 0 0.0003518578860737741 -0.023544004180810815 0 0.00034130806929364192 -0.023318845585365577 0 0.00031242481127943464 -0.023472794203983547 0 0.00035705031003425904 -0.023523863085962594 0 0.0021918987685145695 -0.023719553205199657 0 0.0015089011598344627 -0.024008443275745243 0 0.0018158752642474087 -0.025694730094813 0 0.0027282210346188177 -0.025938015653762001 0 0.0023948139999480571 -0.025318718006011324 0 0.0026734964308097963 -0.0267884807585765 0 0.0018158752642474087 -0.025694730094813 0 0.0027282210346188177 -0.025938015653762001 0 0.0027282210346188177 -0.025938015653762001 0 0.0029889658404213732 -0.025334483082538301 0 0.0023948139999480571 -0.025318718006011324 0 0.0027282210346188177 -0.025938015653762001 0 0.0029889658404213732 -0.025334483082538301 0 0.0034677900158164372 -0.025864156013095153 0 0.0031258911622065021 -0.026417677796147256 0 0.0027282210346188177 -0.025938015653762001 0 0.0034677900158164372 -0.025864156013095153 0 8.1935367200876863e-05 -0.024115041972884485 0 -0.0002033714030478697 -0.023789405705842134 0 -0.0006520096034928431 -0.024148190966467451 0 0.0032306696213808789 -0.008868424909877692 0 0.002462486897961177 -0.0076896275222643464 0 -7.309236548027517e-06 -0.024352505298016087 0 8.1935367200876863e-05 -0.024115041972884485 0 -0.0006520096034928431 -0.024148190966467451 0 0.00055171200458461599 -0.024479300678379095 0 0.00036258732062186298 -0.024042766777492668 0 8.1935367200876863e-05 -0.024115041972884485 0 0.00036258732062186298 -0.024042766777492668 0 8.1935367200876863e-05 -0.024115041972884485 0 0.00010526549371911258 -0.023846738024579397 0 0.0014032799535347554 -0.021623895140568471 0 0.0013621876530160585 -0.022428539532681747 0 0.00035705031003425904 -0.023523863085962594 0 0.0003518578860737741 -0.023544004180810815 0 0.00020422782698558144 -0.023477255975593615 0 0.00036258732062186298 -0.024042766777492668 0 0.00010526549371911258 -0.023846738024579397 0 0.00020422782698558144 -0.023477255975593615 0 0.00010526549371911258 -0.023846738024579397 0 -0.0002033714030478697 -0.023789405705842134 0 0.00020422782698558144 -0.023477255975593615 0 8.1935367200876863e-05 -0.024115041972884485 0 0.00010526549371911258 -0.023846738024579397 0 -0.0002033714030478697 -0.023789405705842134 0 -0.0002033714030478697 -0.023789405705842134 0 -8.4659593137826551e-05 -0.023337195871807583 0 -0.00046448474813481672 -0.023524497250318663 0 -0.0002033714030478697 -0.023789405705842134 0 -8.4659593137826551e-05 -0.023337195871807583 0 0.00020422782698558144 -0.023477255975593615 0 -8.4659593137826551e-05 -0.023337195871807583 0 -0.00032567974978813132 -0.022936182218639592 0 -0.00046448474813481672 -0.023524497250318663 0 -8.4659593137826551e-05 -0.023337195871807583 0 0.00020974914926414048 -0.023107689742317663 0 -0.00032567974978813132 -0.022936182218639592 0 0.0015089011598344627 -0.024008443275745243 0 0.00083466493680037473 -0.023474918526125939 0 -8.4659593137826551e-05 -0.023337195871807583 0 0.00020422782698558144 -0.023477255975593615 0 0.00020974914926414048 -0.023107689742317663 0 0.0003518578860737741 -0.023544004180810815 0 0.00020422782698558144 -0.023477255975593615 0 0.00020974914926414048 -0.023107689742317663 0 0.00099267992405103079 -0.022851000269743217 0 0.0008455083393029974 -0.024258826971652526 0 0.00196107169468432 -0.02370245229195268 0 0.00046250099042255774 -0.022993099238398446 0 0.00083466493680037473 -0.023474918526125939 0 -2.4168511134651324e-05 -0.022369264476353977 0 0.00020974914926414048 -0.023107689742317663 0 -0.00032567974978813132 -0.022936182218639592 0 0.0024792929512393556 -0.024593945266256995 0 0.003204245362400149 -0.024697010760903269 0 0.0029889658404213732 -0.025334483082538301 0 0.0024792929512393556 -0.024593945266256995 0 0.0029889658404213732 -0.025334483082538301 0 0.0023948139999480571 -0.025318718006011324 0 0.0018158752642474087 -0.025694730094813 0 0.0008455083393029974 -0.024258826971652526 0 0.0019063031080267725 -0.024728760132890035 0 0.0018158752642474087 -0.025694730094813 0 0.0023948139999480571 -0.025318718006011324 0 0.0019063031080267725 -0.024728760132890035 0 0.0024792929512393556 -0.024593945266256995 0 0.0023948139999480571 -0.025318718006011324 0 0.0019063031080267725 -0.024728760132890035 0 0.0024792929512393556 -0.024593945266256995 0 0.0019063031080267725 -0.024728760132890035 0 0.00196107169468432 -0.02370245229195268 0 0.0008455083393029974 -0.024258826971652526 0 0.0019063031080267725 -0.024728760132890035 0 0.00196107169468432 -0.02370245229195268 0 0.0028215068876631731 -0.022916445337338869 0 0.00196107169468432 -0.02370245229195268 0 0.0028107476758194956 -0.024024378048450583 0 0.0028215068876631731 -0.022916445337338869 0 0.0028107476758194956 -0.024024378048450583 0 0.0035414608796518984 -0.024168686116715511 0 0.0024792929512393556 -0.024593945266256995 0 0.00196107169468432 -0.02370245229195268 0 0.0028107476758194956 -0.024024378048450583 0 0.0024792929512393556 -0.024593945266256995 0 0.003204245362400149 -0.024697010760903269 0 0.0028107476758194956 -0.024024378048450583 0 0.003204245362400149 -0.024697010760903269 0 0.0028107476758194956 -0.024024378048450583 0 0.0035414608796518984 -0.024168686116715511 0 0.0038376971530108715 -0.023451098868482657 0 0.0035414608796518984 -0.024168686116715511 0 0.0039836812238864356 -0.024503019749023323 0 0.0035414608796518984 -0.024168686116715511 0 0.0039836812238864356 -0.024503019749023323 0 0.0037603586669033586 -0.024822806177383739 0 0.003204245362400149 -0.024697010760903269 0 0.0035414608796518984 -0.024168686116715511 0 0.0037603586669033586 -0.024822806177383739 0 0.003204245362400149 -0.024697010760903269 0 0.0037603586669033586 -0.024822806177383739 0 0.0035637046796736702 -0.025266898255187225 0 0.0037603586669033586 -0.024822806177383739 0 0.0039233021902901075 -0.025183900800903564 0 0.0042358555760520274 -0.025078721125587077 0 0.0039836812238864356 -0.024503019749023323 0 0.0037603586669033586 -0.024822806177383739 0 0.0042358555760520274 -0.025078721125587077 0 0.0037603586669033586 -0.024822806177383739 0 0.0039233021902901075 -0.025183900800903564 0 0.0035637046796736702 -0.025266898255187225 0 0.0039233021902901075 -0.025183900800903564 0 0.0035637046796736702 -0.025266898255187225 0 0.0040776442332850086 -0.025510575857947731 0 0.003204245362400149 -0.024697010760903269 0 0.0029889658404213732 -0.025334483082538301 0 0.0035637046796736702 -0.025266898255187225 0 0.0044403697116640727 -0.025320885722110213 0 0.0047037292572885952 -0.025315520119327486 0 0.004576843306742906 -0.025583120333285189 0 0.0044403697116640727 -0.025320885722110213 0 0.0040776442332850086 -0.025510575857947731 0 0.004576843306742906 -0.025583120333285189 0 0.0039233021902901075 -0.025183900800903564 0 0.0042358555760520274 -0.025078721125587077 0 0.0040776442332850086 -0.025510575857947731 0 0.0044403697116640727 -0.025320885722110213 0 0.0042358555760520274 -0.025078721125587077 0 0.0040776442332850086 -0.025510575857947731 0 0.0042358555760520274 -0.025078721125587077 0 0.0045353619148326245 -0.025136787738329273 0 0.0044685089417488633 -0.024879682823769299 0 0.0044403697116640727 -0.025320885722110213 0 0.0042358555760520274 -0.025078721125587077 0 0.0045353619148326245 -0.025136787738329273 0 0.0045353619148326245 -0.025136787738329273 0 0.0046936222871257465 -0.025150188109255924 0 0.0047037292572885952 -0.025315520119327486 0 0.0044403697116640727 -0.025320885722110213 0 0.0045353619148326245 -0.025136787738329273 0 0.0047037292572885952 -0.025315520119327486 0 0.0045353619148326245 -0.025136787738329273 0 0.0044685089417488633 -0.024879682823769299 0 0.0046936222871257465 -0.025150188109255924 0 0.0044685089417488633 -0.024879682823769299 0 0.0048676749509010461 -0.025120721017017018 0 0.0046936222871257465 -0.025150188109255924 0 0.0044685089417488633 -0.024879682823769299 0 0.0043021248228846624 -0.024272534958828494 0 0.0048676749509010461 -0.025120721017017018 0 0.0046047963711221265 -0.02278620570131662 0 0.0043021248228846624 -0.024272534958828494 0 0.0048676749509010461 -0.025120721017017018 0 0.0039836812238864356 -0.024503019749023323 0 0.0044685089417488633 -0.024879682823769299 0 0.0043021248228846624 -0.024272534958828494 0 0.0039836812238864356 -0.024503019749023323 0 0.0042358555760520274 -0.025078721125587077 0 0.0044685089417488633 -0.024879682823769299 0 0.0038376971530108715 -0.023451098868482657 0 0.0039836812238864356 -0.024503019749023323 0 0.0043021248228846624 -0.024272534958828494 0 0.0046740346770514198 -0.025616839454990274 0 0.0046502856674383213 -0.025485560978636669 0 0.0048676749509010461 -0.025120721017017018 0 0.0046502856674383213 -0.025485560978636669 0 0.0047306847151444495 -0.025311387282862623 0 0.0048676749509010461 -0.025120721017017018 0 0.0046502856674383213 -0.025485560978636669 0 0.0046668071542112733 -0.02543126084569091 0 0.0047306847151444495 -0.025311387282862623 0 0.0046668071542112733 -0.02543126084569091 0 0.0047306847151444495 -0.025311387282862623 0 0.0046905577660289865 -0.025411160637904735 0 0.0047306847151444495 -0.025311387282862623 0 0.0048676749509010461 -0.025120721017017018 0 0.0047574101926733869 -0.025246067336109259 0 0.0048676749509010461 -0.025120721017017018 0 0.0046936222871257465 -0.025150188109255924 0 0.0047574101926733869 -0.025246067336109259 0 0.0045621064516111138 -0.025705826519691045 0 0.0046159062709178337 -0.025560785867239814 0 0.0046076254220742859 -0.025629002432493254 0 0.0045285283982986063 -0.025794446134040618 0 0.004525055301416509 -0.025815617253174668 0 0.0045621064516111138 -0.025705826519691045 0 0.0046074022041190715 -0.02569059110169182 0 0.0046502856674383213 -0.025485560978636669 0 0.0045881794914983468 -0.025644535727233457 0 0.0045621064516111138 -0.025705826519691045 0 0.0045881794914983468 -0.025644535727233457 0 0.0046159062709178337 -0.025560785867239814 0 0.0046502856674383213 -0.025485560978636669 0 0.0045881794914983468 -0.025644535727233457 0 0.0046159062709178337 -0.025560785867239814 0 0.0046502805699280879 -0.025506340824099125 0 0.0046076254220742859 -0.025629002432493254 0 0.0046618027053986115 -0.025570598819323866 0 0.0046668071542112733 -0.02543126084569091 0 0.0046159062709178337 -0.025560785867239814 0 0.0046502805699280879 -0.025506340824099125 0 0.0046502856674383213 -0.025485560978636669 0 0.0046668071542112733 -0.02543126084569091 0 0.0046159062709178337 -0.025560785867239814 0 0.0046668071542112733 -0.02543126084569091 0 0.0046502805699280879 -0.025506340824099125 0 0.0046905577660289865 -0.025411160637904735 0 0.0046159062709178337 -0.025560785867239814 0 0.0046502805699280879 -0.025506340824099125 0 0.0046076254220742859 -0.025629002432493254 0 0.0045603627504640443 -0.025748010574149743 0 0.0045900240827552608 -0.025764723379835323 0 0.0046076254220742859 -0.025629002432493254 0 0.0045603627504640443 -0.025748010574149743 0 0.0045621064516111138 -0.025705826519691045 0 0.0046076254220742859 -0.025629002432493254 0 0.0046618027053986115 -0.025570598819323866 0 0.0046629080118934223 -0.025720444730662526 0 0.0046011136114016997 -0.025670299017320021 0 0.0045900240827552608 -0.025764723379835323 0 0.0046076254220742859 -0.025629002432493254 0 0.0046618027053986115 -0.025570598819323866 0 0.0045900240827552608 -0.025764723379835323 0 0.0046618027053986115 -0.025570598819323866 0 0.0046629080118934223 -0.025720444730662526 0 0.0046502805699280879 -0.025506340824099125 0 0.0046618027053986115 -0.025570598819323866 0 0.0046905577660289865 -0.025411160637904735 0 0.0046618027053986115 -0.025570598819323866 0 0.0046905577660289865 -0.025411160637904735 0 0.0046011136114016997 -0.025670299017320021 0 0.0042557511911370458 -0.025306298799630051 0 0.0041366674891171159 -0.025119568473332694 0 0.0047574101926733869 -0.025246067336109259 0 0.0046905577660289865 -0.025411160637904735 0 0.0046011136114016997 -0.025670299017320021 0 0.0047574101926733869 -0.025246067336109259 0 0.0047037292572885952 -0.025315520119327486 0 0.0050287510659588379 -0.025585570980970643 0 0.0046936222871257465 -0.025150188109255924 0 0.0047574101926733869 -0.025246067336109259 0 0.0047037292572885952 -0.025315520119327486 0 0.0047306847151444495 -0.025311387282862623 0 0.0047574101926733869 -0.025246067336109259 0 0.0046905577660289865 -0.025411160637904735 0 0.0047037292572885952 -0.025315520119327486 0 0.0050287510659588379 -0.025585570980970643 0 0.004576843306742906 -0.025583120333285189 0 0.0041366674891171159 -0.025119568473332694 0 0.0036344817645693117 -0.024107888438077908 0 0.0050287510659588379 -0.025585570980970643 0 0.0046898333986637774 -0.026092548315923475 0 0.004576843306742906 -0.025583120333285189 0 0.0050287510659588379 -0.025585570980970643 0 0.0046898333986637774 -0.026092548315923475 0 0.0052907533930759915 -0.026274962579019262 0 0.0046887629680692437 -0.025785847739208254 0 0.0046011136114016997 -0.025670299017320021 0 0.0046170074320798435 -0.025800780579305422 0 0.0046887629680692437 -0.025785847739208254 0 0.0046629080118934223 -0.025720444730662526 0 0.0046011136114016997 -0.025670299017320021 0 0.003750153447777758 -0.024321627823116594 0 0.0036344817645693117 -0.024107888438077908 0 0.0047230444850312392 -0.025664336032430582 0 0.0046887629680692437 -0.025785847739208254 0 0.0049293537815893315 -0.025715502558933182 0 0.0047230444850312392 -0.025664336032430582 0 0.0049602811893551171 -0.02534900273802191 0 0.0049293537815893315 -0.025715502558933182 0 0.004374398520852133 -0.027024782617395954 0 0.0046898333986637774 -0.026092548315923475 0 0.0052907533930759915 -0.026274962579019262 0 0.0030923996634488527 -0.022570792175576362 0 0.0036344817645693117 -0.024107888438077908 0 0.004374398520852133 -0.027024782617395954 0 0.0036241056080660158 -0.026499668495808554 0 0.0041536141788301052 -0.026070891679710089 0 0.004374398520852133 -0.027024782617395954 0 0.0046898333986637774 -0.026092548315923475 0 0.0041536141788301052 -0.026070891679710089 0 0.0033481593676521477 -0.02701349848763035 0 0.004374398520852133 -0.027024782617395954 0 0.0036241056080660158 -0.026499668495808554 0 0.0033481593676521477 -0.02701349848763035 0 0.0031258911622065021 -0.026417677796147256 0 0.0036241056080660158 -0.026499668495808554 0 0.0031258911622065021 -0.026417677796147256 0 0.0036241056080660158 -0.026499668495808554 0 0.0034677900158164372 -0.025864156013095153 0 0.0036241056080660158 -0.026499668495808554 0 0.0034677900158164372 -0.025864156013095153 0 0.0041536141788301052 -0.026070891679710089 0 0.0029889658404213732 -0.025334483082538301 0 0.0035637046796736702 -0.025266898255187225 0 0.0034677900158164372 -0.025864156013095153 0 0.0035637046796736702 -0.025266898255187225 0 0.0034677900158164372 -0.025864156013095153 0 0.0040776442332850086 -0.025510575857947731 0 0.0034677900158164372 -0.025864156013095153 0 0.0040776442332850086 -0.025510575857947731 0 0.0041536141788301052 -0.026070891679710089 0 0.0040776442332850086 -0.025510575857947731 0 0.004576843306742906 -0.025583120333285189 0 0.0041536141788301052 -0.026070891679710089 0 0.0046898333986637774 -0.026092548315923475 0 0.004576843306742906 -0.025583120333285189 0 0.0041536141788301052 -0.026070891679710089 0 -3.6143450597203419e-05 -0.034819643154766142 0 -4.4178529714105394e-05 -0.034828478138535519 0 -4.7511365533169515e-05 -0.034669370337878397 0 -3.6143450597203419e-05 -0.034819643154766142 0 -4.7511365533169515e-05 -0.034669370337878397 0 -6.1082623161921163e-05 -0.034670922821635204 0 -3.6143450597203419e-05 -0.034819643154766142 0 -1.5929816791627381e-07 -0.034999727106587199 0 2.2279385105873106e-07 -0.034999226367936502 0 -3.6143450597203419e-05 -0.034819643154766142 0 -1.5929816791627381e-07 -0.034999727106587199 0 -4.4178529714105394e-05 -0.034828478138535519 0 -1.5929816791627381e-07 -0.034999727106587199 0 -6.1649690690356409e-05 -0.03491460346192931 0 -4.4178529714105394e-05 -0.034828478138535519 0 -6.1649690690356409e-05 -0.03491460346192931 0 -4.4178529714105394e-05 -0.034828478138535519 0 -4.1963688561946465e-05 -0.034701329181658386 0 -1.5929816791627381e-07 -0.034999727106587199 0 -6.1649690690356409e-05 -0.03491460346192931 0 -3.522888804064763e-08 -0.03499983890806109 0 -4.4178529714105394e-05 -0.034828478138535519 0 -4.7511365533169515e-05 -0.034669370337878397 0 -4.1963688561946465e-05 -0.034701329181658386 0 -4.7511365533169515e-05 -0.034669370337878397 0 -3.5807333544670153e-05 -0.034584815964551312 0 -4.1963688561946465e-05 -0.034701329181658386 0 -4.7511365533169515e-05 -0.034669370337878397 0 -4.1118745996409077e-05 -0.034498480784275774 0 -7.3079728789436307e-05 -0.034528683760692104 0 -4.7511365533169515e-05 -0.034669370337878397 0 -4.1118745996409077e-05 -0.034498480784275774 0 -3.5807333544670153e-05 -0.034584815964551312 0 -4.1118745996409077e-05 -0.034498480784275774 0 -7.3079728789436307e-05 -0.034528683760692104 0 -4.2539501445147741e-05 -0.034333390577768554 0 -7.3079728789436307e-05 -0.034528683760692104 0 -6.1082623161921163e-05 -0.034670922821635204 0 -9.2469096761230876e-05 -0.034582407478941292 0 -4.7511365533169515e-05 -0.034669370337878397 0 -7.3079728789436307e-05 -0.034528683760692104 0 -6.1082623161921163e-05 -0.034670922821635204 0 -9.2469096761230876e-05 -0.034582407478941292 0 -7.7001593944224468e-05 -0.034579600924825711 0 -4.6000991751485318e-05 -0.034736561248592868 0 -6.1082623161921163e-05 -0.034670922821635204 0 -9.2469096761230876e-05 -0.034582407478941292 0 -4.6000991751485318e-05 -0.034736561248592868 0 -9.2469096761230876e-05 -0.034582407478941292 0 -0.00014192038239111885 -0.034441994867303441 0 -0.00013047868592417378 -0.034472065718013326 0 -7.3079728789436307e-05 -0.034528683760692104 0 -9.2469096761230876e-05 -0.034582407478941292 0 -0.00014192038239111885 -0.034441994867303441 0 -7.3079728789436307e-05 -0.034528683760692104 0 -0.00014192038239111885 -0.034441994867303441 0 -0.00020312084993458096 -0.03440419189932916 0 -0.00013047868592417378 -0.034472065718013326 0 -0.00016418155271923134 -0.034378059205928672 0 -0.00017508079438854565 -0.034364986625401182 0 -0.00014192038239111885 -0.034441994867303441 0 -0.00013047868592417378 -0.034472065718013326 0 -0.00017508079438854565 -0.034364986625401182 0 -0.00013047868592417378 -0.034472065718013326 0 -7.7001593944224468e-05 -0.034579600924825711 0 -0.00011503562975112321 -0.034451226408457138 0 -9.2469096761230876e-05 -0.034582407478941292 0 -0.00013047868592417378 -0.034472065718013326 0 -7.7001593944224468e-05 -0.034579600924825711 0 -7.7001593944224468e-05 -0.034579600924825711 0 -4.6000991751485318e-05 -0.034736561248592868 0 -2.3136980246162931e-06 -0.034584786560510485 0 -7.7001593944224468e-05 -0.034579600924825711 0 -2.3136980246162931e-06 -0.034584786560510485 0 -0.00011503562975112321 -0.034451226408457138 0 -3.6143450597203419e-05 -0.034819643154766142 0 -6.1082623161921163e-05 -0.034670922821635204 0 -4.6000991751485318e-05 -0.034736561248592868 0 -3.6143450597203419e-05 -0.034819643154766142 0 -4.6000991751485318e-05 -0.034736561248592868 0 2.2279385105873106e-07 -0.034999226367936502 0 3.9565105406149511e-10 -0.035000001615721948 0 -2.3309356086611762e-09 -0.034999999883409585 0 -1.5401429287295196e-06 -0.035000632492002678 0 -4.6000991751485318e-05 -0.034736561248592868 0 2.2279385105873106e-07 -0.034999226367936502 0 -2.3136980246162931e-06 -0.034584786560510485 0 -7.619622074346785e-08 -0.034999741995111008 0 -7.2869036895749026e-05 -0.034850632052073026 0 -2.3309356086611762e-09 -0.034999999883409585 0 -1.5401429287295196e-06 -0.035000632492002678 0 -2.3465804565144577e-06 -0.03499951549842388 0 -2.3136980246162931e-06 -0.034584786560510485 0 -7.8968814563354979e-05 -0.034368591828267896 0 -0.00011503562975112321 -0.034451226408457138 0 -7.2869036895749026e-05 -0.034850632052073026 0 -0.00010637630866346246 -0.034791866912245624 0 -1.5401429287295196e-06 -0.035000632492002678 0 -2.3465804565144577e-06 -0.03499951549842388 0 -5.0394977202165033e-06 -0.03500003644050971 0 -2.3465804565144577e-06 -0.03499951549842388 0 -5.1390015456949899e-06 -0.034998159694771186 0 -5.0394977202165033e-06 -0.03500003644050971 0 -2.3309356086611762e-09 -0.034999999883409585 0 -2.3465804565144577e-06 -0.03499951549842388 0 5.8932928732121479e-10 -0.035000000537473139 0 -2.3465804565144577e-06 -0.03499951549842388 0 5.8932928732121479e-10 -0.035000000537473139 0 -3.621509470288899e-06 -0.034997580884327077 0 -2.3465804565144577e-06 -0.03499951549842388 0 -5.1390015456949899e-06 -0.034998159694771186 0 -3.621509470288899e-06 -0.034997580884327077 0 -5.1390015456949899e-06 -0.034998159694771186 0 -3.621509470288899e-06 -0.034997580884327077 0 -6.3072809416773798e-06 -0.034995965037971519 0 -3.621509470288899e-06 -0.034997580884327077 0 -4.4384080739020389e-06 -0.034991646794354854 0 -6.3072809416773798e-06 -0.034995965037971519 0 -6.8908301583419016e-05 -0.034910727364316628 0 -8.1276860514376022e-05 -0.034896213002990423 0 -1.3519058201528558e-05 -0.034989906798043896 0 -4.4384080739020389e-06 -0.034991646794354854 0 -2.2125151286207495e-05 -0.034999079422410401 0 -1.7275908725546883e-06 -0.034989133831789268 0 -1.3519058201528558e-05 -0.034989906798043896 0 -4.4384080739020389e-06 -0.034991646794354854 0 5.8932928732121479e-10 -0.035000000537473139 0 -3.621509470288899e-06 -0.034997580884327077 0 -4.4384080739020389e-06 -0.034991646794354854 0 6.217031958790011e-10 -0.034999963238550508 0 -1.7275908725546883e-06 -0.034989133831789268 0 5.8932928732121479e-10 -0.035000000537473139 0 -1.7275908725546883e-06 -0.034989133831789268 0 5.8932928732121479e-10 -0.035000000537473139 0 -4.4384080739020389e-06 -0.034991646794354854 0 -5.3899087180064464e-05 -0.034976849521269303 0 -2.6518470985190013e-05 -0.034980836077414951 0 -3.7946653864665969e-05 -0.034992520118669782 0 -5.3899087180064464e-05 -0.034976849521269303 0 -3.7946653864665969e-05 -0.034992520118669782 0 -5.1620002266397489e-05 -0.034998918396236055 0 -2.6518470985190013e-05 -0.034980836077414951 0 -3.7946653864665969e-05 -0.034992520118669782 0 -2.2125151286207495e-05 -0.034999079422410401 0 -2.6518470985190013e-05 -0.034980836077414951 0 -1.3519058201528558e-05 -0.034989906798043896 0 -2.2125151286207495e-05 -0.034999079422410401 0 -3.7946653864665969e-05 -0.034992520118669782 0 -2.2125151286207495e-05 -0.034999079422410401 0 -4.0153564976540507e-05 -0.035010756263791527 0 -5.1390015456949899e-06 -0.034998159694771186 0 -6.3072809416773798e-06 -0.034995965037971519 0 -8.4521993418146053e-06 -0.034997659062243849 0 -8.1276860514376022e-05 -0.034896213002990423 0 -0.00011182797450570856 -0.034839282145638445 0 -3.7946653864665969e-05 -0.034992520118669782 0 -4.0153564976540507e-05 -0.035010756263791527 0 -5.1620002266397489e-05 -0.034998918396236055 0 -4.2777764209035091e-05 -0.035007836595197947 0 -5.1620002266397489e-05 -0.034998918396236055 0 -5.4977100239426025e-05 -0.035016732796600253 0 -0.00011182797450570856 -0.034839282145638445 0 -8.4355206165050365e-05 -0.034874498366812778 0 -0.00015400641940209033 -0.034284180766955538 0 -0.00015844081148441805 -0.034351039001061588 0 -0.00019346020402965245 -0.034318986743946685 0 -0.00011182797450570856 -0.034839282145638445 0 -0.00011193437822803883 -0.034667429924311592 0 -0.00015844081148441805 -0.034351039001061588 0 -0.00019161097455456367 -0.034325423812879383 0 -0.00019346020402965245 -0.034318986743946685 0 -5.1390015456949899e-06 -0.034998159694771186 0 -8.4521993418146053e-06 -0.034997659062243849 0 -5.0394977202165033e-06 -0.03500003644050971 0 -0.00015400641940209033 -0.034284180766955538 0 -0.00015844081148441805 -0.034351039001061588 0 -7.8968814563354979e-05 -0.034368591828267896 0 -0.00011182797450570856 -0.034839282145638445 0 -0.00010637630866346246 -0.034791866912245624 0 -0.00015844081148441805 -0.034351039001061588 0 -7.8968814563354979e-05 -0.034368591828267896 0 -0.00011503562975112321 -0.034451226408457138 0 -0.00015844081148441805 -0.034351039001061588 0 -0.00016418155271923134 -0.034378059205928672 0 -0.00019161097455456367 -0.034325423812879383 0 -0.00015844081148441805 -0.034351039001061588 0 -0.00011503562975112321 -0.034451226408457138 0 -0.00016418155271923134 -0.034378059205928672 0 -0.00013047868592417378 -0.034472065718013326 0 -0.00011503562975112321 -0.034451226408457138 0 -0.00016418155271923134 -0.034378059205928672 0 -0.00016418155271923134 -0.034378059205928672 0 -0.00018496772825059318 -0.034330121172767299 0 -0.00017508079438854565 -0.034364986625401182 0 -0.00016418155271923134 -0.034378059205928672 0 -0.00018496772825059318 -0.034330121172767299 0 -0.00019161097455456367 -0.034325423812879383 0 -0.00018496772825059318 -0.034330121172767299 0 -0.00019833436328867029 -0.034281197872467278 0 -0.00021513413297114621 -0.034276407476624263 0 -0.00019833436328867029 -0.034281197872467278 0 -0.00019176004431521496 -0.034306937962638569 0 -0.00019161097455456367 -0.034325423812879383 0 -0.00011799148119105864 -0.034474901629581244 0 -0.00010628600631924148 -0.034493530797682304 0 -0.00018496772825059318 -0.034330121172767299 0 -0.00019833436328867029 -0.034281197872467278 0 -0.00019161097455456367 -0.034325423812879383 0 -0.00023246219692177881 -0.034133371193032995 0 -0.0002604372320939186 -0.034180704419384561 0 -0.0003003603271384383 -0.034110013922075903 0 -0.0002604372320939186 -0.034180704419384561 0 -0.0002930951478858185 -0.03412409937671057 0 -0.00026930935692427959 -0.034188539660261037 0 -0.00019833436328867029 -0.034281197872467278 0 -0.0002604372320939186 -0.034180704419384561 0 -0.00021513413297114621 -0.034276407476624263 0 -0.00010628600631924148 -0.034493530797682304 0 -0.00011321394961519556 -0.034473456371880484 0 -0.00019833436328867029 -0.034281197872467278 0 -0.00021676190383423274 -0.034230762414243714 0 -0.0002604372320939186 -0.034180704419384561 0 -0.0002604372320939186 -0.034180704419384561 0 -0.0003003603271384383 -0.034110013922075903 0 -0.0002930951478858185 -0.03412409937671057 0 -0.00023246219692177881 -0.034133371193032995 0 -0.00031002275326650854 -0.034093631331771242 0 -0.0003003603271384383 -0.034110013922075903 0 -6.7767501453174547e-05 -0.035025823750910914 0 -6.6648461936948196e-05 -0.035014610517505554 0 -8.041967714055007e-05 -0.035009624171396095 0 -0.00010628600631924148 -0.034493530797682304 0 -0.00015496462086183325 -0.034551150632552097 0 -0.00019176004431521496 -0.034306937962638569 0 -0.00019161097455456367 -0.034325423812879383 0 -0.00019346020402965245 -0.034318986743946685 0 -0.00010628600631924148 -0.034493530797682304 0 -0.00011193437822803883 -0.034667429924311592 0 -6.7767501453174547e-05 -0.035025823750910914 0 -6.6648461936948196e-05 -0.035014610517505554 0 -5.4977100239426025e-05 -0.035016732796600253 0 -6.6648461936948196e-05 -0.035014610517505554 0 -5.4977100239426025e-05 -0.035016732796600253 0 -6.3810395968376835e-05 -0.035006176763304704 0 -5.1620002266397489e-05 -0.034998918396236055 0 -6.3810395968376835e-05 -0.035006176763304704 0 -7.0852565456819367e-05 -0.034993046059816471 0 -5.1620002266397489e-05 -0.034998918396236055 0 -5.4977100239426025e-05 -0.035016732796600253 0 -6.3810395968376835e-05 -0.035006176763304704 0 -8.041967714055007e-05 -0.035009624171396095 0 -7.0852565456819367e-05 -0.034993046059816471 0 -9.4194573211873285e-05 -0.034991755495011614 0 -6.3810395968376835e-05 -0.035006176763304704 0 -8.041967714055007e-05 -0.035009624171396095 0 -7.0852565456819367e-05 -0.034993046059816471 0 -6.6648461936948196e-05 -0.035014610517505554 0 -6.3810395968376835e-05 -0.035006176763304704 0 -8.041967714055007e-05 -0.035009624171396095 0 -8.0347726371372035e-05 -0.034974178879957671 0 -7.0852565456819367e-05 -0.034993046059816471 0 -9.4194573211873285e-05 -0.034991755495011614 0 -5.3899087180064464e-05 -0.034976849521269303 0 -5.1620002266397489e-05 -0.034998918396236055 0 -7.0852565456819367e-05 -0.034993046059816471 0 -5.3899087180064464e-05 -0.034976849521269303 0 -8.0347726371372035e-05 -0.034974178879957671 0 -7.0852565456819367e-05 -0.034993046059816471 0 -0.00035018309192845297 -0.034273016604690794 0 -0.00036213990458104449 -0.034152082563613496 0 -0.0002861883065192607 -0.034207176306392244 0 -0.00036213990458104449 -0.034152082563613496 0 -0.00030550105086268685 -0.034102441153828419 0 -0.0002861883065192607 -0.034207176306392244 0 -0.00021496467821584969 -0.034663164642613147 0 -0.00019428200832618858 -0.034597717753614123 0 -0.00010809357516958683 -0.034972203139839814 0 -8.0347726371372035e-05 -0.034974178879957671 0 -9.4194573211873285e-05 -0.034991755495011614 0 -0.00015496462086183325 -0.034551150632552097 0 -0.00019428200832618858 -0.034597717753614123 0 -0.00031002275326650854 -0.034093631331771242 0 -0.00036213990458104449 -0.034152082563613496 0 -0.00032495988533737968 -0.034100297066826907 0 -0.00036213990458104449 -0.034152082563613496 0 -0.00032495988533737968 -0.034100297066826907 0 -0.00030550105086268685 -0.034102441153828419 0 -0.00030550105086268685 -0.034102441153828419 0 -0.00030997122942214489 -0.034082239318122418 0 -0.0002847980764017699 -0.03401678505053541 0 -0.00032495988533737968 -0.034100297066826907 0 -0.00030550105086268685 -0.034102441153828419 0 -0.00030997122942214489 -0.034082239318122418 0 -0.00031002275326650854 -0.034093631331771242 0 -0.00032495988533737968 -0.034100297066826907 0 -0.0003003603271384383 -0.034110013922075903 0 -0.00032495988533737968 -0.034100297066826907 0 -0.00030997122942214489 -0.034082239318122418 0 -0.0003003603271384383 -0.034110013922075903 0 -0.00030997122942214489 -0.034082239318122418 0 -0.0002930951478858185 -0.03412409937671057 0 -0.0002906670981548467 -0.034074577689556206 0 -0.00030997122942214489 -0.034082239318122418 0 -0.0003003603271384383 -0.034110013922075903 0 -0.0002930951478858185 -0.03412409937671057 0 -0.00030997122942214489 -0.034082239318122418 0 -0.0002906670981548467 -0.034074577689556206 0 -0.0002847980764017699 -0.03401678505053541 0 -0.0002906670981548467 -0.034074577689556206 0 -0.00024603604083739118 -0.033907932934765184 0 -0.0002847980764017699 -0.03401678505053541 0 -0.0002906670981548467 -0.034074577689556206 0 -0.00022683304754317465 -0.033943308873114593 0 -0.00024603604083739118 -0.033907932934765184 0 -0.00011253583261540972 -0.034061514426611948 0 -0.00016034239564116474 -0.034015295085694355 0 -0.00022683304754317465 -0.033943308873114593 0 -0.0002906670981548467 -0.034074577689556206 0 -0.00028154401471773007 -0.034185929031369092 0 -0.00022683304754317465 -0.033943308873114593 0 -0.00017483669301035962 -0.03419210664058904 0 -0.00019048939434426838 -0.034149445177202198 0 -0.0002906670981548467 -0.034074577689556206 0 -0.00028154401471773007 -0.034185929031369092 0 -0.00026930935692427959 -0.034188539660261037 0 -0.0002930951478858185 -0.03412409937671057 0 -0.0002906670981548467 -0.034074577689556206 0 -0.00026930935692427959 -0.034188539660261037 0 -0.0002604372320939186 -0.034180704419384561 0 -0.00026930935692427959 -0.034188539660261037 0 -0.00021513413297114621 -0.034276407476624263 0 -0.00026930935692427959 -0.034188539660261037 0 -0.0002209000809148285 -0.034305502557700242 0 -0.00021513413297114621 -0.034276407476624263 0 -0.00014192038239111885 -0.034441994867303441 0 -0.0002209000809148285 -0.034305502557700242 0 -0.00017508079438854565 -0.034364986625401182 0 -0.00018496772825059318 -0.034330121172767299 0 -0.00017508079438854565 -0.034364986625401182 0 -0.00021513413297114621 -0.034276407476624263 0 -0.0002209000809148285 -0.034305502557700242 0 -0.00017508079438854565 -0.034364986625401182 0 -0.00021513413297114621 -0.034276407476624263 0 -0.00014192038239111885 -0.034441994867303441 0 -0.0002209000809148285 -0.034305502557700242 0 -0.00020312084993458096 -0.03440419189932916 0 -0.00028154401471773007 -0.034185929031369092 0 -0.00026930935692427959 -0.034188539660261037 0 -0.0002209000809148285 -0.034305502557700242 0 -0.00017483669301035962 -0.03419210664058904 0 -0.00014349274548092447 -0.03427154036351724 0 -0.00028154401471773007 -0.034185929031369092 0 -0.0002209000809148285 -0.034305502557700242 0 -0.00020312084993458096 -0.03440419189932916 0 -0.00011253583261540972 -0.034061514426611948 0 -5.2632400157091789e-05 -0.034268842907097745 0 -9.5286961165178639e-05 -0.034153824526813578 0 -7.3079728789436307e-05 -0.034528683760692104 0 -5.2632400157091789e-05 -0.034268842907097745 0 -4.2539501445147741e-05 -0.034333390577768554 0 -0.00012259760243057502 -0.034315731712799856 0 -0.00014349274548092447 -0.03427154036351724 0 -5.2632400157091789e-05 -0.034268842907097745 0 -4.2539501445147741e-05 -0.034333390577768554 0 -9.5286961165178639e-05 -0.034153824526813578 0 -9.5286961165178639e-05 -0.034153824526813578 0 -0.00013526647517496154 -0.034032719970170884 0 -0.00011128072956286179 -0.034104531502127146 0 -0.00013526647517496154 -0.034032719970170884 0 -0.00016034239564116474 -0.034015295085694355 0 -0.00017536743507028064 -0.033890614248705861 0 -9.5286961165178639e-05 -0.034153824526813578 0 -0.00013526647517496154 -0.034032719970170884 0 -0.00016034239564116474 -0.034015295085694355 0 -0.00016034239564116474 -0.034015295085694355 0 -0.00017536743507028064 -0.033890614248705861 0 -0.00022683304754317465 -0.033943308873114593 0 -0.00011253583261540972 -0.034061514426611948 0 -9.5286961165178639e-05 -0.034153824526813578 0 -0.00016034239564116474 -0.034015295085694355 0 -0.00017536743507028064 -0.033890614248705861 0 -0.00016490906899590291 -0.033720826478070447 0 -0.00020966871356917479 -0.033734907249603811 0 -0.00017536743507028064 -0.033890614248705861 0 -0.00020966871356917479 -0.033734907249603811 0 -0.00022683304754317465 -0.033943308873114593 0 -0.00013526647517496154 -0.034032719970170884 0 -0.00017536743507028064 -0.033890614248705861 0 -0.00013371531398855653 -0.033949229689304958 0 -0.00017536743507028064 -0.033890614248705861 0 -0.00016490906899590291 -0.033720826478070447 0 -0.00013371531398855653 -0.033949229689304958 0 -0.00016490906899590291 -0.033720826478070447 0 -0.00023309683607407352 -0.033350750503940617 0 -0.00019705562029875495 -0.033760843385334326 0 -0.00016490906899590291 -0.033720826478070447 0 -0.00021461470214921658 -0.033574732444307268 0 -0.00023309683607407352 -0.033350750503940617 0 -0.00021461470214921658 -0.033574732444307268 0 -0.00021744091420571314 -0.033551622181115549 0 -0.00023309683607407352 -0.033350750503940617 0 -0.00016490906899590291 -0.033720826478070447 0 -0.00021461470214921658 -0.033574732444307268 0 -0.00020966871356917479 -0.033734907249603811 0 -0.00021744091420571314 -0.033551622181115549 0 -0.00021777920296511049 -0.033740141117428415 0 -0.00020966871356917479 -0.033734907249603811 0 -0.00021461470214921658 -0.033574732444307268 0 -0.00021744091420571314 -0.033551622181115549 0 -0.00020966871356917479 -0.033734907249603811 0 -0.00021744091420571314 -0.033551622181115549 0 -0.000185246759172141 -0.033699859501313129 0 -0.00016728884683211718 -0.033529637140346763 0 -0.00021744091420571314 -0.033551622181115549 0 -0.000185246759172141 -0.033699859501313129 0 -0.00021777920296511049 -0.033740141117428415 0 -0.000185246759172141 -0.033699859501313129 0 -0.00021777920296511049 -0.033740141117428415 0 -0.00021060365140414914 -0.033852159243121113 0 -0.00021777920296511049 -0.033740141117428415 0 -0.00024603604083739118 -0.033907932934765184 0 -0.00021060365140414914 -0.033852159243121113 0 -0.00021777920296511049 -0.033740141117428415 0 -0.00020966871356917479 -0.033734907249603811 0 -0.00024603604083739118 -0.033907932934765184 0 -0.00020966871356917479 -0.033734907249603811 0 -0.00022683304754317465 -0.033943308873114593 0 -0.00024603604083739118 -0.033907932934765184 0 -0.00024603604083739118 -0.033907932934765184 0 -0.00023020045303512689 -0.033956369494351837 0 -0.0002847980764017699 -0.03401678505053541 0 -0.00024603604083739118 -0.033907932934765184 0 -0.00023020045303512689 -0.033956369494351837 0 -0.00021060365140414914 -0.033852159243121113 0 -0.00023020045303512689 -0.033956369494351837 0 -0.00021968142232347889 -0.03409304319112641 0 -0.0001711574121656238 -0.033965024245973169 0 -0.00023020045303512689 -0.033956369494351837 0 -0.0001711574121656238 -0.033965024245973169 0 -0.00021060365140414914 -0.033852159243121113 0 -0.00023020045303512689 -0.033956369494351837 0 -0.0002847980764017699 -0.03401678505053541 0 -0.00021968142232347889 -0.03409304319112641 0 -0.00030550105086268685 -0.034102441153828419 0 -0.00021968142232347889 -0.03409304319112641 0 -0.0002861883065192607 -0.034207176306392244 0 -0.00030550105086268685 -0.034102441153828419 0 -0.0002847980764017699 -0.03401678505053541 0 -0.00021968142232347889 -0.03409304319112641 0 -0.00021968142232347889 -0.03409304319112641 0 -0.00010304282005560805 -0.034102472818624642 0 -0.0001711574121656238 -0.033965024245973169 0 -0.00021968142232347889 -0.03409304319112641 0 -0.00012471265007812953 -0.034195378070562485 0 -0.00010304282005560805 -0.034102472818624642 0 -0.00021968142232347889 -0.03409304319112641 0 -0.00012471265007812953 -0.034195378070562485 0 -0.00017265634379236787 -0.034238315536824791 0 -9.9193284602912415e-05 -0.034367499108289422 0 -0.00012471265007812953 -0.034195378070562485 0 -0.00017265634379236787 -0.034238315536824791 0 -0.00021968142232347889 -0.03409304319112641 0 -0.00017265634379236787 -0.034238315536824791 0 -0.0002861883065192607 -0.034207176306392244 0 -0.00019543893507554798 -0.034373756696284265 0 -0.00017265634379236787 -0.034238315536824791 0 -0.0002861883065192607 -0.034207176306392244 0 -8.4107855134888261e-05 -0.034143174570971539 0 1.3160805154219619e-05 -0.033990041424749477 0 -8.7083899790567839e-05 -0.034073932013565789 0 -0.00026841776436796293 -0.034043697664307281 0 -2.8109262228612574e-05 -0.033895772818441326 0 -0.00016309396335623615 -0.034180860184288141 0 -8.7083899790567839e-05 -0.034073932013565789 0 -0.00026841776436796293 -0.034043697664307281 0 -8.3478951325202211e-05 -0.034143903938734649 0 -8.4107855134888261e-05 -0.034143174570971539 0 -9.9193284602912415e-05 -0.034367499108289422 0 -0.00012471265007812953 -0.034195378070562485 0 -2.852788206545402e-05 -0.034230817631986404 0 -0.00012471265007812953 -0.034195378070562485 0 -2.852788206545402e-05 -0.034230817631986404 0 -0.00010304282005560805 -0.034102472818624642 0 -2.852788206545402e-05 -0.034230817631986404 0 1.1967308041022818e-06 -0.034198579523613042 0 -0.00010304282005560805 -0.034102472818624642 0 1.1967308041022818e-06 -0.034198579523613042 0 -0.0001086493331634548 -0.034003010513318305 0 -0.00010304282005560805 -0.034102472818624642 0 -8.4107855134888261e-05 -0.034143174570971539 0 -8.4584320222508749e-05 -0.034122090315702153 0 -0.0001086493331634548 -0.034003010513318305 0 -0.00010304282005560805 -0.034102472818624642 0 -0.0001711574121656238 -0.033965024245973169 0 -0.0001082066348353454 -0.034024949987903924 0 -0.0001086493331634548 -0.034003010513318305 0 -6.9443633718404256e-05 -0.03398602567881872 0 -0.0001086493331634548 -0.034003010513318305 0 -7.4375662779254932e-05 -0.033866563149748286 0 -6.9443633718404256e-05 -0.03398602567881872 0 -0.0001086493331634548 -0.034003010513318305 0 -0.00014649381565811446 -0.033846177709449754 0 -7.4375662779254932e-05 -0.033866563149748286 0 -0.0001086493331634548 -0.034003010513318305 0 -0.00014649381565811446 -0.033846177709449754 0 -0.0001711574121656238 -0.033965024245973169 0 -0.00014649381565811446 -0.033846177709449754 0 -0.0001711574121656238 -0.033965024245973169 0 -0.00021060365140414914 -0.033852159243121113 0 -0.000185246759172141 -0.033699859501313129 0 -0.00014649381565811446 -0.033846177709449754 0 -0.00021060365140414914 -0.033852159243121113 0 -0.000185246759172141 -0.033699859501313129 0 -0.00014649381565811446 -0.033846177709449754 0 -0.0001068216883034814 -0.033710922415263474 0 -0.0001068216883034814 -0.033710922415263474 0 4.6063640807901787e-05 -0.033738722833270188 0 -7.4375662779254932e-05 -0.033866563149748286 0 -0.0001068216883034814 -0.033710922415263474 0 4.6063640807901787e-05 -0.033738722833270188 0 3.1754567472441509e-05 -0.033549049726459397 0 4.6063640807901787e-05 -0.033738722833270188 0 0.00025719501099811187 -0.033652269293279163 0 3.1754567472441509e-05 -0.033549049726459397 0 4.6063640807901787e-05 -0.033738722833270188 0 9.8233008289523669e-05 -0.033897944797221552 0 -7.4375662779254932e-05 -0.033866563149748286 0 4.6063640807901787e-05 -0.033738722833270188 0 9.8233008289523669e-05 -0.033897944797221552 0 0.00025719501099811187 -0.033652269293279163 0 -0.00014649381565811446 -0.033846177709449754 0 -0.0001068216883034814 -0.033710922415263474 0 -7.4375662779254932e-05 -0.033866563149748286 0 9.8233008289523669e-05 -0.033897944797221552 0 -7.4375662779254932e-05 -0.033866563149748286 0 -6.9443633718404256e-05 -0.03398602567881872 0 0.00017008052723191381 -0.033850050092392107 0 1.3160805154219619e-05 -0.033990041424749477 0 0.00021728464673544172 -0.033732591033728943 0 -2.8109262228612574e-05 -0.033895772818441326 0 0.00013998378855858891 -0.034031931461071113 0 0.00021728464673544172 -0.033732591033728943 0 0.00013998378855858891 -0.034031931461071113 0 0.00043367078642341802 -0.033859667073127417 0 -4.9830040288855282e-05 -0.034244436310577747 0 -8.7083899790567839e-05 -0.034073932013565789 0 0.00013998378855858891 -0.034031931461071113 0 -8.7083899790567839e-05 -0.034073932013565789 0 -2.8109262228612574e-05 -0.033895772818441326 0 0.00013998378855858891 -0.034031931461071113 0 0.00063710542215938092 -0.034031219357336481 0 0.00040140576740911328 -0.034125594233059858 0 0.00043367078642341802 -0.033859667073127417 0 0.00013998378855858891 -0.034031931461071113 0 0.00040140576740911328 -0.034125594233059858 0 0.00043367078642341802 -0.033859667073127417 0 0.00074724461162169143 -0.033823933439782135 0 0.00063710542215938092 -0.034031219357336481 0 0.00043367078642341802 -0.033859667073127417 0 0.00074724461162169143 -0.033823933439782135 0 0.00043367078642341802 -0.033859667073127417 0 0.00044492913398562825 -0.033547595905599019 0 0.00069345294976159468 -0.033211547954059152 0 0.00076342345119145415 -0.033112813775269929 0 0.00054829291528474451 -0.033333074325558515 0 0.00073537815637155814 -0.033596884727410986 0 0.00063763384786446199 -0.033421564311335923 0 0.00074724461162169143 -0.033823933439782135 0 0.00044492913398562825 -0.033547595905599019 0 0.00054829291528474451 -0.033333074325558515 0 0.00017008052723191381 -0.033850050092392107 0 0.000284776129633287 -0.033764042977786693 0 0.00021728464673544172 -0.033732591033728943 0 0.00043367078642341802 -0.033859667073127417 0 0.00044492913398562825 -0.033547595905599019 0 9.8233008289523669e-05 -0.033897944797221552 0 0.00044492913398562825 -0.033547595905599019 0 0.00025719501099811187 -0.033652269293279163 0 0.00025719501099811187 -0.033652269293279163 0 0.00035567114241052429 -0.033639537452472577 0 3.1754567472441509e-05 -0.033549049726459397 0 0.00044492913398562825 -0.033547595905599019 0 0.00025719501099811187 -0.033652269293279163 0 0.00054829291528474451 -0.033333074325558515 0 0.00025719501099811187 -0.033652269293279163 0 0.0008357520305289904 -0.034039296280365464 0 0.00035567114241052429 -0.033639537452472577 0 0.00025719501099811187 -0.033652269293279163 0 0.00054829291528474451 -0.033333074325558515 0 0.00067449475872875136 -0.033065393931454384 0 0.00076342345119145415 -0.033112813775269929 0 0.00054829291528474451 -0.033333074325558515 0 0.00067449475872875136 -0.033065393931454384 0 0.00077220705816031263 -0.033026423614908644 0 0.0009747305501024917 -0.032865158603919503 0 0.0011476394392693808 -0.033286157386028657 0 0.00082687098046829678 -0.033640767352229595 0 0.00019898982558880148 -0.033287735161285296 0 0.00082687098046829678 -0.033640767352229595 0 0.00019898982558880148 -0.033287735161285296 0 0.00035567114241052429 -0.033639537452472577 0 0.0008357520305289904 -0.034039296280365464 0 0.00082687098046829678 -0.033640767352229595 0 0.00035567114241052429 -0.033639537452472577 0 0.0011476394392693808 -0.033286157386028657 0 0.00019898982558880148 -0.033287735161285296 0 0.000608159912162477 -0.032756314447944461 0 0.00019898982558880148 -0.033287735161285296 0 0.00035567114241052429 -0.033639537452472577 0 3.1754567472441509e-05 -0.033549049726459397 0 0.00019898982558880148 -0.033287735161285296 0 3.1754567472441509e-05 -0.033549049726459397 0 -0.00025647342229000923 -0.033262929214829082 0 3.1754567472441509e-05 -0.033549049726459397 0 -0.00016728884683211718 -0.033529637140346763 0 -0.00025647342229000923 -0.033262929214829082 0 -0.0001068216883034814 -0.033710922415263474 0 3.1754567472441509e-05 -0.033549049726459397 0 -0.00016728884683211718 -0.033529637140346763 0 -0.000185246759172141 -0.033699859501313129 0 -0.0001068216883034814 -0.033710922415263474 0 -0.00016728884683211718 -0.033529637140346763 0 -0.00021744091420571314 -0.033551622181115549 0 -0.00025647342229000923 -0.033262929214829082 0 -0.00023309683607407352 -0.033350750503940617 0 -0.00021744091420571314 -0.033551622181115549 0 -0.00016728884683211718 -0.033529637140346763 0 -0.00025647342229000923 -0.033262929214829082 0 0.00019898982558880148 -0.033287735161285296 0 -0.00025647342229000923 -0.033262929214829082 0 -0.00042376956289129461 -0.03256289481970262 0 -0.00025647342229000923 -0.033262929214829082 0 -0.00023309683607407352 -0.033350750503940617 0 -0.00042376956289129461 -0.03256289481970262 0 -0.00023309683607407352 -0.033350750503940617 0 -0.00042376956289129461 -0.03256289481970262 0 -0.0004227678530201215 -0.033512751979183707 0 -0.00076585872799781222 -0.032238306182713311 0 -0.0010348847369067568 -0.031798198269238055 0 0.00081613001624293016 -0.031880027665301972 0 -0.00042376956289129461 -0.03256289481970262 0 -1.7618416794748891e-05 -0.030161521810102641 0 0.0012867612617150604 -0.030478323437948252 0 0.00081613001624293016 -0.031880027665301972 0 -1.7618416794748891e-05 -0.030161521810102641 0 0.0014346034861665298 -0.032657803013116098 0 0.00081613001624293016 -0.031880027665301972 0 0.000608159912162477 -0.032756314447944461 0 0.00081613001624293016 -0.031880027665301972 0 0.000608159912162477 -0.032756314447944461 0 -0.00042376956289129461 -0.03256289481970262 0 0.00019898982558880148 -0.033287735161285296 0 0.000608159912162477 -0.032756314447944461 0 -0.00042376956289129461 -0.03256289481970262 0 -1.7618416794748891e-05 -0.030161521810102641 0 -0.0014394269505131772 -0.028475586454307495 0 6.3900996942460844e-05 -0.02818502386594933 0 0.00106921503407829 -0.029031126807800272 0 -1.7618416794748891e-05 -0.030161521810102641 0 6.3900996942460844e-05 -0.02818502386594933 0 0.00106921503407829 -0.029031126807800272 0 0.0012867612617150604 -0.030478323437948252 0 -1.7618416794748891e-05 -0.030161521810102641 0 -0.00042376956289129461 -0.03256289481970262 0 -1.7618416794748891e-05 -0.030161521810102641 0 -0.001926866071041329 -0.030130312053886922 0 -0.00023309683607407352 -0.033350750503940617 0 -0.0004227678530201215 -0.033512751979183707 0 -0.00019705562029875495 -0.033760843385334326 0 -0.0004227678530201215 -0.033512751979183707 0 -0.00031834393157093683 -0.033904000866321858 0 -0.00019705562029875495 -0.033760843385334326 0 -0.0010348847369067568 -0.031798198269238055 0 -0.0013696158882291777 -0.031118860225114921 0 -0.001926866071041329 -0.030130312053886922 0 -0.0014394269505131772 -0.028475586454307495 0 -0.0028022162010364754 -0.02812341202000105 0 -1.7618416794748891e-05 -0.030161521810102641 0 -0.001926866071041329 -0.030130312053886922 0 -0.0014394269505131772 -0.028475586454307495 0 -0.0014394269505131772 -0.028475586454307495 0 -0.0015538809267174507 -0.027553564522427628 0 -0.0028022162010364754 -0.02812341202000105 0 -0.0014394269505131772 -0.028475586454307495 0 -0.0015538809267174507 -0.027553564522427628 0 -0.0007092286066249598 -0.027278902424806784 0 -0.0015538809267174507 -0.027553564522427628 0 -0.0028022162010364754 -0.02812341202000105 0 -0.0022374521055891928 -0.027204266115811646 0 -0.0028022162010364754 -0.02812341202000105 0 -0.0022374521055891928 -0.027204266115811646 0 -0.0030688261232593552 -0.026729803818167832 0 -0.0022374521055891928 -0.027204266115811646 0 -0.0023867291521893538 -0.026626462971071567 0 -0.001688583918058473 -0.026299504548802755 0 -0.0022374521055891928 -0.027204266115811646 0 -0.0023867291521893538 -0.026626462971071567 0 -0.0030688261232593552 -0.026729803818167832 0 -0.0015538809267174507 -0.027553564522427628 0 -0.0013921566484173813 -0.026922507482942368 0 -0.0007092286066249598 -0.027278902424806784 0 -0.0015538809267174507 -0.027553564522427628 0 -0.0022374521055891928 -0.027204266115811646 0 -0.0013921566484173813 -0.026922507482942368 0 -0.0022374521055891928 -0.027204266115811646 0 -0.0013921566484173813 -0.026922507482942368 0 -0.001688583918058473 -0.026299504548802755 0 -0.0013921566484173813 -0.026922507482942368 0 -0.00075771627695302873 -0.026291734276286283 0 -0.001688583918058473 -0.026299504548802755 0 -0.00027653031551718658 -0.02669538120914907 0 -0.0007092286066249598 -0.027278902424806784 0 -0.00075771627695302873 -0.026291734276286283 0 -0.0013921566484173813 -0.026922507482942368 0 -0.0007092286066249598 -0.027278902424806784 0 -0.00075771627695302873 -0.026291734276286283 0 -0.00027653031551718658 -0.02669538120914907 0 -0.0007092286066249598 -0.027278902424806784 0 0.0003081951497220518 -0.027002307212924972 0 -0.0007092286066249598 -0.027278902424806784 0 6.3900996942460844e-05 -0.02818502386594933 0 0.0003081951497220518 -0.027002307212924972 0 -0.0014394269505131772 -0.028475586454307495 0 -0.0007092286066249598 -0.027278902424806784 0 6.3900996942460844e-05 -0.02818502386594933 0 0.0011672501482725387 -0.027499733814773265 0 6.3900996942460844e-05 -0.02818502386594933 0 0.0003081951497220518 -0.027002307212924972 0 0.00106921503407829 -0.029031126807800272 0 0.0011672501482725387 -0.027499733814773265 0 6.3900996942460844e-05 -0.02818502386594933 0 0.0012602376498544725 -0.02628082374262378 0 0.0011672501482725387 -0.027499733814773265 0 0.0003081951497220518 -0.027002307212924972 0 0.0012602376498544725 -0.02628082374262378 0 0.0003081951497220518 -0.027002307212924972 0 -2.5149919594488091e-06 -0.026053249216819414 0 -0.00027653031551718658 -0.02669538120914907 0 0.0003081951497220518 -0.027002307212924972 0 -2.5149919594488091e-06 -0.026053249216819414 0 0.0012602376498544725 -0.02628082374262378 0 -2.5149919594488091e-06 -0.026053249216819414 0 0.00047110332892908742 -0.025446845594994792 0 0.00014654624802485188 -0.026016536186185893 0 -0.00017350923802951035 -0.025770458803943921 0 -2.5149919594488091e-06 -0.026053249216819414 0 0.00036963344780750903 -0.025593556648867474 0 -0.00036498494176356747 -0.025610160153831441 0 -0.00014868646132633573 -0.02576321457988542 0 -0.00017350923802951035 -0.025770458803943921 0 -2.5149919594488091e-06 -0.026053249216819414 0 -0.00075771627695302873 -0.026291734276286283 0 -0.00036498494176356747 -0.025610160153831441 0 -0.00027653031551718658 -0.02669538120914907 0 -2.5149919594488091e-06 -0.026053249216819414 0 -0.00075771627695302873 -0.026291734276286283 0 -0.00075771627695302873 -0.026291734276286283 0 -0.00036498494176356747 -0.025610160153831441 0 -0.0010690027996965372 -0.025486133366266803 0 -0.00036498494176356747 -0.025610160153831441 0 -0.0004157764387353559 -0.024632689686285614 0 -0.0010690027996965372 -0.025486133366266803 0 -0.0004157764387353559 -0.024632689686285614 0 -0.0010690027996965372 -0.025486133366266803 0 -0.0015719183236422827 -0.024710171175411137 0 -0.00088438982089287361 -0.025979592654455132 0 -0.00097190649107380123 -0.026087574140762938 0 -0.0010743989645889958 -0.025964255439039376 0 -0.00017350923802951035 -0.025770458803943921 0 -0.00096351989694925134 -0.025635292261772094 0 0.00036963344780750903 -0.025593556648867474 0 -0.00036498494176356747 -0.025610160153831441 0 -0.0004157764387353559 -0.024632689686285614 0 0.00040494614109079914 -0.025392794863875606 0 -0.00017350923802951035 -0.025770458803943921 0 -0.00088438982089287361 -0.025979592654455132 0 -0.0010743989645889958 -0.025964255439039376 0 -0.00096752022231753453 -0.025825972329287569 0 -0.0010743989645889958 -0.025964255439039376 0 -0.00096752022231753453 -0.025825972329287569 0 -0.001178525505067905 -0.02584114305593407 0 -0.0004157764387353559 -0.024632689686285614 0 -0.0012372679885209337 -0.023629333068999829 0 -0.0015719183236422827 -0.024710171175411137 0 -0.00096351989694925134 -0.025635292261772094 0 -0.0017139095589020269 -0.025787610256902311 0 -0.00096752022231753453 -0.025825972329287569 0 -0.001178525505067905 -0.02584114305593407 0 -0.0010645664149008963 -0.025716662620817652 0 -0.001178525505067905 -0.02584114305593407 0 -0.0011753665215240138 -0.025654827232284089 0 -0.0010645664149008963 -0.025716662620817652 0 -0.00096752022231753453 -0.025825972329287569 0 -0.0010645664149008963 -0.025716662620817652 0 -0.00090777045577870516 -0.025630330293670168 0 -0.002523328959634352 -0.026548485059124344 0 -0.0021763653044914923 -0.026957719603827087 0 -0.0032490187097078639 -0.029296520685165528 0 -0.0036360248197694627 -0.028706405778822004 0 -0.0030392439360271035 -0.029044677807035402 0 -0.0032490187097078639 -0.029296520685165528 0 -0.0036360248197694627 -0.028706405778822004 0 -0.0035877155531071061 -0.029353723980448547 0 -0.0012372679885209337 -0.023629333068999829 0 -0.0023907149669924995 -0.023913373103299735 0 -0.0020477319575889696 -0.022633559947002231 0 -0.0017139095589020269 -0.025787610256902311 0 -0.0021763653044914923 -0.026957719603827087 0 -0.001178525505067905 -0.02584114305593407 0 -0.0011753665215240138 -0.025654827232284089 0 -0.0012819563763444447 -0.025718336663584786 0 -0.0012372679885209337 -0.023629333068999829 0 -0.0023907149669924995 -0.023913373103299735 0 -0.0015719183236422827 -0.024710171175411137 0 -0.002523328959634352 -0.026548485059124344 0 -0.0027530246590590228 -0.026578554461820419 0 -0.0036360248197694627 -0.028706405778822004 0 -0.0035518387556206506 -0.027686970819383996 0 -0.0030682998775990165 -0.028245616335471055 0 -0.0027625361918705714 -0.025231006473230032 0 -0.0015719183236422827 -0.024710171175411137 0 -0.0018837408205034734 -0.025566973630626332 0 -0.0023907149669924995 -0.023913373103299735 0 -0.0027625361918705714 -0.025231006473230032 0 -0.0015719183236422827 -0.024710171175411137 0 -0.0010690027996965372 -0.025486133366266803 0 -0.0015719183236422827 -0.024710171175411137 0 -0.0018837408205034734 -0.025566973630626332 0 -0.0010690027996965372 -0.025486133366266803 0 -0.0018837408205034734 -0.025566973630626332 0 -0.001688583918058473 -0.026299504548802755 0 -0.0018837408205034734 -0.025566973630626332 0 -0.001688583918058473 -0.026299504548802755 0 -0.0023625570213234308 -0.026099508778167357 0 -0.00075771627695302873 -0.026291734276286283 0 -0.0010690027996965372 -0.025486133366266803 0 -0.001688583918058473 -0.026299504548802755 0 -0.0027530246590590228 -0.026578554461820419 0 -0.0028309227138167852 -0.026657853097613038 0 -0.0027625361918705714 -0.025231006473230032 0 -0.0023625570213234308 -0.026099508778167357 0 -0.0030688261232593552 -0.026729803818167832 0 -0.0027625361918705714 -0.025231006473230032 0 -0.0018837408205034734 -0.025566973630626332 0 -0.0023625570213234308 -0.026099508778167357 0 -0.0023867291521893538 -0.026626462971071567 0 -0.001688583918058473 -0.026299504548802755 0 -0.0023625570213234308 -0.026099508778167357 0 -0.0023867291521893538 -0.026626462971071567 0 -0.0023625570213234308 -0.026099508778167357 0 -0.0030688261232593552 -0.026729803818167832 0 -0.0030796739891530514 -0.027342649265913198 0 -0.0030688261232593552 -0.026729803818167832 0 -0.003150770434675538 -0.026744773205984212 0 -0.0035518387556206506 -0.027686970819383996 0 -0.0030796739891530514 -0.027342649265913198 0 -0.0030688261232593552 -0.026729803818167832 0 -0.0030796739891530514 -0.027342649265913198 0 -0.0023321141648471704 -0.027827267426236962 0 -0.003150770434675538 -0.026744773205984212 0 -0.0012218843094335679 -0.030894088409923408 0 -0.0014650304339543971 -0.030717324797037468 0 -6.7149334533421178e-05 -0.034059811367101164 0 5.4434170187385758e-05 -0.034000974080369548 0 -0.00014807840484900876 -0.034065650702450288 0 -0.0035518387556206506 -0.027686970819383996 0 -0.0030796739891530514 -0.027342649265913198 0 -0.0030682998775990165 -0.028245616335471055 0 -0.0030796739891530514 -0.027342649265913198 0 -0.0023321141648471704 -0.027827267426236962 0 -0.0030682998775990165 -0.028245616335471055 0 -0.0030682998775990165 -0.028245616335471055 0 -0.0026590835857386078 -0.028697128998201999 0 -0.0030392439360271035 -0.029044677807035402 0 -0.0036360248197694627 -0.028706405778822004 0 -0.0030682998775990165 -0.028245616335471055 0 -0.0030392439360271035 -0.029044677807035402 0 -0.0023321141648471704 -0.027827267426236962 0 -0.0030682998775990165 -0.028245616335471055 0 -0.0026590835857386078 -0.028697128998201999 0 -0.0023321141648471704 -0.027827267426236962 0 -0.002277606923568435 -0.028791861555635699 0 -0.0026590835857386078 -0.028697128998201999 0 -0.0023321141648471704 -0.027827267426236962 0 -0.002277606923568435 -0.028791861555635699 0 -0.0015091552451528675 -0.029242696868488325 0 -0.002277606923568435 -0.028791861555635699 0 -0.0026590835857386078 -0.028697128998201999 0 -0.0026056134903306256 -0.029378373551266129 0 -0.002277606923568435 -0.028791861555635699 0 -0.0026056134903306256 -0.029378373551266129 0 -0.0015091552451528675 -0.029242696868488325 0 -0.0032490187097078639 -0.029296520685165528 0 -0.0030392439360271035 -0.029044677807035402 0 -0.0029397011776084773 -0.02946014355718234 0 -0.0026056134903306256 -0.029378373551266129 0 -0.0030392439360271035 -0.029044677807035402 0 -0.0029397011776084773 -0.02946014355718234 0 -0.0026590835857386078 -0.028697128998201999 0 -0.0026056134903306256 -0.029378373551266129 0 -0.0030392439360271035 -0.029044677807035402 0 -0.00045797838434262538 -0.033449913321220062 0 -0.00072517132306797053 -0.033402426212607 0 -0.00050151956904073843 -0.032851287525660758 0 -0.00011243705703279597 -0.033505920600695342 0 -0.0015417742747392629 -0.032871678389909599 0 -0.00092453507318827942 -0.0323430301562221 0 -0.00050151956904073843 -0.032851287525660758 0 -0.0015417742747392629 -0.032871678389909599 0 -0.00092453507318827942 -0.0323430301562221 0 -0.0015417742747392629 -0.032871678389909599 0 -0.001514580244268298 -0.032005458402329962 0 -0.00050151956904073843 -0.032851287525660758 0 0.00010110579899887185 -0.033340081567991814 0 -0.001094300705660364 -0.031218381803859208 0 -0.0026056134903306256 -0.029378373551266129 0 -0.0015091552451528675 -0.029242696868488325 0 -0.0012153578524221106 -0.031064485369564052 0 -0.00050151956904073843 -0.032851287525660758 0 0.00010110579899887185 -0.033340081567991814 0 -0.00011243705703279597 -0.033505920600695342 0 5.4434170187385758e-05 -0.034000974080369548 0 0.00010110579899887185 -0.033340081567991814 0 -9.3803059687797493e-05 -0.033879474049288462 0 0.00010110579899887185 -0.033340081567991814 0 -0.00011243705703279597 -0.033505920600695342 0 -9.3803059687797493e-05 -0.033879474049288462 0 -0.0012218843094335679 -0.030894088409923408 0 -0.0010052283308621623 -0.031126754216931882 0 -0.00011243705703279597 -0.033505920600695342 0 -0.00019727544672770025 -0.03381867484765487 0 -0.00022636795719912332 -0.033753495085318178 0 -0.00011243705703279597 -0.033505920600695342 0 -0.00019727544672770025 -0.03381867484765487 0 -9.3803059687797493e-05 -0.033879474049288462 0 -0.00019727544672770025 -0.03381867484765487 0 -0.00017072593790664237 -0.034011517847924964 0 -0.00023537192689536884 -0.033964341322839278 0 -0.00019727544672770025 -0.03381867484765487 0 -0.00017072593790664237 -0.034011517847924964 0 -9.3803059687797493e-05 -0.033879474049288462 0 -0.00017072593790664237 -0.034011517847924964 0 -9.3803059687797493e-05 -0.033879474049288462 0 -9.1527065626450732e-05 -0.034042568000028944 0 5.4434170187385758e-05 -0.034000974080369548 0 -9.3803059687797493e-05 -0.033879474049288462 0 -9.1527065626450732e-05 -0.034042568000028944 0 -6.7149334533421178e-05 -0.034059811367101164 0 -9.1527065626450732e-05 -0.034042568000028944 0 -0.00011139725126493044 -0.034082218396221366 0 -6.7149334533421178e-05 -0.034059811367101164 0 5.4434170187385758e-05 -0.034000974080369548 0 -9.1527065626450732e-05 -0.034042568000028944 0 -0.00017072593790664237 -0.034011517847924964 0 -9.1527065626450732e-05 -0.034042568000028944 0 -0.00015294088790511798 -0.034104664321901804 0 -0.00017072593790664237 -0.034011517847924964 0 -0.00015294088790511798 -0.034104664321901804 0 -0.00021997457667963867 -0.034122129850097237 0 -9.1527065626450732e-05 -0.034042568000028944 0 -0.00015294088790511798 -0.034104664321901804 0 -0.00011139725126493044 -0.034082218396221366 0 -0.00015294088790511798 -0.034104664321901804 0 -0.00012900483837447729 -0.034102084258722645 0 -0.00011139725126493044 -0.034082218396221366 0 -0.00012900483837447729 -0.034102084258722645 0 -0.00011621433444863435 -0.034036867656774925 0 -0.00011139725126493044 -0.034082218396221366 0 -0.00012900483837447729 -0.034102084258722645 0 -0.00011621433444863435 -0.034036867656774925 0 -0.00012372959279498397 -0.033987734707751328 0 -0.00012900483837447729 -0.034102084258722645 0 -0.00012372959279498397 -0.033987734707751328 0 -0.00012024262375741499 -0.034078891555543382 0 -0.00011621433444863435 -0.034036867656774925 0 -0.00013496901051397034 -0.033950440147517622 0 -0.00012372959279498397 -0.033987734707751328 0 -0.00011621433444863435 -0.034036867656774925 0 -0.00011139725126493044 -0.034082218396221366 0 -0.00010584236700921758 -0.0340416722671609 0 -6.7149334533421178e-05 -0.034059811367101164 0 -0.00011139725126493044 -0.034082218396221366 0 -0.00010584236700921758 -0.0340416722671609 0 -0.00010584236700921758 -0.0340416722671609 0 -0.00014807840484900876 -0.034065650702450288 0 -0.00017327964240805067 -0.03396922198893474 0 -6.7149334533421178e-05 -0.034059811367101164 0 -0.00010584236700921758 -0.0340416722671609 0 -0.00014807840484900876 -0.034065650702450288 0 -0.0013696158882291777 -0.031118860225114921 0 -0.0014650304339543971 -0.030717324797037468 0 -0.0028022162010364754 -0.02812341202000105 0 -0.0030688261232593552 -0.026729803818167832 0 -0.003150770434675538 -0.026744773205984212 0 -0.00031834393157093683 -0.033904000866321858 0 -0.00014807840484900876 -0.034065650702450288 0 -0.00017327964240805067 -0.03396922198893474 0 -0.00010584236700921758 -0.0340416722671609 0 -0.00017327964240805067 -0.03396922198893474 0 -0.00013496901051397034 -0.033950440147517622 0 -0.00011621433444863435 -0.034036867656774925 0 -0.00010584236700921758 -0.0340416722671609 0 -0.00013496901051397034 -0.033950440147517622 0 -0.00017327964240805067 -0.03396922198893474 0 -0.00013496901051397034 -0.033950440147517622 0 -0.00019705562029875495 -0.033760843385334326 0 -0.00013496901051397034 -0.033950440147517622 0 -0.00019705562029875495 -0.033760843385334326 0 -0.0001450863507360737 -0.033866571295770746 0 -0.00031834393157093683 -0.033904000866321858 0 -0.00017327964240805067 -0.03396922198893474 0 -0.00019705562029875495 -0.033760843385334326 0 -0.00016490906899590291 -0.033720826478070447 0 -0.00019705562029875495 -0.033760843385334326 0 -0.0001450863507360737 -0.033866571295770746 0 -0.00016490906899590291 -0.033720826478070447 0 -0.0001450863507360737 -0.033866571295770746 0 -0.00013371531398855653 -0.033949229689304958 0 -0.00013371531398855653 -0.033949229689304958 0 -0.00012372959279498397 -0.033987734707751328 0 -0.00012024262375741499 -0.034078891555543382 0 -0.0001450863507360737 -0.033866571295770746 0 -0.00013371531398855653 -0.033949229689304958 0 -0.00012372959279498397 -0.033987734707751328 0 -0.00013496901051397034 -0.033950440147517622 0 -0.0001450863507360737 -0.033866571295770746 0 -0.00012372959279498397 -0.033987734707751328 0 -0.00010468848945468248 -0.034179283460538182 0 -0.00011128072956286179 -0.034104531502127146 0 -8.1788456493582434e-05 -0.03420794979958823 0 -0.00010468848945468248 -0.034179283460538182 0 -0.00012024262375741499 -0.034078891555543382 0 -0.00011128072956286179 -0.034104531502127146 0 -0.00013371531398855653 -0.033949229689304958 0 -0.00012024262375741499 -0.034078891555543382 0 -0.00011128072956286179 -0.034104531502127146 0 -0.00013526647517496154 -0.034032719970170884 0 -0.00013371531398855653 -0.033949229689304958 0 -0.00011128072956286179 -0.034104531502127146 0 -9.5286961165178639e-05 -0.034153824526813578 0 -0.00011128072956286179 -0.034104531502127146 0 -8.1788456493582434e-05 -0.03420794979958823 0 -4.2539501445147741e-05 -0.034333390577768554 0 -8.1788456493582434e-05 -0.03420794979958823 0 -5.0888018250067444e-05 -0.034301525195548341 0 -4.2539501445147741e-05 -0.034333390577768554 0 -9.5286961165178639e-05 -0.034153824526813578 0 -8.1788456493582434e-05 -0.03420794979958823 0 -4.2539501445147741e-05 -0.034333390577768554 0 -5.0888018250067444e-05 -0.034301525195548341 0 -3.1572283558441378e-05 -0.034393303645220918 0 -5.0888018250067444e-05 -0.034301525195548341 0 -5.8905832362001514e-05 -0.034288040358072099 0 -2.4807525237871738e-05 -0.034363693671027984 0 -5.0888018250067444e-05 -0.034301525195548341 0 -8.0156538404670602e-05 -0.034241089704705192 0 -5.8905832362001514e-05 -0.034288040358072099 0 -5.0888018250067444e-05 -0.034301525195548341 0 -2.4807525237871738e-05 -0.034363693671027984 0 -3.1572283558441378e-05 -0.034393303645220918 0 -8.1788456493582434e-05 -0.03420794979958823 0 -5.0888018250067444e-05 -0.034301525195548341 0 -8.0156538404670602e-05 -0.034241089704705192 0 -0.00010468848945468248 -0.034179283460538182 0 -8.1788456493582434e-05 -0.03420794979958823 0 -8.0156538404670602e-05 -0.034241089704705192 0 -8.0156538404670602e-05 -0.034241089704705192 0 -0.00011326149116883158 -0.03422833342524631 0 -5.8905832362001514e-05 -0.034288040358072099 0 -0.00010468848945468248 -0.034179283460538182 0 -8.0156538404670602e-05 -0.034241089704705192 0 -0.00011326149116883158 -0.03422833342524631 0 -5.8905832362001514e-05 -0.034288040358072099 0 -4.3660252080800168e-05 -0.034330973254462112 0 -2.8518491389468988e-05 -0.034330605672102221 0 -5.8905832362001514e-05 -0.034288040358072099 0 -0.0001031253766120659 -0.034277356413299868 0 -4.3660252080800168e-05 -0.034330973254462112 0 -0.00011326149116883158 -0.03422833342524631 0 -5.8905832362001514e-05 -0.034288040358072099 0 -0.0001031253766120659 -0.034277356413299868 0 -0.00011326149116883158 -0.03422833342524631 0 -0.0001031253766120659 -0.034277356413299868 0 -0.00016380690089814884 -0.034204181767117259 0 -0.00011326149116883158 -0.03422833342524631 0 -0.00016380690089814884 -0.034204181767117259 0 -0.0001367641383785714 -0.03416356832632024 0 -0.00016380690089814884 -0.034204181767117259 0 -0.0001367641383785714 -0.03416356832632024 0 -0.00017394541056897051 -0.034157419842110862 0 -0.00010468848945468248 -0.034179283460538182 0 -0.00011326149116883158 -0.03422833342524631 0 -0.0001367641383785714 -0.03416356832632024 0 -0.00010468848945468248 -0.034179283460538182 0 -0.00012024262375741499 -0.034078891555543382 0 -0.0001367641383785714 -0.03416356832632024 0 -0.00012900483837447729 -0.034102084258722645 0 -0.00012024262375741499 -0.034078891555543382 0 -0.0001367641383785714 -0.03416356832632024 0 -0.00012900483837447729 -0.034102084258722645 0 -0.0001367641383785714 -0.03416356832632024 0 -0.00017394541056897051 -0.034157419842110862 0 -0.00015294088790511798 -0.034104664321901804 0 -0.00012900483837447729 -0.034102084258722645 0 -0.00017394541056897051 -0.034157419842110862 0 -0.00017394541056897051 -0.034157419842110862 0 -0.00021997457667963867 -0.034122129850097237 0 -0.00021880624701208553 -0.034186198431510918 0 -0.00015294088790511798 -0.034104664321901804 0 -0.00017394541056897051 -0.034157419842110862 0 -0.00021997457667963867 -0.034122129850097237 0 -0.00021880624701208553 -0.034186198431510918 0 -0.00031415761111204776 -0.034179951405606555 0 -0.000170292507530744 -0.034257526761851044 0 -0.00016380690089814884 -0.034204181767117259 0 -0.00021880624701208553 -0.034186198431510918 0 -0.000170292507530744 -0.034257526761851044 0 -0.00016380690089814884 -0.034204181767117259 0 -0.00017394541056897051 -0.034157419842110862 0 -0.00021880624701208553 -0.034186198431510918 0 -0.00021997457667963867 -0.034122129850097237 0 -0.00021880624701208553 -0.034186198431510918 0 -0.00031415761111204776 -0.034179951405606555 0 -0.00017072593790664237 -0.034011517847924964 0 -0.00021997457667963867 -0.034122129850097237 0 -0.00023537192689536884 -0.033964341322839278 0 -0.00021997457667963867 -0.034122129850097237 0 -0.00031415761111204776 -0.034179951405606555 0 -0.00023537192689536884 -0.033964341322839278 0 -0.00019727544672770025 -0.03381867484765487 0 -0.00023537192689536884 -0.033964341322839278 0 -0.00022636795719912332 -0.033753495085318178 0 -0.00023537192689536884 -0.033964341322839278 0 -0.00032746354193090342 -0.033900466902833153 0 -0.00022636795719912332 -0.033753495085318178 0 -0.00031415761111204776 -0.034179951405606555 0 -0.00023537192689536884 -0.033964341322839278 0 -0.00032746354193090342 -0.033900466902833153 0 -0.00031415761111204776 -0.034179951405606555 0 -0.00032746354193090342 -0.033900466902833153 0 -0.00054102273822912307 -0.033892093926095747 0 -0.00018643244469473128 -0.034033069976836396 0 -0.00019745721980137564 -0.033951755931299815 0 -0.00032746354193090342 -0.033900466902833153 0 -0.00040285049827835272 -0.033733168925552726 0 -0.00054102273822912307 -0.033892093926095747 0 -0.00096623002070405208 -0.033387993231430199 0 -0.00072517132306797053 -0.033402426212607 0 -0.00032746354193090342 -0.033900466902833153 0 -0.00040285049827835272 -0.033733168925552726 0 -0.00022636795719912332 -0.033753495085318178 0 -0.0023912324028919456 -0.03250573868631277 0 -0.0015417742747392629 -0.032871678389909599 0 -0.0020102315143460769 -0.032041732880706955 0 -0.0015417742747392629 -0.032871678389909599 0 -0.001514580244268298 -0.032005458402329962 0 -0.0020102315143460769 -0.032041732880706955 0 -0.00025911940445462852 -0.033619676754167223 0 -0.00026021078717235104 -0.033931021659231418 0 0.00031663350398733757 -0.034576314606199407 0 0.00040402691051993152 -0.034603687451432191 0 9.8696421884941659e-05 -0.034644422497784294 0 -0.00010537326576346079 -0.034743043054062853 0 -7.4769721420436398e-05 -0.034562803703379497 0 9.8696421884941659e-05 -0.034644422497784294 0 -0.00013467171453352683 -0.033690872974078453 0 -0.00025911940445462852 -0.033619676754167223 0 -0.00096623002070405208 -0.033387993231430199 0 -0.00025911940445462852 -0.033619676754167223 0 -0.00010537326576346079 -0.034743043054062853 0 -0.00022122389188113139 -0.034553337416511593 0 -7.4769721420436398e-05 -0.034562803703379497 0 -0.00025911940445462852 -0.033619676754167223 0 -0.00019745721980137564 -0.033951755931299815 0 -0.00040285049827835272 -0.033733168925552726 0 -0.00069077611175124914 -0.033683543891229732 0 -0.00054102273822912307 -0.033892093926095747 0 -0.00031415761111204776 -0.034179951405606555 0 -0.00022122389188113139 -0.034553337416511593 0 -0.00012907200391111778 -0.034378234671789722 0 -0.00022122389188113139 -0.034553337416511593 0 -7.4769721420436398e-05 -0.034562803703379497 0 -0.00012907200391111778 -0.034378234671789722 0 -7.4769721420436398e-05 -0.034562803703379497 0 -2.3406797532144657e-05 -0.034490893891110708 0 9.8696421884941659e-05 -0.034644422497784294 0 -7.4769721420436398e-05 -0.034562803703379497 0 -2.3406797532144657e-05 -0.034490893891110708 0 -0.00012907200391111778 -0.034378234671789722 0 -2.3406797532144657e-05 -0.034490893891110708 0 -5.7948697579924477e-05 -0.034371870214176786 0 1.9023167662589376e-05 -0.034506944137407354 0 -2.3406797532144657e-05 -0.034490893891110708 0 -0.00012907200391111778 -0.034378234671789722 0 -5.7948697579924477e-05 -0.034371870214176786 0 -0.00012907200391111778 -0.034378234671789722 0 -0.000170292507530744 -0.034257526761851044 0 -5.7948697579924477e-05 -0.034371870214176786 0 -0.00031415761111204776 -0.034179951405606555 0 -0.00012907200391111778 -0.034378234671789722 0 -0.000170292507530744 -0.034257526761851044 0 -0.0001031253766120659 -0.034277356413299868 0 -0.000170292507530744 -0.034257526761851044 0 -5.7948697579924477e-05 -0.034371870214176786 0 -0.0001031253766120659 -0.034277356413299868 0 -0.00016380690089814884 -0.034204181767117259 0 -0.000170292507530744 -0.034257526761851044 0 -0.0001031253766120659 -0.034277356413299868 0 -5.7948697579924477e-05 -0.034371870214176786 0 -4.3660252080800168e-05 -0.034330973254462112 0 -5.7948697579924477e-05 -0.034371870214176786 0 1.4995293372837823e-05 -0.034439076268556926 0 1.9023167662589376e-05 -0.034506944137407354 0 -5.7948697579924477e-05 -0.034371870214176786 0 1.4995293372837823e-05 -0.034439076268556926 0 -4.3660252080800168e-05 -0.034330973254462112 0 1.4995293372837823e-05 -0.034439076268556926 0 4.7748718209451924e-05 -0.034599367996939405 0 0.00011675998502961235 -0.034478798262751922 0 1.4995293372837823e-05 -0.034439076268556926 0 0.00011675998502961235 -0.034478798262751922 0 4.4663997336913138e-05 -0.03440185873840762 0 4.7748718209451924e-05 -0.034599367996939405 0 1.9023167662589376e-05 -0.034506944137407354 0 9.8696421884941659e-05 -0.034644422497784294 0 1.4995293372837823e-05 -0.034439076268556926 0 4.7748718209451924e-05 -0.034599367996939405 0 1.9023167662589376e-05 -0.034506944137407354 0 -2.3406797532144657e-05 -0.034490893891110708 0 1.9023167662589376e-05 -0.034506944137407354 0 9.8696421884941659e-05 -0.034644422497784294 0 9.8696421884941659e-05 -0.034644422497784294 0 5.9140212738020355e-05 -0.034697314263981885 0 9.2091286402508612e-05 -0.034676821566779141 0 4.7748718209451924e-05 -0.034599367996939405 0 5.9140212738020355e-05 -0.034697314263981885 0 5.8628617420743867e-05 -0.034715613689736975 0 4.7748718209451924e-05 -0.034599367996939405 0 9.8696421884941659e-05 -0.034644422497784294 0 5.9140212738020355e-05 -0.034697314263981885 0 9.2091286402508612e-05 -0.034676821566779141 0 2.8553847986989891e-05 -0.034783044185405086 0 1.9836084066270205e-05 -0.034710821520025095 0 5.9140212738020355e-05 -0.034697314263981885 0 9.2091286402508612e-05 -0.034676821566779141 0 2.8553847986989891e-05 -0.034783044185405086 0 9.2091286402508612e-05 -0.034676821566779141 0 1.9836084066270205e-05 -0.034710821520025095 0 9.2387936318998566e-05 -0.034597979460398103 0 9.2091286402508612e-05 -0.034676821566779141 0 0.00017560918143011338 -0.034576059874796491 0 9.2387936318998566e-05 -0.034597979460398103 0 9.8696421884941659e-05 -0.034644422497784294 0 9.2091286402508612e-05 -0.034676821566779141 0 0.0001882983859266831 -0.034612417207910473 0 0.00031663350398733757 -0.034576314606199407 0 9.8696421884941659e-05 -0.034644422497784294 0 0.0001882983859266831 -0.034612417207910473 0 9.2091286402508612e-05 -0.034676821566779141 0 0.0001882983859266831 -0.034612417207910473 0 0.00017560918143011338 -0.034576059874796491 0 -1.3940740681780436e-05 -0.034851866708972577 0 2.8553847986989891e-05 -0.034783044185405086 0 2.6324636423393872e-07 -0.034999403542782609 0 -1.3940740681780436e-05 -0.034851866708972577 0 2.6324636423393872e-07 -0.034999403542782609 0 -8.0951725311805114e-08 -0.034999939574759338 0 -1.3940740681780436e-05 -0.034851866708972577 0 2.8553847986989891e-05 -0.034783044185405086 0 1.9836084066270205e-05 -0.034710821520025095 0 2.8553847986989891e-05 -0.034783044185405086 0 5.8628617420743867e-05 -0.034715613689736975 0 2.6324636423393872e-07 -0.034999403542782609 0 5.9140212738020355e-05 -0.034697314263981885 0 2.8553847986989891e-05 -0.034783044185405086 0 5.8628617420743867e-05 -0.034715613689736975 0 1.7801393692580605e-09 -0.034999998247809264 0 -1.7462416520506159e-06 -0.035000777608152803 0 -2.2910259943354821e-09 -0.035000004807393376 0 5.5826787267160391e-09 -0.034999767577293235 0 -2.127164788782516e-05 -0.034858398888821425 0 5.8628617420743867e-05 -0.034715613689736975 0 2.6324636423393872e-07 -0.034999403542782609 0 0.00011884213778677966 -0.034675191986229682 0 -1.7462416520506159e-06 -0.035000777608152803 0 -2.2910259943354821e-09 -0.035000004807393376 0 -4.1251346871369398e-10 -0.034999989433040161 0 4.7748718209451924e-05 -0.034599367996939405 0 5.8628617420743867e-05 -0.034715613689736975 0 0.00011675998502961235 -0.034478798262751922 0 5.8628617420743867e-05 -0.034715613689736975 0 0.00011884213778677966 -0.034675191986229682 0 0.00011675998502961235 -0.034478798262751922 0 -2.127164788782516e-05 -0.034858398888821425 0 -4.2611379604743116e-05 -0.03478360429476858 0 -1.7462416520506159e-06 -0.035000777608152803 0 -4.1251346871369398e-10 -0.034999989433040161 0 -3.7599932913692368e-06 -0.034996032607044071 0 -1.7462416520506159e-06 -0.035000777608152803 0 -8.9621121059677194e-06 -0.03499534137866258 0 -3.7599932913692368e-06 -0.034996032607044071 0 -4.2737877923727125e-06 -0.035001652082810843 0 -0.0015117315356879693 -0.035011074698194623 0 -4.1251346871369398e-10 -0.034999989433040161 0 -3.7599932913692368e-06 -0.034996032607044071 0 -8.5131413129360038e-07 -0.034991741557966347 0 -8.9621121059677194e-06 -0.03499534137866258 0 -3.7599932913692368e-06 -0.034996032607044071 0 -6.1044042937729817e-06 -0.03499027685741754 0 -8.5131413129360038e-07 -0.034991741557966347 0 -6.1044042937729817e-06 -0.03499027685741754 0 -1.680975096028185e-06 -0.034984095191408604 0 -0.0015117315356879693 -0.035011074698194623 0 -0.00028419222262090831 -0.03498330106282347 0 2.6062441055633107e-09 -0.034903042925196262 0 -3.9577447240163374e-09 -0.035000000483514267 0 1.5261871341164411e-05 -0.034997900551467731 0 -3.7599932913692368e-06 -0.034996032607044071 0 -8.5131413129360038e-07 -0.034991741557966347 0 -6.1044042937729817e-06 -0.03499027685741754 0 -6.1044042937729817e-06 -0.03499027685741754 0 -1.680975096028185e-06 -0.034984095191408604 0 -8.0137755586789332e-06 -0.034984753062927712 0 -0.00021398431769096749 -0.034368646220526489 0 -0.00012714256892176634 -0.034439120802396715 0 -0.00021208244583656075 -0.034537491394300186 0 -0.00028419222262090831 -0.03498330106282347 0 -0.00022338749741304621 -0.034839373397692601 0 1.2727972696009007e-08 -0.0350001128616136 0 1.2095722239402131e-06 -0.034999898957347987 0 -2.5702934940565086e-06 -0.035010746772072339 0 -2.5717441073723479e-06 -0.034999381483091167 0 -0.00028419222262090831 -0.03498330106282347 0 -0.00028419222262090831 -0.03498330106282347 0 -0.00014658360278366919 -0.034847778783208723 0 -0.00021398431769096749 -0.034368646220526489 0 -0.00012714256892176634 -0.034439120802396715 0 -0.00010491877025879491 -0.034364091713699238 0 -6.2376124684561992e-05 -0.034394662720950389 0 -3.9831780791626603e-05 -0.034416474492748025 0 -6.2737219091573001e-05 -0.034464615061950823 0 -0.00012714256892176634 -0.034439120802396715 0 -6.2376124684561992e-05 -0.034394662720950389 0 -6.2737219091573001e-05 -0.034464615061950823 0 -0.00012714256892176634 -0.034439120802396715 0 -6.2376124684561992e-05 -0.034394662720950389 0 -0.00010491877025879491 -0.034364091713699238 0 -0.00014658360278366919 -0.034847778783208723 0 -9.4478007766427217e-05 -0.03475506934181477 0 -6.2376124684561992e-05 -0.034394662720950389 0 -0.00010491877025879491 -0.034364091713699238 0 -3.7619982225895813e-05 -0.034361882355869004 0 -6.1044042937729817e-06 -0.03499027685741754 0 -8.0137755586789332e-06 -0.034984753062927712 0 -1.5058854854879847e-05 -0.034985362190391195 0 -8.9621121059677194e-06 -0.03499534137866258 0 -6.1044042937729817e-06 -0.03499027685741754 0 -1.5058854854879847e-05 -0.034985362190391195 0 -4.2611379604743116e-05 -0.03478360429476858 0 -9.4478007766427217e-05 -0.03475506934181477 0 1.4995293372837823e-05 -0.034439076268556926 0 4.4663997336913138e-05 -0.03440185873840762 0 -9.6960531334581893e-06 -0.034340839100763486 0 0.00011675998502961235 -0.034478798262751922 0 4.4663997336913138e-05 -0.03440185873840762 0 7.5254258062915487e-05 -0.034333576731812719 0 4.4663997336913138e-05 -0.03440185873840762 0 -9.6960531334581893e-06 -0.034340839100763486 0 7.5254258062915487e-05 -0.034333576731812719 0 -5.4664763255225512e-05 -0.034715444719793029 0 -9.4478007766427217e-05 -0.03475506934181477 0 1.4995293372837823e-05 -0.034439076268556926 0 -4.3660252080800168e-05 -0.034330973254462112 0 -9.6960531334581893e-06 -0.034340839100763486 0 -4.3660252080800168e-05 -0.034330973254462112 0 -9.6960531334581893e-06 -0.034340839100763486 0 -2.8518491389468988e-05 -0.034330605672102221 0 -9.6960531334581893e-06 -0.034340839100763486 0 -2.8518491389468988e-05 -0.034330605672102221 0 -2.0126579112513772e-05 -0.034367076910669737 0 -2.8518491389468988e-05 -0.034330605672102221 0 -2.0126579112513772e-05 -0.034367076910669737 0 -2.4807525237871738e-05 -0.034363693671027984 0 -5.8905832362001514e-05 -0.034288040358072099 0 -2.8518491389468988e-05 -0.034330605672102221 0 -2.4807525237871738e-05 -0.034363693671027984 0 -6.2376124684561992e-05 -0.034394662720950389 0 -3.1905887989224009e-05 -0.034380207590082715 0 -3.7619982225895813e-05 -0.034361882355869004 0 -0.00010153882746525248 -0.03473213127770635 0 -9.4478007766427217e-05 -0.03475506934181477 0 -9.6960531334581893e-06 -0.034340839100763486 0 -3.1905887989224009e-05 -0.034380207590082715 0 -4.2072078679776202e-05 -0.034361735303206728 0 -9.6960531334581893e-06 -0.034340839100763486 0 -2.0126579112513772e-05 -0.034367076910669737 0 -3.1905887989224009e-05 -0.034380207590082715 0 -2.0126579112513772e-05 -0.034367076910669737 0 -3.1905887989224009e-05 -0.034380207590082715 0 -2.7716708647180924e-05 -0.034398253799608355 0 -6.2376124684561992e-05 -0.034394662720950389 0 -3.1905887989224009e-05 -0.034380207590082715 0 -3.9831780791626603e-05 -0.034416474492748025 0 -3.1905887989224009e-05 -0.034380207590082715 0 -2.7716708647180924e-05 -0.034398253799608355 0 -3.9831780791626603e-05 -0.034416474492748025 0 -2.6069667733857557e-05 -0.034446553479190248 0 -2.4807525237871738e-05 -0.034363693671027984 0 -2.6716870764383158e-05 -0.034475660824575434 0 -2.7716708647180924e-05 -0.034398253799608355 0 -3.9831780791626603e-05 -0.034416474492748025 0 -2.6069667733857557e-05 -0.034446553479190248 0 -3.9831780791626603e-05 -0.034416474492748025 0 -2.6069667733857557e-05 -0.034446553479190248 0 -6.2737219091573001e-05 -0.034464615061950823 0 -2.0126579112513772e-05 -0.034367076910669737 0 -2.7716708647180924e-05 -0.034398253799608355 0 -2.6069667733857557e-05 -0.034446553479190248 0 -2.6069667733857557e-05 -0.034446553479190248 0 -2.6716870764383158e-05 -0.034475660824575434 0 -3.4680780174075456e-05 -0.034563334113726814 0 -2.0126579112513772e-05 -0.034367076910669737 0 -2.6069667733857557e-05 -0.034446553479190248 0 -2.4807525237871738e-05 -0.034363693671027984 0 -2.4807525237871738e-05 -0.034363693671027984 0 -3.1572283558441378e-05 -0.034393303645220918 0 -2.6716870764383158e-05 -0.034475660824575434 0 -4.1118745996409077e-05 -0.034498480784275774 0 -4.2539501445147741e-05 -0.034333390577768554 0 -3.1572283558441378e-05 -0.034393303645220918 0 -4.1118745996409077e-05 -0.034498480784275774 0 -3.1572283558441378e-05 -0.034393303645220918 0 -2.6716870764383158e-05 -0.034475660824575434 0 -2.6716870764383158e-05 -0.034475660824575434 0 -3.5807333544670153e-05 -0.034584815964551312 0 -3.4680780174075456e-05 -0.034563334113726814 0 -4.1118745996409077e-05 -0.034498480784275774 0 -2.6716870764383158e-05 -0.034475660824575434 0 -3.5807333544670153e-05 -0.034584815964551312 0 -3.5807333544670153e-05 -0.034584815964551312 0 -4.1963688561946465e-05 -0.034701329181658386 0 -3.4680780174075456e-05 -0.034563334113726814 0 -4.1963688561946465e-05 -0.034701329181658386 0 -3.4680780174075456e-05 -0.034563334113726814 0 -6.331570843699025e-05 -0.034663740460139827 0 -3.4680780174075456e-05 -0.034563334113726814 0 -6.331570843699025e-05 -0.034663740460139827 0 -5.2299496744820294e-05 -0.034543073366363718 0 -6.1649690690356409e-05 -0.03491460346192931 0 -6.331570843699025e-05 -0.034663740460139827 0 -0.00021208244583656075 -0.034537491394300186 0 -0.0002006459015179091 -0.034832916347971053 0 -0.00022338749741304621 -0.034839373397692601 0 -6.1649690690356409e-05 -0.03491460346192931 0 -4.1963688561946465e-05 -0.034701329181658386 0 -6.331570843699025e-05 -0.034663740460139827 0 -6.1649690690356409e-05 -0.03491460346192931 0 -3.522888804064763e-08 -0.03499983890806109 0 -2.5702934940565086e-06 -0.035010746772072339 0 -6.331570843699025e-05 -0.034663740460139827 0 -0.00021208244583656075 -0.034537491394300186 0 -9.7332181953752828e-05 -0.034525147107061387 0 1.2727972696009007e-08 -0.0350001128616136 0 -3.522888804064763e-08 -0.03499983890806109 0 -2.5702934940565086e-06 -0.035010746772072339 0 -0.00012714256892176634 -0.034439120802396715 0 -0.00021208244583656075 -0.034537491394300186 0 -9.7332181953752828e-05 -0.034525147107061387 0 -0.00012714256892176634 -0.034439120802396715 0 -6.2737219091573001e-05 -0.034464615061950823 0 -9.7332181953752828e-05 -0.034525147107061387 0 -2.6069667733857557e-05 -0.034446553479190248 0 -6.2737219091573001e-05 -0.034464615061950823 0 -5.2299496744820294e-05 -0.034543073366363718 0 -2.6069667733857557e-05 -0.034446553479190248 0 -3.4680780174075456e-05 -0.034563334113726814 0 -5.2299496744820294e-05 -0.034543073366363718 0 -6.331570843699025e-05 -0.034663740460139827 0 -5.2299496744820294e-05 -0.034543073366363718 0 -9.7332181953752828e-05 -0.034525147107061387 0 -6.2737219091573001e-05 -0.034464615061950823 0 -5.2299496744820294e-05 -0.034543073366363718 0 -9.7332181953752828e-05 -0.034525147107061387 0 -1.1006975035126617e-05 -0.034970827274632008 0 1.0583659121173328e-06 -0.034982456570100781 0 -8.4446773753562972e-06 -0.034992423905017916 0 -1.1006975035126617e-05 -0.034970827274632008 0 -2.1781189038206088e-08 -0.034999963140161704 0 -8.4446773753562972e-06 -0.034992423905017916 0 -2.1781189038206088e-08 -0.034999963140161704 0 -9.0465389880738021e-06 -0.034965483371916975 0 4.3296775968145948e-09 -0.034999946022722911 0 -1.1006975035126617e-05 -0.034970827274632008 0 -2.1781189038206088e-08 -0.034999963140161704 0 -9.0465389880738021e-06 -0.034965483371916975 0 -1.1006975035126617e-05 -0.034970827274632008 0 -1.7039542330863202e-05 -0.034911204817619626 0 -9.0465389880738021e-06 -0.034965483371916975 0 -1.7039542330863202e-05 -0.034911204817619626 0 -9.0389189472182523e-05 -0.03473336867124846 0 -0.00013192344156155576 -0.0348584652862007 0 -1.1006975035126617e-05 -0.034970827274632008 0 -1.7039542330863202e-05 -0.034911204817619626 0 1.0583659121173328e-06 -0.034982456570100781 0 -1.7039542330863202e-05 -0.034911204817619626 0 -9.0389189472182523e-05 -0.03473336867124846 0 3.3968731112790288e-05 -0.034744535864770311 0 -5.7737095621044489e-05 -0.034857158607498655 0 -6.3079387258625988e-05 -0.034812148786946225 0 3.3968731112790288e-05 -0.034744535864770311 0 -2.6415005684480119e-05 -0.034656318333917108 0 6.7072633971659943e-05 -0.034598919133327195 0 -9.0389189472182523e-05 -0.03473336867124846 0 3.3968731112790288e-05 -0.034744535864770311 0 -2.6415005684480119e-05 -0.034656318333917108 0 -6.3079387258625988e-05 -0.034812148786946225 0 -9.1548171418067605e-05 -0.03467086695441926 0 -9.0389189472182523e-05 -0.03473336867124846 0 -2.6415005684480119e-05 -0.034656318333917108 0 -0.00010794742145977322 -0.034616170770218092 0 -9.0389189472182523e-05 -0.03473336867124846 0 -0.00010794742145977322 -0.034616170770218092 0 -0.00015723915475724913 -0.034675394561116839 0 -0.00011490280878410998 -0.033400429458433988 0 -0.00063617817930044401 -0.032539680028481767 0 -2.6415005684480119e-05 -0.034656318333917108 0 -0.00010794742145977322 -0.034616170770218092 0 -5.1759929569141615e-05 -0.034528242955899104 0 -0.00010794742145977322 -0.034616170770218092 0 -5.1759929569141615e-05 -0.034528242955899104 0 -0.00020800901062028836 -0.034599487369287862 0 -2.6415005684480119e-05 -0.034656318333917108 0 6.7072633971659943e-05 -0.034598919133327195 0 -5.1759929569141615e-05 -0.034528242955899104 0 -7.1001242239588848e-06 -0.034997056876376512 0 -8.4446773753562972e-06 -0.034992423905017916 0 -1.1500129326281722e-05 -0.034998235274415972 0 1.0583659121173328e-06 -0.034982456570100781 0 -7.1001242239588848e-06 -0.034997056876376512 0 -8.4446773753562972e-06 -0.034992423905017916 0 -2.1781189038206088e-08 -0.034999963140161704 0 -8.4446773753562972e-06 -0.034992423905017916 0 2.4115786848596327e-09 -0.034999969856183089 0 2.4115786848596327e-09 -0.034999969856183089 0 -1.1500129326281722e-05 -0.034998235274415972 0 -5.5792418291336481e-08 -0.035000108240434313 0 -8.4446773753562972e-06 -0.034992423905017916 0 2.4115786848596327e-09 -0.034999969856183089 0 -1.1500129326281722e-05 -0.034998235274415972 0 -1.1500129326281722e-05 -0.034998235274415972 0 -2.104652139026713e-05 -0.034993305335208565 0 -5.5792418291336481e-08 -0.035000108240434313 0 -1.1500129326281722e-05 -0.034998235274415972 0 -2.104652139026713e-05 -0.034993305335208565 0 -1.7623604985476989e-05 -0.03499514426127804 0 -2.104652139026713e-05 -0.034993305335208565 0 -5.5792418291336481e-08 -0.035000108240434313 0 -4.4442528922739753e-05 -0.034969836857718047 0 -9.1548171418067605e-05 -0.03467086695441926 0 -0.00013544122423205058 -0.034260355219568168 0 -7.1001242239588848e-06 -0.034997056876376512 0 -1.1500129326281722e-05 -0.034998235274415972 0 -1.7623604985476989e-05 -0.03499514426127804 0 -0.00064382810754104003 -0.035131571073177346 0 -0.0005196919349338522 -0.034598327072621386 0 -4.4442528922739753e-05 -0.034969836857718047 0 -0.00062315013976341638 -0.033568841213631413 0 -0.0003182336283460756 -0.034051124772067475 0 -4.8973909475217257e-05 -0.033497350816106469 0 -0.00062315013976341638 -0.033568841213631413 0 -0.0003182336283460756 -0.034051124772067475 0 -0.0005196919349338522 -0.034598327072621386 0 -0.00013544122423205058 -0.034260355219568168 0 -0.00017887909789265739 -0.034313046629588659 0 -0.0003182336283460756 -0.034051124772067475 0 -0.0005196919349338522 -0.034598327072621386 0 -0.00050699431999655961 -0.034619423923950045 0 -0.0005196919349338522 -0.034598327072621386 0 -4.4442528922739753e-05 -0.034969836857718047 0 -1.9090702240596659e-07 -0.034999182342350076 0 -5.5792418291336481e-08 -0.035000108240434313 0 -4.4442528922739753e-05 -0.034969836857718047 0 -1.9090702240596659e-07 -0.034999182342350076 0 -2.104652139026713e-05 -0.034993305335208565 0 -1.7623604985476989e-05 -0.03499514426127804 0 -4.4442528922739753e-05 -0.034969836857718047 0 -0.00013544122423205058 -0.034260355219568168 0 -0.0002100626704990505 -0.034410483047799818 0 -0.0005196919349338522 -0.034598327072621386 0 -1.9090702240596659e-07 -0.034999182342350076 0 -0.00050699431999655961 -0.034619423923950045 0 -1.4780103140398296e-07 -0.034999424428430917 0 -6.7503849749234282e-05 -0.0346883707367001 0 -3.5859584475069136e-05 -0.034865895265864658 0 -1.4780103140398296e-07 -0.034999424428430917 0 -0.00011413758738940355 -0.034441845201745917 0 -6.7503849749234282e-05 -0.0346883707367001 0 -2.1667901628153952e-07 -0.034999442758554516 0 -4.5675177272786727e-05 -0.034734524556920443 0 -0.00011413758738940355 -0.034441845201745917 0 -7.0833827887054651e-05 -0.034518243670162201 0 -6.7503849749234282e-05 -0.0346883707367001 0 -0.00011413758738940355 -0.034441845201745917 0 -7.0833827887054651e-05 -0.034518243670162201 0 -4.2928041984870363e-06 -0.034312875356639259 0 -3.9603244562394933e-05 -0.034553297879842244 0 -7.0833827887054651e-05 -0.034518243670162201 0 -4.2928041984870363e-06 -0.034312875356639259 0 -3.9603244562394933e-05 -0.034553297879842244 0 -6.7503849749234282e-05 -0.0346883707367001 0 -3.5575799329877899e-05 -0.034720522133672972 0 -3.9603244562394933e-05 -0.034553297879842244 0 -7.0833827887054651e-05 -0.034518243670162201 0 -6.7503849749234282e-05 -0.0346883707367001 0 -1.3940740681780436e-05 -0.034851866708972577 0 -3.5575799329877899e-05 -0.034720522133672972 0 1.9836084066270205e-05 -0.034710821520025095 0 -3.9603244562394933e-05 -0.034553297879842244 0 -3.5575799329877899e-05 -0.034720522133672972 0 2.505379400914527e-05 -0.034566470017897283 0 -3.5575799329877899e-05 -0.034720522133672972 0 1.9836084066270205e-05 -0.034710821520025095 0 2.505379400914527e-05 -0.034566470017897283 0 -1.4780103140398296e-07 -0.034999424428430917 0 -8.0951725311805114e-08 -0.034999939574759338 0 -3.5859584475069136e-05 -0.034865895265864658 0 -1.3940740681780436e-05 -0.034851866708972577 0 -3.5575799329877899e-05 -0.034720522133672972 0 -3.5859584475069136e-05 -0.034865895265864658 0 -1.3940740681780436e-05 -0.034851866708972577 0 -8.0951725311805114e-08 -0.034999939574759338 0 -3.5859584475069136e-05 -0.034865895265864658 0 -6.7503849749234282e-05 -0.0346883707367001 0 -3.5575799329877899e-05 -0.034720522133672972 0 -3.5859584475069136e-05 -0.034865895265864658 0 0.00017643661428647697 -0.034405638361862258 0 0.00027436808127104684 -0.034528141207983878 0 0.00039695375773634022 -0.034425136824869307 0 0.00031663350398733757 -0.034576314606199407 0 0.0001882983859266831 -0.034612417207910473 0 0.00027436808127104684 -0.034528141207983878 0 0.0001882983859266831 -0.034612417207910473 0 0.00027436808127104684 -0.034528141207983878 0 0.00017560918143011338 -0.034576059874796491 0 0.00017643661428647697 -0.034405638361862258 0 0.00027436808127104684 -0.034528141207983878 0 0.00017560918143011338 -0.034576059874796491 0 0.00017643661428647697 -0.034405638361862258 0 0.00017560918143011338 -0.034576059874796491 0 9.2387936318998566e-05 -0.034597979460398103 0 1.9836084066270205e-05 -0.034710821520025095 0 9.2387936318998566e-05 -0.034597979460398103 0 2.505379400914527e-05 -0.034566470017897283 0 0.00017643661428647697 -0.034405638361862258 0 9.2387936318998566e-05 -0.034597979460398103 0 2.505379400914527e-05 -0.034566470017897283 0 0.00017643661428647697 -0.034405638361862258 0 4.5931638303315041e-05 -0.034350741860569196 0 0.00012822175325811493 -0.034132300855039287 0 0.00017643661428647697 -0.034405638361862258 0 2.505379400914527e-05 -0.034566470017897283 0 4.5931638303315041e-05 -0.034350741860569196 0 -3.9603244562394933e-05 -0.034553297879842244 0 4.5931638303315041e-05 -0.034350741860569196 0 -4.2928041984870363e-06 -0.034312875356639259 0 -3.9603244562394933e-05 -0.034553297879842244 0 2.505379400914527e-05 -0.034566470017897283 0 4.5931638303315041e-05 -0.034350741860569196 0 4.5931638303315041e-05 -0.034350741860569196 0 -4.2928041984870363e-06 -0.034312875356639259 0 0.00012822175325811493 -0.034132300855039287 0 -4.2928041984870363e-06 -0.034312875356639259 0 0.00012822175325811493 -0.034132300855039287 0 0.00011128253809846913 -0.033800732871803157 0 0.00018648917701336354 -0.034047855472427266 0 0.0001584611126896864 -0.034056403460912286 0 0.00017643661428647697 -0.034405638361862258 0 0.00034290532755858731 -0.033913265414510486 0 0.00039695375773634022 -0.034425136824869307 0 0.00017643661428647697 -0.034405638361862258 0 0.00012822175325811493 -0.034132300855039287 0 0.00034290532755858731 -0.033913265414510486 0 0.00034290532755858731 -0.033913265414510486 0 0.00044372919550818095 -0.03341367150268338 0 0.00074293308257623316 -0.033568866191102491 0 0.00012822175325811493 -0.034132300855039287 0 0.00034290532755858731 -0.033913265414510486 0 0.00011128253809846913 -0.033800732871803157 0 0.00034290532755858731 -0.033913265414510486 0 0.00044372919550818095 -0.03341367150268338 0 0.00011128253809846913 -0.033800732871803157 0 0.00044372919550818095 -0.03341367150268338 0 0.00011128253809846913 -0.033800732871803157 0 0.00025309157160962611 -0.033296961462523117 0 -0.00011413758738940355 -0.034441845201745917 0 -4.2928041984870363e-06 -0.034312875356639259 0 0.00011128253809846913 -0.033800732871803157 0 -0.0003182336283460756 -0.034051124772067475 0 -0.00050699431999655961 -0.034619423923950045 0 0.00011128253809846913 -0.033800732871803157 0 -4.5675177272786727e-05 -0.034734524556920443 0 5.0516410123522378e-05 -0.034560542449035891 0 0.00011128253809846913 -0.033800732871803157 0 -4.8973909475217257e-05 -0.033497350816106469 0 0.00025309157160962611 -0.033296961462523117 0 -0.0003182336283460756 -0.034051124772067475 0 0.00011128253809846913 -0.033800732871803157 0 -4.8973909475217257e-05 -0.033497350816106469 0 -0.00062315013976341638 -0.033568841213631413 0 -4.8973909475217257e-05 -0.033497350816106469 0 0.00024818440818931528 -0.032766499982458806 0 -0.00013544122423205058 -0.034260355219568168 0 -0.00011490280878410998 -0.033400429458433988 0 6.7072633971659943e-05 -0.034598919133327195 0 9.9100750932726167e-05 -0.034454770018235534 0 -5.1759929569141615e-05 -0.034528242955899104 0 -4.8973909475217257e-05 -0.033497350816106469 0 0.00025309157160962611 -0.033296961462523117 0 0.00024818440818931528 -0.032766499982458806 0 0.00049652538404446164 -0.033025656720780845 0 0.00024818440818931528 -0.032766499982458806 0 0.0007243813344252881 -0.032667959346467282 0 0.00044372919550818095 -0.03341367150268338 0 0.00049652538404446164 -0.033025656720780845 0 0.00074869164716579264 -0.032949618301713363 0 0.00044372919550818095 -0.03341367150268338 0 0.00049652538404446164 -0.033025656720780845 0 0.00025309157160962611 -0.033296961462523117 0 0.00049652538404446164 -0.033025656720780845 0 0.00025309157160962611 -0.033296961462523117 0 0.00024818440818931528 -0.032766499982458806 0 0.0007243813344252881 -0.032667959346467282 0 0.00074869164716579264 -0.032949618301713363 0 0.0010641086897793025 -0.032389649414972445 0 0.00074869164716579264 -0.032949618301713363 0 0.0010641086897793025 -0.032389649414972445 0 0.0010318734707451206 -0.032783019583381 0 0.00049652538404446164 -0.033025656720780845 0 0.0007243813344252881 -0.032667959346467282 0 0.00074869164716579264 -0.032949618301713363 0 0.0010641086897793025 -0.032389649414972445 0 0.0012363852716894442 -0.032011781308541987 0 0.00095071407508678831 -0.032411735449659564 0 0.0010641086897793025 -0.032389649414972445 0 0.0012363852716894442 -0.032011781308541987 0 0.0010318734707451206 -0.032783019583381 0 0.0012363852716894442 -0.032011781308541987 0 0.0014286079746307582 -0.032925451270352936 0 0.0010318734707451206 -0.032783019583381 0 0.0014286079746307582 -0.032925451270352936 0 0.0010318734707451206 -0.032783019583381 0 0.0012004516719080951 -0.033364074463725406 0 0.0010318734707451206 -0.032783019583381 0 0.0012004516719080951 -0.033364074463725406 0 0.00074293308257623316 -0.033568866191102491 0 0.0014286079746307582 -0.032925451270352936 0 0.0012004516719080951 -0.033364074463725406 0 0.001741628447550997 -0.033459660076968011 0 0.00074869164716579264 -0.032949618301713363 0 0.0010318734707451206 -0.032783019583381 0 0.00074293308257623316 -0.033568866191102491 0 0.00044372919550818095 -0.03341367150268338 0 0.00074869164716579264 -0.032949618301713363 0 0.00074293308257623316 -0.033568866191102491 0 0.00074293308257623316 -0.033568866191102491 0 0.0011363838248306024 -0.033888333158688076 0 0.0005952532125288912 -0.034154235687375308 0 0.00034290532755858731 -0.033913265414510486 0 0.00074293308257623316 -0.033568866191102491 0 0.0005952532125288912 -0.034154235687375308 0 0.0011363838248306024 -0.033888333158688076 0 0.0018007574655328484 -0.034160790586875565 0 0.001741628447550997 -0.033459660076968011 0 0.0012004516719080951 -0.033364074463725406 0 0.00074293308257623316 -0.033568866191102491 0 0.0011363838248306024 -0.033888333158688076 0 0.0012004516719080951 -0.033364074463725406 0 0.0011363838248306024 -0.033888333158688076 0 0.001741628447550997 -0.033459660076968011 0 0.00098285233935752536 -0.034751362370565718 0 0.0010450710241833158 -0.034453517302150814 0 0.0018007574655328484 -0.034160790586875565 0 0.0011363838248306024 -0.033888333158688076 0 0.0010450710241833158 -0.034453517302150814 0 0.0018007574655328484 -0.034160790586875565 0 -0.00025911940445462852 -0.033619676754167223 0 -0.00052428046600254288 -0.032619016037723193 0 -0.0023912324028919456 -0.03250573868631277 0 -0.0033630058390726066 -0.032350379358433698 0 -0.0024009188865480487 -0.031576847328052833 0 0.00031663350398733757 -0.034576314606199407 0 0.00038504087777583814 -0.034608907414041983 0 0.00039695375773634022 -0.034425136824869307 0 0.00098285233935752536 -0.034751362370565718 0 0.0010450710241833158 -0.034453517302150814 0 0.0005952532125288912 -0.034154235687375308 0 -0.00025911940445462852 -0.033619676754167223 0 0.0001584611126896864 -0.034056403460912286 0 0.0011363838248306024 -0.033888333158688076 0 0.0010450710241833158 -0.034453517302150814 0 0.0005952532125288912 -0.034154235687375308 0 0.00031663350398733757 -0.034576314606199407 0 0.00027436808127104684 -0.034528141207983878 0 0.00039695375773634022 -0.034425136824869307 0 -0.0015464446789911275 -0.031540445388883821 0 -0.0020102315143460769 -0.032041732880706955 0 -0.0024009188865480487 -0.031576847328052833 0 -0.0015464446789911275 -0.031540445388883821 0 -0.001514580244268298 -0.032005458402329962 0 -0.0012638404564070088 -0.031773782839956216 0 -0.0015464446789911275 -0.031540445388883821 0 -0.001514580244268298 -0.032005458402329962 0 -0.0020102315143460769 -0.032041732880706955 0 -0.0023912324028919456 -0.03250573868631277 0 -0.0020102315143460769 -0.032041732880706955 0 -0.0024009188865480487 -0.031576847328052833 0 0.0018007574655328484 -0.034160790586875565 0 0.001741628447550997 -0.033459660076968011 0 0.0027911833382330002 -0.033428025210260399 0 -0.0015464446789911275 -0.031540445388883821 0 -0.0013498136439253953 -0.031156450888000748 0 -0.001094300705660364 -0.031218381803859208 0 -0.00052428046600254288 -0.032619016037723193 0 -0.00089441202800946012 -0.031478421595605759 0 -0.0015464446789911275 -0.031540445388883821 0 -0.0024009188865480487 -0.031576847328052833 0 -0.0013498136439253953 -0.031156450888000748 0 -0.00092292423462422217 -0.029188993935288048 0 0.00019183819983711162 -0.030192250904431412 0 -0.00098977766481294889 -0.030535362709621771 0 -0.00089441202800946012 -0.031478421595605759 0 2.6560178320551057e-05 -0.031817125780252545 0 0.001741628447550997 -0.033459660076968011 0 0.0027911833382330002 -0.033428025210260399 0 0.0021781323174460509 -0.032864554545100372 0 0.0014286079746307582 -0.032925451270352936 0 0.001741628447550997 -0.033459660076968011 0 0.0021781323174460509 -0.032864554545100372 0 0.0012363852716894442 -0.032011781308541987 0 0.0014286079746307582 -0.032925451270352936 0 0.0021781323174460509 -0.032864554545100372 0 0.0012363852716894442 -0.032011781308541987 0 0.00012531961373901633 -0.031503806801053302 0 0.00095071407508678831 -0.032411735449659564 0 0.00027450291971418072 -0.031910703325804084 0 2.6560178320551057e-05 -0.031817125780252545 0 0.0012363852716894442 -0.032011781308541987 0 0.00019183819983711162 -0.030192250904431412 0 0.00012531961373901633 -0.031503806801053302 0 0.00012531961373901633 -0.031503806801053302 0 -0.00098977766481294889 -0.030535362709621771 0 -0.00095814938761964595 -0.031888918024005238 0 0.00019183819983711162 -0.030192250904431412 0 0.00012531961373901633 -0.031503806801053302 0 -0.00098977766481294889 -0.030535362709621771 0 -0.0032253520501834029 -0.030218187618269377 0 -0.0033443791410595908 -0.030014576497483327 0 -0.0035413647648752451 -0.030145302775741824 0 -0.0032253520501834029 -0.030218187618269377 0 -0.0033443791410595908 -0.030014576497483327 0 -0.0029765146349760244 -0.029903480108367752 0 -0.0033443791410595908 -0.030014576497483327 0 -0.0032694137568482894 -0.029795854250907021 0 -0.0029765146349760244 -0.029903480108367752 0 -0.0033443791410595908 -0.030014576497483327 0 -0.0032694137568482894 -0.029795854250907021 0 -0.0035767779814295125 -0.029974266434279851 0 -0.0016455186742020244 -0.032440717009958438 0 -0.0014874504777731893 -0.03255214568112489 0 -0.00034348326832589645 -0.03469970942663117 0 -0.0002721496411340339 -0.034665860925920715 0 -0.00025966987700182351 -0.03472189103298487 0 -0.0017995846324359085 -0.031427799108048236 0 -0.0013687895624815731 -0.03182159602415769 0 -0.0033443791410595908 -0.030014576497483327 0 -0.0035767779814295125 -0.029974266434279851 0 -0.0035413647648752451 -0.030145302775741824 0 0.00012531961373901633 -0.031503806801053302 0 -0.00095814938761964595 -0.031888918024005238 0 0.00095071407508678831 -0.032411735449659564 0 -0.0013687895624815731 -0.03182159602415769 0 -0.00063617817930044401 -0.032539680028481767 0 0.0010641086897793025 -0.032389649414972445 0 0.00095071407508678831 -0.032411735449659564 0 0.00097024281132764012 -0.032302517361176897 0 -0.0035767779814295125 -0.029974266434279851 0 -0.0035413647648752451 -0.030145302775741824 0 -0.0038231136052672642 -0.030109805920189314 0 -0.0014874504777731893 -0.03255214568112489 0 -0.00063617817930044401 -0.032539680028481767 0 -0.00041472679302318458 -0.032762663290224321 0 -0.00063617817930044401 -0.032539680028481767 0 0.00024818440818931528 -0.032766499982458806 0 0.0007243813344252881 -0.032667959346467282 0 0.00097024281132764012 -0.032302517361176897 0 -0.00010794742145977322 -0.034616170770218092 0 -0.00018573934443699884 -0.034614881214537561 0 -0.00015723915475724913 -0.034675394561116839 0 0.0007243813344252881 -0.032667959346467282 0 0.0010641086897793025 -0.032389649414972445 0 0.00097024281132764012 -0.032302517361176897 0 -9.0389189472182523e-05 -0.03473336867124846 0 -0.00015723915475724913 -0.034675394561116839 0 -0.000185436169042829 -0.034736070586004621 0 -0.00018573934443699884 -0.034614881214537561 0 -0.00015723915475724913 -0.034675394561116839 0 -0.00021096372589829974 -0.03468129251193882 0 -0.00015723915475724913 -0.034675394561116839 0 -0.00021096372589829974 -0.03468129251193882 0 -0.000185436169042829 -0.034736070586004621 0 -0.0002721496411340339 -0.034665860925920715 0 -0.00018573934443699884 -0.034614881214537561 0 -0.00021096372589829974 -0.03468129251193882 0 -0.0002721496411340339 -0.034665860925920715 0 -0.00021096372589829974 -0.03468129251193882 0 -0.00025966987700182351 -0.03472189103298487 0 -0.00021096372589829974 -0.03468129251193882 0 -0.00025966987700182351 -0.03472189103298487 0 -0.000185436169042829 -0.034736070586004621 0 -0.00025966987700182351 -0.03472189103298487 0 -0.000185436169042829 -0.034736070586004621 0 -0.00023368180213178958 -0.034795646194032512 0 -0.00025966987700182351 -0.03472189103298487 0 -0.00023368180213178958 -0.034795646194032512 0 -0.00029181371302781315 -0.03475608982041762 0 -9.0389189472182523e-05 -0.03473336867124846 0 -0.000185436169042829 -0.034736070586004621 0 -0.00013192344156155576 -0.0348584652862007 0 -0.000185436169042829 -0.034736070586004621 0 -0.00013192344156155576 -0.0348584652862007 0 -0.00023368180213178958 -0.034795646194032512 0 -0.00013192344156155576 -0.0348584652862007 0 -0.00023368180213178958 -0.034795646194032512 0 -0.00025066634755203411 -0.034858068929186123 0 -0.00023368180213178958 -0.034795646194032512 0 -0.00030664752016192797 -0.034808149565998633 0 -0.00025066634755203411 -0.034858068929186123 0 -0.00030664752016192797 -0.034808149565998633 0 -0.00035013590953733386 -0.034754273883543949 0 -0.00029181371302781315 -0.03475608982041762 0 -0.00023368180213178958 -0.034795646194032512 0 -0.00030664752016192797 -0.034808149565998633 0 -0.00029181371302781315 -0.03475608982041762 0 -0.00030664752016192797 -0.034808149565998633 0 -0.00035013590953733386 -0.034754273883543949 0 -0.00038715989658154478 -0.034789271234586396 0 -0.00034348326832589645 -0.03469970942663117 0 -0.00035013590953733386 -0.034754273883543949 0 -0.00029181371302781315 -0.03475608982041762 0 -0.00034348326832589645 -0.03469970942663117 0 -0.00035013590953733386 -0.034754273883543949 0 -0.00040896138182209364 -0.034718598581239955 0 -0.00034348326832589645 -0.03469970942663117 0 -0.00025966987700182351 -0.03472189103298487 0 -0.00029181371302781315 -0.03475608982041762 0 -0.001618801173157316 -0.032365151229762024 0 -0.0015372416695607161 -0.032355447303099596 0 -0.0028323221100406064 -0.029694725029420634 0 -0.0029434461420465631 -0.02966549012242255 0 -0.0027652131766253982 -0.02965136178130999 0 -0.0028323221100406064 -0.029694725029420634 0 -0.0027924804023646719 -0.029688210320336451 0 -0.0027652131766253982 -0.02965136178130999 0 -0.0028323221100406064 -0.029694725029420634 0 -0.0027924804023646719 -0.029688210320336451 0 -0.0027891249319536736 -0.029748419201578294 0 -0.0028323221100406064 -0.029694725029420634 0 -0.0029434461420465631 -0.02966549012242255 0 -0.0029765146349760244 -0.029903480108367752 0 -0.0016455186742020244 -0.032440717009958438 0 -0.001618801173157316 -0.032365151229762024 0 -0.00035013590953733386 -0.034754273883543949 0 -0.00040896138182209364 -0.034718598581239955 0 -0.00038715989658154478 -0.034789271234586396 0 -0.00040896138182209364 -0.034718598581239955 0 -0.00038715989658154478 -0.034789271234586396 0 -0.00043310473458332968 -0.034743267880663592 0 -0.00038715989658154478 -0.034789271234586396 0 -0.00043688834938200512 -0.034770863366004164 0 -0.00043310473458332968 -0.034743267880663592 0 -0.00040896138182209364 -0.034718598581239955 0 -0.00043310473458332968 -0.034743267880663592 0 -0.0004801260732454338 -0.034729619312655058 0 -0.00043688834938200512 -0.034770863366004164 0 -0.00043310473458332968 -0.034743267880663592 0 -0.00046576085080799536 -0.03475074515336278 0 -0.00043310473458332968 -0.034743267880663592 0 -0.00046576085080799536 -0.03475074515336278 0 -0.0004801260732454338 -0.034729619312655058 0 -0.00046576085080799536 -0.03475074515336278 0 -0.0004801260732454338 -0.034729619312655058 0 -0.00047942791001567668 -0.034739411476904118 0 -0.00043688834938200512 -0.034770863366004164 0 -0.00046576085080799536 -0.03475074515336278 0 -0.00046498286458094689 -0.034771995946088978 0 -0.00046498286458094689 -0.034771995946088978 0 -0.00047973042001004876 -0.034760575872964473 0 -0.00048495117455002278 -0.034773390278600179 0 -0.00046576085080799536 -0.03475074515336278 0 -0.00046498286458094689 -0.034771995946088978 0 -0.00047973042001004876 -0.034760575872964473 0 -0.0027797150206617621 -0.029670782694139797 0 -0.0027652131766253982 -0.02965136178130999 0 -0.0028026541521701848 -0.02970227524613734 0 -0.00047973042001004876 -0.034760575872964473 0 -0.00048538063738997537 -0.034747950668425634 0 -0.00049838037185073291 -0.034759412025620717 0 -0.00047973042001004876 -0.034760575872964473 0 -0.00049838037185073291 -0.034759412025620717 0 -0.00048495117455002278 -0.034773390278600179 0 -0.0015372416695607161 -0.032355447303099596 0 -0.0020216942136588698 -0.030931632142543953 0 -0.00050609338373173648 -0.034737437917313777 0 -0.0004801260732454338 -0.034729619312655058 0 -0.0005817313342762493 -0.034731625978440622 0 -0.00050609338373173648 -0.034737437917313777 0 -0.00052027763599338326 -0.034739976001309798 0 -0.0005817313342762493 -0.034731625978440622 0 -0.0015372416695607161 -0.032355447303099596 0 -0.0013662794390832504 -0.032909123711232752 0 -0.0027652131766253982 -0.02965136178130999 0 -0.0028297010854871981 -0.029760375422613068 0 -0.0028026541521701848 -0.02970227524613734 0 -0.00046576085080799536 -0.03475074515336278 0 -0.00048538063738997537 -0.034747950668425634 0 -0.00047942791001567668 -0.034739411476904118 0 -0.00046576085080799536 -0.03475074515336278 0 -0.00047973042001004876 -0.034760575872964473 0 -0.00048538063738997537 -0.034747950668425634 0 -0.00048538063738997537 -0.034747950668425634 0 -0.00047942791001567668 -0.034739411476904118 0 -0.00049105658710872342 -0.034739864540803821 0 -0.00048538063738997537 -0.034747950668425634 0 -0.00050203724308597213 -0.034746351777955653 0 -0.00049105658710872342 -0.034739864540803821 0 -0.00048538063738997537 -0.034747950668425634 0 -0.00050203724308597213 -0.034746351777955653 0 -0.00049838037185073291 -0.034759412025620717 0 -0.00050609338373173648 -0.034737437917313777 0 -0.00050203724308597213 -0.034746351777955653 0 -0.00049105658710872342 -0.034739864540803821 0 -0.00050203724308597213 -0.034746351777955653 0 -0.00049838037185073291 -0.034759412025620717 0 -0.00051544309117871863 -0.034749744259638053 0 -0.00051544309117871863 -0.034749744259638053 0 -0.00053708467265799502 -0.034743515208600903 0 -0.00052022581143564743 -0.034759050767812827 0 -0.00049838037185073291 -0.034759412025620717 0 -0.00051544309117871863 -0.034749744259638053 0 -0.00052022581143564743 -0.034759050767812827 0 -0.00051544309117871863 -0.034749744259638053 0 -0.00053708467265799502 -0.034743515208600903 0 -0.00052027763599338326 -0.034739976001309798 0 -0.00053708467265799502 -0.034743515208600903 0 -0.00054283398513357882 -0.034754199734015473 0 -0.00052022581143564743 -0.034759050767812827 0 -0.00050203724308597213 -0.034746351777955653 0 -0.00051544309117871863 -0.034749744259638053 0 -0.00052027763599338326 -0.034739976001309798 0 -0.00050609338373173648 -0.034737437917313777 0 -0.00050203724308597213 -0.034746351777955653 0 -0.00052027763599338326 -0.034739976001309798 0 -0.0027887117715588747 -0.029680565939757392 0 -0.0027797150206617621 -0.029670782694139797 0 -0.0028026541521701848 -0.02970227524613734 0 -0.0027939756807644107 -0.029685277814036425 0 -0.0027887117715588747 -0.029680565939757392 0 -0.0028026541521701848 -0.02970227524613734 0 -0.0027939756807644107 -0.029685277814036425 0 -0.002800618792999626 -0.029680816935051223 0 -0.002788359065327151 -0.029673676707642125 0 -0.0027887117715588747 -0.029680565939757392 0 -0.0027801551082980015 -0.029671106304902335 0 -0.002788359065327151 -0.029673676707642125 0 -0.0027939756807644107 -0.029685277814036425 0 -0.0027887117715588747 -0.029680565939757392 0 -0.002788359065327151 -0.029673676707642125 0 -0.0027887117715588747 -0.029680565939757392 0 -0.0027797150206617621 -0.029670782694139797 0 -0.0027801551082980015 -0.029671106304902335 0 -0.0027797150206617621 -0.029670782694139797 0 -0.0027748081339342258 -0.029665696741951783 0 -0.0027801551082980015 -0.029671106304902335 0 -0.0027797150206617621 -0.029670782694139797 0 -0.0027748081339342258 -0.029665696741951783 0 -0.0027652131766253982 -0.02965136178130999 0 -0.0027748081339342258 -0.029665696741951783 0 -0.0027652131766253982 -0.02965136178130999 0 -0.0027744807631877974 -0.029666889669938266 0 -0.0004801260732454338 -0.034729619312655058 0 -0.00047942791001567668 -0.034739411476904118 0 -0.00049105658710872342 -0.034739864540803821 0 -0.00050609338373173648 -0.034737437917313777 0 -0.0004801260732454338 -0.034729619312655058 0 -0.00049105658710872342 -0.034739864540803821 0 -0.00045598853704609276 -0.034634317454932131 0 -0.0005817313342762493 -0.034731625978440622 0 -0.00059673797806307819 -0.034710459407965889 0 -0.0028297010854871981 -0.029760375422613068 0 -0.0028560121796159092 -0.029726099958522999 0 -0.0028996459098292763 -0.029732054051746976 0 -0.00059845072149903721 -0.03473536330172601 0 -0.00059673797806307819 -0.034710459407965889 0 -0.00062147604360230789 -0.034741583342502637 0 -0.00059845072149903721 -0.03473536330172601 0 -0.0005817313342762493 -0.034731625978440622 0 -0.00059673797806307819 -0.034710459407965889 0 -0.0028297010854871981 -0.029760375422613068 0 -0.0028221727080198549 -0.029727509924360733 0 -0.0028355233576719424 -0.02972450266926031 0 -0.0028297010854871981 -0.029760375422613068 0 -0.0028355233576719424 -0.02972450266926031 0 -0.0028560121796159092 -0.029726099958522999 0 -0.00053708467265799502 -0.034743515208600903 0 -0.00052027763599338326 -0.034739976001309798 0 -0.0005817313342762493 -0.034731625978440622 0 -0.00053708467265799502 -0.034743515208600903 0 -0.0005817313342762493 -0.034731625978440622 0 -0.00055676103997295693 -0.034746853386570083 0 -0.00053708467265799502 -0.034743515208600903 0 -0.00054283398513357882 -0.034754199734015473 0 -0.00055676103997295693 -0.034746853386570083 0 -0.0028297010854871981 -0.029760375422613068 0 -0.0028026541521701848 -0.02970227524613734 0 -0.0028221727080198549 -0.029727509924360733 0 -0.0028026541521701848 -0.02970227524613734 0 -0.002800618792999626 -0.029680816935051223 0 -0.0028132655835949546 -0.029688993785067442 0 -0.0027939756807644107 -0.029685277814036425 0 -0.0028026541521701848 -0.02970227524613734 0 -0.002800618792999626 -0.029680816935051223 0 -0.0028132655835949546 -0.029688993785067442 0 -0.0028228735200018121 -0.029704570629705458 0 -0.0028334893282113984 -0.029675640505614415 0 -0.0028026541521701848 -0.02970227524613734 0 -0.0028132655835949546 -0.029688993785067442 0 -0.0028228735200018121 -0.029704570629705458 0 -0.0028026541521701848 -0.02970227524613734 0 -0.0028228735200018121 -0.029704570629705458 0 -0.0028221727080198549 -0.029727509924360733 0 -0.0028228735200018121 -0.029704570629705458 0 -0.0028221727080198549 -0.029727509924360733 0 -0.0028355233576719424 -0.02972450266926031 0 -0.0028355233576719424 -0.02972450266926031 0 -0.0028460895543461649 -0.02970409190219829 0 -0.0028560121796159092 -0.029726099958522999 0 -0.0028228735200018121 -0.029704570629705458 0 -0.0028355233576719424 -0.02972450266926031 0 -0.0028460895543461649 -0.02970409190219829 0 -0.0028228735200018121 -0.029704570629705458 0 -0.0028460895543461649 -0.02970409190219829 0 -0.0028334893282113984 -0.029675640505614415 0 -0.0028460895543461649 -0.02970409190219829 0 -0.0028334893282113984 -0.029675640505614415 0 -0.0028780057823964036 -0.029661019377829997 0 -0.0028460895543461649 -0.02970409190219829 0 -0.0028795126980888778 -0.029701905938590616 0 -0.0028780057823964036 -0.029661019377829997 0 -0.0028795126980888778 -0.029701905938590616 0 -0.0028560121796159092 -0.029726099958522999 0 -0.0028996459098292763 -0.029732054051746976 0 -0.0028460895543461649 -0.02970409190219829 0 -0.0028795126980888778 -0.029701905938590616 0 -0.0028560121796159092 -0.029726099958522999 0 -0.0028780057823964036 -0.029661019377829997 0 -0.002846455565042844 -0.029639395460285347 0 -0.002890086677631176 -0.029583882185765232 0 -0.002846455565042844 -0.029639395460285347 0 -0.002834056728820116 -0.029615128410598362 0 -0.002890086677631176 -0.029583882185765232 0 -0.0028334893282113984 -0.029675640505614415 0 -0.0028780057823964036 -0.029661019377829997 0 -0.002846455565042844 -0.029639395460285347 0 -0.0028334893282113984 -0.029675640505614415 0 -0.002846455565042844 -0.029639395460285347 0 -0.0028161637662449325 -0.02966160505611215 0 -0.002846455565042844 -0.029639395460285347 0 -0.0028161637662449325 -0.02966160505611215 0 -0.002834056728820116 -0.029615128410598362 0 -0.0028161637662449325 -0.02966160505611215 0 -0.0028020553275775826 -0.029647128977312275 0 -0.002834056728820116 -0.029615128410598362 0 -0.002800618792999626 -0.029680816935051223 0 -0.0028132655835949546 -0.029688993785067442 0 -0.0028161637662449325 -0.02966160505611215 0 -0.0028132655835949546 -0.029688993785067442 0 -0.0028334893282113984 -0.029675640505614415 0 -0.0028161637662449325 -0.02966160505611215 0 -0.002800618792999626 -0.029680816935051223 0 -0.0028161637662449325 -0.02966160505611215 0 -0.0027980837844594447 -0.029666749643035523 0 -0.002800618792999626 -0.029680816935051223 0 -0.0027980837844594447 -0.029666749643035523 0 -0.002788359065327151 -0.029673676707642125 0 -0.0027980837844594447 -0.029666749643035523 0 -0.0028020553275775826 -0.029647128977312275 0 -0.0027855507143311896 -0.029666663215846701 0 -0.0028161637662449325 -0.02966160505611215 0 -0.0027980837844594447 -0.029666749643035523 0 -0.0028020553275775826 -0.029647128977312275 0 -0.0028020553275775826 -0.029647128977312275 0 -0.0027931052986133226 -0.029657326932587144 0 -0.0028176426804798343 -0.029617763330969632 0 -0.0028020553275775826 -0.029647128977312275 0 -0.002834056728820116 -0.029615128410598362 0 -0.0028176426804798343 -0.029617763330969632 0 -0.002834056728820116 -0.029615128410598362 0 -0.0028600669651196783 -0.029565025378226202 0 -0.002890086677631176 -0.029583882185765232 0 -0.002834056728820116 -0.029615128410598362 0 -0.0028600669651196783 -0.029565025378226202 0 -0.0028176426804798343 -0.029617763330969632 0 -0.0027924804023646719 -0.029688210320336451 0 -0.0027652131766253982 -0.02965136178130999 0 -0.0027774088820688384 -0.029672855155843773 0 -0.0027777420626739222 -0.02967416156649241 0 -0.0027774088820688384 -0.029672855155843773 0 -0.0027764714757216417 -0.029669909549137872 0 -0.0027801137255538864 -0.029681704201446175 0 -0.0027777420626739222 -0.02967416156649241 0 -0.0027774088820688384 -0.029672855155843773 0 -0.0027924804023646719 -0.029688210320336451 0 -0.0027801137255538864 -0.029681704201446175 0 -0.0027774088820688384 -0.029672855155843773 0 -0.0027652131766253982 -0.02965136178130999 0 -0.0027774088820688384 -0.029672855155843773 0 -0.0027744807631877974 -0.029666889669938266 0 -0.0027774088820688384 -0.029672855155843773 0 -0.0027744807631877974 -0.029666889669938266 0 -0.0027764714757216417 -0.029669909549137872 0 -0.0027748081339342258 -0.029665696741951783 0 -0.0027744807631877974 -0.029666889669938266 0 -0.0027764714757216417 -0.029669909549137872 0 -0.0027748081339342258 -0.029665696741951783 0 -0.0027764714757216417 -0.029669909549137872 0 -0.0027801551082980015 -0.029671106304902335 0 -0.0027801551082980015 -0.029671106304902335 0 -0.0027803445256269197 -0.029670327480131858 0 -0.002788359065327151 -0.029673676707642125 0 -0.0027764714757216417 -0.029669909549137872 0 -0.0027801551082980015 -0.029671106304902335 0 -0.0027803445256269197 -0.029670327480131858 0 -0.0027980837844594447 -0.029666749643035523 0 -0.002788359065327151 -0.029673676707642125 0 -0.0027855507143311896 -0.029666663215846701 0 -0.0027803445256269197 -0.029670327480131858 0 -0.002788359065327151 -0.029673676707642125 0 -0.0027855507143311896 -0.029666663215846701 0 -0.0027777420626739222 -0.02967416156649241 0 -0.0027803445256269197 -0.029670327480131858 0 -0.0027855507143311896 -0.029666663215846701 0 -0.0027777420626739222 -0.02967416156649241 0 -0.0027855507143311896 -0.029666663215846701 0 -0.0027825643650537042 -0.029670777607041839 0 -0.0027777420626739222 -0.02967416156649241 0 -0.0027764714757216417 -0.029669909549137872 0 -0.0027803445256269197 -0.029670327480131858 0 -0.0027777420626739222 -0.02967416156649241 0 -0.0027825643650537042 -0.029670777607041839 0 -0.0027783318433994178 -0.02969531253095585 0 -0.0028020553275775826 -0.029647128977312275 0 -0.0027825643650537042 -0.029670777607041839 0 -0.0027931052986133226 -0.029657326932587144 0 -0.0028020553275775826 -0.029647128977312275 0 -0.0027855507143311896 -0.029666663215846701 0 -0.0027825643650537042 -0.029670777607041839 0 -0.0027825643650537042 -0.029670777607041839 0 -0.0027931052986133226 -0.029657326932587144 0 -0.002781191544620313 -0.029688054362814884 0 -0.0027825643650537042 -0.029670777607041839 0 -0.002781191544620313 -0.029688054362814884 0 -0.0027783318433994178 -0.02969531253095585 0 -0.002781191544620313 -0.029688054362814884 0 -0.0027783318433994178 -0.02969531253095585 0 -0.0027781627613476297 -0.029728027918469645 0 -0.0027924804023646719 -0.029688210320336451 0 -0.0027783318433994178 -0.02969531253095585 0 -0.0027891249319536736 -0.029748419201578294 0 -0.0027801137255538864 -0.029681704201446175 0 -0.0027777420626739222 -0.02967416156649241 0 -0.0027783318433994178 -0.02969531253095585 0 -0.0027924804023646719 -0.029688210320336451 0 -0.0027801137255538864 -0.029681704201446175 0 -0.0027783318433994178 -0.02969531253095585 0 -0.0027781627613476297 -0.029728027918469645 0 -0.0027733460530347843 -0.029825516206991049 0 -0.0027891249319536736 -0.029748419201578294 0 -0.0027783318433994178 -0.02969531253095585 0 -0.0027781627613476297 -0.029728027918469645 0 -0.0027891249319536736 -0.029748419201578294 0 -0.002781191544620313 -0.029688054362814884 0 -0.0027781627613476297 -0.029728027918469645 0 -0.0027916710209933151 -0.029679846804456327 0 -0.0027931052986133226 -0.029657326932587144 0 -0.002781191544620313 -0.029688054362814884 0 -0.0027916710209933151 -0.029679846804456327 0 -0.0027781627613476297 -0.029728027918469645 0 -0.0027916710209933151 -0.029679846804456327 0 -0.0027870629744362971 -0.029746205711651749 0 -0.0027916710209933151 -0.029679846804456327 0 -0.0027870629744362971 -0.029746205711651749 0 -0.0028188453631451098 -0.029643236431795068 0 -0.0027870629744362971 -0.029746205711651749 0 -0.0028188453631451098 -0.029643236431795068 0 -0.0028244396154431602 -0.029723487104824114 0 -0.0027781627613476297 -0.029728027918469645 0 -0.0027870629744362971 -0.029746205711651749 0 -0.0027733460530347843 -0.029825516206991049 0 -0.0027870629744362971 -0.029746205711651749 0 -0.0027733460530347843 -0.029825516206991049 0 -0.0027764831008600995 -0.029860228755789819 0 -0.0028600669651196783 -0.029565025378226202 0 -0.0028568614974036335 -0.02955584320362797 0 -0.0029274044790240272 -0.02946220688669236 0 -0.0028600669651196783 -0.029565025378226202 0 -0.0028568614974036335 -0.02955584320362797 0 -0.0028176426804798343 -0.029617763330969632 0 -0.0027916710209933151 -0.029679846804456327 0 -0.0028176426804798343 -0.029617763330969632 0 -0.0028188453631451098 -0.029643236431795068 0 -0.0028568614974036335 -0.02955584320362797 0 -0.0028176426804798343 -0.029617763330969632 0 -0.0028188453631451098 -0.029643236431795068 0 -0.0027931052986133226 -0.029657326932587144 0 -0.0027916710209933151 -0.029679846804456327 0 -0.0028176426804798343 -0.029617763330969632 0 -0.0028568614974036335 -0.02955584320362797 0 -0.0028188453631451098 -0.029643236431795068 0 -0.0028650754914374241 -0.029572998099755207 0 -0.0028188453631451098 -0.029643236431795068 0 -0.0028650754914374241 -0.029572998099755207 0 -0.0028244396154431602 -0.029723487104824114 0 -0.0028568614974036335 -0.02955584320362797 0 -0.0028650754914374241 -0.029572998099755207 0 -0.0029365494363645852 -0.029405147685480082 0 -0.0028994797585141317 -0.029579612894217656 0 -0.0029783683543994203 -0.029471961841960312 0 -0.0029365494363645852 -0.029405147685480082 0 -0.0028650754914374241 -0.029572998099755207 0 -0.0028994797585141317 -0.029579612894217656 0 -0.0029365494363645852 -0.029405147685480082 0 -0.0028994797585141317 -0.029579612894217656 0 -0.0028770545530486945 -0.029725355284077663 0 -0.0028244396154431602 -0.029723487104824114 0 -0.0028650754914374241 -0.029572998099755207 0 -0.0028994797585141317 -0.029579612894217656 0 -0.0028244396154431602 -0.029723487104824114 0 -0.0028994797585141317 -0.029579612894217656 0 -0.0028770545530486945 -0.029725355284077663 0 -0.0029783683543994203 -0.029471961841960312 0 -0.0027764831008600995 -0.029860228755789819 0 -0.0028244396154431602 -0.029723487104824114 0 -0.0027907686418844348 -0.029915559364475347 0 -0.0027764831008600995 -0.029860228755789819 0 -0.0027907686418844348 -0.029915559364475347 0 -0.002740606200870421 -0.030013264618460274 0 -0.0027870629744362971 -0.029746205711651749 0 -0.0027764831008600995 -0.029860228755789819 0 -0.0028244396154431602 -0.029723487104824114 0 -0.0028770545530486945 -0.029725355284077663 0 -0.0027907686418844348 -0.029915559364475347 0 -0.002820133905289852 -0.029941203490593229 0 -0.0028770545530486945 -0.029725355284077663 0 -0.0028244396154431602 -0.029723487104824114 0 -0.0027907686418844348 -0.029915559364475347 0 -0.0027907686418844348 -0.029915559364475347 0 -0.0027548072859871005 -0.030122152608045936 0 -0.002740606200870421 -0.030013264618460274 0 -0.0027548072859871005 -0.030122152608045936 0 -0.0026785269174489988 -0.030427941358384794 0 -0.002740606200870421 -0.030013264618460274 0 -0.002740606200870421 -0.030013264618460274 0 -0.0028179590564664783 -0.02986164575514387 0 -0.0028612670468238918 -0.03006982166671367 0 -0.0026785269174489988 -0.030427941358384794 0 -0.002740606200870421 -0.030013264618460274 0 -0.0028612670468238918 -0.03006982166671367 0 -0.0027733460530347843 -0.029825516206991049 0 -0.0027764831008600995 -0.029860228755789819 0 -0.002740606200870421 -0.030013264618460274 0 -0.0028323221100406064 -0.029694725029420634 0 -0.0028179590564664783 -0.02986164575514387 0 -0.0029765146349760244 -0.029903480108367752 0 -0.0027733460530347843 -0.029825516206991049 0 -0.002740606200870421 -0.030013264618460274 0 -0.0028179590564664783 -0.02986164575514387 0 -0.0028323221100406064 -0.029694725029420634 0 -0.0028179590564664783 -0.02986164575514387 0 -0.0027891249319536736 -0.029748419201578294 0 -0.0027733460530347843 -0.029825516206991049 0 -0.0028179590564664783 -0.02986164575514387 0 -0.0027891249319536736 -0.029748419201578294 0 -0.0032694137568482894 -0.029795854250907021 0 -0.0029434461420465631 -0.02966549012242255 0 -0.0029765146349760244 -0.029903480108367752 0 -0.0028179590564664783 -0.02986164575514387 0 -0.0029765146349760244 -0.029903480108367752 0 -0.0028612670468238918 -0.03006982166671367 0 -0.0032253520501834029 -0.030218187618269377 0 -0.0029765146349760244 -0.029903480108367752 0 -0.0028612670468238918 -0.03006982166671367 0 -0.0032253520501834029 -0.030218187618269377 0 -0.0026785269174489988 -0.030427941358384794 0 -0.0028612670468238918 -0.03006982166671367 0 -0.0017995846324359085 -0.031427799108048236 0 -0.0020176673656153964 -0.031261270795155845 0 -0.00095814938761964595 -0.031888918024005238 0 -0.0026785269174489988 -0.030427941358384794 0 -0.0019805035843795016 -0.030551935414550098 0 -0.00098977766481294889 -0.030535362709621771 0 -0.00095814938761964595 -0.031888918024005238 0 -0.0019805035843795016 -0.030551935414550098 0 -0.0019805035843795016 -0.030551935414550098 0 -0.0027076722650385167 -0.030103321188742118 0 -0.0019726069549842063 -0.029956707122532674 0 -0.00098977766481294889 -0.030535362709621771 0 -0.0019805035843795016 -0.030551935414550098 0 -0.0019726069549842063 -0.029956707122532674 0 -0.0027548072859871005 -0.030122152608045936 0 -0.0027076722650385167 -0.030103321188742118 0 -0.002820133905289852 -0.029941203490593229 0 -0.0027548072859871005 -0.030122152608045936 0 -0.0026785269174489988 -0.030427941358384794 0 -0.0027076722650385167 -0.030103321188742118 0 -0.0026785269174489988 -0.030427941358384794 0 -0.0019805035843795016 -0.030551935414550098 0 -0.0027076722650385167 -0.030103321188742118 0 -0.0016228694932882664 -0.031014040884868178 0 -0.0013738743306826084 -0.031064315300961334 0 -0.0027076722650385167 -0.030103321188742118 0 -0.0027893411907893555 -0.029888140798049162 0 -0.0026779993128353235 -0.029797387970599727 0 -0.0027076722650385167 -0.030103321188742118 0 -0.0027893411907893555 -0.029888140798049162 0 -0.002820133905289852 -0.029941203490593229 0 -0.0027893411907893555 -0.029888140798049162 0 -0.0026779993128353235 -0.029797387970599727 0 -0.0028079919573064886 -0.029766936866751501 0 -0.0027076722650385167 -0.030103321188742118 0 -0.0026779993128353235 -0.029797387970599727 0 -0.0024753800741752212 -0.029831109732386681 0 -0.0026779993128353235 -0.029797387970599727 0 -0.0024753800741752212 -0.029831109732386681 0 -0.0025916934209028811 -0.029671131402949628 0 -0.0026779993128353235 -0.029797387970599727 0 -0.0025916934209028811 -0.029671131402949628 0 -0.0027728305170843346 -0.029674556962533356 0 -0.0026779993128353235 -0.029797387970599727 0 -0.0027728305170843346 -0.029674556962533356 0 -0.0028079919573064886 -0.029766936866751501 0 -0.0023265716599725145 -0.02968918114611576 0 -0.0024753800741752212 -0.029831109732386681 0 -0.0025916934209028811 -0.029671131402949628 0 -0.00092292423462422217 -0.029188993935288048 0 -0.00098977766481294889 -0.030535362709621771 0 -0.0019726069549842063 -0.029956707122532674 0 -0.00089441202800946012 -0.031478421595605759 0 -0.0013738743306826084 -0.031064315300961334 0 -0.0023265716599725145 -0.02968918114611576 0 -0.0025916934209028811 -0.029671131402949628 0 -0.0026039681304913368 -0.029507354056732424 0 -0.00089441202800946012 -0.031478421595605759 0 -0.0019128820555340221 -0.03040953162691935 0 -0.0013498136439253953 -0.031156450888000748 0 -0.0012153578524221106 -0.031064485369564052 0 -0.001094300705660364 -0.031218381803859208 0 -0.0025916934209028811 -0.029671131402949628 0 -0.0026885321544484553 -0.029579602215459255 0 -0.0026039681304913368 -0.029507354056732424 0 -0.0025916934209028811 -0.029671131402949628 0 -0.0026885321544484553 -0.029579602215459255 0 -0.0027728305170843346 -0.029674556962533356 0 -0.0022802464426478729 -0.030009007262181635 0 -0.0019128820555340221 -0.03040953162691935 0 -0.0026885321544484553 -0.029579602215459255 0 -0.0026039681304913368 -0.029507354056732424 0 -0.0027327528288053249 -0.02952651084444689 0 -0.0015091552451528675 -0.029242696868488325 0 -0.0012153578524221106 -0.031064485369564052 0 -0.001094300705660364 -0.031218381803859208 0 -0.0010052283308621623 -0.031126754216931882 0 -0.0010136964787889628 -0.031124439375271838 0 -0.00092453507318827942 -0.0323430301562221 0 -0.00050151956904073843 -0.032851287525660758 0 -0.001094300705660364 -0.031218381803859208 0 -0.00092453507318827942 -0.0323430301562221 0 -0.0012638404564070088 -0.031773782839956216 0 -0.001094300705660364 -0.031218381803859208 0 -0.00092453507318827942 -0.0323430301562221 0 -0.001514580244268298 -0.032005458402329962 0 -0.0012638404564070088 -0.031773782839956216 0 -0.0015464446789911275 -0.031540445388883821 0 -0.0012638404564070088 -0.031773782839956216 0 -0.001094300705660364 -0.031218381803859208 0 -0.0032490187097078639 -0.029296520685165528 0 -0.0029397011776084773 -0.02946014355718234 0 -0.003103578242613828 -0.029620123735652839 0 -0.0029397011776084773 -0.02946014355718234 0 -0.0027327528288053249 -0.02952651084444689 0 -0.0029590445076461414 -0.029582070645429084 0 -0.0029397011776084773 -0.02946014355718234 0 -0.0029590445076461414 -0.029582070645429084 0 -0.003103578242613828 -0.029620123735652839 0 -0.0026056134903306256 -0.029378373551266129 0 -0.0029397011776084773 -0.02946014355718234 0 -0.0027327528288053249 -0.02952651084444689 0 -0.0026056134903306256 -0.029378373551266129 0 -0.0026039681304913368 -0.029507354056732424 0 -0.0027327528288053249 -0.02952651084444689 0 -0.0027327528288053249 -0.02952651084444689 0 -0.0027691077768031503 -0.029598746222801845 0 -0.0028835007553909379 -0.029622322096156391 0 -0.0027327528288053249 -0.02952651084444689 0 -0.0028835007553909379 -0.029622322096156391 0 -0.0029590445076461414 -0.029582070645429084 0 -0.0026885321544484553 -0.029579602215459255 0 -0.0027327528288053249 -0.02952651084444689 0 -0.0027691077768031503 -0.029598746222801845 0 -0.0026885321544484553 -0.029579602215459255 0 -0.0027691077768031503 -0.029598746222801845 0 -0.0027728305170843346 -0.029674556962533356 0 -0.0027691077768031503 -0.029598746222801845 0 -0.0027728305170843346 -0.029674556962533356 0 -0.0028835007553909379 -0.029622322096156391 0 -0.0027728305170843346 -0.029674556962533356 0 -0.0028835007553909379 -0.029622322096156391 0 -0.0028899929823532466 -0.029694623104935668 0 -0.0028835007553909379 -0.029622322096156391 0 -0.0029590445076461414 -0.029582070645429084 0 -0.0030247432094121837 -0.029649108129186294 0 -0.0028835007553909379 -0.029622322096156391 0 -0.0030247432094121837 -0.029649108129186294 0 -0.0028899929823532466 -0.029694623104935668 0 -0.0029590445076461414 -0.029582070645429084 0 -0.0030247432094121837 -0.029649108129186294 0 -0.003103578242613828 -0.029620123735652839 0 -0.0030247432094121837 -0.029649108129186294 0 -0.0029558095819385592 -0.02968208092676099 0 -0.0030221610435926752 -0.029528517877785165 0 -0.0030247432094121837 -0.029649108129186294 0 -0.0029558095819385592 -0.02968208092676099 0 -0.0028899929823532466 -0.029694623104935668 0 -0.0027728305170843346 -0.029674556962533356 0 -0.0028899929823532466 -0.029694623104935668 0 -0.0028079919573064886 -0.029766936866751501 0 -0.0029558095819385592 -0.02968208092676099 0 -0.0028899929823532466 -0.029694623104935668 0 -0.0028711978735286529 -0.029787754605473591 0 -0.0027893411907893555 -0.029888140798049162 0 -0.0028711978735286529 -0.029787754605473591 0 -0.0028079919573064886 -0.029766936866751501 0 -0.0028899929823532466 -0.029694623104935668 0 -0.0028711978735286529 -0.029787754605473591 0 -0.0028079919573064886 -0.029766936866751501 0 -0.0027893411907893555 -0.029888140798049162 0 -0.0028711978735286529 -0.029787754605473591 0 -0.002820133905289852 -0.029941203490593229 0 -0.0028711978735286529 -0.029787754605473591 0 -0.002820133905289852 -0.029941203490593229 0 -0.0029316780977266103 -0.029699091422868227 0 -0.0029558095819385592 -0.02968208092676099 0 -0.0028711978735286529 -0.029787754605473591 0 -0.0029316780977266103 -0.029699091422868227 0 -0.0028770545530486945 -0.029725355284077663 0 -0.002820133905289852 -0.029941203490593229 0 -0.0029316780977266103 -0.029699091422868227 0 -0.0027907686418844348 -0.029915559364475347 0 -0.0027548072859871005 -0.030122152608045936 0 -0.002820133905289852 -0.029941203490593229 0 -0.0029316780977266103 -0.029699091422868227 0 -0.0030221610435926752 -0.029528517877785165 0 -0.0029783683543994203 -0.029471961841960312 0 -0.0029558095819385592 -0.02968208092676099 0 -0.0029316780977266103 -0.029699091422868227 0 -0.0030221610435926752 -0.029528517877785165 0 -0.0028770545530486945 -0.029725355284077663 0 -0.0029316780977266103 -0.029699091422868227 0 -0.0029783683543994203 -0.029471961841960312 0 -0.0030413333221480003 -0.029356047797625247 0 -0.0030221610435926752 -0.029528517877785165 0 -0.0029783683543994203 -0.029471961841960312 0 -0.0030413333221480003 -0.029356047797625247 0 -0.0029360114320001801 -0.029381392463159808 0 -0.0030221610435926752 -0.029528517877785165 0 -0.0030413333221480003 -0.029356047797625247 0 -0.0029360114320001801 -0.029381392463159808 0 -0.0030964007414538185 -0.029071619687761698 0 -0.0029360114320001801 -0.029381392463159808 0 -0.0030221610435926752 -0.029528517877785165 0 -0.0029386307321738791 -0.029615243013745688 0 -0.0039581642389066437 -0.027624456363052077 0 -0.0044055876040738212 -0.028440120421161438 0 -0.0038771036929993222 -0.02814130350464884 0 -0.0030102132338110624 -0.028644852283776161 0 -0.0023271422467709578 -0.027653898037295011 0 -0.0030247432094121837 -0.029649108129186294 0 -0.0030221610435926752 -0.029528517877785165 0 -0.0029386307321738791 -0.029615243013745688 0 -0.0030247432094121837 -0.029649108129186294 0 -0.003103578242613828 -0.029620123735652839 0 -0.0031932272915402922 -0.029643294416839838 0 -0.0025655088547739771 -0.02811740967685011 0 -0.0023271422467709578 -0.027653898037295011 0 -0.0023271422467709578 -0.027653898037295011 0 -0.0021763653044914923 -0.026957719603827087 0 -0.0012378754395623024 -0.025546094040324045 0 -0.0011753665215240138 -0.025654827232284089 0 -0.0012819563763444447 -0.025718336663584786 0 -0.003103578242613828 -0.029620123735652839 0 -0.0031932272915402922 -0.029643294416839838 0 -0.0031654647253236638 -0.029529265967256111 0 -0.0020750366743211611 -0.02774728229245248 0 -0.0021763653044914923 -0.026957719603827087 0 -0.0032490187097078639 -0.029296520685165528 0 -0.003103578242613828 -0.029620123735652839 0 -0.0035877155531071061 -0.029353723980448547 0 -0.0010645664149008963 -0.025716662620817652 0 -0.0010689476033330094 -0.025590338734424439 0 -0.00090777045577870516 -0.025630330293670168 0 -0.0020314083546321736 -0.026587251293187248 0 -0.0012757380119354073 -0.025454331215837008 0 -0.0011753665215240138 -0.025654827232284089 0 -0.0010645664149008963 -0.025716662620817652 0 -0.0010689476033330094 -0.025590338734424439 0 -0.0044055876040738212 -0.028440120421161438 0 -0.0037799719335092938 -0.028744150419619634 0 -0.0038771036929993222 -0.02814130350464884 0 -0.0012378754395623024 -0.025546094040324045 0 -0.0011753665215240138 -0.025654827232284089 0 -0.0010689476033330094 -0.025590338734424439 0 -0.0023271422467709578 -0.027653898037295011 0 -0.0020314083546321736 -0.026587251293187248 0 -0.0037799719335092938 -0.028744150419619634 0 -0.0033376386660236299 -0.028408671151630739 0 -0.0031000449695460113 -0.029074749293799888 0 -0.0037799719335092938 -0.028744150419619634 0 -0.0033376386660236299 -0.028408671151630739 0 -0.0038771036929993222 -0.02814130350464884 0 -0.0033376386660236299 -0.028408671151630739 0 -0.0038771036929993222 -0.02814130350464884 0 -0.0037994534446051582 -0.027723317884261866 0 -0.0033376386660236299 -0.028408671151630739 0 -0.0037994534446051582 -0.027723317884261866 0 -0.0029839357998071546 -0.027524265636695449 0 -0.0039581642389066437 -0.027624456363052077 0 -0.0038771036929993222 -0.02814130350464884 0 -0.0037994534446051582 -0.027723317884261866 0 -0.0039581642389066437 -0.027624456363052077 0 -0.0037994534446051582 -0.027723317884261866 0 -0.0042350598099194989 -0.027180781881457686 0 -0.0037994534446051582 -0.027723317884261866 0 -0.0042350598099194989 -0.027180781881457686 0 -0.0029839357998071546 -0.027524265636695449 0 -0.0042350598099194989 -0.027180781881457686 0 -0.0033230994973140332 -0.025026755614319201 0 -0.0030218610817024029 -0.026518072124319707 0 -0.0042350598099194989 -0.027180781881457686 0 -0.0043841856366654509 -0.024430315873763413 0 -0.0059569275978971934 -0.023762713490313506 0 -0.0037898344866208679 -0.026452362296301754 0 -0.0037184244485733817 -0.02615115869404977 0 -0.0042350598099194989 -0.027180781881457686 0 -0.0043841856366654509 -0.024430315873763413 0 -0.0033230994973140332 -0.025026755614319201 0 -0.0043841856366654509 -0.024430315873763413 0 -0.0059569275978971934 -0.023762713490313506 0 -0.0048501613669839887 -0.023056162323738028 0 -0.0043841856366654509 -0.024430315873763413 0 -0.0037355877062504291 -0.023324889444237946 0 -0.0033230994973140332 -0.025026755614319201 0 -0.0043841856366654509 -0.024430315873763413 0 -0.0037355877062504291 -0.023324889444237946 0 -0.0048501613669839887 -0.023056162323738028 0 -0.0042350598099194989 -0.027180781881457686 0 -0.0039171083339736195 -0.029119439317242892 0 -0.0033896970661125218 -0.02842899138507465 0 -0.0039171083339736195 -0.029119439317242892 0 -0.0033896970661125218 -0.02842899138507465 0 -0.0033137213040062806 -0.029190071824348889 0 -0.0030102132338110624 -0.028644852283776161 0 -0.0031543149897439592 -0.028774595033596976 0 -0.0039581642389066437 -0.027624456363052077 0 -0.0042350598099194989 -0.027180781881457686 0 -0.0033896970661125218 -0.02842899138507465 0 -0.0033896970661125218 -0.02842899138507465 0 -0.0030964007414538185 -0.029071619687761698 0 -0.0031509917625669602 -0.029002270909846879 0 -0.0029360114320001801 -0.029381392463159808 0 -0.0033896970661125218 -0.02842899138507465 0 -0.0030964007414538185 -0.029071619687761698 0 -0.0030964007414538185 -0.029071619687761698 0 -0.0029783683543994203 -0.029471961841960312 0 -0.0029365494363645852 -0.029405147685480082 0 -0.0030413333221480003 -0.029356047797625247 0 -0.0030964007414538185 -0.029071619687761698 0 -0.0029783683543994203 -0.029471961841960312 0 -0.0029365494363645852 -0.029405147685480082 0 -0.0030356275331893962 -0.029232739017794569 0 -0.0029274044790240272 -0.02946220688669236 0 -0.0030964007414538185 -0.029071619687761698 0 -0.0029365494363645852 -0.029405147685480082 0 -0.0030356275331893962 -0.029232739017794569 0 -0.0030356275331893962 -0.029232739017794569 0 -0.0030154137667978919 -0.02940041148584983 0 -0.0029274044790240272 -0.02946220688669236 0 -0.0028568614974036335 -0.02955584320362797 0 -0.0029365494363645852 -0.029405147685480082 0 -0.0029274044790240272 -0.02946220688669236 0 -0.0033896970661125218 -0.02842899138507465 0 -0.0031509917625669602 -0.029002270909846879 0 -0.0033137213040062806 -0.029190071824348889 0 -0.0030964007414538185 -0.029071619687761698 0 -0.0030356275331893962 -0.029232739017794569 0 -0.0031509917625669602 -0.029002270909846879 0 -0.0030356275331893962 -0.029232739017794569 0 -0.0031509917625669602 -0.029002270909846879 0 -0.0031021514253502772 -0.029371258204887417 0 -0.0030356275331893962 -0.029232739017794569 0 -0.0030154137667978919 -0.02940041148584983 0 -0.0031021514253502772 -0.029371258204887417 0 -0.0031509917625669602 -0.029002270909846879 0 -0.0033137213040062806 -0.029190071824348889 0 -0.0031021514253502772 -0.029371258204887417 0 -0.0033137213040062806 -0.029190071824348889 0 -0.0032139570260128394 -0.029482285288972804 0 -0.0031021514253502772 -0.029371258204887417 0 -0.0033137213040062806 -0.029190071824348889 0 -0.0032139570260128394 -0.029482285288972804 0 -0.0033948251987180951 -0.029550562340168722 0 -0.0031021514253502772 -0.029371258204887417 0 -0.0031011761548536392 -0.029557606088133823 0 -0.0029900282379927263 -0.029520686347347544 0 -0.0032139570260128394 -0.029482285288972804 0 -0.0031021514253502772 -0.029371258204887417 0 -0.0031011761548536392 -0.029557606088133823 0 -0.0032139570260128394 -0.029482285288972804 0 -0.0031011761548536392 -0.029557606088133823 0 -0.003205664122364209 -0.029622688673551514 0 -0.0031011761548536392 -0.029557606088133823 0 -0.0030200544345040125 -0.029638614977337004 0 -0.0031092741381998743 -0.029675810204849527 0 -0.0031011761548536392 -0.029557606088133823 0 -0.003205664122364209 -0.029622688673551514 0 -0.0031092741381998743 -0.029675810204849527 0 -0.0032139570260128394 -0.029482285288972804 0 -0.003205664122364209 -0.029622688673551514 0 -0.0033948251987180951 -0.029550562340168722 0 -0.003205664122364209 -0.029622688673551514 0 -0.0032907374241462656 -0.029688498313958703 0 -0.0033948251987180951 -0.029550562340168722 0 -0.0028600669651196783 -0.029565025378226202 0 -0.0029274044790240272 -0.02946220688669236 0 -0.002890086677631176 -0.029583882185765232 0 -0.0029274044790240272 -0.02946220688669236 0 -0.002890086677631176 -0.029583882185765232 0 -0.0029900282379927263 -0.029520686347347544 0 -0.0030154137667978919 -0.02940041148584983 0 -0.0031021514253502772 -0.029371258204887417 0 -0.0029900282379927263 -0.029520686347347544 0 -0.0030154137667978919 -0.02940041148584983 0 -0.0029274044790240272 -0.02946220688669236 0 -0.0029900282379927263 -0.029520686347347544 0 -0.0029900282379927263 -0.029520686347347544 0 -0.0030200544345040125 -0.029638614977337004 0 -0.0029414160168062748 -0.029633603628004015 0 -0.0031011761548536392 -0.029557606088133823 0 -0.0029900282379927263 -0.029520686347347544 0 -0.0030200544345040125 -0.029638614977337004 0 -0.002890086677631176 -0.029583882185765232 0 -0.0029900282379927263 -0.029520686347347544 0 -0.0029414160168062748 -0.029633603628004015 0 -0.0028780057823964036 -0.029661019377829997 0 -0.002890086677631176 -0.029583882185765232 0 -0.0029414160168062748 -0.029633603628004015 0 -0.0020216942136588698 -0.030931632142543953 0 -0.0023777813647301205 -0.028587990828418369 0 -0.0028297010854871981 -0.029760375422613068 0 -0.0030366025629180774 -0.029809652067151426 0 -0.0029606413754198688 -0.029764600555500887 0 -0.00059673797806307819 -0.034710459407965889 0 -0.00071951040080264934 -0.034733261431630913 0 -0.00062147604360230789 -0.034741583342502637 0 -0.0028297010854871981 -0.029760375422613068 0 -0.0030366025629180774 -0.029809652067151426 0 -0.0031595814449449458 -0.029917469249398351 0 -0.0028996459098292763 -0.029732054051746976 0 -0.0029191486303648271 -0.02969164656637964 0 -0.0029509618552842343 -0.029727989551888028 0 -0.0028795126980888778 -0.029701905938590616 0 -0.0028996459098292763 -0.029732054051746976 0 -0.0029191486303648271 -0.02969164656637964 0 -0.0028795126980888778 -0.029701905938590616 0 -0.0028780057823964036 -0.029661019377829997 0 -0.0029191486303648271 -0.02969164656637964 0 -0.0028780057823964036 -0.029661019377829997 0 -0.0029414160168062748 -0.029633603628004015 0 -0.0029191486303648271 -0.02969164656637964 0 -0.0029414160168062748 -0.029633603628004015 0 -0.0029191486303648271 -0.02969164656637964 0 -0.0029779275385836074 -0.029696688027287831 0 -0.0028996459098292763 -0.029732054051746976 0 -0.0029509618552842343 -0.029727989551888028 0 -0.0029606413754198688 -0.029764600555500887 0 -0.0029191486303648271 -0.02969164656637964 0 -0.0029509618552842343 -0.029727989551888028 0 -0.0029779275385836074 -0.029696688027287831 0 -0.0029509618552842343 -0.029727989551888028 0 -0.0029884551416592066 -0.029739403042546693 0 -0.0029606413754198688 -0.029764600555500887 0 -0.0029884551416592066 -0.029739403042546693 0 -0.0029779275385836074 -0.029696688027287831 0 -0.0030371277228242307 -0.029737079677221605 0 -0.0029884551416592066 -0.029739403042546693 0 -0.0030371277228242307 -0.029737079677221605 0 -0.0030183985263413948 -0.029769985187008744 0 -0.0029509618552842343 -0.029727989551888028 0 -0.0029884551416592066 -0.029739403042546693 0 -0.0029779275385836074 -0.029696688027287831 0 -0.0030200544345040125 -0.029638614977337004 0 -0.0029414160168062748 -0.029633603628004015 0 -0.0029779275385836074 -0.029696688027287831 0 -0.0030200544345040125 -0.029638614977337004 0 -0.0029779275385836074 -0.029696688027287831 0 -0.0030371277228242307 -0.029737079677221605 0 -0.0030200544345040125 -0.029638614977337004 0 -0.0030371277228242307 -0.029737079677221605 0 -0.0031092741381998743 -0.029675810204849527 0 -0.0030607712154982502 -0.029780644378353687 0 -0.0030366025629180774 -0.029809652067151426 0 -0.0030945301222832212 -0.029803277037009204 0 -0.0030371277228242307 -0.029737079677221605 0 -0.0030607712154982502 -0.029780644378353687 0 -0.0031170248192274107 -0.029765871236533733 0 -0.0030371277228242307 -0.029737079677221605 0 -0.0030607712154982502 -0.029780644378353687 0 -0.0030183985263413948 -0.029769985187008744 0 -0.0030607712154982502 -0.029780644378353687 0 -0.0030366025629180774 -0.029809652067151426 0 -0.0030183985263413948 -0.029769985187008744 0 -0.0030366025629180774 -0.029809652067151426 0 -0.0030183985263413948 -0.029769985187008744 0 -0.0029606413754198688 -0.029764600555500887 0 -0.0029884551416592066 -0.029739403042546693 0 -0.0030183985263413948 -0.029769985187008744 0 -0.0029606413754198688 -0.029764600555500887 0 -0.0028297010854871981 -0.029760375422613068 0 -0.0028996459098292763 -0.029732054051746976 0 -0.0029606413754198688 -0.029764600555500887 0 -0.0032729243158047387 -0.029781192811727496 0 -0.0034070210170156863 -0.029675828605402993 0 -0.0032706804980916497 -0.029949531303836811 0 -0.0032907374241462656 -0.029688498313958703 0 -0.0032729243158047387 -0.029781192811727496 0 -0.0034070210170156863 -0.029675828605402993 0 -0.0031896638591054215 -0.029723969963421842 0 -0.003181347745709009 -0.029793316393293374 0 -0.0032729243158047387 -0.029781192811727496 0 -0.0032907374241462656 -0.029688498313958703 0 -0.0031896638591054215 -0.029723969963421842 0 -0.0032729243158047387 -0.029781192811727496 0 -0.003205664122364209 -0.029622688673551514 0 -0.0032907374241462656 -0.029688498313958703 0 -0.0031896638591054215 -0.029723969963421842 0 -0.003205664122364209 -0.029622688673551514 0 -0.0031092741381998743 -0.029675810204849527 0 -0.0031896638591054215 -0.029723969963421842 0 -0.0030371277228242307 -0.029737079677221605 0 -0.0031092741381998743 -0.029675810204849527 0 -0.0031170248192274107 -0.029765871236533733 0 -0.0031092741381998743 -0.029675810204849527 0 -0.0031896638591054215 -0.029723969963421842 0 -0.0031170248192274107 -0.029765871236533733 0 -0.0031896638591054215 -0.029723969963421842 0 -0.003181347745709009 -0.029793316393293374 0 -0.0031170248192274107 -0.029765871236533733 0 -0.003181347745709009 -0.029793316393293374 0 -0.0031366529425977127 -0.029807760450165241 0 -0.0031170248192274107 -0.029765871236533733 0 -0.0030366025629180774 -0.029809652067151426 0 -0.00312636637371555 -0.029847446557260144 0 -0.0031595814449449458 -0.029917469249398351 0 -0.003181347745709009 -0.029793316393293374 0 -0.0031366529425977127 -0.029807760450165241 0 -0.0031690444406410347 -0.029839591964934874 0 -0.0030607712154982502 -0.029780644378353687 0 -0.0031170248192274107 -0.029765871236533733 0 -0.0030945301222832212 -0.029803277037009204 0 -0.0031366529425977127 -0.029807760450165241 0 -0.0031170248192274107 -0.029765871236533733 0 -0.0030945301222832212 -0.029803277037009204 0 -0.0030366025629180774 -0.029809652067151426 0 -0.0030945301222832212 -0.029803277037009204 0 -0.00312636637371555 -0.029847446557260144 0 -0.0031366529425977127 -0.029807760450165241 0 -0.0030945301222832212 -0.029803277037009204 0 -0.00312636637371555 -0.029847446557260144 0 -0.003181347745709009 -0.029793316393293374 0 -0.0031690444406410347 -0.029839591964934874 0 -0.0032103230491540577 -0.029855140291879724 0 -0.00312636637371555 -0.029847446557260144 0 -0.0031690444406410347 -0.029839591964934874 0 -0.0031595814449449458 -0.029917469249398351 0 -0.0031690444406410347 -0.029839591964934874 0 -0.0032103230491540577 -0.029855140291879724 0 -0.0031595814449449458 -0.029917469249398351 0 -0.0031366529425977127 -0.029807760450165241 0 -0.00312636637371555 -0.029847446557260144 0 -0.0031690444406410347 -0.029839591964934874 0 -0.0032103230491540577 -0.029855140291879724 0 -0.0032729243158047387 -0.029781192811727496 0 -0.0032706804980916497 -0.029949531303836811 0 -0.003181347745709009 -0.029793316393293374 0 -0.0032103230491540577 -0.029855140291879724 0 -0.0032729243158047387 -0.029781192811727496 0 -0.0030755414409421606 -0.025918924551725061 0 -0.0021711813136507142 -0.026975874678759098 0 -0.006621532740633396 -0.021251133217028931 0 -0.0052428894053096848 -0.020185071808733634 0 -0.0055352001785390643 -0.022039332347377975 0 -0.0030755414409421606 -0.025918924551725061 0 -0.0023400496218813779 -0.024388141183292085 0 -0.006621532740633396 -0.021251133217028931 0 -0.0052428894053096848 -0.020185071808733634 0 -0.0051325471324417662 -0.018490199632902472 0 -0.0055352001785390643 -0.022039332347377975 0 -0.004601524912512772 -0.018519409396908122 0 -0.0038562544224533496 -0.019717035820278204 0 -0.0052428894053096848 -0.020185071808733634 0 -0.0055352001785390643 -0.022039332347377975 0 -0.0036646510688131137 -0.018913849643135722 0 -0.0055352001785390643 -0.022039332347377975 0 -0.0038562544224533496 -0.019717035820278204 0 -0.0037240823938666729 -0.020915055902837001 0 -0.0044723167952924314 -0.020160770269065358 0 -0.003779581575142668 -0.018561355842995057 0 -0.0055352001785390643 -0.022039332347377975 0 -0.0041738958166799896 -0.02223284897117889 0 -0.0037240823938666729 -0.020915055902837001 0 -0.0037355877062504291 -0.023324889444237946 0 -0.0041738958166799896 -0.02223284897117889 0 -0.0048501613669839887 -0.023056162323738028 0 -0.0059569275978971934 -0.023762713490313506 0 -0.0055352001785390643 -0.022039332347377975 0 -0.0048501613669839887 -0.023056162323738028 0 -0.0055352001785390643 -0.022039332347377975 0 -0.0041738958166799896 -0.02223284897117889 0 -0.0048501613669839887 -0.023056162323738028 0 -0.0037184244485733817 -0.02615115869404977 0 -0.0030755414409421606 -0.025918924551725061 0 -0.0059569275978971934 -0.023762713490313506 0 -0.006621532740633396 -0.021251133217028931 0 -0.0055352001785390643 -0.022039332347377975 0 -0.0039171083339736195 -0.029119439317242892 0 -0.0035223917582361663 -0.02989133765819833 0 -0.0033948251987180951 -0.029550562340168722 0 -0.0039171083339736195 -0.029119439317242892 0 -0.0033137213040062806 -0.029190071824348889 0 -0.0033948251987180951 -0.029550562340168722 0 -0.0032907374241462656 -0.029688498313958703 0 -0.0034070210170156863 -0.029675828605402993 0 -0.0033948251987180951 -0.029550562340168722 0 -0.0030755414409421606 -0.025918924551725061 0 -0.0032177243522909689 -0.026385075186537203 0 -0.0012018667100700247 -0.025670932394438285 0 -0.0011912645867577279 -0.025699957932844891 0 -0.0011671095414905899 -0.025647634849934181 0 -0.0012018667100700247 -0.025670932394438285 0 -0.0011891630885757034 -0.02564715200132104 0 -0.0011671095414905899 -0.025647634849934181 0 -0.0012018667100700247 -0.025670932394438285 0 -0.0011912645867577279 -0.025699957932844891 0 -0.0012068491024609287 -0.025689801283635495 0 -0.0012018667100700247 -0.025670932394438285 0 -0.0012068491024609287 -0.025689801283635495 0 -0.0012187648128171513 -0.025683716868674 0 -0.0012018667100700247 -0.025670932394438285 0 -0.0012200169770970998 -0.025666516636615924 0 -0.00121176815703389 -0.025650924913820514 0 -0.0012018667100700247 -0.025670932394438285 0 -0.0011891630885757034 -0.02564715200132104 0 -0.00121176815703389 -0.025650924913820514 0 -0.0012018667100700247 -0.025670932394438285 0 -0.0012187648128171513 -0.025683716868674 0 -0.0012200169770970998 -0.025666516636615924 0 -0.0035222277187821186 -0.018296486700037102 0 -0.0036646510688131137 -0.018913849643135722 0 -0.0021358307930345287 -0.016409771165885476 0 -0.0023400496218813779 -0.024388141183292085 0 -0.0012449801546077215 -0.022064628923548317 0 -0.0035222277187821186 -0.018296486700037102 0 -0.003350703262118331 -0.016515980831367287 0 -0.0021358307930345287 -0.016409771165885476 0 -0.0035222277187821186 -0.018296486700037102 0 -0.0045320474094479443 -0.018591737595681414 0 -0.003350703262118331 -0.016515980831367287 0 -0.003779581575142668 -0.018561355842995057 0 -0.0025879256204056353 -0.016127663206170654 0 -0.0035222277187821186 -0.018296486700037102 0 -0.0036646510688131137 -0.018913849643135722 0 -0.0051325471324417662 -0.018490199632902472 0 -0.0024335926480763942 -0.024079872368616598 0 -0.0023400496218813779 -0.024388141183292085 0 -0.004601524912512772 -0.018519409396908122 0 -0.0038562544224533496 -0.019717035820278204 0 -0.0033798972195502055 -0.018547847256398475 0 -0.0052428894053096848 -0.020185071808733634 0 -0.0036646510688131137 -0.018913849643135722 0 -0.0051325471324417662 -0.018490199632902472 0 -0.0031821163374448911 -0.026017228330866903 0 -0.0030096974222247322 -0.025582630351321963 0 -0.0033184727909725633 -0.02567428566158976 0 -0.0011912645867577279 -0.025699957932844891 0 -0.0012068491024609287 -0.025689801283635495 0 -0.0012223958452109831 -0.025708701462707231 0 -0.0023400496218813779 -0.024388141183292085 0 -0.0021711813136507142 -0.026975874678759098 0 -0.0012068491024609287 -0.025689801283635495 0 -0.0012223958452109831 -0.025708701462707231 0 -0.0012187648128171513 -0.025683716868674 0 -0.0011957686322096131 -0.025807395145285933 0 -0.0012352222496373804 -0.025818566559292069 0 -0.0012394251611724863 -0.025676158352164084 0 -0.0023777813647301205 -0.028587990828418369 0 -0.0007613011764885507 -0.029252932864754926 0 -0.0021711813136507142 -0.026975874678759098 0 -0.0023777813647301205 -0.028587990828418369 0 -0.0032103230491540577 -0.029855140291879724 0 -0.0032706804980916497 -0.029949531303836811 0 -0.0031595814449449458 -0.029917469249398351 0 -0.00071951040080264934 -0.034733261431630913 0 -0.00062147604360230789 -0.034741583342502637 0 -0.00065421474958469626 -0.034779375780451816 0 -0.00071951040080264934 -0.034733261431630913 0 -0.00065421474958469626 -0.034779375780451816 0 -0.00066399007556173573 -0.034853309111020102 0 -0.00062147604360230789 -0.034741583342502637 0 -0.00065421474958469626 -0.034779375780451816 0 -0.00061255057726319992 -0.034792181048025082 0 -0.00065421474958469626 -0.034779375780451816 0 -0.00066399007556173573 -0.034853309111020102 0 -0.00061255057726319992 -0.034792181048025082 0 -0.00066399007556173573 -0.034853309111020102 0 -0.00056805565455018471 -0.034832609274191191 0 -0.00061255057726319992 -0.034792181048025082 0 -0.0021711813136507142 -0.026975874678759098 0 -0.002092338509907663 -0.026414335473065657 0 -0.0012223958452109831 -0.025708701462707231 0 -0.0012187648128171513 -0.025683716868674 0 -0.0012394251611724863 -0.025676158352164084 0 -0.0012352222496373804 -0.025818566559292069 0 -0.0012735836045669375 -0.025676846511637749 0 -0.0012394251611724863 -0.025676158352164084 0 -0.0012735836045669375 -0.025676846511637749 0 -0.0012394251611724863 -0.025676158352164084 0 -0.0012407677985842073 -0.025649264871308225 0 -0.0012394251611724863 -0.025676158352164084 0 -0.0012200169770970998 -0.025666516636615924 0 -0.0012407677985842073 -0.025649264871308225 0 -0.0012187648128171513 -0.025683716868674 0 -0.0012394251611724863 -0.025676158352164084 0 -0.0012200169770970998 -0.025666516636615924 0 -0.0012200169770970998 -0.025666516636615924 0 -0.0012407677985842073 -0.025649264871308225 0 -0.00121176815703389 -0.025650924913820514 0 -0.0012407677985842073 -0.025649264871308225 0 -0.0012896864352564136 -0.025608126486295544 0 -0.0012200861477625405 -0.025620820145719647 0 -0.0012407677985842073 -0.025649264871308225 0 -0.0012200861477625405 -0.025620820145719647 0 -0.00121176815703389 -0.025650924913820514 0 -0.0012735836045669375 -0.025676846511637749 0 -0.0012407677985842073 -0.025649264871308225 0 -0.0012896864352564136 -0.025608126486295544 0 -0.00066399007556173573 -0.034853309111020102 0 -0.00061441658282489762 -0.034957838318830377 0 -0.00056769891409632527 -0.034905830566460745 0 -0.0007613011764885507 -0.029252932864754926 0 -0.00011219581512339306 -0.026653755655616874 0 -0.00011219581512339306 -0.026653755655616874 0 -0.0007324894616908776 -0.023810622334772533 0 -9.6304840926713048e-05 -0.020578032939288522 0 -0.0003239225376667266 -0.02060916413074761 0 -0.00032646550850252607 -0.020700614370194614 0 -0.0003239225376667266 -0.02060916413074761 0 -0.0003080000670903108 -0.020624892629613575 0 -0.00032646550850252607 -0.020700614370194614 0 -0.0003239225376667266 -0.02060916413074761 0 -0.0003080000670903108 -0.020624892629613575 0 -0.00030447628511733591 -0.020716831238523744 0 -0.0003080000670903108 -0.020624892629613575 0 -0.00024951886017868453 -0.020630286671971514 0 -0.0002755080660564601 -0.020645667039568737 0 -0.0012200861477625405 -0.025620820145719647 0 -0.0011891630885757034 -0.02564715200132104 0 -0.001158926764747746 -0.025625458111323895 0 -0.0007324894616908776 -0.023810622334772533 0 -0.00080321409552869933 -0.021596828409569904 0 -0.0012200861477625405 -0.025620820145719647 0 -0.0011891630885757034 -0.02564715200132104 0 -0.00121176815703389 -0.025650924913820514 0 -0.003350703262118331 -0.016515980831367287 0 -0.0027876324553800427 -0.015754674456135917 0 -0.0021358307930345287 -0.016409771165885476 0 -0.0012449801546077215 -0.022064628923548317 0 -0.00080321409552869933 -0.021596828409569904 0 -0.0011891630885757034 -0.02564715200132104 0 -0.0011671095414905899 -0.025647634849934181 0 -0.001158926764747746 -0.025625458111323895 0 -0.0003226937189861615 -0.020582082254559556 0 -0.00042227032980553757 -0.018681761572006135 0 2.3837626162474839e-05 -0.020336629744221405 0 -0.00030447628511733591 -0.020716831238523744 0 -0.0003226937189861615 -0.020582082254559556 0 2.3837626162474839e-05 -0.020336629744221405 0 -0.0003080000670903108 -0.020624892629613575 0 -0.00030447628511733591 -0.020716831238523744 0 -0.0003226937189861615 -0.020582082254559556 0 -0.00080321409552869933 -0.021596828409569904 0 -0.00042686516286431813 -0.019110890887297147 0 -0.0003226937189861615 -0.020582082254559556 0 -0.00024951886017868453 -0.020630286671971514 0 -0.00013950814508082847 -0.020626986581527562 0 -0.0003080000670903108 -0.020624892629613575 0 -0.0003226937189861615 -0.020582082254559556 0 -0.00024951886017868453 -0.020630286671971514 0 -0.00028070087683213212 -0.019686905484922825 0 -0.00020678743264750926 -0.019214800326021658 0 -0.0003226937189861615 -0.020582082254559556 0 -0.00013950814508082847 -0.020626986581527562 0 9.9120565775153737e-05 -0.020618297041298347 0 -0.00024951886017868453 -0.020630286671971514 0 -0.00013950814508082847 -0.020626986581527562 0 -0.0002755080660564601 -0.020645667039568737 0 -0.00013950814508082847 -0.020626986581527562 0 -0.0002755080660564601 -0.020645667039568737 0 -0.00016396881577033891 -0.020520526369401375 0 -0.00013950814508082847 -0.020626986581527562 0 9.9120565775153737e-05 -0.020618297041298347 0 -0.00016396881577033891 -0.020520526369401375 0 -0.0002755080660564601 -0.020645667039568737 0 -0.00031666539773481865 -0.020618672352266117 0 -0.00032646550850252607 -0.020700614370194614 0 -0.0003080000670903108 -0.020624892629613575 0 -0.0002755080660564601 -0.020645667039568737 0 -0.00032646550850252607 -0.020700614370194614 0 -0.0002755080660564601 -0.020645667039568737 0 -0.00031666539773481865 -0.020618672352266117 0 -0.00016396881577033891 -0.020520526369401375 0 -0.00031666539773481865 -0.020618672352266117 0 -0.00026140758205968659 -0.020320432775101288 0 -0.0003715540703107974 -0.020774522747946441 0 -0.00031666539773481865 -0.020618672352266117 0 -0.00026140758205968659 -0.020320432775101288 0 -0.00016396881577033891 -0.020520526369401375 0 9.9120565775153737e-05 -0.020618297041298347 0 2.3970983076833886e-05 -0.02012005146606833 0 0.00060466870572678175 -0.019582696438492104 0 9.9120565775153737e-05 -0.020618297041298347 0 -0.00016396881577033891 -0.020520526369401375 0 2.3970983076833886e-05 -0.02012005146606833 0 -0.00026140758205968659 -0.020320432775101288 0 -0.00016396881577033891 -0.020520526369401375 0 2.3970983076833886e-05 -0.02012005146606833 0 -0.00026140758205968659 -0.020320432775101288 0 2.3970983076833886e-05 -0.02012005146606833 0 -6.7206614193538673e-05 -0.019254829598209792 0 2.3970983076833886e-05 -0.02012005146606833 0 -6.7206614193538673e-05 -0.019254829598209792 0 0.00060466870572678175 -0.019582696438492104 0 -0.00026140758205968659 -0.020320432775101288 0 -6.7206614193538673e-05 -0.019254829598209792 0 -0.00025659474292651541 -0.020254316573332785 0 -0.00026140758205968659 -0.020320432775101288 0 -0.00025659474292651541 -0.020254316573332785 0 -0.0003715540703107974 -0.020774522747946441 0 -9.9694230928444805e-07 -0.018670072788206944 0 -5.4073039199512299e-07 -0.020595173698156645 0 -0.00025659474292651541 -0.020254316573332785 0 -6.7206614193538673e-05 -0.019254829598209792 0 -9.9694230928444805e-07 -0.018670072788206944 0 -0.00025659474292651541 -0.020254316573332785 0 -6.7206614193538673e-05 -0.019254829598209792 0 -9.9694230928444805e-07 -0.018670072788206944 0 2.4134209627638438e-06 -0.016748354594880898 0 -5.4073039199512299e-07 -0.020595173698156645 0 -0.00024973253504594588 -0.021589336333768749 0 3.1437428203090765e-07 -0.022519875886067315 0 -5.4073039199512299e-07 -0.020595173698156645 0 -0.00025659474292651541 -0.020254316573332785 0 -0.00024973253504594588 -0.021589336333768749 0 -0.00025659474292651541 -0.020254316573332785 0 -0.00024973253504594588 -0.021589336333768749 0 -0.0003715540703107974 -0.020774522747946441 0 -0.00024973253504594588 -0.021589336333768749 0 -0.00021850700960525098 -0.020887492823277065 0 0.000195188109028871 -0.021079100076208616 0 -0.00024973253504594588 -0.021589336333768749 0 -0.0003715540703107974 -0.020774522747946441 0 -0.00021850700960525098 -0.020887492823277065 0 -0.0003715540703107974 -0.020774522747946441 0 -0.00032646550850252607 -0.020700614370194614 0 -0.00021850700960525098 -0.020887492823277065 0 -0.00031666539773481865 -0.020618672352266117 0 -0.0003715540703107974 -0.020774522747946441 0 -0.00032646550850252607 -0.020700614370194614 0 -9.6304840926713048e-05 -0.020578032939288522 0 -0.00032646550850252607 -0.020700614370194614 0 -0.00021850700960525098 -0.020887492823277065 0 0.0016394282883008251 -0.026668195541250841 0 0.001189293248919398 -0.025518975915008766 0 0.0004113972011860023 -0.02641368822247973 0 -9.6304840926713048e-05 -0.020578032939288522 0 -0.00021850700960525098 -0.020887492823277065 0 0.000195188109028871 -0.021079100076208616 0 -0.00011219581512339306 -0.026653755655616874 0 -0.000149057833985966 -0.024082996132081695 0 0.001189293248919398 -0.025518975915008766 0 -4.2512449031612696e-05 -0.025342398034888587 0 0.0004113972011860023 -0.02641368822247973 0 -0.000149057833985966 -0.024082996132081695 0 -9.7687711128541336e-05 -0.023628592697199344 0 0.001189293248919398 -0.025518975915008766 0 0.00035341160667967431 -0.023449693013604087 0 -4.2512449031612696e-05 -0.025342398034888587 0 -0.00024973253504594588 -0.021589336333768749 0 0.000195188109028871 -0.021079100076208616 0 0.00035341160667967431 -0.023449693013604087 0 0.00035341160667967431 -0.023449693013604087 0 3.1437428203090765e-07 -0.022519875886067315 0 4.5434999426719138e-08 -0.024444402301700405 0 -0.00024973253504594588 -0.021589336333768749 0 0.00035341160667967431 -0.023449693013604087 0 3.1437428203090765e-07 -0.022519875886067315 0 4.5434999426719138e-08 -0.024444402301700405 0 -0.00010784632125520153 -0.024646431140038189 0 -4.5821219649722327e-07 -0.026368951116086448 0 0.00035341160667967431 -0.023449693013604087 0 4.5434999426719138e-08 -0.024444402301700405 0 -0.00010784632125520153 -0.024646431140038189 0 -0.00010784632125520153 -0.024646431140038189 0 -0.00035633298431035707 -0.02555543834034224 0 -4.2512449031612696e-05 -0.025342398034888587 0 0.00035341160667967431 -0.023449693013604087 0 -0.00010784632125520153 -0.024646431140038189 0 -4.2512449031612696e-05 -0.025342398034888587 0 -0.00010784632125520153 -0.024646431140038189 0 -0.00035633298431035707 -0.02555543834034224 0 -4.5821219649722327e-07 -0.026368951116086448 0 -0.00035633298431035707 -0.02555543834034224 0 -0.00044662778918940242 -0.026091541661724706 0 -0.00046652679361086955 -0.026070230305054065 0 -0.00035633298431035707 -0.02555543834034224 0 -4.2512449031612696e-05 -0.025342398034888587 0 -0.00044662778918940242 -0.026091541661724706 0 -4.2512449031612696e-05 -0.025342398034888587 0 -0.00044662778918940242 -0.026091541661724706 0 0.0004113972011860023 -0.02641368822247973 0 -0.00037302154961549799 -0.035028434739038737 0 -0.00040470305293050207 -0.034934855658773155 0 -0.00029836092974889052 -0.034978645575748521 0 -0.00035583294684078199 -0.034930073381399064 0 -0.00030574709084232014 -0.034906513391305988 0 -0.00040470305293050207 -0.034934855658773155 0 -0.00041259735435650064 -0.034876391700322008 0 -0.00033039063821827452 -0.03488130644427908 0 -0.00040470305293050207 -0.034934855658773155 0 -0.00049716967047674194 -0.034893016254114215 0 -0.00041259735435650064 -0.034876391700322008 0 -0.00040470305293050207 -0.034934855658773155 0 -0.00049604729792987175 -0.034992428788740641 0 -0.00049716967047674194 -0.034893016254114215 0 -0.00037302154961549799 -0.035028434739038737 0 -0.00040470305293050207 -0.034934855658773155 0 -0.00049604729792987175 -0.034992428788740641 0 -0.00020108905368289992 -0.030214763872701163 0 0.00012764306850296422 -0.029047392007125708 0 -0.00011219581512339306 -0.026653755655616874 0 0.00012764306850296422 -0.029047392007125708 0 -0.00061441658282489762 -0.034957838318830377 0 -0.00049604729792987175 -0.034992428788740641 0 -0.00056769891409632527 -0.034905830566460745 0 -0.00049604729792987175 -0.034992428788740641 0 -0.00056769891409632527 -0.034905830566460745 0 -0.00049716967047674194 -0.034893016254114215 0 -0.00049716967047674194 -0.034893016254114215 0 -0.00051062828417370904 -0.034832388367544993 0 -0.00045916571301154693 -0.034833610403848365 0 -0.00049716967047674194 -0.034893016254114215 0 -0.00051062828417370904 -0.034832388367544993 0 -0.00056805565455018471 -0.034832609274191191 0 -0.00051062828417370904 -0.034832388367544993 0 -0.00056805565455018471 -0.034832609274191191 0 -0.00053702316013152216 -0.034787600114428045 0 -0.00051062828417370904 -0.034832388367544993 0 -0.00049700182523205951 -0.034806028928638995 0 -0.00045916571301154693 -0.034833610403848365 0 -0.00056769891409632527 -0.034905830566460745 0 -0.00049716967047674194 -0.034893016254114215 0 -0.00056805565455018471 -0.034832609274191191 0 -0.00066399007556173573 -0.034853309111020102 0 -0.00056769891409632527 -0.034905830566460745 0 -0.00056805565455018471 -0.034832609274191191 0 -0.00056805565455018471 -0.034832609274191191 0 -0.00061255057726319992 -0.034792181048025082 0 -0.00057540475839126684 -0.034785665736494872 0 -0.00061255057726319992 -0.034792181048025082 0 -0.00057540475839126684 -0.034785665736494872 0 -0.00059361285189964412 -0.034756918749681356 0 -0.00056805565455018471 -0.034832609274191191 0 -0.00057540475839126684 -0.034785665736494872 0 -0.00053702316013152216 -0.034787600114428045 0 -0.00057540475839126684 -0.034785665736494872 0 -0.00056594269654206301 -0.034758707900336916 0 -0.00053702316013152216 -0.034787600114428045 0 -0.00054283398513357882 -0.034754199734015473 0 -0.00056594269654206301 -0.034758707900336916 0 -0.00053702316013152216 -0.034787600114428045 0 -0.00054283398513357882 -0.034754199734015473 0 -0.00055676103997295693 -0.034746853386570083 0 -0.00056594269654206301 -0.034758707900336916 0 -0.0005817313342762493 -0.034731625978440622 0 -0.00055676103997295693 -0.034746853386570083 0 -0.00056594269654206301 -0.034758707900336916 0 -0.00062147604360230789 -0.034741583342502637 0 -0.00061255057726319992 -0.034792181048025082 0 -0.00059361285189964412 -0.034756918749681356 0 -0.00057540475839126684 -0.034785665736494872 0 -0.00056594269654206301 -0.034758707900336916 0 -0.00059361285189964412 -0.034756918749681356 0 -0.0005817313342762493 -0.034731625978440622 0 -0.00056594269654206301 -0.034758707900336916 0 -0.00059361285189964412 -0.034756918749681356 0 -0.00059845072149903721 -0.03473536330172601 0 -0.0005817313342762493 -0.034731625978440622 0 -0.00059361285189964412 -0.034756918749681356 0 -0.00059845072149903721 -0.03473536330172601 0 -0.00062147604360230789 -0.034741583342502637 0 -0.00059361285189964412 -0.034756918749681356 0 -0.00049700182523205951 -0.034806028928638995 0 -0.00050675989430403585 -0.034778417114225489 0 -0.00047326139967288772 -0.034797561553831902 0 -0.00051062828417370904 -0.034832388367544993 0 -0.00049700182523205951 -0.034806028928638995 0 -0.00053702316013152216 -0.034787600114428045 0 -0.00049700182523205951 -0.034806028928638995 0 -0.00053702316013152216 -0.034787600114428045 0 -0.00050675989430403585 -0.034778417114225489 0 -0.00054283398513357882 -0.034754199734015473 0 -0.00053702316013152216 -0.034787600114428045 0 -0.00052692341805068879 -0.03477015499824327 0 -0.00053702316013152216 -0.034787600114428045 0 -0.00052692341805068879 -0.03477015499824327 0 -0.00050675989430403585 -0.034778417114225489 0 -0.00054283398513357882 -0.034754199734015473 0 -0.00052692341805068879 -0.03477015499824327 0 -0.00052022581143564743 -0.034759050767812827 0 -0.00052692341805068879 -0.03477015499824327 0 -0.00052022581143564743 -0.034759050767812827 0 -0.00050675989430403585 -0.034778417114225489 0 -0.00049838037185073291 -0.034759412025620717 0 -0.00050675989430403585 -0.034778417114225489 0 -0.00048495117455002278 -0.034773390278600179 0 -0.00050675989430403585 -0.034778417114225489 0 -0.00048495117455002278 -0.034773390278600179 0 -0.00047326139967288772 -0.034797561553831902 0 -0.00049838037185073291 -0.034759412025620717 0 -0.00052022581143564743 -0.034759050767812827 0 -0.00050675989430403585 -0.034778417114225489 0 -0.0004350693730365911 -0.034799533737021326 0 -0.00039525136991793857 -0.034839253714266938 0 -0.00045916571301154693 -0.034833610403848365 0 -0.00046498286458094689 -0.034771995946088978 0 -0.00048495117455002278 -0.034773390278600179 0 -0.00047326139967288772 -0.034797561553831902 0 -0.00046498286458094689 -0.034771995946088978 0 -0.00047326139967288772 -0.034797561553831902 0 -0.0004350693730365911 -0.034799533737021326 0 -0.00047326139967288772 -0.034797561553831902 0 -0.0004350693730365911 -0.034799533737021326 0 -0.00045916571301154693 -0.034833610403848365 0 -0.00049700182523205951 -0.034806028928638995 0 -0.00047326139967288772 -0.034797561553831902 0 -0.00045916571301154693 -0.034833610403848365 0 -0.00043688834938200512 -0.034770863366004164 0 -0.00046498286458094689 -0.034771995946088978 0 -0.0004350693730365911 -0.034799533737021326 0 -0.00038715989658154478 -0.034789271234586396 0 -0.0004350693730365911 -0.034799533737021326 0 -0.00039525136991793857 -0.034839253714266938 0 -0.00038715989658154478 -0.034789271234586396 0 -0.00039525136991793857 -0.034839253714266938 0 -0.00033039063821827452 -0.03488130644427908 0 -0.00038715989658154478 -0.034789271234586396 0 -0.00043688834938200512 -0.034770863366004164 0 -0.0004350693730365911 -0.034799533737021326 0 -0.00039525136991793857 -0.034839253714266938 0 -0.00041259735435650064 -0.034876391700322008 0 -0.00033039063821827452 -0.03488130644427908 0 -0.00039525136991793857 -0.034839253714266938 0 -0.00041259735435650064 -0.034876391700322008 0 -0.00045916571301154693 -0.034833610403848365 0 -0.00049716967047674194 -0.034893016254114215 0 -0.00041259735435650064 -0.034876391700322008 0 -0.00045916571301154693 -0.034833610403848365 0 -0.00030574709084232014 -0.034906513391305988 0 -0.00022640279720370136 -0.034872388571380968 0 -0.00028300706442608615 -0.034911264867983037 0 -0.00019760443814526948 -0.034895653159034049 0 -0.00021938659110688806 -0.034965230819203844 0 -0.00030664752016192797 -0.034808149565998633 0 -0.00038715989658154478 -0.034789271234586396 0 -0.00033039063821827452 -0.03488130644427908 0 -0.00030664752016192797 -0.034808149565998633 0 -0.00033039063821827452 -0.03488130644427908 0 -0.00025066634755203411 -0.034858068929186123 0 -0.00017816225990088179 -0.034851737038683224 0 -0.00022640279720370136 -0.034872388571380968 0 -0.00013192344156155576 -0.0348584652862007 0 -0.00019760443814526948 -0.034895653159034049 0 -0.00013720346265959599 -0.034918827224576024 0 -0.00013720346265959599 -0.034918827224576024 0 -0.00015958853768971293 -0.03494892853894032 0 -0.00010973648161245232 -0.034951845381304372 0 -0.00015958853768971293 -0.03494892853894032 0 -0.00012807610763013186 -0.034976276718829996 0 -0.00010973648161245232 -0.034951845381304372 0 -0.00019760443814526948 -0.034895653159034049 0 -0.00013720346265959599 -0.034918827224576024 0 -0.00015958853768971293 -0.03494892853894032 0 -0.00019760443814526948 -0.034895653159034049 0 -0.00015958853768971293 -0.03494892853894032 0 -0.00021938659110688806 -0.034965230819203844 0 -0.00015958853768971293 -0.03494892853894032 0 -0.00015777481985489668 -0.034994567146833216 0 -0.00021938659110688806 -0.034965230819203844 0 -0.00015958853768971293 -0.03494892853894032 0 -0.00012807610763013186 -0.034976276718829996 0 -0.00015777481985489668 -0.034994567146833216 0 -0.00012807610763013186 -0.034976276718829996 0 -0.00015777481985489668 -0.034994567146833216 0 -0.00011061464004700697 -0.035002531214063874 0 -0.00015777481985489668 -0.034994567146833216 0 -0.00012237274740884175 -0.0350318314452377 0 -0.00011061464004700697 -0.035002531214063874 0 -0.00015777481985489668 -0.034994567146833216 0 -0.00012237274740884175 -0.0350318314452377 0 -0.00016555767691247737 -0.035029041507903778 0 -0.00015777481985489668 -0.034994567146833216 0 -0.00019910206222871864 -0.035005041807913057 0 -0.00021938659110688806 -0.034965230819203844 0 -0.00015777481985489668 -0.034994567146833216 0 -0.00019910206222871864 -0.035005041807913057 0 -0.00016555767691247737 -0.035029041507903778 0 -0.00019910206222871864 -0.035005041807913057 0 -0.00016555767691247737 -0.035029041507903778 0 -0.00021274628308900947 -0.035035895390775729 0 -0.00023677533512559171 -0.035006321929566139 0 -0.00029836092974889052 -0.034978645575748521 0 -0.00025775892772428777 -0.035050360850096982 0 -0.00023677533512559171 -0.035006321929566139 0 -0.00021938659110688806 -0.034965230819203844 0 -0.00029836092974889052 -0.034978645575748521 0 -0.00019910206222871864 -0.035005041807913057 0 -0.00023677533512559171 -0.035006321929566139 0 -0.00021274628308900947 -0.035035895390775729 0 -0.00019910206222871864 -0.035005041807913057 0 -0.00023677533512559171 -0.035006321929566139 0 -0.00021938659110688806 -0.034965230819203844 0 -0.00040470305293050207 -0.034934855658773155 0 -0.00028300706442608615 -0.034911264867983037 0 -0.00029836092974889052 -0.034978645575748521 0 -0.00028300706442608615 -0.034911264867983037 0 -0.00021938659110688806 -0.034965230819203844 0 -0.00029836092974889052 -0.034978645575748521 0 -0.00037302154961549799 -0.035028434739038737 0 -0.00029836092974889052 -0.034978645575748521 0 -0.00025775892772428777 -0.035050360850096982 0 -0.00020108905368289992 -0.030214763872701163 0 -0.00031617555300627909 -0.031160031863919892 0 -0.00044662778918940242 -0.026091541661724706 0 -0.00042643629689290868 -0.026067840509746226 0 -0.00046652679361086955 -0.026070230305054065 0 -0.00042643629689290868 -0.026067840509746226 0 -0.0001952567250479948 -0.026483556678220423 0 0.00029687197769545805 -0.02617178364042148 0 -0.00031617555300627909 -0.031160031863919892 0 -0.00020504359028700509 -0.03254689995235726 0 -0.00023677533512559171 -0.035006321929566139 0 -0.00025775892772428777 -0.035050360850096982 0 -0.00021274628308900947 -0.035035895390775729 0 -0.00042643629689290868 -0.026067840509746226 0 -0.0001952567250479948 -0.026483556678220423 0 -0.00046652679361086955 -0.026070230305054065 0 -0.0001952567250479948 -0.026483556678220423 0 -0.00046652679361086955 -0.026070230305054065 0 -0.0003118102503529925 -0.026657324465563417 0 -0.00035633298431035707 -0.02555543834034224 0 -0.00046652679361086955 -0.026070230305054065 0 -0.0003118102503529925 -0.026657324465563417 0 -0.00035633298431035707 -0.02555543834034224 0 -0.0003118102503529925 -0.026657324465563417 0 -4.5821219649722327e-07 -0.026368951116086448 0 -0.0003118102503529925 -0.026657324465563417 0 -1.3061486951291304e-06 -0.028294209049997101 0 3.3711720795248367e-05 -0.027284324330948781 0 -0.0001952567250479948 -0.026483556678220423 0 -0.0003118102503529925 -0.026657324465563417 0 3.3711720795248367e-05 -0.027284324330948781 0 -0.0003118102503529925 -0.026657324465563417 0 -1.3061486951291304e-06 -0.028294209049997101 0 -4.5821219649722327e-07 -0.026368951116086448 0 0.0001844182579656519 -0.028380198221586449 0 3.2262526074597966e-06 -0.030215478849142857 0 0.0014873838834635969 -0.028374417500634561 0 9.3188250102043199e-07 -0.030220203287581092 0 0.00020437817723502103 -0.030820751642879968 0 -1.3061486951291304e-06 -0.028294209049997101 0 0.0001844182579656519 -0.028380198221586449 0 3.3711720795248367e-05 -0.027284324330948781 0 -1.3061486951291304e-06 -0.028294209049997101 0 0.0001844182579656519 -0.028380198221586449 0 3.2262526074597966e-06 -0.030215478849142857 0 0.0001844182579656519 -0.028380198221586449 0 0.00090233257584146679 -0.027547614002662618 0 0.0014873838834635969 -0.028374417500634561 0 3.3711720795248367e-05 -0.027284324330948781 0 0.00090233257584146679 -0.027547614002662618 0 0.0010148608778433844 -0.026675423653276513 0 0.0001844182579656519 -0.028380198221586449 0 3.3711720795248367e-05 -0.027284324330948781 0 0.00090233257584146679 -0.027547614002662618 0 -0.00019720516846916884 -0.03222793526317444 0 -0.00020504359028700509 -0.03254689995235726 0 3.3711720795248367e-05 -0.027284324330948781 0 0.0010148608778433844 -0.026675423653276513 0 0.00029687197769545805 -0.02617178364042148 0 -0.00011916325812330712 -0.035079351161045026 0 -0.00016354602866946362 -0.035045652109407514 0 -0.00011893310602038878 -0.03506179576536915 0 -0.0001952567250479948 -0.026483556678220423 0 3.3711720795248367e-05 -0.027284324330948781 0 0.00029687197769545805 -0.02617178364042148 0 -0.00025775892772428777 -0.035050360850096982 0 -0.00017100654171275896 -0.035053809788909131 0 -0.00021274628308900947 -0.035035895390775729 0 -0.00016555767691247737 -0.035029041507903778 0 -0.00016670707016954619 -0.03506187764167415 0 -0.00021274628308900947 -0.035035895390775729 0 -0.00020504359028700509 -0.03254689995235726 0 5.6559108718395457e-05 -0.032959304623633418 0 -0.00016670707016954619 -0.03506187764167415 0 -0.00011893310602038878 -0.03506179576536915 0 -0.00013770458783356589 -0.035047768224845982 0 -0.00020504359028700509 -0.03254689995235726 0 -7.1228404461813749e-05 -0.032832960471701714 0 -0.00011893310602038878 -0.03506179576536915 0 -0.00013770458783356589 -0.035047768224845982 0 -0.0001150794748733876 -0.035049753856164378 0 -0.00016555767691247737 -0.035029041507903778 0 -0.00016670707016954619 -0.03506187764167415 0 -0.00013770458783356589 -0.035047768224845982 0 -0.00012237274740884175 -0.0350318314452377 0 -0.00016555767691247737 -0.035029041507903778 0 -0.00013770458783356589 -0.035047768224845982 0 -0.00012237274740884175 -0.0350318314452377 0 -0.00013770458783356589 -0.035047768224845982 0 -0.0001150794748733876 -0.035049753856164378 0 -0.00012237274740884175 -0.0350318314452377 0 -0.0001150794748733876 -0.035049753856164378 0 -9.4945676886903305e-05 -0.035046809596815519 0 -0.00012237274740884175 -0.0350318314452377 0 -9.4945676886903305e-05 -0.035046809596815519 0 -8.6565383395458538e-05 -0.035026035331691366 0 -9.4945676886903305e-05 -0.035046809596815519 0 -7.0675056170141031e-05 -0.035042028468730349 0 -8.6565383395458538e-05 -0.035026035331691366 0 -9.4945676886903305e-05 -0.035046809596815519 0 -7.986741465154834e-05 -0.035064886617515861 0 -0.00010098105727175784 -0.035063964773101565 0 -9.4945676886903305e-05 -0.035046809596815519 0 -7.986741465154834e-05 -0.035064886617515861 0 -7.0675056170141031e-05 -0.035042028468730349 0 -0.0001150794748733876 -0.035049753856164378 0 -9.4945676886903305e-05 -0.035046809596815519 0 -0.00010098105727175784 -0.035063964773101565 0 -0.00011893310602038878 -0.03506179576536915 0 -0.0001150794748733876 -0.035049753856164378 0 -0.00010098105727175784 -0.035063964773101565 0 -7.986741465154834e-05 -0.035064886617515861 0 -4.1873018163131837e-05 -0.035050102978124269 0 -7.0675056170141031e-05 -0.035042028468730349 0 -4.1873018163131837e-05 -0.035050102978124269 0 -7.0675056170141031e-05 -0.035042028468730349 0 -5.1626412628519369e-05 -0.03502186662779478 0 -5.6403180290796515e-05 -0.03283930509258326 0 -0.00022647493822099308 -0.03400978217835314 0 -7.986741465154834e-05 -0.035064886617515861 0 -4.1873018163131837e-05 -0.035050102978124269 0 -8.1053054409929251e-05 -0.035099784481928374 0 6.2735122581794353e-05 -0.03489310823765604 0 5.0367755542451154e-05 -0.03488489069954416 0 1.7115683761952054e-06 -0.034920578463701973 0 1.3844926441535244e-05 -0.034971259950781937 0 6.2735122581794353e-05 -0.03489310823765604 0 1.7115683761952054e-06 -0.034920578463701973 0 -0.00049327739917426404 -0.034349678879823389 0 -0.00023491799213472725 -0.032446841521539642 0 -0.00019720516846916884 -0.03222793526317444 0 -0.00023491799213472725 -0.032446841521539642 0 -0.00011916325812330712 -0.035079351161045026 0 -9.4378320946613588e-05 -0.035078635659670905 0 -8.1053054409929251e-05 -0.035099784481928374 0 0.00090233257584146679 -0.027547614002662618 0 0.0010148608778433844 -0.026675423653276513 0 0.0020980881396527877 -0.027287755736474684 0 -7.986741465154834e-05 -0.035064886617515861 0 -9.4378320946613588e-05 -0.035078635659670905 0 -8.1053054409929251e-05 -0.035099784481928374 0 -0.00011916325812330712 -0.035079351161045026 0 -0.00010098105727175784 -0.035063964773101565 0 -9.4378320946613588e-05 -0.035078635659670905 0 -0.00011916325812330712 -0.035079351161045026 0 -0.00011893310602038878 -0.03506179576536915 0 -0.00010098105727175784 -0.035063964773101565 0 -7.986741465154834e-05 -0.035064886617515861 0 -0.00010098105727175784 -0.035063964773101565 0 -9.4378320946613588e-05 -0.035078635659670905 0 0.00090233257584146679 -0.027547614002662618 0 0.0020980881396527877 -0.027287755736474684 0 0.0014873838834635969 -0.028374417500634561 0 -7.1685030111584425e-05 -0.031502822496831055 0 -8.40717335389482e-05 -0.031474354460587682 0 9.2270681673648581e-06 -0.031409029923077973 0 -0.00023491799213472725 -0.032446841521539642 0 0.00020437817723502103 -0.030820751642879968 0 -7.5613664740285287e-05 -0.031505261892642543 0 -8.40717335389482e-05 -0.031474354460587682 0 9.2270681673648581e-06 -0.031409029923077973 0 -9.3421170150912859e-06 -0.033244095783336078 0 5.3812845469590477e-07 -0.033250937269545727 0 4.3913813593267402e-06 -0.033237313974035954 0 -0.00023491799213472725 -0.032446841521539642 0 -5.6403180290796515e-05 -0.03283930509258326 0 -7.5613664740285287e-05 -0.031505261892642543 0 -8.40717335389482e-05 -0.031474354460587682 0 -0.00010384552102849106 -0.031486437900387049 0 -8.40717335389482e-05 -0.031474354460587682 0 -4.4379295855847257e-05 -0.031407022057630941 0 -2.8851149805597721e-05 -0.031492787539574331 0 -4.8144139720844735e-05 -0.032828565647320264 0 -5.6403180290796515e-05 -0.03283930509258326 0 -5.6403180290796515e-05 -0.03283930509258326 0 -5.8139319064975423e-05 -0.033169704400371709 0 -4.4379295855847257e-05 -0.031407022057630941 0 0.00028098007530097347 -0.031467645668458707 0 -2.8851149805597721e-05 -0.031492787539574331 0 -7.1685030111584425e-05 -0.031502822496831055 0 -2.8851149805597721e-05 -0.031492787539574331 0 -0.00012377806544196896 -0.031670243166346111 0 0.00028098007530097347 -0.031467645668458707 0 -2.8851149805597721e-05 -0.031492787539574331 0 -0.00012377806544196896 -0.031670243166346111 0 -7.1685030111584425e-05 -0.031502822496831055 0 -8.40717335389482e-05 -0.031474354460587682 0 -2.8851149805597721e-05 -0.031492787539574331 0 0.00028098007530097347 -0.031467645668458707 0 -0.00012377806544196896 -0.031670243166346111 0 -1.1322325949563188e-08 -0.032324423468297205 0 -5.8139319064975423e-05 -0.033169704400371709 0 1.7658795565014598e-07 -0.032329043322198339 0 8.9979770036463096e-09 -0.030222713632805164 0 -0.00012377806544196896 -0.031670243166346111 0 -1.1322325949563188e-08 -0.032324423468297205 0 8.9979770036463096e-09 -0.030222713632805164 0 -0.00012377806544196896 -0.031670243166346111 0 9.2270681673648581e-06 -0.031409029923077973 0 -7.1685030111584425e-05 -0.031502822496831055 0 -0.00012377806544196896 -0.031670243166346111 0 9.2270681673648581e-06 -0.031409029923077973 0 3.9330536848754687e-07 -0.032330962256911802 0 -2.7075775199491931e-07 -0.034998167884561483 0 1.3824467761475399e-05 -0.034619997968079817 0 -2.7075775199491931e-07 -0.034998167884561483 0 1.1057747990810233e-05 -0.03491844496192862 0 1.4210484052982055e-07 -0.035000718654218999 0 -2.7075775199491931e-07 -0.034998167884561483 0 1.3824467761475399e-05 -0.034619997968079817 0 1.1057747990810233e-05 -0.03491844496192862 0 1.3824467761475399e-05 -0.034619997968079817 0 9.4749140689889491e-05 -0.034751507173755351 0 1.1057747990810233e-05 -0.03491844496192862 0 1.5174707806660506e-05 -0.033540106488941394 0 1.6915719447549905e-05 -0.03345270071684521 0 0.00015236368974868417 -0.033487608077419032 0 3.9330536848754687e-07 -0.032330962256911802 0 -9.3275083464317452e-05 -0.033471962105375494 0 3.9330536848754687e-07 -0.032330962256911802 0 1.3824467761475399e-05 -0.034619997968079817 0 -9.3275083464317452e-05 -0.033471962105375494 0 -5.8139319064975423e-05 -0.033169704400371709 0 1.6915719447549905e-05 -0.03345270071684521 0 -5.8139319064975423e-05 -0.033169704400371709 0 -0.00022647493822099308 -0.03400978217835314 0 9.4749140689889491e-05 -0.034751507173755351 0 0.00010154449975332594 -0.034882330606350584 0 1.1057747990810233e-05 -0.03491844496192862 0 0.00017632156692421301 -0.034851841004408586 0 0.00010154449975332594 -0.034882330606350584 0 0.00011137010279111423 -0.034969962029270329 0 0.00017632156692421301 -0.034851841004408586 0 9.4749140689889491e-05 -0.034751507173755351 0 0.00010154449975332594 -0.034882330606350584 0 0.00010154449975332594 -0.034882330606350584 0 1.1057747990810233e-05 -0.03491844496192862 0 0.00011137010279111423 -0.034969962029270329 0 1.1057747990810233e-05 -0.03491844496192862 0 3.180684294133733e-05 -0.034986447246528038 0 1.4210484052982055e-07 -0.035000718654218999 0 1.1057747990810233e-05 -0.03491844496192862 0 3.180684294133733e-05 -0.034986447246528038 0 0.00011137010279111423 -0.034969962029270329 0 -0.00012478313946679863 -0.034564142979778181 0 -0.00022647493822099308 -0.03400978217835314 0 -0.00022647493822099308 -0.03400978217835314 0 -0.00027148762482282455 -0.03461030082699415 0 1.3844926441535244e-05 -0.034971259950781937 0 1.7115683761952054e-06 -0.034920578463701973 0 -2.0084659632579501e-06 -0.034988984444470038 0 -1.4535782257680167e-06 -0.034995847983160529 0 -6.6632185366962894e-06 -0.034996929231036082 0 -2.0084659632579501e-06 -0.034988984444470038 0 -1.4535782257680167e-06 -0.034995847983160529 0 6.4823236519804651e-09 -0.034999964828724694 0 -2.0084659632579501e-06 -0.034988984444470038 0 -0.00012478313946679863 -0.034564142979778181 0 -5.3914088384427778e-07 -0.034998769491621541 0 -5.1370581931836391e-06 -0.035001765482230766 0 -1.2306781069979296e-08 -0.035000017809581931 0 -2.0084659632579501e-06 -0.034988984444470038 0 6.4823236519804651e-09 -0.034999964828724694 0 -1.2306781069979296e-08 -0.035000017809581931 0 -2.0084659632579501e-06 -0.034988984444470038 0 -5.1370581931836391e-06 -0.035001765482230766 0 -1.2306781069979296e-08 -0.035000017809581931 0 -7.1325702849637697e-06 -0.034988742383614019 0 -5.1370581931836391e-06 -0.035001765482230766 0 -2.0266733910602696e-05 -0.034990176882006611 0 -7.1325702849637697e-06 -0.034988742383614019 0 -5.1370581931836391e-06 -0.035001765482230766 0 -2.0266733910602696e-05 -0.034990176882006611 0 -3.9976093674609029e-05 -0.034999395411834375 0 -4.1873018163131837e-05 -0.035050102978124269 0 -5.1370581931836391e-06 -0.035001765482230766 0 -5.1626412628519369e-05 -0.03502186662779478 0 1.3844926441535244e-05 -0.034971259950781937 0 -5.1370581931836391e-06 -0.035001765482230766 0 -2.0084659632579501e-06 -0.034988984444470038 0 -0.00049327739917426404 -0.034349678879823389 0 -0.00041966422755384289 -0.034639559728292697 0 -5.1370581931836391e-06 -0.035001765482230766 0 -5.1626412628519369e-05 -0.03502186662779478 0 -3.9976093674609029e-05 -0.034999395411834375 0 -7.0675056170141031e-05 -0.035042028468730349 0 -5.1626412628519369e-05 -0.03502186662779478 0 -8.6565383395458538e-05 -0.035026035331691366 0 -5.1626412628519369e-05 -0.03502186662779478 0 -8.6565383395458538e-05 -0.035026035331691366 0 -7.2155728206156253e-05 -0.03500117799234298 0 -5.1626412628519369e-05 -0.03502186662779478 0 -3.9976093674609029e-05 -0.034999395411834375 0 -7.2155728206156253e-05 -0.03500117799234298 0 -0.00012237274740884175 -0.0350318314452377 0 -8.6565383395458538e-05 -0.035026035331691366 0 -0.00011061464004700697 -0.035002531214063874 0 -8.6565383395458538e-05 -0.035026035331691366 0 -0.00011061464004700697 -0.035002531214063874 0 -7.2155728206156253e-05 -0.03500117799234298 0 -0.00012807610763013186 -0.034976276718829996 0 -0.00011061464004700697 -0.035002531214063874 0 -9.5260675672821288e-05 -0.03498150761971773 0 -0.00011061464004700697 -0.035002531214063874 0 -9.5260675672821288e-05 -0.03498150761971773 0 -7.2155728206156253e-05 -0.03500117799234298 0 -9.5260675672821288e-05 -0.03498150761971773 0 -7.2155728206156253e-05 -0.03500117799234298 0 -5.4856961443622624e-05 -0.034976920852297658 0 -0.00012807610763013186 -0.034976276718829996 0 -9.5260675672821288e-05 -0.03498150761971773 0 -0.00010973648161245232 -0.034951845381304372 0 -2.0266733910602696e-05 -0.034990176882006611 0 -3.9976093674609029e-05 -0.034999395411834375 0 -5.4856961443622624e-05 -0.034976920852297658 0 -3.9976093674609029e-05 -0.034999395411834375 0 -7.2155728206156253e-05 -0.03500117799234298 0 -5.4856961443622624e-05 -0.034976920852297658 0 -2.0266733910602696e-05 -0.034990176882006611 0 -5.4856961443622624e-05 -0.034976920852297658 0 -2.5572394008016899e-05 -0.034967247723761884 0 -5.4856961443622624e-05 -0.034976920852297658 0 -7.3260181412911291e-05 -0.034935931484780094 0 -2.5572394008016899e-05 -0.034967247723761884 0 -5.4856961443622624e-05 -0.034976920852297658 0 -0.00010973648161245232 -0.034951845381304372 0 -7.3260181412911291e-05 -0.034935931484780094 0 -0.00013720346265959599 -0.034918827224576024 0 -0.00010973648161245232 -0.034951845381304372 0 -7.3260181412911291e-05 -0.034935931484780094 0 -9.5260675672821288e-05 -0.03498150761971773 0 -5.4856961443622624e-05 -0.034976920852297658 0 -0.00010973648161245232 -0.034951845381304372 0 -1.7039542330863202e-05 -0.034911204817619626 0 -0.00013192344156155576 -0.0348584652862007 0 -7.3260181412911291e-05 -0.034935931484780094 0 -0.00013192344156155576 -0.0348584652862007 0 -0.00013720346265959599 -0.034918827224576024 0 -7.3260181412911291e-05 -0.034935931484780094 0 -1.7039542330863202e-05 -0.034911204817619626 0 -7.3260181412911291e-05 -0.034935931484780094 0 -2.5572394008016899e-05 -0.034967247723761884 0 -1.7039542330863202e-05 -0.034911204817619626 0 -9.0465389880738021e-06 -0.034965483371916975 0 -2.5572394008016899e-05 -0.034967247723761884 0 -9.0465389880738021e-06 -0.034965483371916975 0 4.3296775968145948e-09 -0.034999946022722911 0 -7.1325702849637697e-06 -0.034988742383614019 0 -1.2306781069979296e-08 -0.035000017809581931 0 4.3296775968145948e-09 -0.034999946022722911 0 -7.1325702849637697e-06 -0.034988742383614019 0 -2.0266733910602696e-05 -0.034990176882006611 0 -7.1325702849637697e-06 -0.034988742383614019 0 -2.5572394008016899e-05 -0.034967247723761884 0 -9.0465389880738021e-06 -0.034965483371916975 0 -7.1325702849637697e-06 -0.034988742383614019 0 -2.5572394008016899e-05 -0.034967247723761884 0 -0.0018797132770642321 -0.00081972250117382883 0 -0.0020555984124278033 -0.00010921224110900253 0 -0.000993211159400504 -0.0010989288076274084 0 0.0014580940438880335 -0.0069660921272073489 0 0.0035768189289159891 -0.0085087169160278312 0 -0.0018797132770642321 -0.00081972250117382883 0 -0.000993211159400504 -0.0010989288076274084 0 -0.001681558057819848 -0.0015617341699297911 0 -0.0018797132770642321 -0.00081972250117382883 0 -0.0022362456375976778 -0.00095956858890588331 0 -0.0020309448894639103 -0.0013464156002668645 0 -0.0018797132770642321 -0.00081972250117382883 0 -0.0022362456375976778 -0.00095956858890588331 0 -0.002201443767393463 -0.00069329178689520694 0 -0.0018797132770642321 -0.00081972250117382883 0 -0.002201443767393463 -0.00069329178689520694 0 -0.0022066269527429246 -0.00066898353555559548 0 -0.0022622349356245424 -0.00081843426401409882 0 -0.002201443767393463 -0.00069329178689520694 0 -0.0022066269527429246 -0.00066898353555559548 0 0.011663920341017322 -0.018841336968021274 0 0.010313279007162503 -0.019232650314609995 0 0.0097905711165252179 -0.016273661914371004 0 0.011663920341017322 -0.018841336968021274 0 0.010313279007162503 -0.019232650314609995 0 0.010641485112949274 -0.02080695392063182 0 0.00089939875281580908 -0.0050914649809458623 0 0.0014580940438880335 -0.0069660921272073489 0 0.010313279007162503 -0.019232650314609995 0 0.009065773463394159 -0.018827693526564274 0 0.0097905711165252179 -0.016273661914371004 0 0.010313279007162503 -0.019232650314609995 0 0.009065773463394159 -0.018827693526564274 0 0.009255790871002938 -0.020386817356900983 0 0.009065773463394159 -0.018827693526564274 0 0.0076001177371998177 -0.019936591783757718 0 0.009255790871002938 -0.020386817356900983 0 0.0078319352280973326 -0.018171457762180029 0 0.0076001177371998177 -0.019936591783757718 0 0.0058067974836112099 -0.019088515646680189 0 0.009065773463394159 -0.018827693526564274 0 0.0078319352280973326 -0.018171457762180029 0 0.0076001177371998177 -0.019936591783757718 0 0.0075151322872128948 -0.016718521159223686 0 0.0097905711165252179 -0.016273661914371004 0 0.0069575511470004051 -0.015114603802311253 0 0.0078319352280973326 -0.018171457762180029 0 0.0075151322872128948 -0.016718521159223686 0 0.0097905711165252179 -0.016273661914371004 0 0.0078319352280973326 -0.018171457762180029 0 0.0075151322872128948 -0.016718521159223686 0 0.0060001017170523314 -0.017164744818911466 0 0.0075151322872128948 -0.016718521159223686 0 0.0069575511470004051 -0.015114603802311253 0 0.0060001017170523314 -0.017164744818911466 0 0.009065773463394159 -0.018827693526564274 0 0.0078319352280973326 -0.018171457762180029 0 0.0097905711165252179 -0.016273661914371004 0 -0.000993211159400504 -0.0010989288076274084 0 -0.0010554815362381854 -0.0021503963194785024 0 0.0003628106719055172 -0.0028228242664435927 0 0.0035768189289159891 -0.0085087169160278312 0 0.0035253721566794868 -0.0081084939890070963 0 -0.000993211159400504 -0.0010989288076274084 0 -0.0010554815362381854 -0.0021503963194785024 0 -0.001681558057819848 -0.0015617341699297911 0 0.0097905711165252179 -0.016273661914371004 0 0.0069575511470004051 -0.015114603802311253 0 0.007665047092741949 -0.013208634993253693 0 0.0003628106719055172 -0.0028228242664435927 0 -0.001242144943548249 -0.0030688922072232097 0 0.00047321143583373793 -0.004565984879717315 0 -0.0010554815362381854 -0.0021503963194785024 0 0.0003628106719055172 -0.0028228242664435927 0 -0.001242144943548249 -0.0030688922072232097 0 -0.0010554815362381854 -0.0021503963194785024 0 -0.001242144943548249 -0.0030688922072232097 0 -0.0016052057918220792 -0.002118871417484213 0 -0.00046402747855213167 -0.0039563211510846427 0 -0.0011461443162906495 -0.0034026942312143471 0 -0.00098729003120968831 -0.0040281370069025803 0 -0.001242144943548249 -0.0030688922072232097 0 -0.0016052057918220792 -0.002118871417484213 0 -0.002222982800273869 -0.0017275015877561228 0 -0.00046402747855213167 -0.0039563211510846427 0 -0.0012483413203308294 -0.0025852512502920421 0 -0.0011461443162906495 -0.0034026942312143471 0 -0.00072748225507956001 -0.0031709988458855109 0 -0.0016932150959856149 -0.0024264552189743145 0 -0.0010554815362381854 -0.0021503963194785024 0 -0.0016052057918220792 -0.002118871417484213 0 -0.001681558057819848 -0.0015617341699297911 0 -0.0016052057918220792 -0.002118871417484213 0 -0.0018760994422739052 -0.0017200322374492174 0 -0.002222982800273869 -0.0017275015877561228 0 -0.0018797132770642321 -0.00081972250117382883 0 -0.001681558057819848 -0.0015617341699297911 0 -0.0020309448894639103 -0.0013464156002668645 0 -0.0016052057918220792 -0.002118871417484213 0 -0.0018760994422739052 -0.0017200322374492174 0 -0.001681558057819848 -0.0015617341699297911 0 -0.0018760994422739052 -0.0017200322374492174 0 -0.001681558057819848 -0.0015617341699297911 0 -0.0020309448894639103 -0.0013464156002668645 0 -0.0022362456375976778 -0.00095956858890588331 0 -0.0020309448894639103 -0.0013464156002668645 0 -0.002222982800273869 -0.0017275015877561228 0 -0.0014507127193055043 -0.0026772139372448346 0 -0.0012483413203308294 -0.0025852512502920421 0 -0.0023846120146740583 -0.00091770710733107201 0 -0.0018760994422739052 -0.0017200322374492174 0 -0.0020309448894639103 -0.0013464156002668645 0 -0.002222982800273869 -0.0017275015877561228 0 -0.0014507127193055043 -0.0026772139372448346 0 -0.0012483413203308294 -0.0025852512502920421 0 -0.0011461443162906495 -0.0034026942312143471 0 -0.0011461443162906495 -0.0034026942312143471 0 -0.0013952003227045828 -0.003885072922821052 0 -0.00098729003120968831 -0.0040281370069025803 0 -0.0014507127193055043 -0.0026772139372448346 0 -0.0011461443162906495 -0.0034026942312143471 0 -0.0014567776294197928 -0.0033951071365289891 0 -0.0011461443162906495 -0.0034026942312143471 0 -0.0014567776294197928 -0.0033951071365289891 0 -0.0013952003227045828 -0.003885072922821052 0 -0.0014507127193055043 -0.0026772139372448346 0 -0.0014567776294197928 -0.0033951071365289891 0 -0.0019404405208210758 -0.003617112212580605 0 -0.0014567776294197928 -0.0033951071365289891 0 -0.0019404405208210758 -0.003617112212580605 0 -0.0013952003227045828 -0.003885072922821052 0 -0.0014507127193055043 -0.0026772139372448346 0 -0.0019404405208210758 -0.003617112212580605 0 -0.0036408775104456903 -0.0035316072817573514 0 -0.0014507127193055043 -0.0026772139372448346 0 -0.0025580296797616249 -0.0011762628887936784 0 -0.0023846120146740583 -0.00091770710733107201 0 -0.0020080757441255557 -0.0019139220449164544 0 -0.0027281232920157192 -0.0018491618888071082 0 -0.0025580296797616249 -0.0011762628887936784 0 -0.0026164882917813787 -0.00068014288246002336 0 -0.0027276471609188565 -0.00052669126885477734 0 -0.0025580296797616249 -0.0011762628887936784 0 -0.0026164882917813787 -0.00068014288246002336 0 -0.0023846120146740583 -0.00091770710733107201 0 -0.0026164882917813787 -0.00068014288246002336 0 -0.0023846120146740583 -0.00091770710733107201 0 -0.0026431826220704312 -0.00026664713391664308 0 -0.0016932150959856149 -0.0024264552189743145 0 -0.0021849259380059263 -0.0020202638454678967 0 -0.0022362456375976778 -0.00095956858890588331 0 -0.002222982800273869 -0.0017275015877561228 0 -0.0023846120146740583 -0.00091770710733107201 0 -0.0027276471609188565 -0.00052669126885477734 0 -0.0028066711759198132 -0.00014434187405617011 0 -0.0028031046025168843 -0.00028984404238912014 0 -0.0028066711759198132 -0.00014434187405617011 0 -0.0028031046025168843 -0.00028984404238912014 0 -0.00285253014585731 0.00011781847972587573 0 -0.0028066711759198132 -0.00014434187405617011 0 -0.00285253014585731 0.00011781847972587573 0 -0.0028456747136636523 0.00015224382214206928 0 -0.0025580296797616249 -0.0011762628887936784 0 -0.0027276471609188565 -0.00052669126885477734 0 -0.0028031046025168843 -0.00028984404238912014 0 -0.0027281232920157192 -0.0018491618888071082 0 -0.0029892407275284752 -0.0013299630249923875 0 -0.0026164882917813787 -0.00068014288246002336 0 -0.0027415187447457343 -0.00033721019346532363 0 -0.0026431826220704312 -0.00026664713391664308 0 -0.0026164882917813787 -0.00068014288246002336 0 -0.0027276471609188565 -0.00052669126885477734 0 -0.0027415187447457343 -0.00033721019346532363 0 -0.0027276471609188565 -0.00052669126885477734 0 -0.0027415187447457343 -0.00033721019346532363 0 -0.0028066711759198132 -0.00014434187405617011 0 -0.0028066711759198132 -0.00014434187405617011 0 -0.0027960499992510735 2.5630402843706954e-05 0 -0.0028456747136636523 0.00015224382214206928 0 -0.0027415187447457343 -0.00033721019346532363 0 -0.0028066711759198132 -0.00014434187405617011 0 -0.0027960499992510735 2.5630402843706954e-05 0 -0.0027960499992510735 2.5630402843706954e-05 0 -0.0026431826220704312 -0.00026664713391664308 0 -0.0027211827803471146 0.00021705282101990567 0 -0.0027415187447457343 -0.00033721019346532363 0 -0.0027960499992510735 2.5630402843706954e-05 0 -0.0026431826220704312 -0.00026664713391664308 0 -0.0026431826220704312 -0.00026664713391664308 0 -0.0021598155911585711 -0.00044747165374714481 0 -0.002588263494993426 0.00010897767681532046 0 -0.0022362456375976778 -0.00095956858890588331 0 -0.002201443767393463 -0.00069329178689520694 0 -0.0021598155911585711 -0.00044747165374714481 0 -0.0022362456375976778 -0.00095956858890588331 0 -0.0023846120146740583 -0.00091770710733107201 0 -0.0021598155911585711 -0.00044747165374714481 0 -0.0023846120146740583 -0.00091770710733107201 0 -0.0026431826220704312 -0.00026664713391664308 0 -0.0021598155911585711 -0.00044747165374714481 0 -0.0022622349356245424 -0.00081843426401409882 0 -0.002201443767393463 -0.00069329178689520694 0 -0.0021598155911585711 -0.00044747165374714481 0 -0.0022622349356245424 -0.00081843426401409882 0 -0.0021598155911585711 -0.00044747165374714481 0 -0.0023540657741558863 -0.0013101158215983841 0 -0.0021598155911585711 -0.00044747165374714481 0 -0.0023540657741558863 -0.0013101158215983841 0 -0.001132219423845551 -0.0012864883471369491 0 -0.0014025213161189837 -0.00029540228332147251 0 -0.0010581745242674815 -0.00038348484065121023 0 -0.001132219423845551 -0.0012864883471369491 0 -0.001478238308986371 -0.0021660507306649557 0 -0.00010326938854188 -0.0024988115503322842 0 -0.0023540657741558863 -0.0013101158215983841 0 -0.001132219423845551 -0.0012864883471369491 0 -0.001478238308986371 -0.0021660507306649557 0 -0.0023540657741558863 -0.0013101158215983841 0 -0.001478238308986371 -0.0021660507306649557 0 -0.0023403972688840653 -0.0021704697434529545 0 -0.0026431826220704312 -0.00026664713391664308 0 -0.002588263494993426 0.00010897767681532046 0 -0.0027211827803471146 0.00021705282101990567 0 -0.0010581745242674815 -0.00038348484065121023 0 6.9176416916888047e-05 -0.0005901433013996792 0 -0.002588263494993426 0.00010897767681532046 0 -0.0027211827803471146 0.00021705282101990567 0 -0.0027943327252472235 3.1905999119160391e-05 0 -0.0027211827803471146 0.00021705282101990567 0 -0.0027943327252472235 3.1905999119160391e-05 0 -0.0026380223382284893 -2.0947233660597237e-05 0 6.9176416916888047e-05 -0.0005901433013996792 0 0.0027025955877062798 -0.00093596936068726796 0 -0.0027943327252472235 3.1905999119160391e-05 0 -0.0026615808881362488 -0.00040029253487675504 0 -0.0026380223382284893 -2.0947233660597237e-05 0 -0.00010326938854188 -0.0024988115503322842 0 -0.00010725237054256807 -0.003488840856597153 0 -0.0011353889939435629 -0.0032303965228117921 0 -0.00010725237054256807 -0.003488840856597153 0 -0.0011353889939435629 -0.0032303965228117921 0 -0.00082958164896205469 -0.0040416085736604199 0 -0.00010326938854188 -0.0024988115503322842 0 -0.00010725237054256807 -0.003488840856597153 0 0.00083718373384587168 -0.0038015714018893409 0 -0.0027943327252472235 3.1905999119160391e-05 0 -0.002725595534910869 -0.00048336129413175294 0 -0.0026615808881362488 -0.00040029253487675504 0 0.0027025955877062798 -0.00093596936068726796 0 0.0024492315089943446 -0.0010792527970438753 0 -0.0023403972688840653 -0.0021704697434529545 0 -0.0020228431139044248 -0.0029173063793388326 0 -0.002865261184512313 -0.0032024078467568738 0 -0.001478238308986371 -0.0021660507306649557 0 -0.0023403972688840653 -0.0021704697434529545 0 -0.0020228431139044248 -0.0029173063793388326 0 -0.001478238308986371 -0.0021660507306649557 0 -0.00010326938854188 -0.0024988115503322842 0 -0.0011353889939435629 -0.0032303965228117921 0 -0.001478238308986371 -0.0021660507306649557 0 -0.0020228431139044248 -0.0029173063793388326 0 -0.0011353889939435629 -0.0032303965228117921 0 -0.0011353889939435629 -0.0032303965228117921 0 -0.0014582348692816444 -0.0039803346417434408 0 -0.001895651332305375 -0.0035717600650009666 0 -0.0011353889939435629 -0.0032303965228117921 0 -0.00082958164896205469 -0.0040416085736604199 0 -0.0014582348692816444 -0.0039803346417434408 0 -0.0014582348692816444 -0.0039803346417434408 0 -0.0019317197051939318 -0.0040361332095578224 0 -0.001895651332305375 -0.0035717600650009666 0 -0.0020228431139044248 -0.0029173063793388326 0 -0.0011353889939435629 -0.0032303965228117921 0 -0.001895651332305375 -0.0035717600650009666 0 -0.0020228431139044248 -0.0029173063793388326 0 -0.001895651332305375 -0.0035717600650009666 0 -0.0023835939902768937 -0.0034833660218704914 0 -0.0020228431139044248 -0.0029173063793388326 0 -0.0023835939902768937 -0.0034833660218704914 0 -0.002865261184512313 -0.0032024078467568738 0 -0.001895651332305375 -0.0035717600650009666 0 -0.0023835939902768937 -0.0034833660218704914 0 -0.0023483489339780465 -0.0038540317842977912 0 -0.0019317197051939318 -0.0040361332095578224 0 -0.001895651332305375 -0.0035717600650009666 0 -0.0023483489339780465 -0.0038540317842977912 0 -0.0022832798003216536 -0.0043384063912500692 0 -0.0019317197051939318 -0.0040361332095578224 0 -0.0023483489339780465 -0.0038540317842977912 0 -0.0028209188229076036 -0.0042902811604789669 0 -0.0023483489339780465 -0.0038540317842977912 0 -0.0033123187373765265 -0.0037321195761204034 0 0.00010992403210183093 -0.012833812810738601 0 0.00033881268435885829 -0.013023376720074016 0 -0.0023835939902768937 -0.0034833660218704914 0 -0.0023483489339780465 -0.0038540317842977912 0 -0.0027301589948514923 -0.0038786602796256195 0 0.00033881268435885829 -0.013023376720074016 0 0.0019580752028909828 -0.014379592997427512 0 -0.0035609643460146182 -0.0043230965311424332 0 -0.0033123187373765265 -0.0037321195761204034 0 -0.0045630625654483579 -0.0037428620017674157 0 0.0021284598193080568 -0.014633415959202792 0 0.0011830390570393425 -0.014669313978350645 0 0.0018509559704417043 -0.013245207853052584 0 0.012004628847144748 -0.026122344346284906 0 0.012644942199500464 -0.024765928914614196 0 0.011013642103729977 -0.024884086300946084 0 0.0019580752028909828 -0.014379592997427512 0 0.0011833129149467086 -0.012330478841565381 0 -0.0023835939902768937 -0.0034833660218704914 0 -0.0027301589948514923 -0.0038786602796256195 0 -0.002865261184512313 -0.0032024078467568738 0 0.00033881268435885829 -0.013023376720074016 0 0.0011833129149467086 -0.012330478841565381 0 0.012004628847144748 -0.026122344346284906 0 0.011013642103729977 -0.024884086300946084 0 0.009571131839099651 -0.026237813607725646 0 0.0019580752028909828 -0.014379592997427512 0 0.005329447274541519 -0.018912261850163373 0 0.011013642103729977 -0.024884086300946084 0 0.010394749856161371 -0.023670206833224607 0 0.0095746872546437715 -0.02470327603256485 0 0.011013642103729977 -0.024884086300946084 0 0.011453368501247866 -0.023558781378677576 0 0.010394749856161371 -0.023670206833224607 0 0.012644942199500464 -0.024765928914614196 0 0.011013642103729977 -0.024884086300946084 0 0.011453368501247866 -0.023558781378677576 0 0.011453368501247866 -0.023558781378677576 0 0.010394749856161371 -0.023670206833224607 0 0.010840089412635198 -0.022410041838287917 0 -0.0023403972688840653 -0.0021704697434529545 0 -0.0027933958827957303 -0.00317540251866884 0 -0.0030464133926702969 -0.0016650666273255669 0 0.012644942199500464 -0.024765928914614196 0 0.011453368501247866 -0.023558781378677576 0 0.012121382080802894 -0.021846286223610886 0 0.0015951819128757459 -0.0088640502839488853 0 0.0011833129149467086 -0.012330478841565381 0 0.0011833129149467086 -0.012330478841565381 0 0.0023801226065397704 -0.011310088000310518 0 -0.0023540657741558863 -0.0013101158215983841 0 -0.0023403972688840653 -0.0021704697434529545 0 -0.0030464133926702969 -0.0016650666273255669 0 0.011453368501247866 -0.023558781378677576 0 0.012121382080802894 -0.021846286223610886 0 0.010840089412635198 -0.022410041838287917 0 0.010394749856161371 -0.023670206833224607 0 0.010840089412635198 -0.022410041838287917 0 0.0095785072401818293 -0.022150504149001968 0 0.010840089412635198 -0.022410041838287917 0 0.010641485112949274 -0.02080695392063182 0 0.0095785072401818293 -0.022150504149001968 0 0.012121382080802894 -0.021846286223610886 0 0.010840089412635198 -0.022410041838287917 0 0.010641485112949274 -0.02080695392063182 0 0.011663920341017322 -0.018841336968021274 0 0.012121382080802894 -0.021846286223610886 0 0.010641485112949274 -0.02080695392063182 0 0.0014580940438880335 -0.0069660921272073489 0 0.0023801226065397704 -0.011310088000310518 0 -0.0032769824734876951 -0.00027293133696467916 0 -0.0023540657741558863 -0.0013101158215983841 0 -0.0030464133926702969 -0.0016650666273255669 0 0.0014580940438880335 -0.0069660921272073489 0 -0.0014865610681789978 -0.0032133506107275577 0 -0.0022622349356245424 -0.00081843426401409882 0 -0.0022066269527429246 -0.00066898353555559548 0 -0.0023540657741558863 -0.0013101158215983841 0 0.0083155893380528201 -0.021302803137961162 0 0.0076001177371998177 -0.019936591783757718 0 0.0069616537178396999 -0.021763938902068156 0 0.0076001177371998177 -0.019936591783757718 0 0.0069616537178396999 -0.021763938902068156 0 0.0058902999983760935 -0.020945264709269846 0 0.0083155893380528201 -0.021302803137961162 0 0.0076001177371998177 -0.019936591783757718 0 0.009255790871002938 -0.020386817356900983 0 0.010641485112949274 -0.02080695392063182 0 0.009255790871002938 -0.020386817356900983 0 0.0095785072401818293 -0.022150504149001968 0 0.0083155893380528201 -0.021302803137961162 0 0.009255790871002938 -0.020386817356900983 0 0.0095785072401818293 -0.022150504149001968 0 0.010313279007162503 -0.019232650314609995 0 0.010641485112949274 -0.02080695392063182 0 0.009255790871002938 -0.020386817356900983 0 0.0083155893380528201 -0.021302803137961162 0 0.0095785072401818293 -0.022150504149001968 0 0.008051012310469445 -0.022462786067390408 0 0.0095785072401818293 -0.022150504149001968 0 0.008051012310469445 -0.022462786067390408 0 0.0086535179349256884 -0.023670598534490547 0 0.0083155893380528201 -0.021302803137961162 0 0.008051012310469445 -0.022462786067390408 0 0.0069616537178396999 -0.021763938902068156 0 0.008051012310469445 -0.022462786067390408 0 0.0069616537178396999 -0.021763938902068156 0 0.0070353972124624561 -0.023156257394631348 0 0.0070353972124624561 -0.023156257394631348 0 0.0072789002416934834 -0.02432866563162649 0 0.0086535179349256884 -0.023670598534490547 0 0.008051012310469445 -0.022462786067390408 0 0.0070353972124624561 -0.023156257394631348 0 0.0086535179349256884 -0.023670598534490547 0 0.0072789002416934834 -0.02432866563162649 0 0.0086535179349256884 -0.023670598534490547 0 0.0082311255604779945 -0.025056043647109321 0 0.010394749856161371 -0.023670206833224607 0 0.0086535179349256884 -0.023670598534490547 0 0.0095746872546437715 -0.02470327603256485 0 0.010394749856161371 -0.023670206833224607 0 0.0095785072401818293 -0.022150504149001968 0 0.0086535179349256884 -0.023670598534490547 0 0.0086535179349256884 -0.023670598534490547 0 0.0095746872546437715 -0.02470327603256485 0 0.0082311255604779945 -0.025056043647109321 0 0.005329447274541519 -0.018912261850163373 0 0.0053804577296641632 -0.020838983622570195 0 0.0095027770797590748 -0.02620714526775705 0 0.0082311255604779945 -0.025056043647109321 0 0.0077035644395105395 -0.026295233237835988 0 0.011013642103729977 -0.024884086300946084 0 0.0095746872546437715 -0.02470327603256485 0 0.009571131839099651 -0.026237813607725646 0 0.0095746872546437715 -0.02470327603256485 0 0.009571131839099651 -0.026237813607725646 0 0.0082311255604779945 -0.025056043647109321 0 0.005329447274541519 -0.018912261850163373 0 0.0068800240679733555 -0.020674180682380632 0 0.0053804577296641632 -0.020838983622570195 0 0.0054262029287938688 -0.022205062070176317 0 0.0069060051992498647 -0.025315483569191673 0 0.0077035644395105395 -0.026295233237835988 0 0.0058551140660704337 -0.026373407539907131 0 0.0072789002416934834 -0.02432866563162649 0 0.0069060051992498647 -0.025315483569191673 0 0.0082311255604779945 -0.025056043647109321 0 0.0069060051992498647 -0.025315483569191673 0 0.0082311255604779945 -0.025056043647109321 0 0.0077035644395105395 -0.026295233237835988 0 0.0072789002416934834 -0.02432866563162649 0 0.0069060051992498647 -0.025315483569191673 0 0.0053159551777466531 -0.024609542085748674 0 0.0069060051992498647 -0.025315483569191673 0 0.0058551140660704337 -0.026373407539907131 0 0.0053159551777466531 -0.024609542085748674 0 0.0054262029287938688 -0.022205062070176317 0 0.0054487605854888011 -0.023050605509018749 0 0.0049458972550988807 -0.023991385315496903 0 0.0048170498695895682 -0.023385330064477992 0 0.0046012297485057028 -0.023766214013968324 0 0.0046730106210581554 -0.024005539015376238 0 0.0049458972550988807 -0.023991385315496903 0 0.0046012297485057028 -0.023766214013968324 0 0.005369822170735325 -0.022242288546074448 0 0.0054262029287938688 -0.022205062070176317 0 0.0054487605854888011 -0.023050605509018749 0 0.0053760968984685039 -0.023038231619050362 0 0.0053159551777466531 -0.024609542085748674 0 0.0058887271002489184 -0.022511194951446722 0 0.0047533184080708057 -0.022772230534710555 0 0.0070353972124624561 -0.023156257394631348 0 0.0072789002416934834 -0.02432866563162649 0 0.0053159551777466531 -0.024609542085748674 0 0.0070353972124624561 -0.023156257394631348 0 0.0053159551777466531 -0.024609542085748674 0 0.0058887271002489184 -0.022511194951446722 0 0.0048170498695895682 -0.023385330064477992 0 0.0041577094374741124 -0.023075185770983234 0 0.0042566430888173823 -0.023615965917167629 0 0.0048170498695895682 -0.023385330064477992 0 0.0041577094374741124 -0.023075185770983234 0 0.0047533184080708057 -0.022772230534710555 0 0.0048170498695895682 -0.023385330064477992 0 0.0042566430888173823 -0.023615965917167629 0 0.0046012297485057028 -0.023766214013968324 0 0.0043399128599629711 -0.023996165802785685 0 0.0046730106210581554 -0.024005539015376238 0 0.0046012297485057028 -0.023766214013968324 0 0.0039715924318051076 -0.024088122475442873 0 0.0043399128599629711 -0.023996165802785685 0 0.0042566430888173823 -0.023615965917167629 0 0.0043399128599629711 -0.023996165802785685 0 0.0042566430888173823 -0.023615965917167629 0 0.0046012297485057028 -0.023766214013968324 0 0.0039715924318051076 -0.024088122475442873 0 0.0034864757785585303 -0.023829766719515616 0 0.0036440289873233712 -0.023333841479125105 0 0.0039715924318051076 -0.024088122475442873 0 0.0042566430888173823 -0.023615965917167629 0 0.0036440289873233712 -0.023333841479125105 0 0.0030994542079541341 -0.024122761079172252 0 0.0034864757785585303 -0.023829766719515616 0 0.003072023383770774 -0.023270140531316548 0 0.0034864757785585303 -0.023829766719515616 0 0.003072023383770774 -0.023270140531316548 0 0.0036440289873233712 -0.023333841479125105 0 0.0031299961866043174 -0.022831889071667662 0 0.0036440289873233712 -0.023333841479125105 0 0.0033760050217477616 -0.022548971491470542 0 0.003072023383770774 -0.023270140531316548 0 0.0031299961866043174 -0.022831889071667662 0 0.0036440289873233712 -0.023333841479125105 0 0.0041577094374741124 -0.023075185770983234 0 0.0042566430888173823 -0.023615965917167629 0 0.0036440289873233712 -0.023333841479125105 0 0.0041577094374741124 -0.023075185770983234 0 0.0036440289873233712 -0.023333841479125105 0 0.0033760050217477616 -0.022548971491470542 0 0.0041577094374741124 -0.023075185770983234 0 0.0033760050217477616 -0.022548971491470542 0 0.0038011063162965131 -0.022206404680307889 0 0.0033760050217477616 -0.022548971491470542 0 0.003329647327380233 -0.0221240811735798 0 0.0038011063162965131 -0.022206404680307889 0 0.003329647327380233 -0.0221240811735798 0 0.0038011063162965131 -0.022206404680307889 0 0.0033228234643468612 -0.021696098519085487 0 0.0033760050217477616 -0.022548971491470542 0 0.002877932199580283 -0.02244896784465154 0 0.0030500909779214358 -0.022048949404468034 0 0.0031299961866043174 -0.022831889071667662 0 0.0033760050217477616 -0.022548971491470542 0 0.002877932199580283 -0.02244896784465154 0 0.0033760050217477616 -0.022548971491470542 0 0.003329647327380233 -0.0221240811735798 0 0.0030500909779214358 -0.022048949404468034 0 0.002877932199580283 -0.02244896784465154 0 0.0030500909779214358 -0.022048949404468034 0 0.0027132173052792645 -0.022105577510329984 0 0.0030500909779214358 -0.022048949404468034 0 0.0028542540989267033 -0.021884140133100007 0 0.0027132173052792645 -0.022105577510329984 0 0.0030500909779214358 -0.022048949404468034 0 0.0030732437644399734 -0.021787197852617051 0 0.0033228234643468612 -0.021696098519085487 0 0.0030500909779214358 -0.022048949404468034 0 0.0030732437644399734 -0.021787197852617051 0 0.0028542540989267033 -0.021884140133100007 0 0.0033228234643468612 -0.021696098519085487 0 0.00372001463959826 -0.021269027422970304 0 0.0031123805631000567 -0.020418262141423248 0 0.0038011063162965131 -0.022206404680307889 0 0.0033228234643468612 -0.021696098519085487 0 0.00372001463959826 -0.021269027422970304 0 0.003329647327380233 -0.0221240811735798 0 0.0030500909779214358 -0.022048949404468034 0 0.0033228234643468612 -0.021696098519085487 0 0.0038011063162965131 -0.022206404680307889 0 0.00372001463959826 -0.021269027422970304 0 0.0047003165460267286 -0.021741125177630619 0 0.00372001463959826 -0.021269027422970304 0 0.004801246929128109 -0.020495006532784851 0 0.0047003165460267286 -0.021741125177630619 0 0.00372001463959826 -0.021269027422970304 0 0.004801246929128109 -0.020495006532784851 0 0.0042296944991783748 -0.01912329222230463 0 0.004801246929128109 -0.020495006532784851 0 0.0058902999983760935 -0.020945264709269846 0 0.0058067974836112099 -0.019088515646680189 0 0.0076001177371998177 -0.019936591783757718 0 0.0058902999983760935 -0.020945264709269846 0 0.0058067974836112099 -0.019088515646680189 0 0.004801246929128109 -0.020495006532784851 0 0.0058902999983760935 -0.020945264709269846 0 0.0047003165460267286 -0.021741125177630619 0 0.0069616537178396999 -0.021763938902068156 0 0.0058902999983760935 -0.020945264709269846 0 0.0058887271002489184 -0.022511194951446722 0 0.0058902999983760935 -0.020945264709269846 0 0.0058887271002489184 -0.022511194951446722 0 0.0047003165460267286 -0.021741125177630619 0 0.0069616537178396999 -0.021763938902068156 0 0.0070353972124624561 -0.023156257394631348 0 0.0058887271002489184 -0.022511194951446722 0 0.0058887271002489184 -0.022511194951446722 0 0.0047533184080708057 -0.022772230534710555 0 0.0047003165460267286 -0.021741125177630619 0 0.0041577094374741124 -0.023075185770983234 0 0.0038011063162965131 -0.022206404680307889 0 0.0047533184080708057 -0.022772230534710555 0 0.0038011063162965131 -0.022206404680307889 0 0.0047533184080708057 -0.022772230534710555 0 0.0047003165460267286 -0.021741125177630619 0 -0.0033376386660236299 -0.028408671151630739 0 -0.0031000449695460113 -0.029074749293799888 0 -0.0024211516231593092 -0.02845093439119575 0 0.0014006366316233155 -0.023085323840208481 0 0.0017624666449168227 -0.022922045001582295 0 0.001760991823406286 -0.022522514604493331 0 -0.0012757380119354073 -0.025454331215837008 0 -0.00043633696054566509 -0.025092762894612292 0 -0.00084701081806393965 -0.025753564370824805 0 -0.00090777045577870516 -0.025630330293670168 0 -0.00072655075722753747 -0.025681471189777559 0 0.0014006366316233155 -0.023085323840208481 0 0.0019995409120609014 -0.023265709174800777 0 0.0017624666449168227 -0.022922045001582295 0 -0.0012757380119354073 -0.025454331215837008 0 0.0012826670973153031 -0.024446478181225181 0 0.0012826670973153031 -0.024446478181225181 0 0.0018385268640890566 -0.02432770263283246 0 0.0012826670973153031 -0.024446478181225181 0 0.0018933342541421385 -0.022997915100745125 0 0.0019995409120609014 -0.023265709174800777 0 0.0017624666449168227 -0.022922045001582295 0 0.0022123706576103069 -0.022637146137859117 0 0.0017624666449168227 -0.022922045001582295 0 0.0022123706576103069 -0.022637146137859117 0 0.001760991823406286 -0.022522514604493331 0 0.0017096601002035015 -0.02360205365431119 0 0.0020170748709706383 -0.022748103953854761 0 0.0024146755509524098 -0.023213621017502638 0 0.0020170748709706383 -0.022748103953854761 0 0.0024146755509524098 -0.023213621017502638 0 0.0026475074602843635 -0.022823530005466428 0 0.0030994542079541341 -0.024122761079172252 0 0.0024146755509524098 -0.023213621017502638 0 0.001919469944851283 -0.023837953128223829 0 0.0017096601002035015 -0.02360205365431119 0 0.0024146755509524098 -0.023213621017502638 0 0.0020271330007362596 -0.023694004653812935 0 0.0020563953481180408 -0.024010238936612076 0 0.0018385268640890566 -0.02432770263283246 0 0.0030994542079541341 -0.024122761079172252 0 0.003072023383770774 -0.023270140531316548 0 0.0024146755509524098 -0.023213621017502638 0 0.003072023383770774 -0.023270140531316548 0 0.0024146755509524098 -0.023213621017502638 0 0.0026475074602843635 -0.022823530005466428 0 0.0031299961866043174 -0.022831889071667662 0 0.002877932199580283 -0.02244896784465154 0 0.0026475074602843635 -0.022823530005466428 0 0.003072023383770774 -0.023270140531316548 0 0.0031299961866043174 -0.022831889071667662 0 0.0026475074602843635 -0.022823530005466428 0 0.002877932199580283 -0.02244896784465154 0 0.0026475074602843635 -0.022823530005466428 0 0.002522497384633309 -0.022422029452321281 0 0.002877932199580283 -0.02244896784465154 0 0.002522497384633309 -0.022422029452321281 0 0.0027132173052792645 -0.022105577510329984 0 0.0028542540989267033 -0.021884140133100007 0 0.0027132173052792645 -0.022105577510329984 0 0.0026097231454196347 -0.0218997355448751 0 0.0027132173052792645 -0.022105577510329984 0 0.0026097231454196347 -0.0218997355448751 0 0.0023867558055006826 -0.022043147543968633 0 0.002522497384633309 -0.022422029452321281 0 0.0027132173052792645 -0.022105577510329984 0 0.0023867558055006826 -0.022043147543968633 0 0.0018933342541421385 -0.022997915100745125 0 0.0020853435523434374 -0.022542428788604157 0 0.0022123706576103069 -0.022637146137859117 0 0.0023867558055006826 -0.022043147543968633 0 0.0021263144177479597 -0.021992743872397455 0 0.0020170748709706383 -0.022748103953854761 0 0.0026475074602843635 -0.022823530005466428 0 0.002522497384633309 -0.022422029452321281 0 0.0020170748709706383 -0.022748103953854761 0 0.002522497384633309 -0.022422029452321281 0 0.0023867558055006826 -0.022043147543968633 0 0.00044537731771503614 -0.024289178093984436 0 -0.00043633696054566509 -0.025092762894612292 0 0.0022123706576103069 -0.022637146137859117 0 0.0021263144177479597 -0.021992743872397455 0 0.001760991823406286 -0.022522514604493331 0 -0.0010179087572303274 -0.027309427867534659 0 -0.0029839357998071546 -0.027524265636695449 0 -0.0024211516231593092 -0.02845093439119575 0 -0.0010179087572303274 -0.027309427867534659 0 -0.0029839357998071546 -0.027524265636695449 0 -0.0020604183698192712 -0.026483772124837646 0 -0.0033376386660236299 -0.028408671151630739 0 -0.0029839357998071546 -0.027524265636695449 0 -0.0024211516231593092 -0.02845093439119575 0 -0.0037355877062504291 -0.023324889444237946 0 -0.0023960893005034191 -0.023426615490138133 0 -0.0033230994973140332 -0.025026755614319201 0 -0.0023960893005034191 -0.023426615490138133 0 -0.0021467996081032973 -0.025072788675438364 0 -0.0033230994973140332 -0.025026755614319201 0 -0.0021467996081032973 -0.025072788675438364 0 -0.0033230994973140332 -0.025026755614319201 0 -0.0030218610817024029 -0.026518072124319707 0 -0.0042350598099194989 -0.027180781881457686 0 -0.0029839357998071546 -0.027524265636695449 0 -0.0030218610817024029 -0.026518072124319707 0 -0.0029839357998071546 -0.027524265636695449 0 -0.0030218610817024029 -0.026518072124319707 0 -0.0020604183698192712 -0.026483772124837646 0 -0.0021467996081032973 -0.025072788675438364 0 -0.0030218610817024029 -0.026518072124319707 0 -0.0020604183698192712 -0.026483772124837646 0 -0.0021467996081032973 -0.025072788675438364 0 -0.0020604183698192712 -0.026483772124837646 0 -0.0010906256270673065 -0.025531277718377411 0 -0.0010179087572303274 -0.027309427867534659 0 -0.0020604183698192712 -0.026483772124837646 0 -0.0010906256270673065 -0.025531277718377411 0 -0.0021467996081032973 -0.025072788675438364 0 -0.0010906256270673065 -0.025531277718377411 0 -0.00099710950485468273 -0.023707094854603823 0 -0.0023960893005034191 -0.023426615490138133 0 -0.0021467996081032973 -0.025072788675438364 0 -0.00099710950485468273 -0.023707094854603823 0 -0.0010906256270673065 -0.025531277718377411 0 -0.00099710950485468273 -0.023707094854603823 0 0.00086737472851876384 -0.024836299817710242 0 -0.00099710950485468273 -0.023707094854603823 0 0.00086737472851876384 -0.024836299817710242 0 0.00022453704724072733 -0.021904398265361596 0 0.00086737472851876384 -0.024836299817710242 0 0.0023809549195528516 -0.021514244153820767 0 0.00022453704724072733 -0.021904398265361596 0 -0.0010179087572303274 -0.027309427867534659 0 -0.0010906256270673065 -0.025531277718377411 0 0.00086737472851876384 -0.024836299817710242 0 0.0026097231454196347 -0.0218997355448751 0 0.0023867558055006826 -0.022043147543968633 0 0.0024580944301167773 -0.021691859247589047 0 0.0023867558055006826 -0.022043147543968633 0 0.0021263144177479597 -0.021992743872397455 0 0.0024580944301167773 -0.021691859247589047 0 0.00044537731771503614 -0.024289178093984436 0 0.0013043595056551453 -0.023219686070274619 0 0.0024580944301167773 -0.021691859247589047 0 0.0027213428989703932 -0.021791237352835273 0 0.0026633745330608624 -0.021712714139909991 0 0.0026097231454196347 -0.0218997355448751 0 0.0024580944301167773 -0.021691859247589047 0 0.0027213428989703932 -0.021791237352835273 0 0.0028542540989267033 -0.021884140133100007 0 0.0026097231454196347 -0.0218997355448751 0 0.0027213428989703932 -0.021791237352835273 0 0.0024580944301167773 -0.021691859247589047 0 0.0026633745330608624 -0.021712714139909991 0 0.0023809549195528516 -0.021514244153820767 0 0.0013043595056551453 -0.023219686070274619 0 0.001765182887834528 -0.022524013357635944 0 0.0026633745330608624 -0.021712714139909991 0 0.0023809549195528516 -0.021514244153820767 0 0.0031227976284488204 -0.021148082773196207 0 0.0023809549195528516 -0.021514244153820767 0 0.0011143758709228643 -0.020815921072769777 0 0.00022453704724072733 -0.021904398265361596 0 0.0023809549195528516 -0.021514244153820767 0 0.0018681685981912406 -0.020251481767505481 0 0.0011143758709228643 -0.020815921072769777 0 0.0023809549195528516 -0.021514244153820767 0 0.0018681685981912406 -0.020251481767505481 0 0.0031227976284488204 -0.021148082773196207 0 0.0018681685981912406 -0.020251481767505481 0 0.0031227976284488204 -0.021148082773196207 0 0.0021890961478609034 -0.017785269639129544 0 0.0018681685981912406 -0.020251481767505481 0 0.00040773828871388027 -0.019703434855703118 0 0.0021890961478609034 -0.017785269639129544 0 0.0018681685981912406 -0.020251481767505481 0 0.00040773828871388027 -0.019703434855703118 0 0.0011143758709228643 -0.020815921072769777 0 0.00040773828871388027 -0.019703434855703118 0 -0.00042630455019515822 -0.020716318764498524 0 0.0011143758709228643 -0.020815921072769777 0 0.00040773828871388027 -0.019703434855703118 0 -0.00042630455019515822 -0.020716318764498524 0 -0.0013832072694682891 -0.019406570011666197 0 -0.00042630455019515822 -0.020716318764498524 0 0.0011143758709228643 -0.020815921072769777 0 0.00022453704724072733 -0.021904398265361596 0 -0.0023960893005034191 -0.023426615490138133 0 -0.00099710950485468273 -0.023707094854603823 0 -0.0015128010621679648 -0.021586084909767878 0 -0.00042630455019515822 -0.020716318764498524 0 0.00022453704724072733 -0.021904398265361596 0 -0.0015128010621679648 -0.021586084909767878 0 -0.00099710950485468273 -0.023707094854603823 0 0.00022453704724072733 -0.021904398265361596 0 -0.0015128010621679648 -0.021586084909767878 0 -0.00042630455019515822 -0.020716318764498524 0 -0.0015128010621679648 -0.021586084909767878 0 -0.0013832072694682891 -0.019406570011666197 0 -0.0015128010621679648 -0.021586084909767878 0 -0.0013832072694682891 -0.019406570011666197 0 -0.0025359162795402985 -0.02036029198547646 0 -0.0013832072694682891 -0.019406570011666197 0 -0.0025359162795402985 -0.02036029198547646 0 -0.0028001742073679148 -0.019162724205040744 0 -0.0025359162795402985 -0.02036029198547646 0 -0.0038562544224533496 -0.019717035820278204 0 -0.0028001742073679148 -0.019162724205040744 0 -0.0025359162795402985 -0.02036029198547646 0 -0.0038562544224533496 -0.019717035820278204 0 -0.0037240823938666729 -0.020915055902837001 0 -0.0025359162795402985 -0.02036029198547646 0 -0.0037240823938666729 -0.020915055902837001 0 -0.0029507192867880617 -0.021937561222732327 0 -0.0041738958166799896 -0.02223284897117889 0 -0.0037240823938666729 -0.020915055902837001 0 -0.0029507192867880617 -0.021937561222732327 0 -0.0015128010621679648 -0.021586084909767878 0 -0.0025359162795402985 -0.02036029198547646 0 -0.0029507192867880617 -0.021937561222732327 0 -0.0023960893005034191 -0.023426615490138133 0 -0.0015128010621679648 -0.021586084909767878 0 -0.0029507192867880617 -0.021937561222732327 0 -0.0037355877062504291 -0.023324889444237946 0 -0.0023960893005034191 -0.023426615490138133 0 -0.0029507192867880617 -0.021937561222732327 0 -0.0037355877062504291 -0.023324889444237946 0 -0.0041738958166799896 -0.02223284897117889 0 -0.0029507192867880617 -0.021937561222732327 0 0.0044158572328875552 -0.017269284578876117 0 0.0042296944991783748 -0.01912329222230463 0 0.0024470590104420722 -0.017300278811993405 0 0.0044158572328875552 -0.017269284578876117 0 0.0024470590104420722 -0.017300278811993405 0 0.0036241627220796957 -0.015298433344237666 0 0.0044158572328875552 -0.017269284578876117 0 0.0036241627220796957 -0.015298433344237666 0 0.005285195896719325 -0.015596222469471699 0 0.0044158572328875552 -0.017269284578876117 0 0.0060001017170523314 -0.017164744818911466 0 0.005285195896719325 -0.015596222469471699 0 0.0069575511470004051 -0.015114603802311253 0 0.0060001017170523314 -0.017164744818911466 0 0.005285195896719325 -0.015596222469471699 0 0.0044158572328875552 -0.017269284578876117 0 0.0060001017170523314 -0.017164744818911466 0 0.0058067974836112099 -0.019088515646680189 0 0.0078319352280973326 -0.018171457762180029 0 0.0060001017170523314 -0.017164744818911466 0 0.0058067974836112099 -0.019088515646680189 0 0.004801246929128109 -0.020495006532784851 0 0.0058067974836112099 -0.019088515646680189 0 0.0042296944991783748 -0.01912329222230463 0 0.00372001463959826 -0.021269027422970304 0 0.0042296944991783748 -0.01912329222230463 0 0.0024470590104420722 -0.017300278811993405 0 0.0044158572328875552 -0.017269284578876117 0 0.0058067974836112099 -0.019088515646680189 0 0.0042296944991783748 -0.01912329222230463 0 0.0032984579655806344 -0.019708054751847719 0 0.0031078394710453796 -0.018349548539977702 0 0.00372001463959826 -0.021269027422970304 0 0.0031123805631000567 -0.020418262141423248 0 0.003688304450699714 -0.020220407897007193 0 0.0032008607758292448 -0.021403557561688876 0 0.0030715283007995246 -0.020938690366227319 0 0.0030732437644399734 -0.021787197852617051 0 0.0033228234643468612 -0.021696098519085487 0 0.0029910042645551263 -0.021755738770297642 0 0.0030732437644399734 -0.021787197852617051 0 0.0028940364642700478 -0.021780142605490136 0 0.0029910042645551263 -0.021755738770297642 0 0.0026633745330608624 -0.021712714139909991 0 0.0028940364642700478 -0.021780142605490136 0 0.0029910042645551263 -0.021755738770297642 0 0.0030732437644399734 -0.021787197852617051 0 0.0028542540989267033 -0.021884140133100007 0 0.0028940364642700478 -0.021780142605490136 0 0.0028542540989267033 -0.021884140133100007 0 0.0027213428989703932 -0.021791237352835273 0 0.0028940364642700478 -0.021780142605490136 0 0.0027213428989703932 -0.021791237352835273 0 0.0026633745330608624 -0.021712714139909991 0 0.0028940364642700478 -0.021780142605490136 0 0.0031123805631000567 -0.020418262141423248 0 0.0032992477758934662 -0.019743253585312929 0 0.002759580787553912 -0.019257447046551648 0 0.0026633745330608624 -0.021712714139909991 0 0.0029910042645551263 -0.021755738770297642 0 0.0031227976284488204 -0.021148082773196207 0 0.0030715283007995246 -0.020938690366227319 0 0.0028059995544914081 -0.019914841549356996 0 0.0031123805631000567 -0.020418262141423248 0 0.003688304450699714 -0.020220407897007193 0 0.0032992477758934662 -0.019743253585312929 0 0.003688304450699714 -0.020220407897007193 0 0.0032992477758934662 -0.019743253585312929 0 0.0037499465754020525 -0.018969383605597027 0 0.0032992477758934662 -0.019743253585312929 0 0.002759580787553912 -0.019257447046551648 0 0.0037499465754020525 -0.018969383605597027 0 0.0031078394710453796 -0.018349548539977702 0 0.0028226207483456546 -0.015871226142375128 0 0.002759580787553912 -0.019257447046551648 0 0.0030590229081157595 -0.018345042621398886 0 0.0021890961478609034 -0.017785269639129544 0 0.0028059995544914081 -0.019914841549356996 0 0.0025417663694545737 -0.018950277496826255 0 0.002759580787553912 -0.019257447046551648 0 0.0030590229081157595 -0.018345042621398886 0 0.0037499465754020525 -0.018969383605597027 0 0.0016998186383471593 -0.013123072687755432 0 0.0049621190106826163 -0.012793319350415559 0 0.0030940989121040845 -0.011009990888634701 0 0.0016998186383471593 -0.013123072687755432 0 0.0036241627220796957 -0.015298433344237666 0 0.0049621190106826163 -0.012793319350415559 0 0.0036241627220796957 -0.015298433344237666 0 0.005285195896719325 -0.015596222469471699 0 0.0049621190106826163 -0.012793319350415559 0 0.0024470590104420722 -0.017300278811993405 0 0.0016998186383471593 -0.013123072687755432 0 0.0036241627220796957 -0.015298433344237666 0 0.0069575511470004051 -0.015114603802311253 0 0.005285195896719325 -0.015596222469471699 0 0.0049621190106826163 -0.012793319350415559 0 0.0069575511470004051 -0.015114603802311253 0 0.007665047092741949 -0.013208634993253693 0 0.0049621190106826163 -0.012793319350415559 0 0.007665047092741949 -0.013208634993253693 0 0.0049621190106826163 -0.012793319350415559 0 0.0049248251455970586 -0.0098687745646279263 0 0.0035253721566794868 -0.0081084939890070963 0 0.0030251309471460304 -0.007592037791083894 0 0.0003628106719055172 -0.0028228242664435927 0 0.0014975313233650609 -0.0051904179312548537 0 0.00047321143583373793 -0.004565984879717315 0 0.0014975313233650609 -0.0051904179312548537 0 0.00066911416461768087 -0.0057804374711778652 0 0.00047321143583373793 -0.004565984879717315 0 0.0014975313233650609 -0.0051904179312548537 0 0.00066911416461768087 -0.0057804374711778652 0 0.0011453212164862297 -0.0067087189762059744 0 0.00066911416461768087 -0.0057804374711778652 0 0.0011453212164862297 -0.0067087189762059744 0 0.00046799290230509617 -0.0066378338414059754 0 0.0030251309471460304 -0.007592037791083894 0 0.0026682129634170563 -0.0073388643943168227 0 0.0014975313233650609 -0.0051904179312548537 0 0.0011453212164862297 -0.0067087189762059744 0 0.0020030329704870641 -0.0074323748567376568 0 0.0049248251455970586 -0.0098687745646279263 0 0.0013098346821438511 -0.0086755725031158592 0 0.0020030329704870641 -0.0074323748567376568 0 0.0049621190106826163 -0.012793319350415559 0 0.0049248251455970586 -0.0098687745646279263 0 0.0030940989121040845 -0.011009990888634701 0 0.0049248251455970586 -0.0098687745646279263 0 0.0030940989121040845 -0.011009990888634701 0 0.0013098346821438511 -0.0086755725031158592 0 0.0028226207483456546 -0.015871226142375128 0 0.0025877396513244123 -0.013298854425556816 0 0.0016998186383471593 -0.013123072687755432 0 0.0030940989121040845 -0.011009990888634701 0 0.0013098346821438511 -0.0086755725031158592 0 0.0030590229081157595 -0.018345042621398886 0 0.0037499465754020525 -0.018969383605597027 0 0.0038195449673708759 -0.017080546376312674 0 0.0030590229081157595 -0.018345042621398886 0 0.0038195449673708759 -0.017080546376312674 0 0.0021890961478609034 -0.017785269639129544 0 0.0024153181329927679 -0.015711418894099716 0 0.0038195449673708759 -0.017080546376312674 0 0.0021890961478609034 -0.017785269639129544 0 0.0013098346821438511 -0.0086755725031158592 0 0.0019808534617955396 -0.0073739234265346185 0 0.0020030329704870641 -0.0074323748567376568 0 0.0024153181329927679 -0.015711418894099716 0 0.0038195449673708759 -0.017080546376312674 0 0.0033985233102221276 -0.014180714334226794 0 0.0019808534617955396 -0.0073739234265346185 0 0.0020030329704870641 -0.0074323748567376568 0 0.001434988415862887 -0.0074597885790003669 0 0.0025877396513244123 -0.013298854425556816 0 0.0023988222934099345 -0.011541612100612117 0 0.0024153181329927679 -0.015711418894099716 0 0.0033985233102221276 -0.014180714334226794 0 0.0018646410918563051 -0.013439835917897896 0 0.0024153181329927679 -0.015711418894099716 0 0.0018646410918563051 -0.013439835917897896 0 0.0011682949329806232 -0.014206232110685927 0 0.0033985233102221276 -0.014180714334226794 0 0.0018646410918563051 -0.013439835917897896 0 0.0015600888620686847 -0.010672727353940339 0 0.0018646410918563051 -0.013439835917897896 0 0.0011682949329806232 -0.014206232110685927 0 0.00092864037592426318 -0.012555517070559522 0 0.0023988222934099345 -0.011541612100612117 0 0.0022414863042589483 -0.011035117250562396 0 0.0019808534617955396 -0.0073739234265346185 0 0.0012243731504442735 -0.0088626111329159606 0 0.00094697241380661476 -0.0081006761159634552 0 0.0019808534617955396 -0.0073739234265346185 0 0.0012243731504442735 -0.0088626111329159606 0 0.0015600888620686847 -0.010672727353940339 0 0.0012243731504442735 -0.0088626111329159606 0 0.00094697241380661476 -0.0081006761159634552 0 0.00053853128492825349 -0.0087937343437434982 0 0.00094697241380661476 -0.0081006761159634552 0 0.00023481518261764687 -0.0080297866425081861 0 0.00075166759154981729 -0.0074692929923099536 0 0.00094697241380661476 -0.0081006761159634552 0 0.00023481518261764687 -0.0080297866425081861 0 0.00053853128492825349 -0.0087937343437434982 0 0.00023481518261764687 -0.0080297866425081861 0 0.00075166759154981729 -0.0074692929923099536 0 0.00023090266489890235 -0.007311469449035061 0 0.00075166759154981729 -0.0074692929923099536 0 0.00023090266489890235 -0.007311469449035061 0 0.00046799290230509617 -0.0066378338414059754 0 0.0011453212164862297 -0.0067087189762059744 0 0.00075166759154981729 -0.0074692929923099536 0 0.00046799290230509617 -0.0066378338414059754 0 0.0011453212164862297 -0.0067087189762059744 0 0.00075166759154981729 -0.0074692929923099536 0 0.001434988415862887 -0.0074597885790003669 0 0.0019808534617955396 -0.0073739234265346185 0 0.00094697241380661476 -0.0081006761159634552 0 0.001434988415862887 -0.0074597885790003669 0 0.0011453212164862297 -0.0067087189762059744 0 0.0020030329704870641 -0.0074323748567376568 0 0.001434988415862887 -0.0074597885790003669 0 0.00094697241380661476 -0.0081006761159634552 0 0.00075166759154981729 -0.0074692929923099536 0 0.001434988415862887 -0.0074597885790003669 0 -0.0030244645403014214 -0.017284508321804073 0 -0.001725269372134953 -0.016005081500621427 0 -0.0032977520575247447 -0.015433073009924265 0 -0.004601524912512772 -0.018519409396908122 0 -0.0030244645403014214 -0.017284508321804073 0 -0.0032977520575247447 -0.015433073009924265 0 -0.004601524912512772 -0.018519409396908122 0 -0.0030244645403014214 -0.017284508321804073 0 -0.0033798972195502055 -0.018547847256398475 0 -0.0038562544224533496 -0.019717035820278204 0 -0.0033798972195502055 -0.018547847256398475 0 -0.0028001742073679148 -0.019162724205040744 0 -0.0013832072694682891 -0.019406570011666197 0 -0.0028001742073679148 -0.019162724205040744 0 -0.0026526662855583787 -0.018111788469971801 0 -0.0033798972195502055 -0.018547847256398475 0 -0.0028001742073679148 -0.019162724205040744 0 -0.0026526662855583787 -0.018111788469971801 0 -0.0030244645403014214 -0.017284508321804073 0 -0.0033798972195502055 -0.018547847256398475 0 -0.0026526662855583787 -0.018111788469971801 0 -0.0030244645403014214 -0.017284508321804073 0 -0.0026526662855583787 -0.018111788469971801 0 -0.0015954566303549159 -0.017624318111064227 0 -0.0013832072694682891 -0.019406570011666197 0 -0.0026526662855583787 -0.018111788469971801 0 -0.0015954566303549159 -0.017624318111064227 0 -0.0013832072694682891 -0.019406570011666197 0 -0.0015954566303549159 -0.017624318111064227 0 -7.8644300988258841e-05 -0.018071180939734366 0 -0.0015954566303549159 -0.017624318111064227 0 -0.00073769422401630464 -0.01666271446526716 0 -7.8644300988258841e-05 -0.018071180939734366 0 -0.0015954566303549159 -0.017624318111064227 0 -0.00073769422401630464 -0.01666271446526716 0 -0.001725269372134953 -0.016005081500621427 0 -0.0030244645403014214 -0.017284508321804073 0 -0.0015954566303549159 -0.017624318111064227 0 -0.001725269372134953 -0.016005081500621427 0 -0.00073769422401630464 -0.01666271446526716 0 -0.001725269372134953 -0.016005081500621427 0 -0.00047686243101814141 -0.015210158673517203 0 0.00041621637297796455 -0.016692502387717779 0 0.0012219986614590385 -0.015742686142153989 0 -0.00047686243101814141 -0.015210158673517203 0 -0.00073769422401630464 -0.01666271446526716 0 0.00041621637297796455 -0.016692502387717779 0 -0.00047686243101814141 -0.015210158673517203 0 -0.00073769422401630464 -0.01666271446526716 0 0.00041621637297796455 -0.016692502387717779 0 -7.8644300988258841e-05 -0.018071180939734366 0 0.00040773828871388027 -0.019703434855703118 0 -0.0013832072694682891 -0.019406570011666197 0 -7.8644300988258841e-05 -0.018071180939734366 0 0.00040773828871388027 -0.019703434855703118 0 -7.8644300988258841e-05 -0.018071180939734366 0 0.0021890961478609034 -0.017785269639129544 0 0.00041621637297796455 -0.016692502387717779 0 -7.8644300988258841e-05 -0.018071180939734366 0 0.0021890961478609034 -0.017785269639129544 0 0.00041621637297796455 -0.016692502387717779 0 0.0021890961478609034 -0.017785269639129544 0 0.0012219986614590385 -0.015742686142153989 0 0.0024153181329927679 -0.015711418894099716 0 0.0021890961478609034 -0.017785269639129544 0 0.0012219986614590385 -0.015742686142153989 0 0.0012219986614590385 -0.015742686142153989 0 0.0011682949329806232 -0.014206232110685927 0 0.0001301589785321209 -0.013875748542314364 0 0.0024153181329927679 -0.015711418894099716 0 0.0012219986614590385 -0.015742686142153989 0 0.0011682949329806232 -0.014206232110685927 0 0.0011682949329806232 -0.014206232110685927 0 0.0001301589785321209 -0.013875748542314364 0 0.00092864037592426318 -0.012555517070559522 0 0.0001301589785321209 -0.013875748542314364 0 4.9183631800999484e-05 -0.012583813360960924 0 0.00092864037592426318 -0.012555517070559522 0 0.0001301589785321209 -0.013875748542314364 0 -0.00071682154576467583 -0.013454035912489415 0 4.9183631800999484e-05 -0.012583813360960924 0 0.0001301589785321209 -0.013875748542314364 0 -0.00047686243101814141 -0.015210158673517203 0 -0.00071682154576467583 -0.013454035912489415 0 0.0012219986614590385 -0.015742686142153989 0 0.0001301589785321209 -0.013875748542314364 0 -0.00047686243101814141 -0.015210158673517203 0 -0.00047686243101814141 -0.015210158673517203 0 -0.0015731248833645072 -0.014571894491000735 0 -0.00071682154576467583 -0.013454035912489415 0 -0.001725269372134953 -0.016005081500621427 0 -0.00047686243101814141 -0.015210158673517203 0 -0.0015731248833645072 -0.014571894491000735 0 -0.00071682154576467583 -0.013454035912489415 0 -0.0017703648047521523 -0.012970441278122222 0 -0.00044540899854059635 -0.012491523365260363 0 -0.0015731248833645072 -0.014571894491000735 0 -0.00071682154576467583 -0.013454035912489415 0 -0.0017703648047521523 -0.012970441278122222 0 -0.00088383528887940068 -0.014323235003918154 0 -0.0019796703010724146 -0.014657965540956851 0 -0.0021358307930345287 -0.016409771165885476 0 -0.0014381436899346752 -0.014186403475098129 0 -0.0025879256204056353 -0.016127663206170654 0 -0.0015731248833645072 -0.014571894491000735 0 -0.0017703648047521523 -0.012970441278122222 0 -0.0032977520575247447 -0.015433073009924265 0 -0.0027876324553800427 -0.015754674456135917 0 -0.0019796703010724146 -0.014657965540956851 0 -0.0021358307930345287 -0.016409771165885476 0 -0.001725269372134953 -0.016005081500621427 0 -0.0015731248833645072 -0.014571894491000735 0 -0.0032977520575247447 -0.015433073009924265 0 -0.00042227032980553757 -0.018681761572006135 0 0.00028173718957297104 -0.018474290383857079 0 -0.00017044756092521722 -0.017122635880416705 0 -0.00020678743264750926 -0.019214800326021658 0 -9.7074091144353823e-05 -0.018215181613527129 0 -0.00010613163227023659 -0.016962601233220201 0 2.7020906468878287e-05 -0.015963806742267904 0 -0.00042227032980553757 -0.018681761572006135 0 2.3837626162474839e-05 -0.020336629744221405 0 0.00028173718957297104 -0.018474290383857079 0 -0.00088383528887940068 -0.014323235003918154 0 -0.0019796703010724146 -0.014657965540956851 0 -0.00073049518464335774 -0.013510751029934823 0 -0.00042686516286431813 -0.019110890887297147 0 -0.00010613163227023659 -0.016962601233220201 0 -0.0014381436899346752 -0.014186403475098129 0 -0.00066034537646780832 -0.013331298630583039 0 -0.0017703648047521523 -0.012970441278122222 0 -0.00044540899854059635 -0.012491523365260363 0 -1.4518679720562368e-05 -0.011979951953928708 0 -0.00088383528887940068 -0.014323235003918154 0 -0.00073049518464335774 -0.013510751029934823 0 -3.6952796830451734e-05 -0.013307963426409473 0 -0.00044540899854059635 -0.012491523365260363 0 -1.4518679720562368e-05 -0.011979951953928708 0 8.2302741552946431e-06 -0.012089270747482615 0 -0.00073049518464335774 -0.013510751029934823 0 -3.6952796830451734e-05 -0.013307963426409473 0 0.00025575628651066973 -0.013519350601629367 0 -1.4518679720562368e-05 -0.011979951953928708 0 8.2302741552946431e-06 -0.012089270747482615 0 -5.1438058011841361e-05 -0.012556720660160085 0 8.2302741552946431e-06 -0.012089270747482615 0 0.00018065021498622243 -0.012047814896403858 0 -5.1438058011841361e-05 -0.012556720660160085 0 -0.00044540899854059635 -0.012491523365260363 0 8.2302741552946431e-06 -0.012089270747482615 0 4.9183631800999484e-05 -0.012583813360960924 0 -0.00071682154576467583 -0.013454035912489415 0 -0.00044540899854059635 -0.012491523365260363 0 4.9183631800999484e-05 -0.012583813360960924 0 8.2302741552946431e-06 -0.012089270747482615 0 4.9183631800999484e-05 -0.012583813360960924 0 0.00051923960041617024 -0.011939502026828478 0 4.9183631800999484e-05 -0.012583813360960924 0 0.00092864037592426318 -0.012555517070559522 0 0.00051923960041617024 -0.011939502026828478 0 8.2302741552946431e-06 -0.012089270747482615 0 0.00051923960041617024 -0.011939502026828478 0 0.00018065021498622243 -0.012047814896403858 0 0.00051923960041617024 -0.011939502026828478 0 0.00018065021498622243 -0.012047814896403858 0 0.0015600888620686847 -0.010672727353940339 0 0.00018065021498622243 -0.012047814896403858 0 3.1970790292230563e-05 -0.012887591747468433 0 0.00035076195369698618 -0.011560893985148648 0 0.00018065021498622243 -0.012047814896403858 0 3.1970790292230563e-05 -0.012887591747468433 0 -5.1438058011841361e-05 -0.012556720660160085 0 3.1970790292230563e-05 -0.012887591747468433 0 -7.6390730867171814e-07 -0.013609336367246597 0 0.00035076195369698618 -0.011560893985148648 0 3.1970790292230563e-05 -0.012887591747468433 0 -7.6390730867171814e-07 -0.013609336367246597 0 2.0428684945294511e-05 -0.014217205908703533 0 -7.6390730867171814e-07 -0.013609336367246597 0 2.0428684945294511e-05 -0.014217205908703533 0 2.3320780680302409e-06 -0.015501001350733101 0 3.1970790292230563e-05 -0.012887591747468433 0 2.0428684945294511e-05 -0.014217205908703533 0 -5.1438058011841361e-05 -0.012556720660160085 0 -1.4518679720562368e-05 -0.011979951953928708 0 2.0428684945294511e-05 -0.014217205908703533 0 -5.1438058011841361e-05 -0.012556720660160085 0 -0.00066034537646780832 -0.013331298630583039 0 -0.00051589257646751706 -0.013540020555554528 0 -3.6952796830451734e-05 -0.013307963426409473 0 2.0428684945294511e-05 -0.014217205908703533 0 0.00025575628651066973 -0.013519350601629367 0 0.00027279829398193242 -0.017017053862939245 0 1.3904851193542508e-06 -0.015510902469875134 0 -1.1647522215948378e-06 -0.016740212724263345 0 2.0428684945294511e-05 -0.014217205908703533 0 0.00025575628651066973 -0.013519350601629367 0 2.3320780680302409e-06 -0.015501001350733101 0 2.7020906468878287e-05 -0.015963806742267904 0 1.7320425641930775e-07 -0.015506422576955278 0 1.215953066765205e-07 -0.016746979762569107 0 -9.7074091144353823e-05 -0.018215181613527129 0 -6.7206614193538673e-05 -0.019254829598209792 0 2.4134209627638438e-06 -0.016748354594880898 0 0.00060466870572678175 -0.019582696438492104 0 0.00027279829398193242 -0.017017053862939245 0 -1.1647522215948378e-06 -0.016740212724263345 0 -0.00017044756092521722 -0.017122635880416705 0 0.00028173718957297104 -0.018474290383857079 0 0.00027279829398193242 -0.017017053862939245 0 -0.00017044756092521722 -0.017122635880416705 0 0.00030587775608346333 -0.0094000807112735781 0 0.0015600888620686847 -0.010672727353940339 0 0.00030761036615425664 -0.01037608138802784 0 0.00030587775608346333 -0.0094000807112735781 0 -1.2717272070730285e-05 -0.0086588291408247128 0 -9.8264557413476877e-06 -0.0083926843301818706 0 0.00030587775608346333 -0.0094000807112735781 0 0.00053853128492825349 -0.0087937343437434982 0 -9.8264557413476877e-06 -0.0083926843301818706 0 0.00023481518261764687 -0.0080297866425081861 0 0.00053853128492825349 -0.0087937343437434982 0 -9.8264557413476877e-06 -0.0083926843301818706 0 0.00030587775608346333 -0.0094000807112735781 0 0.00053853128492825349 -0.0087937343437434982 0 0.0015600888620686847 -0.010672727353940339 0 0.0012243731504442735 -0.0088626111329159606 0 0.00053853128492825349 -0.0087937343437434982 0 0.0015600888620686847 -0.010672727353940339 0 0.0018646410918563051 -0.013439835917897896 0 0.00092864037592426318 -0.012555517070559522 0 0.0015600888620686847 -0.010672727353940339 0 0.00092864037592426318 -0.012555517070559522 0 0.00051923960041617024 -0.011939502026828478 0 0.0015600888620686847 -0.010672727353940339 0 0.00018065021498622243 -0.012047814896403858 0 0.0015600888620686847 -0.010672727353940339 0 0.00035076195369698618 -0.011560893985148648 0 0.0015600888620686847 -0.010672727353940339 0 0.00035076195369698618 -0.011560893985148648 0 0.00030761036615425664 -0.01037608138802784 0 -7.6390730867171814e-07 -0.013609336367246597 0 0.00035076195369698618 -0.011560893985148648 0 5.7360339347401428e-07 -0.011712639111267952 0 0.00035076195369698618 -0.011560893985148648 0 5.7360339347401428e-07 -0.011712639111267952 0 0.00030761036615425664 -0.01037608138802784 0 5.7360339347401428e-07 -0.011712639111267952 0 0.00030761036615425664 -0.01037608138802784 0 7.2241034121117687e-08 -0.0098169898320516185 0 0.00030587775608346333 -0.0094000807112735781 0 0.00030761036615425664 -0.01037608138802784 0 -1.2717272070730285e-05 -0.0086588291408247128 0 7.2241034121117687e-08 -0.0098169898320516185 0 -2.0381908731079008e-07 -0.0079207665668532684 0 -1.2717272070730285e-05 -0.0086588291408247128 0 0.00030761036615425664 -0.01037608138802784 0 7.2241034121117687e-08 -0.0098169898320516185 0 -1.2717272070730285e-05 -0.0086588291408247128 0 -2.0381908731079008e-07 -0.0079207665668532684 0 -0.00015630027779249921 -0.0072026043258996506 0 -1.2717272070730285e-05 -0.0086588291408247128 0 -2.0381908731079008e-07 -0.0079207665668532684 0 -0.00015630027779249921 -0.0072026043258996506 0 -4.6173544252342908e-07 -0.0060249284686456029 0 -0.00015630027779249921 -0.0072026043258996506 0 -0.00041824175094498954 -0.0066589678187447708 0 -4.7523100254419138e-05 -0.0076482986853766968 0 -0.00015630027779249921 -0.0072026043258996506 0 -1.2717272070730285e-05 -0.0086588291408247128 0 -4.7523100254419138e-05 -0.0076482986853766968 0 -4.6173544252342908e-07 -0.0060249284686456029 0 -0.00028572395317877797 -0.0057679879766042181 0 -6.1501902436631667e-07 -0.0041284360228995573 0 -0.00015630027779249921 -0.0072026043258996506 0 -4.6173544252342908e-07 -0.0060249284686456029 0 -0.00028572395317877797 -0.0057679879766042181 0 -0.00015630027779249921 -0.0072026043258996506 0 -0.00028572395317877797 -0.0057679879766042181 0 -0.00041824175094498954 -0.0066589678187447708 0 -0.00028572395317877797 -0.0057679879766042181 0 -0.0003850940590609967 -0.0062638565139184373 0 -0.00041824175094498954 -0.0066589678187447708 0 -0.00072163096688229776 -0.0043276786362148887 0 -0.0007389786894945172 -0.0045299687898362178 0 -0.0003850940590609967 -0.0062638565139184373 0 -0.00041824175094498954 -0.0066589678187447708 0 -0.00082824175500256943 -0.0054737533381333664 0 -0.00041824175094498954 -0.0066589678187447708 0 -0.00082824175500256943 -0.0054737533381333664 0 -4.7523100254419138e-05 -0.0076482986853766968 0 -0.00082824175500256943 -0.0054737533381333664 0 -4.7523100254419138e-05 -0.0076482986853766968 0 -0.00044285996687881034 -0.0050862746158345717 0 -0.00082824175500256943 -0.0054737533381333664 0 -0.00044285996687881034 -0.0050862746158345717 0 -0.00092187122660281127 -0.0049289111191474526 0 -0.00082824175500256943 -0.0054737533381333664 0 -0.00092187122660281127 -0.0049289111191474526 0 -0.0009826142633856626 -0.0046846035801789811 0 -0.0011794207025032405 -0.0039659419552136501 0 -0.00082824175500256943 -0.0054737533381333664 0 -0.0009826142633856626 -0.0046846035801789811 0 -1.2717272070730285e-05 -0.0086588291408247128 0 -4.7523100254419138e-05 -0.0076482986853766968 0 -9.8264557413476877e-06 -0.0083926843301818706 0 -0.00048358778524361666 -0.0066850612523389761 0 -0.00074584310552612749 -0.0062179342313300546 0 -4.7523100254419138e-05 -0.0076482986853766968 0 -0.00022827803073705255 -0.0079736560874994113 0 -0.00051359408007566943 -0.0078366534423415461 0 -4.7523100254419138e-05 -0.0076482986853766968 0 -0.00051359408007566943 -0.0078366534423415461 0 -0.00085734541828420201 -0.0079160247220869812 0 0.00023481518261764687 -0.0080297866425081861 0 -9.8264557413476877e-06 -0.0083926843301818706 0 -0.00022827803073705255 -0.0079736560874994113 0 -4.7523100254419138e-05 -0.0076482986853766968 0 -9.8264557413476877e-06 -0.0083926843301818706 0 -0.00022827803073705255 -0.0079736560874994113 0 0.00023481518261764687 -0.0080297866425081861 0 -0.00022827803073705255 -0.0079736560874994113 0 -0.0001709955102007476 -0.0075497906251979609 0 0.00023481518261764687 -0.0080297866425081861 0 -0.0001709955102007476 -0.0075497906251979609 0 0.00023090266489890235 -0.007311469449035061 0 -0.0001709955102007476 -0.0075497906251979609 0 0.00023090266489890235 -0.007311469449035061 0 -0.00014593990628629586 -0.0068058576675268361 0 0.00023090266489890235 -0.007311469449035061 0 -0.00014593990628629586 -0.0068058576675268361 0 0.00046799290230509617 -0.0066378338414059754 0 -0.00014593990628629586 -0.0068058576675268361 0 -0.00063782651639947112 -0.0071046923678884681 0 -0.00062374264714342017 -0.0060920943984210801 0 -0.00063782651639947112 -0.0071046923678884681 0 -0.0011815660801243228 -0.006687372113422089 0 -0.00062374264714342017 -0.0060920943984210801 0 -0.0001709955102007476 -0.0075497906251979609 0 -0.00014593990628629586 -0.0068058576675268361 0 -0.00063782651639947112 -0.0071046923678884681 0 -0.00063782651639947112 -0.0071046923678884681 0 -0.00051359408007566943 -0.0078366534423415461 0 -0.0010559570034464896 -0.0072656518432541086 0 -0.0001709955102007476 -0.0075497906251979609 0 -0.00063782651639947112 -0.0071046923678884681 0 -0.00051359408007566943 -0.0078366534423415461 0 -0.00022827803073705255 -0.0079736560874994113 0 -0.0001709955102007476 -0.0075497906251979609 0 -0.00051359408007566943 -0.0078366534423415461 0 -0.00085734541828420201 -0.0079160247220869812 0 -0.0010559570034464896 -0.0072656518432541086 0 -0.0021667365357641013 -0.0067654208264423116 0 -0.00074584310552612749 -0.0062179342313300546 0 -0.001099861527592369 -0.0054033764703404069 0 -0.00051359408007566943 -0.0078366534423415461 0 -0.00085734541828420201 -0.0079160247220869812 0 -0.0010559570034464896 -0.0072656518432541086 0 -0.00092187122660281127 -0.0049289111191474526 0 -0.00091537230767611616 -0.0045757123332607818 0 -0.00096273338293061887 -0.0048315443331979173 0 -0.00044285996687881034 -0.0050862746158345717 0 -0.00092187122660281127 -0.0049289111191474526 0 -0.00091537230767611616 -0.0045757123332607818 0 -0.0010559570034464896 -0.0072656518432541086 0 -0.0021667365357641013 -0.0067654208264423116 0 -0.0011815660801243228 -0.006687372113422089 0 -0.0021667365357641013 -0.0067654208264423116 0 -0.0011815660801243228 -0.006687372113422089 0 -0.0015467272109094608 -0.0059710946876153359 0 -0.00063782651639947112 -0.0071046923678884681 0 -0.0010559570034464896 -0.0072656518432541086 0 -0.0011815660801243228 -0.006687372113422089 0 -0.0011815660801243228 -0.006687372113422089 0 -0.0015467272109094608 -0.0059710946876153359 0 -0.00062374264714342017 -0.0060920943984210801 0 -0.0015467272109094608 -0.0059710946876153359 0 -0.00070133215909421094 -0.0048633329736267336 0 -0.00062374264714342017 -0.0060920943984210801 0 -0.0010694145979659839 -0.0053325230123962676 0 -0.00095070182672221486 -0.0052035290582788307 0 -0.0013304235065517036 -0.0050841844587119628 0 -0.0013171684043963886 -0.004777214193706923 0 -0.0014840354850146314 -0.0047042055265347459 0 -0.001099861527592369 -0.0054033764703404069 0 -0.0012603561421729761 -0.0051587073770601333 0 -0.001099861527592369 -0.0054033764703404069 0 -0.0010694145979659839 -0.0053325230123962676 0 -0.0013304235065517036 -0.0050841844587119628 0 -0.001020053501676982 -0.004877507683338847 0 -0.0013171684043963886 -0.004777214193706923 0 -0.001020053501676982 -0.004877507683338847 0 -0.0013171684043963886 -0.004777214193706923 0 -0.001203013119657827 -0.0044891199703408595 0 -0.0013171684043963886 -0.004777214193706923 0 -0.0017808517647200143 -0.0045177726823258223 0 -0.0014840354850146314 -0.0047042055265347459 0 -0.0013171684043963886 -0.004777214193706923 0 -0.001203013119657827 -0.0044891199703408595 0 -0.0017808517647200143 -0.0045177726823258223 0 -0.001203013119657827 -0.0044891199703408595 0 -0.0013952003227045828 -0.003885072922821052 0 -0.00098729003120968831 -0.0040281370069025803 0 -0.0019404405208210758 -0.003617112212580605 0 -0.0013952003227045828 -0.003885072922821052 0 -0.0017808517647200143 -0.0045177726823258223 0 -0.001203013119657827 -0.0044891199703408595 0 -0.0013952003227045828 -0.003885072922821052 0 -0.0017808517647200143 -0.0045177726823258223 0 -0.001020053501676982 -0.004877507683338847 0 -0.00089191799279403816 -0.0045310906449740462 0 -0.00070133215909421094 -0.0048633329736267336 0 -0.001020053501676982 -0.004877507683338847 0 -0.001203013119657827 -0.0044891199703408595 0 -0.00089191799279403816 -0.0045310906449740462 0 -0.00046402747855213167 -0.0039563211510846427 0 -0.00089191799279403816 -0.0045310906449740462 0 -0.00070133215909421094 -0.0048633329736267336 0 -0.001203013119657827 -0.0044891199703408595 0 -0.00089191799279403816 -0.0045310906449740462 0 -0.00098729003120968831 -0.0040281370069025803 0 -0.00046402747855213167 -0.0039563211510846427 0 -0.00089191799279403816 -0.0045310906449740462 0 -0.00098729003120968831 -0.0040281370069025803 0 -0.00072748225507956001 -0.0031709988458855109 0 -6.2576481409126571e-05 -0.0036064862082168586 0 -0.00046402747855213167 -0.0039563211510846427 0 -0.00070133215909421094 -0.0048633329736267336 0 -0.00013419062781074221 -0.0051328805654135912 0 -0.00046402747855213167 -0.0039563211510846427 0 -0.00013419062781074221 -0.0051328805654135912 0 0.00047321143583373793 -0.004565984879717315 0 0.00066911416461768087 -0.0057804374711778652 0 -0.00013419062781074221 -0.0051328805654135912 0 0.00047321143583373793 -0.004565984879717315 0 0.00066911416461768087 -0.0057804374711778652 0 -0.00013419062781074221 -0.0051328805654135912 0 4.8606269267413273e-05 -0.0060272539422187984 0 0.00066911416461768087 -0.0057804374711778652 0 0.00046799290230509617 -0.0066378338414059754 0 4.8606269267413273e-05 -0.0060272539422187984 0 -0.00014593990628629586 -0.0068058576675268361 0 0.00046799290230509617 -0.0066378338414059754 0 4.8606269267413273e-05 -0.0060272539422187984 0 -0.00014593990628629586 -0.0068058576675268361 0 4.8606269267413273e-05 -0.0060272539422187984 0 -0.00062374264714342017 -0.0060920943984210801 0 -0.00070133215909421094 -0.0048633329736267336 0 -0.00013419062781074221 -0.0051328805654135912 0 -0.00062374264714342017 -0.0060920943984210801 0 -0.00013419062781074221 -0.0051328805654135912 0 4.8606269267413273e-05 -0.0060272539422187984 0 -0.00062374264714342017 -0.0060920943984210801 0 -0.00057681382004958132 -0.0048801654584551095 0 -0.00051054020747796447 -0.0046219311610935284 0 -0.0002420332898887458 -0.0048114410770526061 0 -0.00057681382004958132 -0.0048801654584551095 0 -0.00051054020747796447 -0.0046219311610935284 0 -0.00076492036427856737 -0.0047021946773626944 0 -0.00051054020747796447 -0.0046219311610935284 0 -0.00076492036427856737 -0.0047021946773626944 0 -0.00080414595930755389 -0.004540265536448638 0 -0.00051054020747796447 -0.0046219311610935284 0 -0.0002420332898887458 -0.0048114410770526061 0 -0.00022010114966987914 -0.0045577561007842035 0 5.9321091363108819e-06 -0.0047034206566975234 0 -0.0002420332898887458 -0.0048114410770526061 0 -0.00022010114966987914 -0.0045577561007842035 0 5.9321091363108819e-06 -0.0047034206566975234 0 3.8836947448105897e-05 -0.0044827293194505506 0 0.0002343956626168321 -0.0046086918364785087 0 5.9321091363108819e-06 -0.0047034206566975234 0 3.8836947448105897e-05 -0.0044827293194505506 0 -0.00022010114966987914 -0.0045577561007842035 0 5.9321091363108819e-06 -0.0047034206566975234 0 1.4704864122376375e-05 -0.0049503591545639819 0 0.00020946928652636375 -0.0048324191351903113 0 5.9321091363108819e-06 -0.0047034206566975234 0 -0.0002420332898887458 -0.0048114410770526061 0 1.4704864122376375e-05 -0.0049503591545639819 0 -0.0029892407275284752 -0.0013299630249923875 0 -0.0025105347942477852 -0.00046157710681255708 0 -0.00021196251578200161 -0.0052414067810110758 0 1.4704864122376375e-05 -0.0049503591545639819 0 0.00029326927750503157 -0.0051199989844319949 0 -0.0002420332898887458 -0.0048114410770526061 0 -0.00021196251578200161 -0.0052414067810110758 0 1.4704864122376375e-05 -0.0049503591545639819 0 -0.00057681382004958132 -0.0048801654584551095 0 -0.00021196251578200161 -0.0052414067810110758 0 -0.00090492783970460959 -0.005157346543602657 0 -0.0029892407275284752 -0.0013299630249923875 0 -0.0023437450032480884 -0.0027421191321168078 0 -0.0036408775104456903 -0.0035316072817573514 0 -0.0060395482288887782 -0.0041386218673620584 0 -0.0039824886924145616 -0.0043368866102591165 0 -0.00057681382004958132 -0.0048801654584551095 0 -0.0002420332898887458 -0.0048114410770526061 0 -0.00021196251578200161 -0.0052414067810110758 0 -0.0036408775104456903 -0.0035316072817573514 0 -0.0039824886924145616 -0.0043368866102591165 0 -0.0017808517647200143 -0.0045177726823258223 0 -0.00057681382004958132 -0.0048801654584551095 0 -0.00090492783970460959 -0.005157346543602657 0 -0.00088712385813733633 -0.0048385660900013552 0 -0.00090492783970460959 -0.005157346543602657 0 -0.0011865157838487352 -0.0048169386302987522 0 -0.00088712385813733633 -0.0048385660900013552 0 -0.0011865157838487352 -0.0048169386302987522 0 -0.0017808517647200143 -0.0045177726823258223 0 -0.0013875051066014144 -0.0046961836102272581 0 -0.0019404405208210758 -0.003617112212580605 0 -0.0036408775104456903 -0.0035316072817573514 0 -0.0017808517647200143 -0.0045177726823258223 0 -0.00090492783970460959 -0.005157346543602657 0 -0.0011865157838487352 -0.0048169386302987522 0 -0.0017808517647200143 -0.0045177726823258223 0 -0.0023437450032480884 -0.0027421191321168078 0 -0.0020068997087163061 -0.0031383525103724089 0 -0.0017808517647200143 -0.0045177726823258223 0 -0.0014840354850146314 -0.0047042055265347459 0 -0.0013875051066014144 -0.0046961836102272581 0 -0.0015413675909893821 -0.0044371118996660297 0 -0.0014840354850146314 -0.0047042055265347459 0 -0.0011620663065639047 -0.0044857303979752372 0 -0.0014840354850146314 -0.0047042055265347459 0 -0.0013875051066014144 -0.0046961836102272581 0 -0.0011016190428102238 -0.004679795975294292 0 -0.0014840354850146314 -0.0047042055265347459 0 -0.0011016190428102238 -0.004679795975294292 0 -0.0011620663065639047 -0.0044857303979752372 0 -0.00088712385813733633 -0.0048385660900013552 0 -0.00076492036427856737 -0.0047021946773626944 0 -0.0011016190428102238 -0.004679795975294292 0 -0.00057681382004958132 -0.0048801654584551095 0 -0.00088712385813733633 -0.0048385660900013552 0 -0.00076492036427856737 -0.0047021946773626944 0 -0.0011865157838487352 -0.0048169386302987522 0 -0.00088712385813733633 -0.0048385660900013552 0 -0.0011016190428102238 -0.004679795975294292 0 -0.0011865157838487352 -0.0048169386302987522 0 -0.0013875051066014144 -0.0046961836102272581 0 -0.0011016190428102238 -0.004679795975294292 0 -0.0011016190428102238 -0.004679795975294292 0 -0.00080414595930755389 -0.004540265536448638 0 -0.0011620663065639047 -0.0044857303979752372 0 -0.00076492036427856737 -0.0047021946773626944 0 -0.0011016190428102238 -0.004679795975294292 0 -0.00080414595930755389 -0.004540265536448638 0 -0.00080414595930755389 -0.004540265536448638 0 -0.0008661164952694253 -0.0043706147923241066 0 -0.00045781295509095125 -0.0044018890597065929 0 -0.0008661164952694253 -0.0043706147923241066 0 -0.00061418279118008868 -0.004236004246606708 0 -0.00045781295509095125 -0.0044018890597065929 0 -0.00080414595930755389 -0.004540265536448638 0 -0.0008661164952694253 -0.0043706147923241066 0 -0.0011620663065639047 -0.0044857303979752372 0 -0.0015413675909893821 -0.0044371118996660297 0 -0.0011620663065639047 -0.0044857303979752372 0 -0.0011102907303887576 -0.0041985316555189977 0 -0.0008661164952694253 -0.0043706147923241066 0 -0.0011620663065639047 -0.0044857303979752372 0 -0.0011102907303887576 -0.0041985316555189977 0 -0.001099861527592369 -0.0054033764703404069 0 -0.00089690369186785717 -0.0049066539694019333 0 -0.00092187122660281127 -0.0049289111191474526 0 -0.00096273338293061887 -0.0048315443331979173 0 -0.0009826142633856626 -0.0046846035801789811 0 -0.0008661164952694253 -0.0043706147923241066 0 -0.0011102907303887576 -0.0041985316555189977 0 -0.00061418279118008868 -0.004236004246606708 0 -0.0011102907303887576 -0.0041985316555189977 0 -0.00061418279118008868 -0.004236004246606708 0 -0.0006362507224037425 -0.0042014954136020115 0 -0.00089690369186785717 -0.0049066539694019333 0 -0.000811364460198412 -0.0047436926660776573 0 -0.00061418279118008868 -0.004236004246606708 0 -0.00036738503569706674 -0.0041133758100085514 0 -0.0006362507224037425 -0.0042014954136020115 0 -0.00061418279118008868 -0.004236004246606708 0 -0.00045781295509095125 -0.0044018890597065929 0 -0.0001738778286746614 -0.0042218288306822708 0 -0.00036738503569706674 -0.0041133758100085514 0 -0.0001738778286746614 -0.0042218288306822708 0 -0.0001066472639810125 -0.003885565932658716 0 -0.00061418279118008868 -0.004236004246606708 0 -0.00036738503569706674 -0.0041133758100085514 0 -0.0001738778286746614 -0.0042218288306822708 0 -0.00045781295509095125 -0.0044018890597065929 0 -0.00013651362941275903 -0.0043827278194450555 0 -0.0001738778286746614 -0.0042218288306822708 0 -0.00045781295509095125 -0.0044018890597065929 0 -0.00022010114966987914 -0.0045577561007842035 0 -0.00013651362941275903 -0.0043827278194450555 0 -0.00051054020747796447 -0.0046219311610935284 0 -0.00045781295509095125 -0.0044018890597065929 0 -0.00022010114966987914 -0.0045577561007842035 0 -0.00051054020747796447 -0.0046219311610935284 0 -0.00080414595930755389 -0.004540265536448638 0 -0.00045781295509095125 -0.0044018890597065929 0 3.8836947448105897e-05 -0.0044827293194505506 0 -0.00022010114966987914 -0.0045577561007842035 0 -0.00013651362941275903 -0.0043827278194450555 0 -0.00013651362941275903 -0.0043827278194450555 0 0.00012921530600745531 -0.0042580740144306925 0 -0.0001738778286746614 -0.0042218288306822708 0 3.8836947448105897e-05 -0.0044827293194505506 0 -0.00013651362941275903 -0.0043827278194450555 0 0.00012921530600745531 -0.0042580740144306925 0 0.00012921530600745531 -0.0042580740144306925 0 -0.0001738778286746614 -0.0042218288306822708 0 0.00028962330132535689 -0.0039621408535757989 0 -0.0001738778286746614 -0.0042218288306822708 0 -0.0001066472639810125 -0.003885565932658716 0 0.00028962330132535689 -0.0039621408535757989 0 0.00023680691461182629 -0.0037036655420331641 0 -0.0001066472639810125 -0.003885565932658716 0 0.00028962330132535689 -0.0039621408535757989 0 0.00023680691461182629 -0.0037036655420331641 0 -0.0001066472639810125 -0.003885565932658716 0 -8.994117612685942e-05 -0.0035656172808375304 0 -0.00036738503569706674 -0.0041133758100085514 0 -0.00035886958200941451 -0.0038478899602119613 0 -0.0001066472639810125 -0.003885565932658716 0 -0.00036738503569706674 -0.0041133758100085514 0 -0.00035886958200941451 -0.0038478899602119613 0 -0.0006362507224037425 -0.0042014954136020115 0 -0.00035886958200941451 -0.0038478899602119613 0 -0.0001066472639810125 -0.003885565932658716 0 -8.994117612685942e-05 -0.0035656172808375304 0 -0.00035886958200941451 -0.0038478899602119613 0 -8.994117612685942e-05 -0.0035656172808375304 0 -0.00028043407825190358 -0.0033625339450742216 0 -8.994117612685942e-05 -0.0035656172808375304 0 -0.00028043407825190358 -0.0033625339450742216 0 1.7270201916222209e-05 -0.0030609217214911024 0 -8.994117612685942e-05 -0.0035656172808375304 0 0.00023471956597480211 -0.0033827053226366953 0 1.7270201916222209e-05 -0.0030609217214911024 0 0.00023471956597480211 -0.0033827053226366953 0 0.00034982194519590218 -0.003007759005788078 0 0.00055459164200772769 -0.0036026465190506503 0 0.00023471956597480211 -0.0033827053226366953 0 0.00034982194519590218 -0.003007759005788078 0 1.7270201916222209e-05 -0.0030609217214911024 0 0.00023680691461182629 -0.0037036655420331641 0 0.00023471956597480211 -0.0033827053226366953 0 0.00055459164200772769 -0.0036026465190506503 0 0.00023680691461182629 -0.0037036655420331641 0 -8.994117612685942e-05 -0.0035656172808375304 0 0.00023471956597480211 -0.0033827053226366953 0 -0.00096273338293061887 -0.0048315443331979173 0 -0.0009826142633856626 -0.0046846035801789811 0 -0.0006362507224037425 -0.0042014954136020115 0 -0.0009826142633856626 -0.0046846035801789811 0 -0.0006362507224037425 -0.0042014954136020115 0 -0.00066837333258243077 -0.0037574010561947009 0 -0.00035886958200941451 -0.0038478899602119613 0 -0.0006362507224037425 -0.0042014954136020115 0 -0.00066837333258243077 -0.0037574010561947009 0 -0.00035886958200941451 -0.0038478899602119613 0 -0.00028043407825190358 -0.0033625339450742216 0 -0.00066837333258243077 -0.0037574010561947009 0 -0.00028043407825190358 -0.0033625339450742216 0 -0.00066837333258243077 -0.0037574010561947009 0 -0.00043411552423419831 -0.0029411362553096211 0 -0.0011794207025032405 -0.0039659419552136501 0 -0.0009826142633856626 -0.0046846035801789811 0 -0.00066837333258243077 -0.0037574010561947009 0 -0.00028572395317877797 -0.0057679879766042181 0 -0.0003850940590609967 -0.0062638565139184373 0 0.00027698791989430458 -0.004909704221670641 0 -0.0011794207025032405 -0.0039659419552136501 0 -0.00066837333258243077 -0.0037574010561947009 0 -0.00081259158236828889 -0.0028415938609293642 0 -0.00072163096688229776 -0.0043276786362148887 0 -0.0005394839565496432 -0.0036062350736200265 0 -0.00066837333258243077 -0.0037574010561947009 0 -0.00081259158236828889 -0.0028415938609293642 0 -0.00043411552423419831 -0.0029411362553096211 0 -0.0005394839565496432 -0.0036062350736200265 0 -4.943092200730106e-07 -0.0022339973444840187 0 0.00027698791989430458 -0.004909704221670641 0 1.7629811126070276e-06 -0.0022342521258371332 0 -6.1501902436631667e-07 -0.0041284360228995573 0 -0.00081259158236828889 -0.0028415938609293642 0 -0.00043411552423419831 -0.0029411362553096211 0 -2.9744631730682537e-06 -0.0022284157900486004 0 -0.00028572395317877797 -0.0057679879766042181 0 0.00027698791989430458 -0.004909704221670641 0 -6.1501902436631667e-07 -0.0041284360228995573 0 0.00061156179310746094 -0.0026357844848310334 0 0.00034982194519590218 -0.003007759005788078 0 0.00055459164200772769 -0.0036026465190506503 0 7.717320616603749e-05 -0.0025716650225686838 0 0.00050145684807597593 -0.0026274261280728899 0 0.00034982194519590218 -0.003007759005788078 0 0.00050145684807597593 -0.0026274261280728899 0 0.00088024957776559572 -0.00255981290510736 0 -6.4234966855835867e-05 -0.0018788794462659187 0 7.717320616603749e-05 -0.0025716650225686838 0 0.00050145684807597593 -0.0026274261280728899 0 -6.4234966855835867e-05 -0.0018788794462659187 0 0.00050145684807597593 -0.0026274261280728899 0 0.00061156179310746094 -0.0026357844848310334 0 0.00034982194519590218 -0.003007759005788078 0 -0.00033692234698904256 0.00075800282502339555 0 -0.0003478787265682798 0.00078201091015976903 0 7.717320616603749e-05 -0.0025716650225686838 0 0.00034982194519590218 -0.003007759005788078 0 1.7270201916222209e-05 -0.0030609217214911024 0 -0.00028043407825190358 -0.0033625339450742216 0 1.7270201916222209e-05 -0.0030609217214911024 0 -0.00018863547125856476 -0.0025814563438097599 0 -0.00028043407825190358 -0.0033625339450742216 0 -0.00043411552423419831 -0.0029411362553096211 0 -0.00018863547125856476 -0.0025814563438097599 0 7.717320616603749e-05 -0.0025716650225686838 0 1.7270201916222209e-05 -0.0030609217214911024 0 -0.00018863547125856476 -0.0025814563438097599 0 7.717320616603749e-05 -0.0025716650225686838 0 -0.00018863547125856476 -0.0025814563438097599 0 -6.4234966855835867e-05 -0.0018788794462659187 0 -2.9744631730682537e-06 -0.0022284157900486004 0 2.652964344008946e-06 -0.00067611529517056933 0 -6.4234966855835867e-05 -0.0018788794462659187 0 -0.00043411552423419831 -0.0029411362553096211 0 -2.9744631730682537e-06 -0.0022284157900486004 0 -0.00018863547125856476 -0.0025814563438097599 0 -2.9744631730682537e-06 -0.0022284157900486004 0 -0.00018863547125856476 -0.0025814563438097599 0 -6.4234966855835867e-05 -0.0018788794462659187 0 0.00088024957776559572 -0.00255981290510736 0 2.652964344008946e-06 -0.00067611529517056933 0 -6.4234966855835867e-05 -0.0018788794462659187 0 -0.0003478787265682798 0.00078201091015976903 0 -3.002615510139349e-08 -0.00067018424757012542 0 2.946951487784099e-05 0.00052572631203577776 0 8.7073681529900402e-07 -0.00066897007345855994 0 -6.195850659342442e-07 0.0010870199424534591 0 2.946951487784099e-05 0.00052572631203577776 0 -6.195850659342442e-07 0.0010870199424534591 0 -4.5231558335992011e-05 0.0015463997607453753 0 -0.0003478787265682798 0.00078201091015976903 0 -0.00092743164106356849 0.0023867947484323021 0 -0.0029473325429122494 0.0048917036758430368 0 -0.0020240135819313545 0.0044330611126353232 0 -0.0025627197082067278 0.0038834778212848381 0 -0.0029473325429122494 0.0048917036758430368 0 -0.0020240135819313545 0.0044330611126353232 0 -0.0019109168638577459 0.0051119299204652321 0 -0.0020240135819313545 0.0044330611126353232 0 -0.0019109168638577459 0.0051119299204652321 0 -0.0013372214853744928 0.0045910023695768911 0 -6.195850659342442e-07 0.0010870199424534591 0 -4.5231558335992011e-05 0.0015463997607453753 0 8.8122035987853929e-08 0.002846811454845759 0 -0.0019109168638577459 0.0051119299204652321 0 -0.00090676445123577391 0.0053276316698041932 0 -0.00096935157971186924 0.0048749141758134551 0 -0.00092743164106356849 0.0023867947484323021 0 -0.00073435814021313391 0.0034484595689756809 0 -4.5231558335992011e-05 0.0015463997607453753 0 8.8122035987853929e-08 0.002846811454845759 0 2.4378541730522372e-05 0.0034076220050174742 0 8.8122035987853929e-08 0.002846811454845759 0 2.4378541730522372e-05 0.0034076220050174742 0 4.7424549495142117e-08 0.0046067206261896235 0 -0.00090676445123577391 0.0053276316698041932 0 -0.00054960463785656648 0.0050251883887801035 0 -0.00096935157971186924 0.0048749141758134551 0 -0.00096935157971186924 0.0048749141758134551 0 -0.00060322928932421015 0.0045275293982453965 0 -0.0013372214853744928 0.0045910023695768911 0 -2.3547283950690258e-05 0.0044152490714906801 0 -0.00052668263681889492 0.0044837141534914355 0 -0.00054960463785656648 0.0050251883887801035 0 -0.00096935157971186924 0.0048749141758134551 0 -0.00060322928932421015 0.0045275293982453965 0 -0.0019109168638577459 0.0051119299204652321 0 -0.00096935157971186924 0.0048749141758134551 0 -0.0013372214853744928 0.0045910023695768911 0 -0.0020240135819313545 0.0044330611126353232 0 -0.0013372214853744928 0.0045910023695768911 0 -0.0013534704815224539 0.0036663111575977458 0 -0.00052566043336460728 0.0044818160908973144 0 -0.0013372214853744928 0.0045910023695768911 0 -0.0013534704815224539 0.0036663111575977458 0 -2.3547283950690258e-05 0.0044152490714906801 0 -0.00062770798689524925 0.001038152825760366 0 0.0018583318226285533 -0.0023497563673189762 0 0.0016820293097027802 -0.0034399840489481733 0 0.0011398230817213277 -0.0030978841823554562 0 0.0016820293097027802 -0.0034399840489481733 0 0.0011398230817213277 -0.0030978841823554562 0 0.001256348722925721 -0.0039858320225949605 0 -0.0020240135819313545 0.0044330611126353232 0 -0.0013534704815224539 0.0036663111575977458 0 -0.0025627197082067278 0.0038834778212848381 0 -0.00062770798689524925 0.001038152825760366 0 -0.0011929204129344085 -0.0013000071184238985 0 -0.0013534704815224539 0.0036663111575977458 0 -0.0025627197082067278 0.0038834778212848381 0 -0.0021664972923400973 0.0028541811502033995 0 -0.00092293303526747863 9.1361785908196196e-05 0 -0.0011929204129344085 -0.0013000071184238985 0 0.00023680691461182629 -0.0037036655420331641 0 0.00028962330132535689 -0.0039621408535757989 0 0.00055459164200772769 -0.0036026465190506503 0 0.00028962330132535689 -0.0039621408535757989 0 0.00055459164200772769 -0.0036026465190506503 0 0.00054870475892388902 -0.0041189046495100825 0 -0.0003478787265682798 0.00078201091015976903 0 -0.00092293303526747863 9.1361785908196196e-05 0 -0.00031928766159832974 0.008463483163036278 0 -0.0003067576820509389 0.0083816409024275521 0 -0.00026522356207820384 0.0084270919394590638 0 -0.0003067576820509389 0.0083816409024275521 0 -0.00026522356207820384 0.0084270919394590638 0 -0.00021088808372652634 0.0081553744132222706 0 -0.00026522356207820384 0.0084270919394590638 0 -0.00018399099764814035 0.008163789949182064 0 -0.00021088808372652634 0.0081553744132222706 0 -9.6981462053802485e-07 0.0078550008385692895 0 -0.00018399099764814035 0.008163789949182064 0 -5.2659113551550096e-07 0.0093452401479098921 0 -0.00026522356207820384 0.0084270919394590638 0 -0.00018399099764814035 0.008163789949182064 0 -5.2659113551550096e-07 0.0093452401479098921 0 -9.6981462053802485e-07 0.0078550008385692895 0 -0.00018399099764814035 0.008163789949182064 0 -0.00010502139842063234 0.0075417037697303926 0 -0.00018399099764814035 0.008163789949182064 0 -0.00010502139842063234 0.0075417037697303926 0 -0.00021088808372652634 0.0081553744132222706 0 -9.6981462053802485e-07 0.0078550008385692895 0 -0.00010502139842063234 0.0075417037697303926 0 1.6895501329892793e-06 0.0063687272826338957 0 0.0002537292255509204 0.0081593707917707193 0 0.00040058089390217509 0.0084403606018824146 0 -0.00010748926635458665 0.0085079730894425838 0 -0.00010502139842063234 0.0075417037697303926 0 -0.00021088808372652634 0.0081553744132222706 0 0.0002537292255509204 0.0081593707917707193 0 -0.0003067576820509389 0.0083816409024275521 0 -0.00021088808372652634 0.0081553744132222706 0 -0.00010748926635458665 0.0085079730894425838 0 -0.00021088808372652634 0.0081553744132222706 0 0.0002537292255509204 0.0081593707917707193 0 -0.00010748926635458665 0.0085079730894425838 0 -0.00010502139842063234 0.0075417037697303926 0 0.0002537292255509204 0.0081593707917707193 0 0.0012203937277266183 0.0076306643784139526 0 0.0002537292255509204 0.0081593707917707193 0 0.0012203937277266183 0.0076306643784139526 0 0.00055994569565948201 0.0087362099982883894 0 0.0013008410756534588 0.0048691876455834223 0 0.0011626427651387895 0.0043453756129257608 0 1.0701638133162226e-07 0.0063647770064595545 0 -6.1513809200998223e-06 0.0055808685272570741 0 4.7424549495142117e-08 0.0046067206261896235 0 -0.00010502139842063234 0.0075417037697303926 0 1.6895501329892793e-06 0.0063687272826338957 0 0.0012203937277266183 0.0076306643784139526 0 7.8588594400511926e-07 0.006364703704143322 0 0.00027471987221148715 0.0057472518707997623 0 1.0701638133162226e-07 0.0063647770064595545 0 -6.1513809200998223e-06 0.0055808685272570741 0 -6.3585767064782374e-05 0.0050885238256127225 0 -0.00073435814021313391 0.0034484595689756809 0 -0.00051714634606547251 0.0039033264911964402 0 -0.00054960463785656648 0.0050251883887801035 0 -6.1513809200998223e-06 0.0055808685272570741 0 -6.3585767064782374e-05 0.0050885238256127225 0 -0.00090676445123577391 0.0053276316698041932 0 -0.00054960463785656648 0.0050251883887801035 0 -6.1513809200998223e-06 0.0055808685272570741 0 2.4378541730522372e-05 0.0034076220050174742 0 -6.1513809200998223e-06 0.0055808685272570741 0 4.7424549495142117e-08 0.0046067206261896235 0 -2.3547283950690258e-05 0.0044152490714906801 0 0.00027471987221148715 0.0057472518707997623 0 0.0021263966581754543 0.0085126565732410887 0 0.0012203937277266183 0.0076306643784139526 0 0.00055994569565948201 0.0087362099982883894 0 -0.00054960463785656648 0.0050251883887801035 0 -0.00060322928932421015 0.0045275293982453965 0 -6.3585767064782374e-05 0.0050885238256127225 0 -2.3547283950690258e-05 0.0044152490714906801 0 0.0011626427651387895 0.0043453756129257608 0 0.0018583318226285533 -0.0023497563673189762 0 0.0023288276696957475 -0.0033277792733179268 0 0.0027704909073666918 -0.002458617904706346 0 0.0018583318226285533 -0.0023497563673189762 0 0.0016820293097027802 -0.0034399840489481733 0 0.0023288276696957475 -0.0033277792733179268 0 -0.0011607995666056588 0.0084131286734509519 0 -0.00098119187460251516 0.0086740599335133773 0 -0.00091073335724685108 0.0084937682609781129 0 -0.0011607995666056588 0.0084131286734509519 0 -0.00091073335724685108 0.0084937682609781129 0 -0.00087876556369524044 0.0082658206207213859 0 0.00023032018430057914 0.0029624320169301466 0 0.0011626427651387895 0.0043453756129257608 0 -0.00098119187460251516 0.0086740599335133773 0 -0.00077024557977832531 0.0086249080984939601 0 -0.00091073335724685108 0.0084937682609781129 0 0.0011626427651387895 0.0043453756129257608 0 4.5809708471133689e-05 0.0055271842144219742 0 -0.00077024557977832531 0.0086249080984939601 0 -0.00091073335724685108 0.0084937682609781129 0 -0.00075611792676387511 0.0084776029308670682 0 -0.00091073335724685108 0.0084937682609781129 0 -0.00075611792676387511 0.0084776029308670682 0 -0.00087876556369524044 0.0082658206207213859 0 -0.00075611792676387511 0.0084776029308670682 0 -0.00070423909018660076 0.0092095184286382723 0 -0.00061143438905317412 0.0088661064132989076 0 -0.00075611792676387511 0.0084776029308670682 0 -0.00062723611311098269 0.0083123849446326333 0 -0.00057337634869285097 0.008613232225797688 0 -0.00075611792676387511 0.0084776029308670682 0 -0.00061143438905317412 0.0088661064132989076 0 -0.00057337634869285097 0.008613232225797688 0 -0.00075611792676387511 0.0084776029308670682 0 -0.00042616679015258389 0.0084910769812184175 0 -0.00033640866502580012 0.0084393066039121032 0 4.5809708471133689e-05 0.0055271842144219742 0 -0.00022214278001410709 0.0058785677046900272 0 -0.00077024557977832531 0.0086249080984939601 0 -0.00075611792676387511 0.0084776029308670682 0 -0.00042616679015258389 0.0084910769812184175 0 -0.00064458914751566612 0.0090387923069989544 0 -0.00055617148858489568 0.0092501888935043117 0 -0.0003067576820509389 0.0083816409024275521 0 -0.00010748926635458665 0.0085079730894425838 0 -0.00042616679015258389 0.0084910769812184175 0 -0.00031928766159832974 0.008463483163036278 0 -0.00042616679015258389 0.0084910769812184175 0 -0.00033640866502580012 0.0084393066039121032 0 -0.00031928766159832974 0.008463483163036278 0 -0.0003067576820509389 0.0083816409024275521 0 -0.00042616679015258389 0.0084910769812184175 0 -0.00075611792676387511 0.0084776029308670682 0 -0.00062723611311098269 0.0083123849446326333 0 -0.00087876556369524044 0.0082658206207213859 0 -0.00063167226671343769 0.0080213303896985947 0 -0.00062723611311098269 0.0083123849446326333 0 -0.00087876556369524044 0.0082658206207213859 0 -0.00044024639208677498 0.006284906104120986 0 -0.00063239314313625738 0.0055808343961794901 0 -0.00063167226671343769 0.0080213303896985947 0 -0.00087876556369524044 0.0082658206207213859 0 -0.00091646203296980792 0.0079554464295772641 0 -0.00087876556369524044 0.0082658206207213859 0 -0.0011032920072108503 0.0081254053548777318 0 -0.00091646203296980792 0.0079554464295772641 0 -0.0011032920072108503 0.0081254053548777318 0 -0.0012109674019423551 0.0078593469775808823 0 -0.00091646203296980792 0.0079554464295772641 0 -0.0011607995666056588 0.0084131286734509519 0 -0.00087876556369524044 0.0082658206207213859 0 -0.0011032920072108503 0.0081254053548777318 0 0.00023032018430057914 0.0029624320169301466 0 -0.00059702756734070922 0.0025169528793875465 0 0.0016820293097027802 -0.0034399840489481733 0 0.0023288276696957475 -0.0033277792733179268 0 0.0018685482347142713 -0.0041713788732618187 0 -0.0011607995666056588 0.0084131286734509519 0 -0.0011032920072108503 0.0081254053548777318 0 -0.0013540945318826145 0.0081063040682362777 0 -0.0011032920072108503 0.0081254053548777318 0 -0.0012109674019423551 0.0078593469775808823 0 -0.0013540945318826145 0.0081063040682362777 0 -0.0014159784420922177 0.0037909718134967138 0 -0.0020685163335768205 0.002860462396376592 0 -0.0016409281049054745 0.0023114678017694757 0 -0.0014159784420922177 0.0037909718134967138 0 -0.00072538533669409366 0.003041052614525256 0 -0.0016409281049054745 0.0023114678017694757 0 -0.0014159784420922177 0.0037909718134967138 0 -0.00072538533669409366 0.003041052614525256 0 -0.00036957112231017118 0.0044152592197867647 0 -0.0010890473113175445 0.0045198549010596724 0 -0.00063239314313625738 0.0055808343961794901 0 -0.00036957112231017118 0.0044152592197867647 0 -9.6811547449963046e-06 0.0039970775054165913 0 0.00022995300494186742 0.0044477887271254946 0 -0.00072538533669409366 0.003041052614525256 0 -0.00036957112231017118 0.0044152592197867647 0 -9.6811547449963046e-06 0.0039970775054165913 0 -0.00072538533669409366 0.003041052614525256 0 -9.6811547449963046e-06 0.0039970775054165913 0 -6.4290868555695217e-05 0.0033496683450467647 0 -9.6811547449963046e-06 0.0039970775054165913 0 -6.4290868555695217e-05 0.0033496683450467647 0 0.00039981160939382172 0.0039884357404745482 0 -9.6811547449963046e-06 0.0039970775054165913 0 0.00039981160939382172 0.0039884357404745482 0 0.00036285539275204094 0.0047025856680289026 0 -9.6811547449963046e-06 0.0039970775054165913 0 0.00022995300494186742 0.0044477887271254946 0 0.00036285539275204094 0.0047025856680289026 0 0.00024190893466456915 0.0045118307468590222 0 0.00022995300494186742 0.0044477887271254946 0 -5.0109352121064705e-05 0.0046628616012026943 0 0.00024190893466456915 0.0045118307468590222 0 -0.00036957112231017118 0.0044152592197867647 0 0.00022995300494186742 0.0044477887271254946 0 0.00059324158237179781 -0.004188225632448128 0 0.00080804986136921047 -0.0043413019801545631 0 0.00053924565369127813 -0.0043755378550297689 0 0.00059324158237179781 -0.004188225632448128 0 0.00053924565369127813 -0.0043755378550297689 0 0.00048099458713057798 -0.004252753950930676 0 0.00059324158237179781 -0.004188225632448128 0 0.00048099458713057798 -0.004252753950930676 0 0.00047410992293364743 -0.0041635890398455293 0 0.00059324158237179781 -0.004188225632448128 0 0.00080804986136921047 -0.0043413019801545631 0 0.0008509118214765955 -0.0038963655218728242 0 0.00080804986136921047 -0.0043413019801545631 0 0.00059057024585067847 -0.0045860461827752714 0 0.0008382453869920551 -0.0047113552433583174 0 0.00080804986136921047 -0.0043413019801545631 0 0.00053924565369127813 -0.0043755378550297689 0 0.00059057024585067847 -0.0045860461827752714 0 0.00053924565369127813 -0.0043755378550297689 0 0.00041049356458222613 -0.0045199513037517056 0 0.00059057024585067847 -0.0045860461827752714 0 0.00041049356458222613 -0.0045199513037517056 0 0.00025881536394390905 -0.0044108813208291464 0 0.00040360738843055167 -0.0043605857780247958 0 0.00053924565369127813 -0.0043755378550297689 0 0.00041049356458222613 -0.0045199513037517056 0 0.00040360738843055167 -0.0043605857780247958 0 3.8836947448105897e-05 -0.0044827293194505506 0 0.00025881536394390905 -0.0044108813208291464 0 0.0002343956626168321 -0.0046086918364785087 0 0.00041049356458222613 -0.0045199513037517056 0 0.00025881536394390905 -0.0044108813208291464 0 0.0002343956626168321 -0.0046086918364785087 0 3.8836947448105897e-05 -0.0044827293194505506 0 0.00012921530600745531 -0.0042580740144306925 0 0.00025881536394390905 -0.0044108813208291464 0 0.00012921530600745531 -0.0042580740144306925 0 0.00025881536394390905 -0.0044108813208291464 0 0.0003462541333233652 -0.0042520624401533877 0 0.00053924565369127813 -0.0043755378550297689 0 0.00040360738843055167 -0.0043605857780247958 0 0.00048099458713057798 -0.004252753950930676 0 0.00025881536394390905 -0.0044108813208291464 0 0.00040360738843055167 -0.0043605857780247958 0 0.0003462541333233652 -0.0042520624401533877 0 0.00040360738843055167 -0.0043605857780247958 0 0.0003462541333233652 -0.0042520624401533877 0 0.00048099458713057798 -0.004252753950930676 0 0.00047410992293364743 -0.0041635890398455293 0 0.00036143411246842991 -0.0041323850361378233 0 0.00054870475892388902 -0.0041189046495100825 0 0.00028962330132535689 -0.0039621408535757989 0 0.00036143411246842991 -0.0041323850361378233 0 0.00054870475892388902 -0.0041189046495100825 0 0.0003462541333233652 -0.0042520624401533877 0 0.00048099458713057798 -0.004252753950930676 0 0.00047410992293364743 -0.0041635890398455293 0 0.00012921530600745531 -0.0042580740144306925 0 0.00028962330132535689 -0.0039621408535757989 0 0.00036143411246842991 -0.0041323850361378233 0 0.0003462541333233652 -0.0042520624401533877 0 0.00047410992293364743 -0.0041635890398455293 0 0.00036143411246842991 -0.0041323850361378233 0 0.00012921530600745531 -0.0042580740144306925 0 0.0003462541333233652 -0.0042520624401533877 0 0.00036143411246842991 -0.0041323850361378233 0 0.0011398230817213277 -0.0030978841823554562 0 0.00044665930796363552 -0.0038458532090571459 0 0.0008509118214765955 -0.0038963655218728242 0 0.00059324158237179781 -0.004188225632448128 0 0.00044665930796363552 -0.0038458532090571459 0 0.0008509118214765955 -0.0038963655218728242 0 0.00059324158237179781 -0.004188225632448128 0 0.00047410992293364743 -0.0041635890398455293 0 0.00052249195112302933 -0.0041126511818509928 0 -0.0010112445557389374 -0.0017041309236795253 0 -0.0011929204129344085 -0.0013000071184238985 0 -0.0011914312041268328 -0.0013473855584495581 0 -0.0011929204129344085 -0.0013000071184238985 0 0.0011398230817213277 -0.0030978841823554562 0 0.0008509118214765955 -0.0038963655218728242 0 0.001256348722925721 -0.0039858320225949605 0 0.00080804986136921047 -0.0043413019801545631 0 0.0008509118214765955 -0.0038963655218728242 0 0.001256348722925721 -0.0039858320225949605 0 0.0016820293097027802 -0.0034399840489481733 0 0.001256348722925721 -0.0039858320225949605 0 0.0018685482347142713 -0.0041713788732618187 0 0.0018685482347142713 -0.0041713788732618187 0 0.0014096647904125819 -0.0043954233009595054 0 0.0014216707573086122 -0.0049134800990280328 0 0.001256348722925721 -0.0039858320225949605 0 0.0018685482347142713 -0.0041713788732618187 0 0.0014096647904125819 -0.0043954233009595054 0 0.00080804986136921047 -0.0043413019801545631 0 0.001256348722925721 -0.0039858320225949605 0 0.0010888305788211263 -0.004495015871894434 0 0.001256348722925721 -0.0039858320225949605 0 0.0014096647904125819 -0.0043954233009595054 0 0.0010888305788211263 -0.004495015871894434 0 0.00080804986136921047 -0.0043413019801545631 0 0.0010888305788211263 -0.004495015871894434 0 0.0008382453869920551 -0.0047113552433583174 0 0.0014096647904125819 -0.0043954233009595054 0 0.0010888305788211263 -0.004495015871894434 0 0.0014216707573086122 -0.0049134800990280328 0 0.0010888305788211263 -0.004495015871894434 0 0.0014216707573086122 -0.0049134800990280328 0 0.0008382453869920551 -0.0047113552433583174 0 -0.0018679106292103984 0.0026840829637696378 0 -0.0019941855428443835 0.00077318332966523227 0 0.0014216707573086122 -0.0049134800990280328 0 0.0008152053217798899 -0.0050250519223221709 0 0.0008382453869920551 -0.0047113552433583174 0 -0.0014159784420922177 0.0037909718134967138 0 -0.0024709540421315561 0.0031515360773189363 0 -0.0020685163335768205 0.002860462396376592 0 -0.00059702756734070922 0.0025169528793875465 0 -0.0018679106292103984 0.0026840829637696378 0 -0.0010890473113175445 0.0045198549010596724 0 -0.0018679106292103984 0.0026840829637696378 0 -0.0012109674019423551 0.0078593469775808823 0 -0.0013540945318826145 0.0081063040682362777 0 -0.0015366703547854627 0.0077607184632399739 0 -0.0018679106292103984 0.0026840829637696378 0 -0.0018756807437994552 0.002687300985480731 0 -0.0020685163335768205 0.002860462396376592 0 -0.0023418626993758906 0.0022437543994200237 0 -0.0016409281049054745 0.0023114678017694757 0 -0.0020685163335768205 0.002860462396376592 0 -0.0023418626993758906 0.0022437543994200237 0 -0.0025720984637175892 0.0028536257737656152 0 -0.0024709540421315561 0.0031515360773189363 0 -0.0020685163335768205 0.002860462396376592 0 -0.0025720984637175892 0.0028536257737656152 0 -0.0024190299556985278 0.0031590244825540222 0 -0.0025720984637175892 0.0028536257737656152 0 -0.0036667551923217738 0.0027594122679728498 0 -0.0030682912121281552 0.0024272008965503422 0 -0.0025720984637175892 0.0028536257737656152 0 -0.0036667551923217738 0.0027594122679728498 0 -0.0023418626993758906 0.0022437543994200237 0 -0.0030682912121281552 0.0024272008965503422 0 -0.0025720984637175892 0.0028536257737656152 0 -0.0023418626993758906 0.0022437543994200237 0 -0.0030682912121281552 0.0024272008965503422 0 -0.0027876937998742189 0.0016576124779608657 0 -0.0019941855428443835 0.00077318332966523227 0 -0.0025105347942477852 -0.00046157710681255708 0 -0.0030682912121281552 0.0024272008965503422 0 -0.0046433306125123405 0.0018913786848318392 0 -0.0027876937998742189 0.0016576124779608657 0 -0.0030682912121281552 0.0024272008965503422 0 -0.0036667551923217738 0.0027594122679728498 0 -0.0046433306125123405 0.0018913786848318392 0 -0.0036667551923217738 0.0027594122679728498 0 -0.0046433306125123405 0.0018913786848318392 0 -0.0050426917193100128 0.00238005141954915 0 0.0008152053217798899 -0.0050250519223221709 0 0.000456286477341581 -0.0048054490926000863 0 0.00029326927750503157 -0.0051199989844319949 0 0.0008152053217798899 -0.0050250519223221709 0 0.0008382453869920551 -0.0047113552433583174 0 0.000456286477341581 -0.0048054490926000863 0 0.00059057024585067847 -0.0045860461827752714 0 0.0008382453869920551 -0.0047113552433583174 0 0.000456286477341581 -0.0048054490926000863 0 0.00041049356458222613 -0.0045199513037517056 0 0.00059057024585067847 -0.0045860461827752714 0 0.000456286477341581 -0.0048054490926000863 0 5.9321091363108819e-06 -0.0047034206566975234 0 0.0002343956626168321 -0.0046086918364785087 0 0.00020946928652636375 -0.0048324191351903113 0 0.00041049356458222613 -0.0045199513037517056 0 0.0002343956626168321 -0.0046086918364785087 0 0.000456286477341581 -0.0048054490926000863 0 0.0002343956626168321 -0.0046086918364785087 0 0.000456286477341581 -0.0048054490926000863 0 0.00020946928652636375 -0.0048324191351903113 0 0.000456286477341581 -0.0048054490926000863 0 0.00020946928652636375 -0.0048324191351903113 0 0.00029326927750503157 -0.0051199989844319949 0 1.4704864122376375e-05 -0.0049503591545639819 0 0.00020946928652636375 -0.0048324191351903113 0 0.00029326927750503157 -0.0051199989844319949 0 -0.0029892407275284752 -0.0013299630249923875 0 -0.0034047805256107893 -9.8119941258529208e-05 0 -0.0063337530811976321 0.0020432218486602862 0 -0.0046433306125123405 0.0018913786848318392 0 -0.0050426917193100128 0.00238005141954915 0 -0.0029003601651929117 0.00043207784834618638 0 -0.00285253014585731 0.00011781847972587573 0 -0.0028709153486544008 0.00042482475246633173 0 -0.0028031046025168843 -0.00028984404238912014 0 -0.0029003601651929117 0.00043207784834618638 0 -0.00285253014585731 0.00011781847972587573 0 -0.00285253014585731 0.00011781847972587573 0 -0.0028456747136636523 0.00015224382214206928 0 -0.0028709153486544008 0.00042482475246633173 0 -0.0034047805256107893 -9.8119941258529208e-05 0 -0.0030809485460167006 0.00026233261967792122 0 -0.0029003601651929117 0.00043207784834618638 0 -0.0028615043769259904 0.00084182514091180884 0 -0.0028709153486544008 0.00042482475246633173 0 -0.0029003601651929117 0.00043207784834618638 0 -0.0028615043769259904 0.00084182514091180884 0 -0.0027876937998742189 0.0016576124779608657 0 -0.0027830055544045347 0.00055627642124414566 0 -0.0028709153486544008 0.00042482475246633173 0 -0.0028108183788740655 0.0002776097564654511 0 -0.0028615043769259904 0.00084182514091180884 0 -0.0027830055544045347 0.00055627642124414566 0 -0.0028709153486544008 0.00042482475246633173 0 -0.0028615043769259904 0.00084182514091180884 0 -0.0027830055544045347 0.00055627642124414566 0 -0.0026788903490585774 0.0010836428915841456 0 -0.0027960499992510735 2.5630402843706954e-05 0 -0.0028456747136636523 0.00015224382214206928 0 -0.0028108183788740655 0.0002776097564654511 0 -0.0028456747136636523 0.00015224382214206928 0 -0.0028709153486544008 0.00042482475246633173 0 -0.0028108183788740655 0.0002776097564654511 0 -0.0027960499992510735 2.5630402843706954e-05 0 -0.0028108183788740655 0.0002776097564654511 0 -0.0027060220250395353 0.0002745499524633047 0 -0.0027960499992510735 2.5630402843706954e-05 0 -0.0027211827803471146 0.00021705282101990567 0 -0.0027060220250395353 0.0002745499524633047 0 -0.0027830055544045347 0.00055627642124414566 0 -0.0028108183788740655 0.0002776097564654511 0 -0.0027060220250395353 0.0002745499524633047 0 -0.0027830055544045347 0.00055627642124414566 0 -0.0027060220250395353 0.0002745499524633047 0 -0.0025132347593811036 0.00049925046185586748 0 -0.0013759210598629516 0.0022675373339878279 0 0.00027756273137431086 0.0037109367985741319 0 -0.00011206722515930477 0.0021786779604388586 0 -0.0016140097764836515 0.0014054194393765056 0 -0.00092292722617343321 0.0019526779649624375 0 -0.0025446531664684319 0.00025442510905501168 0 -0.0025132347593811036 0.00049925046185586748 0 -0.0019792084293819828 0.00037313504734269815 0 -0.0027060220250395353 0.0002745499524633047 0 -0.0025446531664684319 0.00025442510905501168 0 -0.0025132347593811036 0.00049925046185586748 0 -0.0025132347593811036 0.00049925046185586748 0 -0.0020172921543903793 0.00085002534690674651 0 -0.0024188766190864717 0.00094434553419773702 0 -0.0025132347593811036 0.00049925046185586748 0 -0.0020172921543903793 0.00085002534690674651 0 -0.0019792084293819828 0.00037313504734269815 0 -0.0024188766190864717 0.00094434553419773702 0 -0.0022484452988318897 0.0016127554191542263 0 -0.0017857499771179453 0.0014662528130411948 0 -0.0020172921543903793 0.00085002534690674651 0 -0.0024188766190864717 0.00094434553419773702 0 -0.0017857499771179453 0.0014662528130411948 0 -0.0024188766190864717 0.00094434553419773702 0 -0.0026788903490585774 0.0010836428915841456 0 -0.0022484452988318897 0.0016127554191542263 0 -0.0027830055544045347 0.00055627642124414566 0 -0.0025132347593811036 0.00049925046185586748 0 -0.0024188766190864717 0.00094434553419773702 0 -0.0027830055544045347 0.00055627642124414566 0 -0.0024188766190864717 0.00094434553419773702 0 -0.0026788903490585774 0.0010836428915841456 0 -0.0028615043769259904 0.00084182514091180884 0 -0.0026788903490585774 0.0010836428915841456 0 -0.0027876937998742189 0.0016576124779608657 0 -0.0026788903490585774 0.0010836428915841456 0 -0.0027876937998742189 0.0016576124779608657 0 -0.0022484452988318897 0.0016127554191542263 0 -0.0023418626993758906 0.0022437543994200237 0 -0.0022484452988318897 0.0016127554191542263 0 -0.0016409281049054745 0.0023114678017694757 0 -0.0023418626993758906 0.0022437543994200237 0 -0.0027876937998742189 0.0016576124779608657 0 -0.0022484452988318897 0.0016127554191542263 0 -0.0022484452988318897 0.0016127554191542263 0 -0.0016409281049054745 0.0023114678017694757 0 -0.0017857499771179453 0.0014662528130411948 0 -0.0016409281049054745 0.0023114678017694757 0 -0.0010666222598781448 0.0020491915949514025 0 -0.0017857499771179453 0.0014662528130411948 0 -0.00072538533669409366 0.003041052614525256 0 -0.0016409281049054745 0.0023114678017694757 0 -0.0010666222598781448 0.0020491915949514025 0 -0.00072538533669409366 0.003041052614525256 0 -0.0010666222598781448 0.0020491915949514025 0 -7.2238988972452077e-05 0.0023200389877123338 0 -0.00030634251166187241 0.0024443890142592951 0 8.6231214859688575e-05 0.0028718272236493985 0 -0.0010666222598781448 0.0020491915949514025 0 -0.0010240038928654286 0.001067167212660674 0 -7.2238988972452077e-05 0.0023200389877123338 0 -0.0020172921543903793 0.00085002534690674651 0 -0.0010240038928654286 0.001067167212660674 0 -0.0017857499771179453 0.0014662528130411948 0 -0.0010666222598781448 0.0020491915949514025 0 -0.0010240038928654286 0.001067167212660674 0 -0.0017857499771179453 0.0014662528130411948 0 0.00039981160939382172 0.0039884357404745482 0 0.00055406387733850234 0.0033979090838276312 0 0.00052555560645968957 0.0033927736333310751 0 -6.4290868555695217e-05 0.0033496683450467647 0 0.00039981160939382172 0.0039884357404745482 0 -7.2238988972452077e-05 0.0023200389877123338 0 0.00029148043561094976 0.0031552166020510225 0 8.6231214859688575e-05 0.0028718272236493985 0 -0.00072538533669409366 0.003041052614525256 0 -6.4290868555695217e-05 0.0033496683450467647 0 -7.2238988972452077e-05 0.0023200389877123338 0 0.0010818487492666455 0.0037388803398021508 0 0.00052555560645968957 0.0033927736333310751 0 0.00075584500416406124 0.0037008458119308371 0 0.00052555560645968957 0.0033927736333310751 0 0.00049755850741819291 0.0035154242903345013 0 0.00075584500416406124 0.0037008458119308371 0 0.00026862147949240252 0.0050525359248802673 0 0.00020093194804099847 0.0053421492405576346 0 0.00055406387733850234 0.0033979090838276312 0 0.00049755850741819291 0.0035154242903345013 0 0.00022866639942035327 0.0037210974307884878 0 0.00055406387733850234 0.0033979090838276312 0 0.00052555560645968957 0.0033927736333310751 0 0.00049755850741819291 0.0035154242903345013 0 0.00049755850741819291 0.0035154242903345013 0 0.00022866639942035327 0.0037210974307884878 0 0.00075584500416406124 0.0037008458119308371 0 0.00022866639942035327 0.0037210974307884878 0 0.00075584500416406124 0.0037008458119308371 0 0.00071775691436440695 0.004148115921589925 0 0.00075584500416406124 0.0037008458119308371 0 0.00071775691436440695 0.004148115921589925 0 0.0012519542578785388 0.0036473484313514232 0 0.00022866639942035327 0.0037210974307884878 0 0.00071775691436440695 0.004148115921589925 0 -9.6163351983559873e-06 0.0046160098619426812 0 0.00020093194804099847 0.0053421492405576346 0 0.00014891932543531185 0.0056782829581581724 0 0.0010818487492666455 0.0037388803398021508 0 0.00027756273137431086 0.0037109367985741319 0 0.0012519542578785388 0.0036473484313514232 0 -0.00030634251166187241 0.0024443890142592951 0 -0.00092292722617343321 0.0019526779649624375 0 -0.0020172921543903793 0.00085002534690674651 0 -0.0010240038928654286 0.001067167212660674 0 -0.0019792084293819828 0.00037313504734269815 0 0.0010818487492666455 0.0037388803398021508 0 0.00075584500416406124 0.0037008458119308371 0 0.0012519542578785388 0.0036473484313514232 0 0.00071775691436440695 0.004148115921589925 0 0.0012519542578785388 0.0036473484313514232 0 0.0011865420544447264 0.0044610342552937202 0 0.0013808482106484818 0.0035945258473582663 0 0.0013973834048286256 0.0036166764113112499 0 0.0012519542578785388 0.0036473484313514232 0 0.0019369265456439769 0.0049872517536543844 0 0.0011865420544447264 0.0044610342552937202 0 0.00027756273137431086 0.0037109367985741319 0 0.0012519542578785388 0.0036473484313514232 0 -0.00011206722515930477 0.0021786779604388586 0 0.0012519542578785388 0.0036473484313514232 0 0.00095353440103488501 0.0015889534937737638 0 -0.00011206722515930477 0.0021786779604388586 0 0.00095353440103488501 0.0015889534937737638 0 -0.00011206722515930477 0.0021786779604388586 0 -0.00020440152064695195 0.00083595054662999975 0 0.0011865420544447264 0.0044610342552937202 0 0.0012713981721245086 0.0054157506656213441 0 0.00076702602092916853 0.0049472001340431096 0 0.0019369265456439769 0.0049872517536543844 0 0.0011865420544447264 0.0044610342552937202 0 0.0012713981721245086 0.0054157506656213441 0 0.0012713981721245086 0.0054157506656213441 0 0.001791284509321605 0.0057844096426407686 0 0.0013124742056317292 0.0062579351343830161 0 0.0019369265456439769 0.0049872517536543844 0 0.0012713981721245086 0.0054157506656213441 0 0.001791284509321605 0.0057844096426407686 0 0.00095353440103488501 0.0015889534937737638 0 0.00037345802028214436 6.656102951688409e-06 0 -0.00020440152064695195 0.00083595054662999975 0 0.0013973834048286256 0.0036166764113112499 0 0.0015113462036190966 0.0041991085288115527 0 0.0019369265456439769 0.0049872517536543844 0 0.001791284509321605 0.0057844096426407686 0 0.0022338556473302865 0.0061835631386413393 0 0.001791284509321605 0.0057844096426407686 0 0.0021652127087203512 0.0061475188690002956 0 0.0017920751889395012 0.0062020315015947096 0 0.001671240519547432 0.0044113786602625526 0 0.0015113462036190966 0.0041991085288115527 0 0.00037345802028214436 6.656102951688409e-06 0 -0.00061484830611985329 2.5723122269881114e-05 0 -0.00020440152064695195 0.00083595054662999975 0 0.00071775691436440695 0.004148115921589925 0 -9.6163351983559873e-06 0.0046160098619426812 0 0.00076702602092916853 0.0049472001340431096 0 -9.6163351983559873e-06 0.0046160098619426812 0 0.00076702602092916853 0.0049472001340431096 0 0.00068782538102229367 0.0057828766518643422 0 0.00071775691436440695 0.004148115921589925 0 0.0011865420544447264 0.0044610342552937202 0 0.00076702602092916853 0.0049472001340431096 0 0.00068782538102229367 0.0057828766518643422 0 0.0001141490921232975 0.0062783292931591576 0 0.00064394510758510883 0.0065182682039733935 0 0.0012713981721245086 0.0054157506656213441 0 0.00068782538102229367 0.0057828766518643422 0 0.0013124742056317292 0.0062579351343830161 0 0.0012713981721245086 0.0054157506656213441 0 0.00076702602092916853 0.0049472001340431096 0 0.00068782538102229367 0.0057828766518643422 0 0.00014891932543531185 0.0056782829581581724 0 0.0001486549831195905 0.0059396809154729623 0 -9.6163351983559873e-06 0.0046160098619426812 0 0.00068782538102229367 0.0057828766518643422 0 0.0001141490921232975 0.0062783292931591576 0 3.6470111732302394e-05 0.0065939860643486276 0 0.0001141490921232975 0.0062783292931591576 0 0.00011884248754696123 0.0064320933990524524 0 0.0001141490921232975 0.0062783292931591576 0 8.6000946228287676e-05 0.0066578070086251249 0 0.00011884248754696123 0.0064320933990524524 0 0.0001141490921232975 0.0062783292931591576 0 8.6000946228287676e-05 0.0066578070086251249 0 0.00064394510758510883 0.0065182682039733935 0 8.6000946228287676e-05 0.0066578070086251249 0 0.00064394510758510883 0.0065182682039733935 0 0.00046127136470372005 0.006970195821199488 0 0.00068782538102229367 0.0057828766518643422 0 0.00064394510758510883 0.0065182682039733935 0 0.0013124742056317292 0.0062579351343830161 0 0.00064394510758510883 0.0065182682039733935 0 0.0013124742056317292 0.0062579351343830161 0 0.0011962939387474625 0.0068981423476756169 0 0.00090791519216108796 0.0070945179065596614 0 0.00046127136470372005 0.006970195821199488 0 0.00019501812860615221 0.0076757078647052565 0 0.00064394510758510883 0.0065182682039733935 0 0.00090791519216108796 0.0070945179065596614 0 0.0011962939387474625 0.0068981423476756169 0 0.00090791519216108796 0.0070945179065596614 0 0.0012951064816998695 0.0072994448017263784 0 0.0010420955732821989 0.0077396380991723536 0 0.00090791519216108796 0.0070945179065596614 0 0.0011962939387474625 0.0068981423476756169 0 0.0012951064816998695 0.0072994448017263784 0 0.00064394510758510883 0.0065182682039733935 0 0.00090791519216108796 0.0070945179065596614 0 0.00046127136470372005 0.006970195821199488 0 8.6000946228287676e-05 0.0066578070086251249 0 0.00014372589390656391 0.0066827435512304256 0 8.7391087372129297e-05 0.0066232491886758955 0 0.00050751152654845999 0.0073954051316139739 0 0.00078009968195601892 0.008245081667962291 0 8.6000946228287676e-05 0.0066578070086251249 0 0.00046127136470372005 0.006970195821199488 0 0.00019501812860615221 0.0076757078647052565 0 0.0020411783815852676 0.005056440810540931 0 0.0023376902175612571 0.0063860321749764212 0 0.0031281047226344809 0.0060631975632761334 0 0.0015113462036190966 0.0041991085288115527 0 0.0021174686721614207 0.0063116268643477235 0 0.001892422213882686 0.0066037833868313614 0 0.0021652127087203512 0.0061475188690002956 0 0.0023803725075774809 0.0070560819228197413 0 0.001892422213882686 0.0066037833868313614 0 0.0021652127087203512 0.0061475188690002956 0 0.0017920751889395012 0.0062020315015947096 0 0.001892422213882686 0.0066037833868313614 0 0.0017920751889395012 0.0062020315015947096 0 0.0013124742056317292 0.0062579351343830161 0 0.001892422213882686 0.0066037833868313614 0 0.0013124742056317292 0.0062579351343830161 0 0.0018531641838309733 0.0073139813348160288 0 0.001791284509321605 0.0057844096426407686 0 0.0017920751889395012 0.0062020315015947096 0 0.0013124742056317292 0.0062579351343830161 0 0.0013124742056317292 0.0062579351343830161 0 0.0011962939387474625 0.0068981423476756169 0 0.0018504460291889665 0.0073377658537061964 0 0.0016464267388762398 0.0068699937218923701 0 0.0019133303958269764 0.0074358102234325478 0 0.0011962939387474625 0.0068981423476756169 0 0.0012951064816998695 0.0072994448017263784 0 0.0018504460291889665 0.0073377658537061964 0 0.0012951064816998695 0.0072994448017263784 0 0.0018504460291889665 0.0073377658537061964 0 0.0014751180354614084 0.0075986039215393767 0 0.001892422213882686 0.0066037833868313614 0 0.0018531641838309733 0.0073139813348160288 0 0.0023803725075774809 0.0070560819228197413 0 0.0023376902175612571 0.0063860321749764212 0 0.0031281047226344809 0.0060631975632761334 0 0.003160037360909718 0.00697116197237927 0 0.0031281047226344809 0.0060631975632761334 0 0.003160037360909718 0.00697116197237927 0 0.0041882123733121236 0.0070637027062369438 0 0.00037345802028214436 6.656102951688409e-06 0 -0.00087192055527946443 -0.00068280466941203477 0 -0.00061484830611985329 2.5723122269881114e-05 0 0.0015113462036190966 0.0041991085288115527 0 0.0011356726673886271 0.0033952897746015059 0 -0.00087192055527946443 -0.00068280466941203477 0 -0.00061484830611985329 2.5723122269881114e-05 0 -0.0013130717561621638 -0.00021654684986305612 0 -0.00061484830611985329 2.5723122269881114e-05 0 -0.0013130717561621638 -0.00021654684986305612 0 -0.0009475587043251294 0.00036307745128369022 0 -0.00087192055527946443 -0.00068280466941203477 0 -0.0013130717561621638 -0.00021654684986305612 0 -0.0016186825462137882 -0.00055415308452083038 0 -0.0013130717561621638 -0.00021654684986305612 0 -0.0020076708800093684 -0.00020771089704431521 0 -0.0018402934010981204 0.00023156817637747654 0 -0.0013130717561621638 -0.00021654684986305612 0 -0.0016186825462137882 -0.00055415308452083038 0 -0.0020076708800093684 -0.00020771089704431521 0 -0.0013130717561621638 -0.00021654684986305612 0 -0.0009475587043251294 0.00036307745128369022 0 -0.0018402934010981204 0.00023156817637747654 0 -0.0016186825462137882 -0.00055415308452083038 0 -0.0021315120790768665 -0.0005831730888571085 0 -0.0016519387728447927 -0.0010249388490597405 0 0.0011356726673886271 0.0033952897746015059 0 0.0012672894054819013 0.0033965462868892778 0 -0.00087192055527946443 -0.00068280466941203477 0 -0.0016186825462137882 -0.00055415308452083038 0 -0.0016519387728447927 -0.0010249388490597405 0 -0.0021315120790768665 -0.0005831730888571085 0 -0.0016519387728447927 -0.0010249388490597405 0 -0.0021290416923175444 -0.00093051979258062221 0 -0.0021315120790768665 -0.0005831730888571085 0 -0.0024866279469379126 -0.00064185766741305214 0 -0.0021290416923175444 -0.00093051979258062221 0 -0.0016186825462137882 -0.00055415308452083038 0 -0.0021315120790768665 -0.0005831730888571085 0 -0.0020076708800093684 -0.00020771089704431521 0 -0.0026291758380448454 -0.0006306644747326362 0 -0.0024866279469379126 -0.00064185766741305214 0 -0.002558605108484865 -0.00090760988238925528 0 -0.0026291758380448454 -0.0006306644747326362 0 -0.0024866279469379126 -0.00064185766741305214 0 -0.0026615808881362488 -0.00040029253487675504 0 -0.0027983365916081585 -0.00062143146640101512 0 -0.0026291758380448454 -0.0006306644747326362 0 -0.0026615808881362488 -0.00040029253487675504 0 -0.0021315120790768665 -0.0005831730888571085 0 -0.0024866279469379126 -0.00064185766741305214 0 -0.0024931001603470731 -0.00034360101713242164 0 -0.0021315120790768665 -0.0005831730888571085 0 -0.0024931001603470731 -0.00034360101713242164 0 -0.0024204118595227558 -0.00017736388739953766 0 -0.0024866279469379126 -0.00064185766741305214 0 -0.0024931001603470731 -0.00034360101713242164 0 -0.0026615808881362488 -0.00040029253487675504 0 -0.0024931001603470731 -0.00034360101713242164 0 -0.0026615808881362488 -0.00040029253487675504 0 -0.0026380223382284893 -2.0947233660597237e-05 0 -0.0024931001603470731 -0.00034360101713242164 0 -0.0024204118595227558 -0.00017736388739953766 0 -0.0026380223382284893 -2.0947233660597237e-05 0 -0.0024204118595227558 -0.00017736388739953766 0 -0.0026380223382284893 -2.0947233660597237e-05 0 -0.0024970957752411681 0.00016401594021099082 0 -0.0020076708800093684 -0.00020771089704431521 0 -0.0024970957752411681 0.00016401594021099082 0 -0.0018402934010981204 0.00023156817637747654 0 -0.0021315120790768665 -0.0005831730888571085 0 -0.0024204118595227558 -0.00017736388739953766 0 -0.0020076708800093684 -0.00020771089704431521 0 -0.0024204118595227558 -0.00017736388739953766 0 -0.0020076708800093684 -0.00020771089704431521 0 -0.0024970957752411681 0.00016401594021099082 0 -0.0024970957752411681 0.00016401594021099082 0 -0.0024668025770539703 0.00049825475757367052 0 -0.0018402934010981204 0.00023156817637747654 0 -0.0027211827803471146 0.00021705282101990567 0 -0.0024970957752411681 0.00016401594021099082 0 -0.0024668025770539703 0.00049825475757367052 0 -0.0027211827803471146 0.00021705282101990567 0 -0.0026380223382284893 -2.0947233660597237e-05 0 -0.0024970957752411681 0.00016401594021099082 0 -0.0027211827803471146 0.00021705282101990567 0 -0.0027060220250395353 0.0002745499524633047 0 -0.0024668025770539703 0.00049825475757367052 0 -0.0027060220250395353 0.0002745499524633047 0 -0.0025446531664684319 0.00025442510905501168 0 -0.0024668025770539703 0.00049825475757367052 0 -0.0013759210598629516 0.0022675373339878279 0 -0.0024668025770539703 0.00049825475757367052 0 -0.0012072201904062909 0.0010047786218826407 0 -0.0016140097764836515 0.0014054194393765056 0 -0.0019554332548031598 0.0011077410739678275 0 -0.0013759210598629516 0.0022675373339878279 0 -0.0012072201904062909 0.0010047786218826407 0 -0.00011206722515930477 0.0021786779604388586 0 -0.0012072201904062909 0.0010047786218826407 0 -0.00011206722515930477 0.0021786779604388586 0 -0.00020440152064695195 0.00083595054662999975 0 -0.0012072201904062909 0.0010047786218826407 0 -0.00020440152064695195 0.00083595054662999975 0 -0.0009475587043251294 0.00036307745128369022 0 -0.00061484830611985329 2.5723122269881114e-05 0 -0.00020440152064695195 0.00083595054662999975 0 -0.0009475587043251294 0.00036307745128369022 0 -0.0012072201904062909 0.0010047786218826407 0 -0.0009475587043251294 0.00036307745128369022 0 -0.0018402934010981204 0.00023156817637747654 0 -0.0024668025770539703 0.00049825475757367052 0 -0.0012072201904062909 0.0010047786218826407 0 -0.0018402934010981204 0.00023156817637747654 0 -0.0024864429777493938 0.0062384935770916196 0 -0.0039276941120658772 0.0058039025400472783 0 -0.0037016939424675582 0.0072048376296115777 0 -0.0024864429777493938 0.0062384935770916196 0 -0.0037016939424675582 0.0072048376296115777 0 -0.0025959272949617044 0.0072776087471639146 0 -0.0024864429777493938 0.0062384935770916196 0 -0.0025959272949617044 0.0072776087471639146 0 -0.0017167407637439485 0.0071152211433118109 0 0.00027718323685096773 0.0065848308498851456 0 0.00032092723283011818 0.0066674256328797567 0 0.00019832705607381355 0.0066485782839912303 0 -0.0013784330095836042 0.0073908655153195743 0 -0.0023087352564080264 0.0085530264433219729 0 0.00032092723283011818 0.0066674256328797567 0 0.00042400864318155394 0.0066538905186016677 0 0.00038005713539965112 0.0067266800850061918 0 0.00027718323685096773 0.0065848308498851456 0 0.00032092723283011818 0.0066674256328797567 0 0.00042400864318155394 0.0066538905186016677 0 -0.0021886490668361746 0.01091451699961596 0 -0.0022145012104650319 0.011044385364532023 0 -0.0022004226721497044 0.010976264744681953 0 -0.0039276941120658772 0.0058039025400472783 0 -0.0044773124806065023 0.0062485863688995997 0 -0.0052301565514593718 0.0053923556259585104 0 -0.0023087352564080264 0.0085530264433219729 0 -0.0026624872695188658 0.011985424791480783 0 -0.0034200974319069334 0.0097126290976297606 0 -0.0026624872695188658 0.011985424791480783 0 -0.0021886490668361746 0.01091451699961596 0 -0.0022004226721497044 0.010976264744681953 0 -0.0022332539447018156 0.010925029463270015 0 -0.0021886490668361746 0.01091451699961596 0 -0.0021627520693605047 0.010936734452844165 0 -0.0022332539447018156 0.010925029463270015 0 -0.0039276941120658772 0.0058039025400472783 0 -0.0044773124806065023 0.0062485863688995997 0 -0.0037016939424675582 0.0072048376296115777 0 -0.0021886490668361746 0.01091451699961596 0 -0.0021627520693605047 0.010936734452844165 0 -0.0020272304979034169 0.010892080551849787 0 -0.0034200974319069334 0.0097126290976297606 0 -0.0029980250145816645 0.0094920667236589162 0 -0.0021314315671493379 0.01099441900526907 0 -0.0021627520693605047 0.010936734452844165 0 -0.0020272304979034169 0.010892080551849787 0 -0.0021314315671493379 0.01099441900526907 0 -0.0020251675472860668 0.011015164002925678 0 -0.0020272304979034169 0.010892080551849787 0 -0.0021627520693605047 0.010936734452844165 0 -0.0022332539447018156 0.010925029463270015 0 -0.0022550183248955754 0.011033828959409627 0 -0.0021314315671493379 0.01099441900526907 0 -0.0021627520693605047 0.010936734452844165 0 -0.0022550183248955754 0.011033828959409627 0 -0.0021314315671493379 0.01099441900526907 0 -0.0021975980957941632 0.011131711796986856 0 -0.0022550183248955754 0.011033828959409627 0 -0.0021975980957941632 0.011131711796986856 0 -0.0020251675472860668 0.011015164002925678 0 -0.0020768093523057789 0.011133192441668655 0 -0.0021314315671493379 0.01099441900526907 0 -0.0021975980957941632 0.011131711796986856 0 -0.0020251675472860668 0.011015164002925678 0 -0.0020251675472860668 0.011015164002925678 0 -0.0020272304979034169 0.010892080551849787 0 -0.0017767756767620723 0.010911984759266484 0 -0.0020251675472860668 0.011015164002925678 0 -0.0017767756767620723 0.010911984759266484 0 -0.0019114945586599344 0.011117495269120795 0 -0.0029980250145816645 0.0094920667236589162 0 -0.0023802798981869423 0.0098328532266326214 0 -0.0037016939424675582 0.0072048376296115777 0 -0.0025959272949617044 0.0072776087471639146 0 -0.0028877482591148028 0.0082772745777863338 0 -0.0025959272949617044 0.0072776087471639146 0 -0.0028877482591148028 0.0082772745777863338 0 -0.0017531503248710493 0.0078648415265536713 0 -0.0028877482591148028 0.0082772745777863338 0 -0.0017531503248710493 0.0078648415265536713 0 -0.0020022175699409396 0.0095075964379171228 0 -0.0017531503248710493 0.0078648415265536713 0 -0.00071996386500937414 0.0085270272664156963 0 -0.0020022175699409396 0.0095075964379171228 0 -0.0017531503248710493 0.0078648415265536713 0 -0.00071996386500937414 0.0085270272664156963 0 -0.00082140235213947908 0.0074817082964645206 0 -0.00071996386500937414 0.0085270272664156963 0 -0.00082140235213947908 0.0074817082964645206 0 -7.6629750222693025e-05 0.0079271327522278043 0 -0.00082140235213947908 0.0074817082964645206 0 -0.0017167407637439485 0.0071152211433118109 0 -0.00080111396171521462 0.0067618559643450402 0 -0.00082140235213947908 0.0074817082964645206 0 -0.00031028788017738732 0.0067452615248629975 0 -0.00080111396171521462 0.0067618559643450402 0 -0.0017531503248710493 0.0078648415265536713 0 -0.00082140235213947908 0.0074817082964645206 0 -0.0017167407637439485 0.0071152211433118109 0 -0.0025959272949617044 0.0072776087471639146 0 -0.0017531503248710493 0.0078648415265536713 0 -0.0017167407637439485 0.0071152211433118109 0 0.001164123240257785 0.0080846646940707714 0 0.00225300148528577 0.009282305855346798 0 0.00052032664105458788 0.0088959571051162277 0 0.00040663524427435478 0.007597905170857038 0 0.00078009968195601892 0.008245081667962291 0 -0.00071996386500937414 0.0085270272664156963 0 -7.6629750222693025e-05 0.0079271327522278043 0 0.00052032664105458788 0.0088959571051162277 0 0.001164123240257785 0.0080846646940707714 0 -7.6629750222693025e-05 0.0079271327522278043 0 0.00052032664105458788 0.0088959571051162277 0 -0.00082140235213947908 0.0074817082964645206 0 -7.6629750222693025e-05 0.0079271327522278043 0 -0.00031028788017738732 0.0067452615248629975 0 -0.0001823237847196344 0.0070207453022164195 0 -0.00054868970913696041 0.0070724435050503022 0 0.00014372589390656391 0.0066827435512304256 0 -0.00031028788017738732 0.0067452615248629975 0 0.00011023817164566689 0.0066163006415272804 0 -0.00031028788017738732 0.0067452615248629975 0 0.00011023817164566689 0.0066163006415272804 0 -0.00080111396171521462 0.0067618559643450402 0 0.001164123240257785 0.0080846646940707714 0 -7.6629750222693025e-05 0.0079271327522278043 0 -0.00031028788017738732 0.0067452615248629975 0 0.00040663524427435478 0.007597905170857038 0 9.4616556970095265e-05 0.0072314948735706418 0 8.6000946228287676e-05 0.0066578070086251249 0 0.00011023817164566689 0.0066163006415272804 0 0.00011884248754696123 0.0064320933990524524 0 8.6000946228287676e-05 0.0066578070086251249 0 0.00014372589390656391 0.0066827435512304256 0 0.00011023817164566689 0.0066163006415272804 0 0.00011023817164566689 0.0066163006415272804 0 0.00011884248754696123 0.0064320933990524524 0 0.00012832995839892131 0.0065364791823535112 0 0.00011884248754696123 0.0064320933990524524 0 0.00012832995839892131 0.0065364791823535112 0 0.00013043992014340826 0.006541855717024465 0 0.00012832995839892131 0.0065364791823535112 0 0.00013043992014340826 0.006541855717024465 0 0.00015583573059194548 0.00656891106421186 0 0.00011023817164566689 0.0066163006415272804 0 0.00012832995839892131 0.0065364791823535112 0 0.00015417251205656154 0.0065345141373185645 0 0.00014957288537553528 0.0066090871230974676 0 0.00013043992014340826 0.006541855717024465 0 0.00015583573059194548 0.00656891106421186 0 0.00014957288537553528 0.0066090871230974676 0 0.00015583573059194548 0.00656891106421186 0 0.00018125937540407379 0.0066363276291788714 0 0.00014957288537553528 0.0066090871230974676 0 0.00013043992014340826 0.006541855717024465 0 0.00010859228194862519 0.0066626857352969811 0 3.6470111732302394e-05 0.0065939860643486276 0 0.00011884248754696123 0.0064320933990524524 0 0.00013043992014340826 0.006541855717024465 0 3.6470111732302394e-05 0.0065939860643486276 0 0.00013043992014340826 0.006541855717024465 0 0.00010859228194862519 0.0066626857352969811 0 -0.0024864429777493938 0.0062384935770916196 0 -0.0017167407637439485 0.0071152211433118109 0 -0.00080111396171521462 0.0067618559643450402 0 -0.0013784330095836042 0.0073908655153195743 0 -0.00054868970913696041 0.0070724435050503022 0 0.00027718323685096773 0.0065848308498851456 0 0.00015417251205656154 0.0065345141373185645 0 0.00018420505275470325 0.0065863091415471831 0 0.00012832995839892131 0.0065364791823535112 0 0.00015417251205656154 0.0065345141373185645 0 0.00015583573059194548 0.00656891106421186 0 0.00015417251205656154 0.0065345141373185645 0 0.00015583573059194548 0.00656891106421186 0 0.00018420505275470325 0.0065863091415471831 0 0.00015583573059194548 0.00656891106421186 0 0.00024534534397960414 0.0066305805348055571 0 0.00018125937540407379 0.0066363276291788714 0 0.00015583573059194548 0.00656891106421186 0 0.00019832705607381355 0.0066485782839912303 0 0.00018420505275470325 0.0065863091415471831 0 0.00020832641218053268 0.0066342696704262535 0 0.00024135961943075679 0.0066612076925918594 0 0.00027718323685096773 0.0065848308498851456 0 0.00019832705607381355 0.0066485782839912303 0 0.00018420505275470325 0.0065863091415471831 0 0.00024534534397960414 0.0066305805348055571 0 0.00020127975458116679 0.0067190116977527744 0 0.00028165067359273426 0.0067657457355068968 0 0.00024135961943075679 0.0066612076925918594 0 0.00030816638243924408 0.0067150598412744544 0 0.00018125937540407379 0.0066363276291788714 0 0.00020127975458116679 0.0067190116977527744 0 0.0001573020963803575 0.0066767780461269152 0 0.00024534534397960414 0.0066305805348055571 0 0.00018125937540407379 0.0066363276291788714 0 0.00020127975458116679 0.0067190116977527744 0 0.00020127975458116679 0.0067190116977527744 0 0.00014765702991809145 0.0067638327869858211 0 0.00021515206463959576 0.0068018695228407528 0 0.00020127975458116679 0.0067190116977527744 0 0.00021515206463959576 0.0068018695228407528 0 0.00028165067359273426 0.0067657457355068968 0 8.3926791915937037e-05 0.0067505989113760441 0 3.6470111732302394e-05 0.0065939860643486276 0 0.00010859228194862519 0.0066626857352969811 0 0.00014957288537553528 0.0066090871230974676 0 0.00010859228194862519 0.0066626857352969811 0 0.0001573020963803575 0.0066767780461269152 0 0.00014957288537553528 0.0066090871230974676 0 0.00018125937540407379 0.0066363276291788714 0 0.0001573020963803575 0.0066767780461269152 0 0.00020127975458116679 0.0067190116977527744 0 0.0001573020963803575 0.0066767780461269152 0 0.00014765702991809145 0.0067638327869858211 0 0.00010859228194862519 0.0066626857352969811 0 0.0001573020963803575 0.0066767780461269152 0 0.00014765702991809145 0.0067638327869858211 0 8.3926791915937037e-05 0.0067505989113760441 0 0.00010859228194862519 0.0066626857352969811 0 0.00014765702991809145 0.0067638327869858211 0 0.00029544223067405005 0.0068594692401328285 0 8.3926791915937037e-05 0.0067505989113760441 0 0.00013126461931863974 0.0067919788426357101 0 8.3926791915937037e-05 0.0067505989113760441 0 0.00014765702991809145 0.0067638327869858211 0 0.00013126461931863974 0.0067919788426357101 0 0.00014765702991809145 0.0067638327869858211 0 0.00013126461931863974 0.0067919788426357101 0 0.00014043851187604868 0.0068279488951664908 0 0.00013126461931863974 0.0067919788426357101 0 9.9724926322649157e-05 0.0066161958024622625 0 0.00014043851187604868 0.0068279488951664908 0 -0.00024564720554687996 0.0069781760685494352 0 -0.00045665361047392223 0.007086136710315649 0 9.9724926322649157e-05 0.0066161958024622625 0 -0.0015826228506624906 0.0064818436820002238 0 -0.00070857715750341878 0.0059294728172889135 0 9.9724926322649157e-05 0.0066161958024622625 0 3.7999247276065021e-05 0.0057155903149104749 0 -0.00070857715750341878 0.0059294728172889135 0 0.00029544223067405005 0.0068594692401328285 0 9.9724926322649157e-05 0.0066161958024622625 0 3.7999247276065021e-05 0.0057155903149104749 0 0.00029544223067405005 0.0068594692401328285 0 0.00013126461931863974 0.0067919788426357101 0 9.9724926322649157e-05 0.0066161958024622625 0 0.00021515206463959576 0.0068018695228407528 0 0.00025898004177319495 0.0069010404864072207 0 0.00031916445177550371 0.0068539654924700049 0 0.00021515206463959576 0.0068018695228407528 0 0.00031916445177550371 0.0068539654924700049 0 0.00028165067359273426 0.0067657457355068968 0 0.00014765702991809145 0.0067638327869858211 0 0.00021515206463959576 0.0068018695228407528 0 0.00014043851187604868 0.0068279488951664908 0 -0.00045665361047392223 0.007086136710315649 0 -0.00033617885860822452 0.0075231682186030447 0 0.00021515206463959576 0.0068018695228407528 0 0.00014043851187604868 0.0068279488951664908 0 0.00025898004177319495 0.0069010404864072207 0 -0.0015826228506624906 0.0064818436820002238 0 -0.0013727679151759196 0.0063323753185188297 0 -0.0015854007393863324 0.0066767926688604306 0 -0.0013727679151759196 0.0063323753185188297 0 0.0003733699995239325 0.006567728409835028 0 -0.00013922574400786192 0.0070672289157300457 0 -0.00033617885860822452 0.0075231682186030447 0 0.00032351167131392444 0.0086059542594905288 0 0.00025898004177319495 0.0069010404864072207 0 0.00038934966039699229 0.006961686879695117 0 0.00031916445177550371 0.0068539654924700049 0 0.00038934966039699229 0.006961686879695117 0 0.00040951844827792047 0.0068826335178140633 0 0.00031916445177550371 0.0068539654924700049 0 0.00040951844827792047 0.0068826335178140633 0 0.00031916445177550371 0.0068539654924700049 0 0.00040188343861428141 0.006769444848829272 0 0.00031916445177550371 0.0068539654924700049 0 0.00028165067359273426 0.0067657457355068968 0 0.00040188343861428141 0.006769444848829272 0 0.00028165067359273426 0.0067657457355068968 0 0.00040188343861428141 0.006769444848829272 0 0.00031659716078615154 0.0066935796439577359 0 0.00038050497359234828 0.006771782956388854 0 0.00030816638243924408 0.0067150598412744544 0 0.00039065236188364562 0.0068128334200841956 0 0.00038005713539965112 0.0067266800850061918 0 0.00028903596050169395 0.0067353982869477356 0 0.00032092723283011818 0.0066674256328797567 0 0.00038005713539965112 0.0067266800850061918 0 0.00028903596050169395 0.0067353982869477356 0 0.00024534534397960414 0.0066305805348055571 0 0.00028165067359273426 0.0067657457355068968 0 0.00031659716078615154 0.0066935796439577359 0 0.00032092723283011818 0.0066674256328797567 0 0.00019832705607381355 0.0066485782839912303 0 0.00028903596050169395 0.0067353982869477356 0 0.00047386095236863929 0.0067644211798820403 0 0.00055522091049726139 0.0068224439677775093 0 0.00057034492002127821 0.0067253528884843039 0 0.00042400864318155394 0.0066538905186016677 0 0.00047386095236863929 0.0067644211798820403 0 0.00057034492002127821 0.0067253528884843039 0 0.00042400864318155394 0.0066538905186016677 0 0.00038005713539965112 0.0067266800850061918 0 0.00047386095236863929 0.0067644211798820403 0 0.00039065236188364562 0.0068128334200841956 0 0.00038005713539965112 0.0067266800850061918 0 0.00047386095236863929 0.0067644211798820403 0 0.00039065236188364562 0.0068128334200841956 0 0.00047386095236863929 0.0067644211798820403 0 0.00049180041781035427 0.0068739593917906657 0 0.00038050497359234828 0.006771782956388854 0 0.0004210891071362495 0.0068029148236816951 0 0.00047386095236863929 0.0067644211798820403 0 0.00055522091049726139 0.0068224439677775093 0 0.00049180041781035427 0.0068739593917906657 0 0.00055522091049726139 0.0068224439677775093 0 0.00049180041781035427 0.0068739593917906657 0 0.00059308276640455872 0.006914250379127059 0 0.00049180041781035427 0.0068739593917906657 0 0.00053489103109657661 0.0069456826510207129 0 0.00059308276640455872 0.006914250379127059 0 0.00049180041781035427 0.0068739593917906657 0 0.00046777126380806227 0.0069368394186000229 0 0.00053489103109657661 0.0069456826510207129 0 0.00040951844827792047 0.0068826335178140633 0 0.00049180041781035427 0.0068739593917906657 0 0.00046777126380806227 0.0069368394186000229 0 0.00040951844827792047 0.0068826335178140633 0 0.00040188343861428141 0.006769444848829272 0 0.00049180041781035427 0.0068739593917906657 0 0.00038934966039699229 0.006961686879695117 0 0.00040951844827792047 0.0068826335178140633 0 0.00046777126380806227 0.0069368394186000229 0 0.0003733699995239325 0.006567728409835028 0 0.0023444916479098475 0.006839491189574754 0 0.001057040701453618 0.0068160050770621023 0 0.00032351167131392444 0.0086059542594905288 0 0.0012028784057758082 0.01099120264263901 0 0.00038934966039699229 0.006961686879695117 0 0.00046777126380806227 0.0069368394186000229 0 0.00052719222107991068 0.0070196325928661915 0 0.00053489103109657661 0.0069456826510207129 0 0.00052719222107991068 0.0070196325928661915 0 0.0005975409383609802 0.006987806733748902 0 0.00046777126380806227 0.0069368394186000229 0 0.00053489103109657661 0.0069456826510207129 0 0.00052719222107991068 0.0070196325928661915 0 0.0023444916479098475 0.006839491189574754 0 0.0019814806008290613 0.0082508514282953506 0 0.0031795560383787633 0.007818518552442635 0 0.0018654662864943719 0.0080788336990152889 0 0.0026131723610481271 0.0094127058938672081 0 0.0016912345323992326 0.0091139594311926385 0 0.00097354654539865576 0.0094597059008265302 0 0.0013187428319341168 0.011452021584637141 0 0.0019814806008290613 0.0082508514282953506 0 0.0031795560383787633 0.007818518552442635 0 0.0031549197017614857 0.0085271362983700624 0 0.0019814806008290613 0.0082508514282953506 0 0.0029876060277986612 0.0096628182006601605 0 0.0031549197017614857 0.0085271362983700624 0 0.0010607387609542589 0.0089272094189528309 0 0.0010324663615804671 0.0080965329011413213 0 0.00052659453994808279 0.0087837618060985865 0 0.0010607387609542589 0.0089272094189528309 0 0.0010324663615804671 0.0080965329011413213 0 0.0016912345323992326 0.0091139594311926385 0 0.0018654662864943719 0.0080788336990152889 0 0.0010324663615804671 0.0080965329011413213 0 0.0016912345323992326 0.0091139594311926385 0 0.0023444916479098475 0.006839491189574754 0 0.0019814806008290613 0.0082508514282953506 0 0.001057040701453618 0.0068160050770621023 0 0.0010324663615804671 0.0080965329011413213 0 0.001057040701453618 0.0068160050770621023 0 0.00054191482093542207 0.007271201192701986 0 0.00097354654539865576 0.0094597059008265302 0 0.00072507823839415694 0.008664792052140673 0 0.0018654662864943719 0.0080788336990152889 0 0.0010324663615804671 0.0080965329011413213 0 0.001057040701453618 0.0068160050770621023 0 0.0003733699995239325 0.006567728409835028 0 0.001057040701453618 0.0068160050770621023 0 0.00054191482093542207 0.007271201192701986 0 0.0003733699995239325 0.006567728409835028 0 -0.00013922574400786192 0.0070672289157300457 0 0.00054191482093542207 0.007271201192701986 0 -0.00013922574400786192 0.0070672289157300457 0 -0.00057628684433536483 0.0075127540851309084 0 0.00038837288048565997 0.0077936908585792093 0 -0.00013922574400786192 0.0070672289157300457 0 0.00054191482093542207 0.007271201192701986 0 0.00038837288048565997 0.0077936908585792093 0 0.0010324663615804671 0.0080965329011413213 0 0.00054191482093542207 0.007271201192701986 0 0.00038837288048565997 0.0077936908585792093 0 -0.0013727679151759196 0.0063323753185188297 0 -0.00013922574400786192 0.0070672289157300457 0 -0.00057628684433536483 0.0075127540851309084 0 -0.00057628684433536483 0.0075127540851309084 0 -0.00081527057532706896 0.0085521703963726478 0 -0.0012709024603784697 0.0075355954913686419 0 -0.00057628684433536483 0.0075127540851309084 0 -0.00026036479979670149 0.0086563716151964957 0 3.1210049312129413e-05 0.0081949675950989068 0 -0.00057628684433536483 0.0075127540851309084 0 -0.00026036479979670149 0.0086563716151964957 0 -0.00081527057532706896 0.0085521703963726478 0 -0.00057628684433536483 0.0075127540851309084 0 0.00038837288048565997 0.0077936908585792093 0 3.1210049312129413e-05 0.0081949675950989068 0 0.00038837288048565997 0.0077936908585792093 0 3.1210049312129413e-05 0.0081949675950989068 0 0.00052659453994808279 0.0087837618060985865 0 0.0010324663615804671 0.0080965329011413213 0 0.00038837288048565997 0.0077936908585792093 0 0.00052659453994808279 0.0087837618060985865 0 -0.00026036479979670149 0.0086563716151964957 0 3.1210049312129413e-05 0.0081949675950989068 0 0.00052659453994808279 0.0087837618060985865 0 0.00052659453994808279 0.0087837618060985865 0 0.00016981005713974682 0.0097645296636585978 0 0.00099969028183038424 0.0097368270518296014 0 -0.00026036479979670149 0.0086563716151964957 0 0.00052659453994808279 0.0087837618060985865 0 0.00016981005713974682 0.0097645296636585978 0 0.00016981005713974682 0.0097645296636585978 0 0.00059871972525087872 0.010269524162977722 0 0.00099969028183038424 0.0097368270518296014 0 -0.00081527057532706896 0.0085521703963726478 0 -0.00040464218444281907 0.0095279208324458887 0 -0.0010373689290056178 0.009448630478678513 0 -0.00026036479979670149 0.0086563716151964957 0 0.00016981005713974682 0.0097645296636585978 0 -0.00040464218444281907 0.0095279208324458887 0 -0.00026036479979670149 0.0086563716151964957 0 -0.00081527057532706896 0.0085521703963726478 0 -0.00040464218444281907 0.0095279208324458887 0 0.00016981005713974682 0.0097645296636585978 0 -0.00040464218444281907 0.0095279208324458887 0 -0.00046410705226533828 0.010548380202587441 0 -0.00040464218444281907 0.0095279208324458887 0 -0.00072865165209786808 0.0099970506302826667 0 -0.00046410705226533828 0.010548380202587441 0 -0.00072865165209786808 0.0099970506302826667 0 -0.0010373689290056178 0.009448630478678513 0 -0.0010357915272448971 0.010446698002047665 0 -0.00040464218444281907 0.0095279208324458887 0 -0.00072865165209786808 0.0099970506302826667 0 -0.0010373689290056178 0.009448630478678513 0 -0.00046410705226533828 0.010548380202587441 0 -0.00097403747181374581 0.011423868665601578 0 -0.00015907066949074391 0.011782883642086737 0 -0.00072865165209786808 0.0099970506302826667 0 -0.00046410705226533828 0.010548380202587441 0 -0.0010357915272448971 0.010446698002047665 0 -0.00046410705226533828 0.010548380202587441 0 -0.0010357915272448971 0.010446698002047665 0 -0.00097403747181374581 0.011423868665601578 0 -0.00046410705226533828 0.010548380202587441 0 0.00025132114897038278 0.010787310794731603 0 -0.00015907066949074391 0.011782883642086737 0 0.00016981005713974682 0.0097645296636585978 0 0.00059871972525087872 0.010269524162977722 0 0.00025132114897038278 0.010787310794731603 0 0.00059871972525087872 0.010269524162977722 0 0.00025132114897038278 0.010787310794731603 0 0.00095780858800170135 0.010780167550228854 0 0.00016981005713974682 0.0097645296636585978 0 -0.00046410705226533828 0.010548380202587441 0 0.00025132114897038278 0.010787310794731603 0 0.00025132114897038278 0.010787310794731603 0 0.00095780858800170135 0.010780167550228854 0 0.00046374527759565371 0.011538423721534071 0 0.00059871972525087872 0.010269524162977722 0 0.00095780858800170135 0.010780167550228854 0 0.00099969028183038424 0.0097368270518296014 0 0.00095780858800170135 0.010780167550228854 0 0.0017896450798581937 0.011135809387226031 0 0.0017149723322767096 0.010168760435592521 0 0.00095780858800170135 0.010780167550228854 0 0.0017149723322767096 0.010168760435592521 0 0.00099969028183038424 0.0097368270518296014 0 0.00095780858800170135 0.010780167550228854 0 0.0017896450798581937 0.011135809387226031 0 0.0010650229090565428 0.011849412473092957 0 0.0017896450798581937 0.011135809387226031 0 0.0024347182294224569 0.01054351803008776 0 0.0025735933978662607 0.011331346253919336 0 0.0017896450798581937 0.011135809387226031 0 0.0024347182294224569 0.01054351803008776 0 0.0017149723322767096 0.010168760435592521 0 0.0024347182294224569 0.01054351803008776 0 0.0017149723322767096 0.010168760435592521 0 0.0026131723610481271 0.0094127058938672081 0 0.0017149723322767096 0.010168760435592521 0 0.0026131723610481271 0.0094127058938672081 0 0.0016912345323992326 0.0091139594311926385 0 0.0010607387609542589 0.0089272094189528309 0 0.0016912345323992326 0.0091139594311926385 0 0.00099969028183038424 0.0097368270518296014 0 0.0010607387609542589 0.0089272094189528309 0 0.00052659453994808279 0.0087837618060985865 0 0.00099969028183038424 0.0097368270518296014 0 0.0017149723322767096 0.010168760435592521 0 0.0016912345323992326 0.0091139594311926385 0 0.00099969028183038424 0.0097368270518296014 0 0.00022995300494186742 0.0044477887271254946 0 -5.0109352121064705e-05 0.0046628616012026943 0 0.00036285539275204094 0.0047025856680289026 0 -5.0109352121064705e-05 0.0046628616012026943 0 0.00036285539275204094 0.0047025856680289026 0 -0.00040998019089486638 0.0052037481646208051 0 0.00036285539275204094 0.0047025856680289026 0 3.7999247276065021e-05 0.0057155903149104749 0 -0.00040998019089486638 0.0052037481646208051 0 0.00039981160939382172 0.0039884357404745482 0 0.00055406387733850234 0.0033979090838276312 0 0.00036285539275204094 0.0047025856680289026 0 0.00029544223067405005 0.0068594692401328285 0 0.00036285539275204094 0.0047025856680289026 0 3.7999247276065021e-05 0.0057155903149104749 0 0.00026862147949240252 0.0050525359248802673 0 0.0002803570717011143 0.0048343683909392457 0 3.7999247276065021e-05 0.0057155903149104749 0 -0.00040998019089486638 0.0052037481646208051 0 -0.00070857715750341878 0.0059294728172889135 0 -0.0015826228506624906 0.0064818436820002238 0 -0.00070857715750341878 0.0059294728172889135 0 -0.0012212319301997496 0.0059557187172598431 0 -0.00040998019089486638 0.0052037481646208051 0 -0.00070857715750341878 0.0059294728172889135 0 -0.0012212319301997496 0.0059557187172598431 0 -5.0109352121064705e-05 0.0046628616012026943 0 -0.00089427720398024639 0.005198202913242073 0 -0.00042706310214739827 0.0041288190360123569 0 -5.0109352121064705e-05 0.0046628616012026943 0 -0.00040998019089486638 0.0052037481646208051 0 -0.00089427720398024639 0.005198202913242073 0 -0.00040998019089486638 0.0052037481646208051 0 -0.0012212319301997496 0.0059557187172598431 0 -0.00089427720398024639 0.005198202913242073 0 -0.00089427720398024639 0.005198202913242073 0 -0.0020075768330232433 0.0064570285658653104 0 -0.0019877745738137581 0.0048131333785562704 0 -0.0011234580847840668 0.0071787788999486835 0 -0.0010262670531842838 0.0073839800023999301 0 -0.0012212319301997496 0.0059557187172598431 0 -0.00089427720398024639 0.005198202913242073 0 -0.0020075768330232433 0.0064570285658653104 0 -0.0020075768330232433 0.0064570285658653104 0 -0.0015508555724028643 0.0083531941998552569 0 -0.0026574556666609851 0.0085822951001829784 0 -0.0015826228506624906 0.0064818436820002238 0 -0.0012212319301997496 0.0059557187172598431 0 -0.0020075768330232433 0.0064570285658653104 0 -0.0015826228506624906 0.0064818436820002238 0 -0.0020075768330232433 0.0064570285658653104 0 -0.0015854007393863324 0.0066767926688604306 0 -0.0020075768330232433 0.0064570285658653104 0 -0.0015854007393863324 0.0066767926688604306 0 -0.0012709024603784697 0.0075355954913686419 0 -0.00057628684433536483 0.0075127540851309084 0 -0.0015854007393863324 0.0066767926688604306 0 -0.0012709024603784697 0.0075355954913686419 0 -0.0013727679151759196 0.0063323753185188297 0 -0.00057628684433536483 0.0075127540851309084 0 -0.0015854007393863324 0.0066767926688604306 0 -0.0020075768330232433 0.0064570285658653104 0 -0.0012709024603784697 0.0075355954913686419 0 -0.0015508555724028643 0.0083531941998552569 0 -0.00081527057532706896 0.0085521703963726478 0 -0.0012709024603784697 0.0075355954913686419 0 -0.0015508555724028643 0.0083531941998552569 0 -0.00081527057532706896 0.0085521703963726478 0 -0.0015508555724028643 0.0083531941998552569 0 -0.0010373689290056178 0.009448630478678513 0 -0.0015508555724028643 0.0083531941998552569 0 -0.0018005753556843173 0.0094282719576874677 0 -0.0010373689290056178 0.009448630478678513 0 -0.0015508555724028643 0.0083531941998552569 0 -0.0018005753556843173 0.0094282719576874677 0 -0.0026574556666609851 0.0085822951001829784 0 -0.0018005753556843173 0.0094282719576874677 0 -0.0017968102938944919 0.010516625488699735 0 -0.0027358572761211602 0.010278801990208485 0 -0.0018005753556843173 0.0094282719576874677 0 -0.0014245564753316866 0.010056723179532953 0 -0.0017968102938944919 0.010516625488699735 0 -0.0018005753556843173 0.0094282719576874677 0 -0.0014245564753316866 0.010056723179532953 0 -0.0010373689290056178 0.009448630478678513 0 -0.0014245564753316866 0.010056723179532953 0 -0.0010373689290056178 0.009448630478678513 0 -0.0010357915272448971 0.010446698002047665 0 -0.0013677095244470357 0.010971823281650191 0 -0.0017968102938944919 0.010516625488699735 0 -0.0017172643047009897 0.012115534091255696 0 -0.0014245564753316866 0.010056723179532953 0 -0.0010357915272448971 0.010446698002047665 0 -0.0013677095244470357 0.010971823281650191 0 -0.0010357915272448971 0.010446698002047665 0 -0.0013677095244470357 0.010971823281650191 0 -0.00097403747181374581 0.011423868665601578 0 -0.0014245564753316866 0.010056723179532953 0 -0.0013677095244470357 0.010971823281650191 0 -0.0017968102938944919 0.010516625488699735 0 -0.0017968102938944919 0.010516625488699735 0 -0.0022282358848775825 0.010412477090056538 0 -0.0017172643047009897 0.012115534091255696 0 0.00044103010004070415 0.008160663297424332 0 4.5356563356306968e-05 0.00842598493863248 0 0.00045501778424110098 0.0088540464219565018 0 -0.00068599868149641589 0.0080994454524132425 0 -0.00051105881047025666 0.0099418813502753067 0 -0.00077973187752685227 0.0081529240164836571 0 -0.00068599868149641589 0.0080994454524132425 0 -0.0019200835659944381 0.0037850428547679281 0 -0.0019877745738137581 0.0048131333785562704 0 -0.00042706310214739827 0.0041288190360123569 0 -0.0018005753556843173 0.0094282719576874677 0 -0.0027358572761211602 0.010278801990208485 0 -0.0026574556666609851 0.0085822951001829784 0 -0.00068599868149641589 0.0080994454524132425 0 -0.0010262670531842838 0.0073839800023999301 0 -0.00068599868149641589 0.0080994454524132425 0 -0.00054944453524379368 0.0069639054283209424 0 -0.00089427720398024639 0.005198202913242073 0 -0.0019877745738137581 0.0048131333785562704 0 -0.00042706310214739827 0.0041288190360123569 0 -0.00018141926362607729 0.0080614917733428555 0 4.5356563356306968e-05 0.00842598493863248 0 -0.00034232307480896751 0.0085095639161217561 0 0.00044103010004070415 0.008160663297424332 0 -0.00018141926362607729 0.0080614917733428555 0 4.5356563356306968e-05 0.00842598493863248 0 -0.00062723611311098269 0.0083123849446326333 0 -0.00018141926362607729 0.0080614917733428555 0 -0.00034232307480896751 0.0085095639161217561 0 -0.00062723611311098269 0.0083123849446326333 0 -0.00057337634869285097 0.008613232225797688 0 -0.00034232307480896751 0.0085095639161217561 0 -0.00063167226671343769 0.0080213303896985947 0 -0.00062723611311098269 0.0083123849446326333 0 -0.00018141926362607729 0.0080614917733428555 0 0.00024190893466456915 0.0045118307468590222 0 -5.0109352121064705e-05 0.0046628616012026943 0 -0.00042706310214739827 0.0041288190360123569 0 -0.00044024639208677498 0.006284906104120986 0 -0.00054944453524379368 0.0069639054283209424 0 -0.00070423909018660076 0.0092095184286382723 0 -0.00040922856192587641 0.0093163842760518364 0 -0.00053012936706643417 0.0090998818067294877 0 -0.00040922856192587641 0.0093163842760518364 0 -0.00053012936706643417 0.0090998818067294877 0 -0.00041050152413823067 0.0089225538332709763 0 -0.00040922856192587641 0.0093163842760518364 0 -0.00041050152413823067 0.0089225538332709763 0 -0.00010154781305293586 0.0092658941716074437 0 -0.00070423909018660076 0.0092095184286382723 0 -0.00053012936706643417 0.0090998818067294877 0 -0.00061143438905317412 0.0088661064132989076 0 -0.00053012936706643417 0.0090998818067294877 0 -0.00061143438905317412 0.0088661064132989076 0 -0.00041050152413823067 0.0089225538332709763 0 -0.00061143438905317412 0.0088661064132989076 0 -0.00057337634869285097 0.008613232225797688 0 -0.00041050152413823067 0.0089225538332709763 0 -0.00057337634869285097 0.008613232225797688 0 -0.00034232307480896751 0.0085095639161217561 0 -0.00041050152413823067 0.0089225538332709763 0 -0.00034232307480896751 0.0085095639161217561 0 -0.00041050152413823067 0.0089225538332709763 0 -8.1966864298728908e-05 0.0087834310296622687 0 4.5356563356306968e-05 0.00842598493863248 0 -8.1966864298728908e-05 0.0087834310296622687 0 0.00045501778424110098 0.0088540464219565018 0 -8.1966864298728908e-05 0.0087834310296622687 0 -0.00010154781305293586 0.0092658941716074437 0 0.00045501778424110098 0.0088540464219565018 0 4.5356563356306968e-05 0.00842598493863248 0 -0.00034232307480896751 0.0085095639161217561 0 -8.1966864298728908e-05 0.0087834310296622687 0 -0.00041050152413823067 0.0089225538332709763 0 -8.1966864298728908e-05 0.0087834310296622687 0 -0.00010154781305293586 0.0092658941716074437 0 -0.00010154781305293586 0.0092658941716074437 0 0.00045501778424110098 0.0088540464219565018 0 0.00040496620408667625 0.0098223997415615022 0 -0.0017172643047009897 0.012115534091255696 0 -0.00080034999725340052 0.012880927226946205 0 -0.0006534840065829413 0.01293068582795758 0 -0.00051105881047025666 0.0099418813502753067 0 -0.00024628000585634225 0.010836135776938921 0 -0.0013677095244470357 0.010971823281650191 0 -0.0017172643047009897 0.012115534091255696 0 -0.00097403747181374581 0.011423868665601578 0 -0.0017172643047009897 0.012115534091255696 0 -0.00097403747181374581 0.011423868665601578 0 -0.0006602522771865985 0.012441104934051721 0 -0.0017172643047009897 0.012115534091255696 0 -0.00080034999725340052 0.012880927226946205 0 -0.0006602522771865985 0.012441104934051721 0 -0.00080034999725340052 0.012880927226946205 0 -0.00053470409538917095 0.012850432981202919 0 -0.0006534840065829413 0.01293068582795758 0 -0.00080034999725340052 0.012880927226946205 0 -0.00053470409538917095 0.012850432981202919 0 -0.00039861718955551872 0.013485464751626607 0 -0.00053470409538917095 0.012850432981202919 0 -5.2886578444952788e-09 0.011293701308491642 0 -1.0537294648512386e-06 0.013341058622093711 0 2.4764359824428682e-06 0.011284712622601922 0 0.00040496620408667625 0.0098223997415615022 0 -2.2291100477669558e-06 0.010839718093884836 0 -0.00053470409538917095 0.012850432981202919 0 -5.2886578444952788e-09 0.011293701308491642 0 -0.0006534840065829413 0.01293068582795758 0 -4.7761765749559875e-07 0.011289905644065687 0 -0.00024628000585634225 0.010836135776938921 0 -0.00010154781305293586 0.0092658941716074437 0 0.00040496620408667625 0.0098223997415615022 0 -0.00039762829257479829 0.010017824112076426 0 -0.00040922856192587641 0.0093163842760518364 0 -0.00010154781305293586 0.0092658941716074437 0 -0.00039762829257479829 0.010017824112076426 0 -2.6850583369290359e-07 0.01083274010642973 0 -0.00037542638928077991 0.0098022452685647774 0 1.0371513581198308e-06 0.010831949587282622 0 -5.2659113551550096e-07 0.0093452401479098921 0 5.0618029550286008e-05 0.0088023579525951384 0 0.00040496620408667625 0.0098223997415615022 0 -2.2291100477669558e-06 0.010839718093884836 0 -0.00039762829257479829 0.010017824112076426 0 -0.00026522356207820384 0.0084270919394590638 0 -5.2659113551550096e-07 0.0093452401479098921 0 5.0618029550286008e-05 0.0088023579525951384 0 -0.00055617148858489568 0.0092501888935043117 0 -0.00037542638928077991 0.0098022452685647774 0 -0.00070423909018660076 0.0092095184286382723 0 -0.00040922856192587641 0.0093163842760518364 0 -0.00039762829257479829 0.010017824112076426 0 -0.00031928766159832974 0.008463483163036278 0 -0.00026522356207820384 0.0084270919394590638 0 5.0618029550286008e-05 0.0088023579525951384 0 -0.00031928766159832974 0.008463483163036278 0 -0.00033640866502580012 0.0084393066039121032 0 5.0618029550286008e-05 0.0088023579525951384 0 0.00087428289797226327 0.013058927466341977 0 0.00043167577257138091 0.012308816823994274 0 -7.279605535936008e-05 0.012956314858038409 0 0.00087428289797226327 0.013058927466341977 0 -7.279605535936008e-05 0.012956314858038409 0 0.00017121813857612478 0.014501623681633966 0 0.00087428289797226327 0.013058927466341977 0 0.0018732293174646656 0.012200351384964357 0 0.0021483496175920529 0.014316874860270735 0 0.00087428289797226327 0.013058927466341977 0 0.0018732293174646656 0.012200351384964357 0 0.0010650229090565428 0.011849412473092957 0 0.0017896450798581937 0.011135809387226031 0 0.0018732293174646656 0.012200351384964357 0 0.0025735933978662607 0.011331346253919336 0 0.0017896450798581937 0.011135809387226031 0 0.0018732293174646656 0.012200351384964357 0 0.0010650229090565428 0.011849412473092957 0 0.00087428289797226327 0.013058927466341977 0 0.0010650229090565428 0.011849412473092957 0 0.00043167577257138091 0.012308816823994274 0 0.0010650229090565428 0.011849412473092957 0 0.00043167577257138091 0.012308816823994274 0 0.00046374527759565371 0.011538423721534071 0 0.00095780858800170135 0.010780167550228854 0 0.0010650229090565428 0.011849412473092957 0 0.00046374527759565371 0.011538423721534071 0 0.00043167577257138091 0.012308816823994274 0 -0.00015907066949074391 0.011782883642086737 0 -7.279605535936008e-05 0.012956314858038409 0 0.00025132114897038278 0.010787310794731603 0 0.00046374527759565371 0.011538423721534071 0 -0.00015907066949074391 0.011782883642086737 0 0.00043167577257138091 0.012308816823994274 0 0.00046374527759565371 0.011538423721534071 0 -0.00015907066949074391 0.011782883642086737 0 -0.00097403747181374581 0.011423868665601578 0 -0.00015907066949074391 0.011782883642086737 0 -0.0006602522771865985 0.012441104934051721 0 -0.00080034999725340052 0.012880927226946205 0 -0.0006602522771865985 0.012441104934051721 0 -0.00039861718955551872 0.013485464751626607 0 -0.00015907066949074391 0.011782883642086737 0 -0.0006602522771865985 0.012441104934051721 0 -7.279605535936008e-05 0.012956314858038409 0 -0.0006602522771865985 0.012441104934051721 0 -7.279605535936008e-05 0.012956314858038409 0 -0.00039861718955551872 0.013485464751626607 0 -7.279605535936008e-05 0.012956314858038409 0 -0.00039861718955551872 0.013485464751626607 0 0.00017121813857612478 0.014501623681633966 0 -0.00053470409538917095 0.012850432981202919 0 -0.00039861718955551872 0.013485464751626607 0 -1.0537294648512386e-06 0.013341058622093711 0 -0.00039861718955551872 0.013485464751626607 0 -1.0537294648512386e-06 0.013341058622093711 0 -1.2659023865007451e-06 0.015393251431475395 0 -0.00039861718955551872 0.013485464751626607 0 -1.2659023865007451e-06 0.015393251431475395 0 0.00017121813857612478 0.014501623681633966 0 -1.2659023865007451e-06 0.015393251431475395 0 0.00017121813857612478 0.014501623681633966 0 5.0071897440563838e-06 0.01744015156227904 0 0.00087428289797226327 0.013058927466341977 0 0.00017121813857612478 0.014501623681633966 0 0.0021483496175920529 0.014316874860270735 0 0.00017121813857612478 0.014501623681633966 0 5.0071897440563838e-06 0.01744015156227904 0 0.0021483496175920529 0.014316874860270735 0 2.1661385703264815e-06 0.017447351455945063 0 8.1283475613168926e-05 0.018597628232327201 0 -7.2174104548900116e-07 0.01901929834883586 0 2.1661385703264815e-06 0.017447351455945063 0 8.1283475613168926e-05 0.018597628232327201 0 0.00067139995812378402 0.020403143726554832 0 1.5786867028822653e-06 0.017444329054552805 0 0.00081833843639466438 0.017303893386815112 0 8.1283475613168926e-05 0.018597628232327201 0 -3.7966123743711088e-05 0.019849423472080765 0 0.00014360745569280261 0.019756414437258649 0 8.1283475613168926e-05 0.018597628232327201 0 -7.2174104548900116e-07 0.01901929834883586 0 -3.7966123743711088e-05 0.019849423472080765 0 -7.2174104548900116e-07 0.01901929834883586 0 -3.7966123743711088e-05 0.019849423472080765 0 -0.00011924625279603156 0.020196979720239098 0 -3.7966123743711088e-05 0.019849423472080765 0 -0.00017239696737539488 0.020640081238580604 0 -0.00011924625279603156 0.020196979720239098 0 -3.7966123743711088e-05 0.019849423472080765 0 0.00012022343722134931 0.0201793369318213 0 0.00014360745569280261 0.019756414437258649 0 -3.7966123743711088e-05 0.019849423472080765 0 0.00012022343722134931 0.0201793369318213 0 -5.0621959468095369e-05 0.020488321229545321 0 0.00012022343722134931 0.0201793369318213 0 -5.0621959468095369e-05 0.020488321229545321 0 0.00014051567798214511 0.020681451687373304 0 -3.7966123743711088e-05 0.019849423472080765 0 -5.0621959468095369e-05 0.020488321229545321 0 -0.00017239696737539488 0.020640081238580604 0 0.00073635836304850413 0.019415461274321734 0 0.00084159237604623739 0.019478762318721237 0 8.1283475613168926e-05 0.018597628232327201 0 0.00067139995812378402 0.020403143726554832 0 0.0003962515828307893 0.020801274779867519 0 8.1283475613168926e-05 0.018597628232327201 0 0.00014360745569280261 0.019756414437258649 0 0.00054972131992551195 0.020468392254221451 0 0.00012022343722134931 0.0201793369318213 0 0.00014360745569280261 0.019756414437258649 0 0.00054972131992551195 0.020468392254221451 0 0.00012022343722134931 0.0201793369318213 0 0.00054972131992551195 0.020468392254221451 0 0.00014051567798214511 0.020681451687373304 0 0.00054972131992551195 0.020468392254221451 0 0.00014051567798214511 0.020681451687373304 0 0.00036443297426077127 0.021115199052638367 0 0.0018732293174646656 0.012200351384964357 0 0.0021483496175920529 0.014316874860270735 0 0.0031657071448109187 0.012143157189915987 0 0.00081833843639466438 0.017303893386815112 0 0.00132450503212937 0.017340140845680422 0 0.00084159237604623739 0.019478762318721237 0 0.00132450503212937 0.017340140845680422 0 0.00067139995812378402 0.020403143726554832 0 0.0003962515828307893 0.020801274779867519 0 0.00028250091470193142 0.022769324586844723 0 -5.0621959468095369e-05 0.020488321229545321 0 -0.00019027985382342056 0.020932816544346821 0 -0.00017239696737539488 0.020640081238580604 0 -5.0621959468095369e-05 0.020488321229545321 0 0.00014051567798214511 0.020681451687373304 0 -0.00019027985382342056 0.020932816544346821 0 0.00014051567798214511 0.020681451687373304 0 0.00036443297426077127 0.021115199052638367 0 -0.00019027985382342056 0.020932816544346821 0 0.0019696669794810194 0.018449176429822411 0 0.0018005624816428462 0.016214598769573863 0 -0.00019027985382342056 0.020932816544346821 0 -0.00028975643023746589 0.020807346091716958 0 -0.00019493536489838129 0.020840795676380936 0 0.00036443297426077127 0.021115199052638367 0 -0.00019027985382342056 0.020932816544346821 0 0.00026881076333870173 0.021545329439822705 0 0.00132450503212937 0.017340140845680422 0 0.0017426579997310157 0.015179117182968516 0 0.0018732293174646656 0.012200351384964357 0 0.0031657071448109187 0.012143157189915987 0 0.0025735933978662607 0.011331346253919336 0 0.0031657071448109187 0.012143157189915987 0 0.0034138686031020891 0.010697906271708003 0 0.0025735933978662607 0.011331346253919336 0 0.00132450503212937 0.017340140845680422 0 0.0018005624816428462 0.016214598769573863 0 -9.8333324811231658e-05 0.020928566838798523 0 -5.5529779080733869e-06 0.02089788281552726 0 -6.302685827492455e-05 0.020820206682780916 0 -9.8333324811231658e-05 0.020928566838798523 0 -0.00013989084102067602 0.02086512539463117 0 -6.302685827492455e-05 0.020820206682780916 0 -0.00013989084102067602 0.02086512539463117 0 -0.00019027985382342056 0.020932816544346821 0 -0.00019493536489838129 0.020840795676380936 0 -9.8333324811231658e-05 0.020928566838798523 0 -0.00013989084102067602 0.02086512539463117 0 -0.00019027985382342056 0.020932816544346821 0 -0.00019027985382342056 0.020932816544346821 0 -0.00015581217140767 0.021087073264057402 0 -0.00017239696737539488 0.020640081238580604 0 -9.8333324811231658e-05 0.020928566838798523 0 -0.00019027985382342056 0.020932816544346821 0 -0.00015581217140767 0.021087073264057402 0 -0.00016879843059804721 0.021743709641262994 0 -0.00012696590935935584 0.021832806913127584 0 -9.8333324811231658e-05 0.020928566838798523 0 -0.00015581217140767 0.021087073264057402 0 3.1532712495228705e-05 0.021017525859031789 0 -0.00015581217140767 0.021087073264057402 0 -0.00013425220784849635 0.021291389873829544 0 -5.5893878501158478e-05 0.021970819750308113 0 -0.00015581217140767 0.021087073264057402 0 -0.00013425220784849635 0.021291389873829544 0 -0.00017239696737539488 0.020640081238580604 0 -0.00013425220784849635 0.021291389873829544 0 -0.00017239696737539488 0.020640081238580604 0 -0.00011924625279603156 0.020196979720239098 0 -0.00013425220784849635 0.021291389873829544 0 -3.2985342994248938e-07 0.020595767077123094 0 -0.00011924625279603156 0.020196979720239098 0 -7.2174104548900116e-07 0.01901929834883586 0 -3.2985342994248938e-07 0.020595767077123094 0 -0.00011924625279603156 0.020196979720239098 0 -0.00013425220784849635 0.021291389873829544 0 -3.2985342994248938e-07 0.020595767077123094 0 -8.5690118023650602e-08 0.022167031033206969 0 -0.00013425220784849635 0.021291389873829544 0 -8.5690118023650602e-08 0.022167031033206969 0 -1.7903895711634801e-05 0.021908427333646771 0 -4.7794502586940168e-07 0.02217142537358744 0 -0.00027968232227803164 0.022869345831651022 0 -8.5690118023650602e-08 0.022167031033206969 0 -1.7903895711634801e-05 0.021908427333646771 0 -9.4656620780781621e-05 0.021992928183211437 0 3.3183961752373357e-07 0.022170818991204058 0 4.420992652723493e-08 0.024048724466945417 0 5.4611257403067004e-05 0.0241020200303938 0 -1.7903895711634801e-05 0.021908427333646771 0 -9.4656620780781621e-05 0.021992928183211437 0 -0.00011690886836616931 0.022145965738453642 0 -1.7903895711634801e-05 0.021908427333646771 0 -0.00011690886836616931 0.022145965738453642 0 -7.6817120432233732e-05 0.021933306144017069 0 -0.00011690886836616931 0.022145965738453642 0 -0.00021398651644486839 0.022380914139826506 0 -7.6817120432233732e-05 0.021933306144017069 0 -0.00013425220784849635 0.021291389873829544 0 -1.7903895711634801e-05 0.021908427333646771 0 -7.6817120432233732e-05 0.021933306144017069 0 -0.00013425220784849635 0.021291389873829544 0 -7.6817120432233732e-05 0.021933306144017069 0 -5.5893878501158478e-05 0.021970819750308113 0 -1.7867897949736599e-06 0.025926453230178569 0 -0.00015667104930576289 0.025389897605842402 0 -0.00037890570611901213 0.025217269219293209 0 4.420992652723493e-08 0.024048724466945417 0 5.4611257403067004e-05 0.0241020200303938 0 -0.00037890570611901213 0.025217269219293209 0 -9.4656620780781621e-05 0.021992928183211437 0 -0.00011690886836616931 0.022145965738453642 0 -0.00043158688969442406 0.022795434717042904 0 4.420992652723493e-08 0.024048724466945417 0 -1.7867897949736599e-06 0.025926453230178569 0 -0.00037890570611901213 0.025217269219293209 0 -0.00027968232227803164 0.022869345831651022 0 -0.00016701204307344649 0.023276221356479592 0 -0.00011690886836616931 0.022145965738453642 0 -0.00021398651644486839 0.022380914139826506 0 -0.00043158688969442406 0.022795434717042904 0 -0.00021398651644486839 0.022380914139826506 0 -0.00043158688969442406 0.022795434717042904 0 -0.00039987586923835962 0.022891394504330077 0 -0.00016701204307344649 0.023276221356479592 0 2.2778155783942259e-05 0.023377850708322091 0 -0.00043158688969442406 0.022795434717042904 0 -0.00028423395306783386 0.023496391546378281 0 -4.8765168100176531e-05 0.024310931914529033 0 -0.00015667104930576289 0.025389897605842402 0 -0.00037890570611901213 0.025217269219293209 0 -4.8765168100176531e-05 0.024310931914529033 0 -0.00043158688969442406 0.022795434717042904 0 -0.00028423395306783386 0.023496391546378281 0 -0.00039987586923835962 0.022891394504330077 0 -0.00026273750087850754 0.02297633366462213 0 -0.00039987586923835962 0.022891394504330077 0 -0.00035707917119013152 0.022824172361623509 0 -0.00026273750087850754 0.02297633366462213 0 -0.00028423395306783386 0.023496391546378281 0 -0.00039987586923835962 0.022891394504330077 0 -0.00021398651644486839 0.022380914139826506 0 -0.00039987586923835962 0.022891394504330077 0 -0.00027524057932542151 0.022653213003114549 0 0.00021126497929038911 0.020886360863269938 0 0.00030433639492980034 0.02091591187713128 0 0.00016844383085408827 0.020963536981894695 0 0.00010719771573252308 0.022342015058752676 0 -3.7464103412728432e-05 0.022039872548164252 0 -0.00039987586923835962 0.022891394504330077 0 -0.00035707917119013152 0.022824172361623509 0 -0.00027524057932542151 0.022653213003114549 0 0.00046131270726983218 0.022854869129790446 0 0.00032904640772303355 0.023119960953923109 0 0.00014012643524432714 0.023026107258992731 0 -8.9181255828984664e-05 0.02345502744033217 0 -0.0002917188805542119 0.023135336818327776 0 0.00013459689716033619 0.023209778296485208 0 0.00010719771573252308 0.022342015058752676 0 5.9620562217401156e-05 0.0224308655873715 0 -0.0002917188805542119 0.023135336818327776 0 0.00014012643524432714 0.023026107258992731 0 0.00013459689716033619 0.023209778296485208 0 0.00018135135672323635 0.022762938530614035 0 0.00010719771573252308 0.022342015058752676 0 -0.00021398651644486839 0.022380914139826506 0 -5.5893878501158478e-05 0.021970819750308113 0 -0.00027524057932542151 0.022653213003114549 0 -0.00012696590935935584 0.021832806913127584 0 -3.7464103412728432e-05 0.022039872548164252 0 -0.00021398651644486839 0.022380914139826506 0 -7.6817120432233732e-05 0.021933306144017069 0 -5.5893878501158478e-05 0.021970819750308113 0 0.00021126497929038911 0.020886360863269938 0 0.00016844383085408827 0.020963536981894695 0 0.00013024059234560448 0.020858202518356177 0 0.00016844383085408827 0.020963536981894695 0 6.9776425604207277e-05 0.020917514164964505 0 0.00013024059234560448 0.020858202518356177 0 3.1532712495228705e-05 0.021017525859031789 0 0.00016844383085408827 0.020963536981894695 0 6.9776425604207277e-05 0.020917514164964505 0 3.1532712495228705e-05 0.021017525859031789 0 6.9776425604207277e-05 0.020917514164964505 0 -5.5529779080733869e-06 0.02089788281552726 0 6.9776425604207277e-05 0.020917514164964505 0 -5.5529779080733869e-06 0.02089788281552726 0 3.6267676871543871e-05 0.02082131777877208 0 -9.8333324811231658e-05 0.020928566838798523 0 3.1532712495228705e-05 0.021017525859031789 0 -5.5529779080733869e-06 0.02089788281552726 0 -5.5529779080733869e-06 0.02089788281552726 0 3.6267676871543871e-05 0.02082131777877208 0 -6.302685827492455e-05 0.020820206682780916 0 3.6267676871543871e-05 0.02082131777877208 0 -7.6760094978013786e-06 0.02074999906029899 0 4.4187262349317098e-05 0.020740366924113442 0 3.6267676871543871e-05 0.02082131777877208 0 -7.6760094978013786e-06 0.02074999906029899 0 -6.302685827492455e-05 0.020820206682780916 0 3.6267676871543871e-05 0.02082131777877208 0 9.2913722494267209e-05 0.020760858752737598 0 4.4187262349317098e-05 0.020740366924113442 0 6.9776425604207277e-05 0.020917514164964505 0 3.6267676871543871e-05 0.02082131777877208 0 0.00013024059234560448 0.020858202518356177 0 0.00013024059234560448 0.020858202518356177 0 9.2913722494267209e-05 0.020760858752737598 0 0.00019686558075982733 0.0207910368719652 0 0.00021126497929038911 0.020886360863269938 0 0.00013024059234560448 0.020858202518356177 0 0.00019686558075982733 0.0207910368719652 0 3.6267676871543871e-05 0.02082131777877208 0 0.00013024059234560448 0.020858202518356177 0 9.2913722494267209e-05 0.020760858752737598 0 0.001467652354363724 0.024010868981966384 0 0.00097170298190512965 0.023398046853763784 0 0.0010070509477373107 0.023876222980911247 0 9.2913722494267209e-05 0.020760858752737598 0 8.9776346044188925e-05 0.020672953789311464 0 0.00019686558075982733 0.0207910368719652 0 0.000618607280097767 0.023415441264292444 0 0.00029846506827976388 0.022585420604777234 0 9.2913722494267209e-05 0.020760858752737598 0 8.9776346044188925e-05 0.020672953789311464 0 6.0483755318573851e-05 0.02068379438979168 0 0.000618607280097767 0.023415441264292444 0 0.0006253096264436308 0.023385215802690668 0 8.7755655496230933e-05 0.020674906088153762 0 6.0483755318573851e-05 0.02068379438979168 0 2.7285228644547198e-05 0.020669932358292318 0 6.0483755318573851e-05 0.02068379438979168 0 2.0813250188534521e-05 0.020706524926225954 0 4.4187262349317098e-05 0.020740366924113442 0 6.0483755318573851e-05 0.02068379438979168 0 2.0813250188534521e-05 0.020706524926225954 0 2.7285228644547198e-05 0.020669932358292318 0 2.0813250188534521e-05 0.020706524926225954 0 -7.6760094978013786e-06 0.02074999906029899 0 -2.0285112377401994e-05 0.02068946256700439 0 2.0813250188534521e-05 0.020706524926225954 0 2.7285228644547198e-05 0.020669932358292318 0 -2.0285112377401994e-05 0.02068946256700439 0 2.0813250188534521e-05 0.020706524926225954 0 -7.6760094978013786e-06 0.02074999906029899 0 4.4187262349317098e-05 0.020740366924113442 0 9.2913722494267209e-05 0.020760858752737598 0 6.0483755318573851e-05 0.02068379438979168 0 4.4187262349317098e-05 0.020740366924113442 0 0.00046131270726983218 0.022854869129790446 0 0.00032904640772303355 0.023119960953923109 0 0.00053698451825397045 0.023312409313763913 0 0.00019386200945981422 0.023337558649779468 0 0.00032904640772303355 0.023119960953923109 0 0.00014012643524432714 0.023026107258992731 0 0.00019386200945981422 0.023337558649779468 0 0.00032904640772303355 0.023119960953923109 0 0.00053698451825397045 0.023312409313763913 0 0.00010719771573252308 0.022342015058752676 0 0.00029846506827976388 0.022585420604777234 0 0.00021126497929038911 0.020886360863269938 0 0.00030433639492980034 0.02091591187713128 0 0.00019686558075982733 0.0207910368719652 0 0.00046131270726983218 0.022854869129790446 0 0.00053698451825397045 0.023312409313763913 0 0.00097170298190512965 0.023398046853763784 0 0.00053698451825397045 0.023312409313763913 0 0.00097170298190512965 0.023398046853763784 0 0.00064442759619275656 0.023899705219502469 0 0.00097170298190512965 0.023398046853763784 0 0.0010070509477373107 0.023876222980911247 0 0.00064442759619275656 0.023899705219502469 0 0.0010070509477373107 0.023876222980911247 0 0.00064442759619275656 0.023899705219502469 0 0.00095930913616753036 0.024179626008730852 0 0.00019386200945981422 0.023337558649779468 0 0.00053698451825397045 0.023312409313763913 0 0.00064442759619275656 0.023899705219502469 0 0.00034462465138361732 0.023728879986880901 0 0.00064442759619275656 0.023899705219502469 0 0.00034389005912602603 0.024022954782934924 0 -0.00011363517832603304 0.024371172232359843 0 5.8123751888286166e-06 0.024308182131140388 0 0.00032943894634827198 0.024257251815934772 0 0.00052458746271391739 0.024290635322451449 0 0.00013921010262471037 0.024443908957050852 0 0.00064442759619275656 0.023899705219502469 0 0.00034389005912602603 0.024022954782934924 0 0.00053945281460319994 0.024306270492209774 0 0.00034389005912602603 0.024022954782934924 0 0.00032943894634827198 0.024257251815934772 0 0.00053945281460319994 0.024306270492209774 0 0.00016021208770714842 0.025985944492720809 0 0.00015573476017505865 0.026068480467742832 0 0.0004489405110260419 0.024784116997968116 0 0.00049084546441749866 0.02476448548702323 0 0.0005138748521721358 0.024789373473304909 0 0.00015573476017505865 0.026068480467742832 0 0.00048083214028881918 0.025920702450142687 0 0.00015573476017505865 0.026068480467742832 0 0.00052732922804080195 0.024673008576936172 0 0.00064442759619275656 0.023899705219502469 0 0.00053945281460319994 0.024306270492209774 0 0.00095930913616753036 0.024179626008730852 0 -0.00016243738730931651 0.03514697300887664 0 -0.0006946092145743919 0.035057703384981452 0 -0.00042238312371891198 0.034735595256770148 0 0.00015573476017505865 0.026068480467742832 0 -0.00042757804438636613 0.028200283674097163 0 -0.00016243738730931651 0.03514697300887664 0 0.00025743820544085153 0.034992863839854949 0 7.2632031708242211e-05 0.034670331695712084 0 -0.00016243738730931651 0.03514697300887664 0 7.2632031708242211e-05 0.034670331695712084 0 -0.00042238312371891198 0.034735595256770148 0 8.7755655496230933e-05 0.020674906088153762 0 2.7285228644547198e-05 0.020669932358292318 0 -1.5612447555580143e-05 0.020624655726852719 0 0.00053131495537548615 0.02474705448827871 0 0.0005138748521721358 0.024789373473304909 0 0.00057565883479011686 0.024795965834093794 0 0.000618607280097767 0.023415441264292444 0 0.00085524392394925521 0.02344267255562572 0 8.7755655496230933e-05 0.020674906088153762 0 -1.9625676921244223e-05 0.020550179319518993 0 -1.5612447555580143e-05 0.020624655726852719 0 2.7285228644547198e-05 0.020669932358292318 0 -1.5612447555580143e-05 0.020624655726852719 0 -2.0285112377401994e-05 0.02068946256700439 0 0.00053131495537548615 0.02474705448827871 0 0.00049084546441749866 0.02476448548702323 0 0.0005138748521721358 0.024789373473304909 0 0.000618607280097767 0.023415441264292444 0 0.00052732922804080195 0.024673008576936172 0 0.001467652354363724 0.024010868981966384 0 0.0010070509477373107 0.023876222980911247 0 0.00095930913616753036 0.024179626008730852 0 -0.0006946092145743919 0.035057703384981452 0 -0.00089150225895599734 0.034622974680649558 0 -0.00042238312371891198 0.034735595256770148 0 -0.0006946092145743919 0.035057703384981452 0 -0.0012494407438300738 0.034952863865892692 0 -0.00089150225895599734 0.034622974680649558 0 0.00048083214028881918 0.025920702450142687 0 0.00085524392394925521 0.02344267255562572 0 0.0012882708890405948 0.021213811530017647 0 0.00066697963192215897 0.021103190906418264 0 0.00084491380861381814 0.02070226853133806 0 0.00085524392394925521 0.02344267255562572 0 0.00073303348095339258 0.020522786269912142 0 0.00085524392394925521 0.02344267255562572 0 0.0010327493327995192 0.024441744805503752 0 -1.9625676921244223e-05 0.020550179319518993 0 -0.00012727716293639533 0.020606772001479937 0 -0.00012356596487512057 0.020528432698140156 0 -1.5612447555580143e-05 0.020624655726852719 0 -7.8822007002356728e-05 0.020667375139687319 0 -0.00012727716293639533 0.020606772001479937 0 -1.9625676921244223e-05 0.020550179319518993 0 -1.5612447555580143e-05 0.020624655726852719 0 -0.00012727716293639533 0.020606772001479937 0 -1.5612447555580143e-05 0.020624655726852719 0 -7.8822007002356728e-05 0.020667375139687319 0 -2.0285112377401994e-05 0.02068946256700439 0 -0.00012727716293639533 0.020606772001479937 0 -0.0002609959047349027 0.020658746473953975 0 -0.00015153568943593613 0.02070111114637966 0 -7.8822007002356728e-05 0.020667375139687319 0 -0.00012727716293639533 0.020606772001479937 0 -0.00015153568943593613 0.02070111114637966 0 0.00073303348095339258 0.020522786269912142 0 0.0011140178805243723 0.017590250736408526 0 -0.00012727716293639533 0.020606772001479937 0 -0.00012356596487512057 0.020528432698140156 0 -0.00022554478694833676 0.020506091768774725 0 0.00066697963192215897 0.021103190906418264 0 0.00033413411155853203 0.020940681930170957 0 5.4147526634284401e-05 0.020988171221272736 0 0.00056452049650998069 0.020847245931922068 0 0.00066697963192215897 0.021103190906418264 0 0.00084491380861381814 0.02070226853133806 0 0.00056452049650998069 0.020847245931922068 0 0.00066697963192215897 0.021103190906418264 0 0.00033413411155853203 0.020940681930170957 0 0.00033413411155853203 0.020940681930170957 0 5.4147526634284401e-05 0.020988171221272736 0 7.0211593235219394e-05 0.0209162940871741 0 0.0011926417400092901 0.018022993720786386 0 0.00079981186335118676 0.017992292616324127 0 0.0012456891934723281 0.017780678776079448 0 0.00033413411155853203 0.020940681930170957 0 6.8129870768823919e-05 0.020919202561238675 0 0.00010401768500233753 0.02075743584642652 0 0.0050193750875422785 0.0072477398663432762 0 0.004319180374697554 0.0078737620133672494 0 0.0045821220794851365 0.0085443835831698865 0 0.0011140178805243723 0.017590250736408526 0 0.0022487852870059777 0.01411198936138334 0 0.0010294430371389628 0.017557165798419837 0 0.0010862269010043005 0.017481350712778669 0 0.0010862269010043005 0.017481350712778669 0 0.0010572686967941411 0.018665234579995096 0 0.0050193750875422785 0.0072477398663432762 0 0.0050531225826307563 0.007092763429663123 0 0.004479973504498384 0.0070461576213327274 0 0.0011140178805243723 0.017590250736408526 0 0.0010862269010043005 0.017481350712778669 0 0.0050193750875422785 0.0072477398663432762 0 0.0043774323233945981 0.0071652022486710107 0 0.0041880467605883579 0.0074971038300989589 0 0.0050193750875422785 0.0072477398663432762 0 0.004479973504498384 0.0070461576213327274 0 0.0043774323233945981 0.0071652022486710107 0 0.0010862269010043005 0.017481350712778669 0 0.002143258411259035 0.016230824818992091 0 0.002143258411259035 0.016230824818992091 0 0.0021756774228203243 0.016181346229666597 0 0.0050193750875422785 0.0072477398663432762 0 0.004319180374697554 0.0078737620133672494 0 0.0041880467605883579 0.0074971038300989589 0 0.0023444916479098475 0.006839491189574754 0 0.0044810267632607601 0.0070460265329453714 0 0.0037552804191942689 0.0073541286288733255 0 0.0012028784057758082 0.01099120264263901 0 0.002143258411259035 0.016230824818992091 0 0.0023444916479098475 0.006839491189574754 0 0.0037552804191942689 0.0073541286288733255 0 0.0031795560383787633 0.007818518552442635 0 0.0043774323233945981 0.0071652022486710107 0 0.0037552804191942689 0.0073541286288733255 0 0.0041880467605883579 0.0074971038300989589 0 0.0044810267632607601 0.0070460265329453714 0 0.0043774323233945981 0.0071652022486710107 0 0.0037552804191942689 0.0073541286288733255 0 0.0037552804191942689 0.0073541286288733255 0 0.0039594440486223348 0.0077602314109829892 0 0.0041880467605883579 0.0074971038300989589 0 0.004319180374697554 0.0078737620133672494 0 0.0039594440486223348 0.0077602314109829892 0 0.0041880467605883579 0.0074971038300989589 0 0.004319180374697554 0.0078737620133672494 0 0.0040373056631253824 0.0080108453749012029 0 0.004146839069054966 0.008275582222197736 0 0.004319180374697554 0.0078737620133672494 0 0.0039594440486223348 0.0077602314109829892 0 0.0040373056631253824 0.0080108453749012029 0 0.0039594440486223348 0.0077602314109829892 0 0.0040373056631253824 0.0080108453749012029 0 0.0037255890281097416 0.008133205815204398 0 0.0039594440486223348 0.0077602314109829892 0 0.0031795560383787633 0.007818518552442635 0 0.0037255890281097416 0.008133205815204398 0 0.0037552804191942689 0.0073541286288733255 0 0.0039594440486223348 0.0077602314109829892 0 0.0031795560383787633 0.007818518552442635 0 0.0039576297063417644 0.0090670101466993527 0 0.0042712152076926782 0.0086027169552748053 0 0.0041468990589290777 0.0098673084846571911 0 0.0028020657341594549 0.011495131386910875 0 0.0025348344474506053 0.012781404756725841 0 0.0031795560383787633 0.007818518552442635 0 0.0031549197017614857 0.0085271362983700624 0 0.0037255890281097416 0.008133205815204398 0 0.0031549197017614857 0.0085271362983700624 0 0.0038153369520484768 0.008588298760008186 0 0.0037255890281097416 0.008133205815204398 0 0.0038153369520484768 0.008588298760008186 0 0.0037255890281097416 0.008133205815204398 0 0.004146839069054966 0.008275582222197736 0 0.0040373056631253824 0.0080108453749012029 0 0.0037255890281097416 0.008133205815204398 0 0.004146839069054966 0.008275582222197736 0 0.0038153369520484768 0.008588298760008186 0 0.004146839069054966 0.008275582222197736 0 0.0042712152076926782 0.0086027169552748053 0 0.0038153369520484768 0.008588298760008186 0 0.0039576297063417644 0.0090670101466993527 0 0.0042712152076926782 0.0086027169552748053 0 0.0039576297063417644 0.0090670101466993527 0 0.0035766392085518624 0.0090169910790346957 0 0.0037312754136060219 0.0095956641642560292 0 0.0038153369520484768 0.008588298760008186 0 0.0039576297063417644 0.0090670101466993527 0 0.0035766392085518624 0.0090169910790346957 0 0.0031549197017614857 0.0085271362983700624 0 0.0038153369520484768 0.008588298760008186 0 0.0035766392085518624 0.0090169910790346957 0 0.0029876060277986612 0.0096628182006601605 0 0.0031549197017614857 0.0085271362983700624 0 0.0035766392085518624 0.0090169910790346957 0 0.0016090432128320251 0.015714674964177097 0 0.0016151974068164144 0.01611422334787993 0 0.001886730415803235 0.015334588421152423 0 0.0013112048441307968 0.016889186417332332 0 0.0016090432128320251 0.015714674964177097 0 0.0016151974068164144 0.01611422334787993 0 0.0042712152076926782 0.0086027169552748053 0 0.0045821220794851365 0.0085443835831698865 0 0.0041302086392857734 0.010056260400112435 0 0.0011140178805243723 0.017590250736408526 0 0.0011490429611106141 0.017767422415266448 0 0.0022487852870059777 0.01411198936138334 0 0.0025348344474506053 0.012781404756725841 0 -0.00012727716293639533 0.020606772001479937 0 -0.00022554478694833676 0.020506091768774725 0 -0.0002609959047349027 0.020658746473953975 0 0.004319180374697554 0.0078737620133672494 0 0.004146839069054966 0.008275582222197736 0 0.0045821220794851365 0.0085443835831698865 0 0.004146839069054966 0.008275582222197736 0 0.0042712152076926782 0.0086027169552748053 0 0.0045821220794851365 0.0085443835831698865 0 0.0016090432128320251 0.015714674964177097 0 0.001886730415803235 0.015334588421152423 0 0.0018977341305688089 0.014541517064053476 0 0.0011490429611106141 0.017767422415266448 0 0.0018005624816428462 0.016214598769573863 0 -0.0002609959047349027 0.020658746473953975 0 -0.00020636864082011855 0.020758637108351623 0 -0.00015153568943593613 0.02070111114637966 0 -0.0002609959047349027 0.020658746473953975 0 -0.00020636864082011855 0.020758637108351623 0 -0.00028975643023746589 0.020807346091716958 0 0.0029876060277986612 0.0096628182006601605 0 0.0039845930185872158 0.010374159582221506 0 0.0040175609700754617 0.011057184712700471 0 0.0013187428319341168 0.011452021584637141 0 0.0017426579997310157 0.015179117182968516 0 0.0029876060277986612 0.0096628182006601605 0 0.0035766392085518624 0.0090169910790346957 0 0.0037312754136060219 0.0095956641642560292 0 0.0029876060277986612 0.0096628182006601605 0 0.0037312754136060219 0.0095956641642560292 0 0.0039845930185872158 0.010374159582221506 0 0.0039576297063417644 0.0090670101466993527 0 0.0037312754136060219 0.0095956641642560292 0 0.0041468990589290777 0.0098673084846571911 0 0.0041440031107733942 0.0098732018384440449 0 0.0039845930185872158 0.010374159582221506 0 0.0040175609700754617 0.011057184712700471 0 0.0037312754136060219 0.0095956641642560292 0 0.0041468990589290777 0.0098673084846571911 0 0.0039845930185872158 0.010374159582221506 0 0.0025348344474506053 0.012781404756725841 0 0.0017426579997310157 0.015179117182968516 0 0.0025348344474506053 0.012781404756725841 0 0.0026067545666614792 0.012594134621692 0 0.0024347182294224569 0.01054351803008776 0 0.0026131723610481271 0.0094127058938672081 0 0.0034138686031020891 0.010697906271708003 0 0.001706869446169609 0.016866954444949806 0 0.0017536739327426143 0.016385953039093615 0 0.0017967761315319567 0.016443127632591429 0 0.001886730415803235 0.015334588421152423 0 0.0019747252346919574 0.014645699270703253 0 0.0018977341305688089 0.014541517064053476 0 0.0017426579997310157 0.015179117182968516 0 0.0018005624816428462 0.016214598769573863 0 0.0024347182294224569 0.01054351803008776 0 0.0034138686031020891 0.010697906271708003 0 0.0025735933978662607 0.011331346253919336 0 -0.00020636864082011855 0.020758637108351623 0 -0.00028975643023746589 0.020807346091716958 0 -0.00019493536489838129 0.020840795676380936 0 -0.00020636864082011855 0.020758637108351623 0 -0.00019493536489838129 0.020840795676380936 0 -0.0001340286394262542 0.020782264361614813 0 -0.00013989084102067602 0.02086512539463117 0 -0.00019493536489838129 0.020840795676380936 0 -0.0001340286394262542 0.020782264361614813 0 -0.00013989084102067602 0.02086512539463117 0 -0.0001340286394262542 0.020782264361614813 0 -6.302685827492455e-05 0.020820206682780916 0 -7.6760094978013786e-06 0.02074999906029899 0 -6.302685827492455e-05 0.020820206682780916 0 -7.6375350593921244e-05 0.020734956969994878 0 -0.0001340286394262542 0.020782264361614813 0 -6.302685827492455e-05 0.020820206682780916 0 -7.6375350593921244e-05 0.020734956969994878 0 -7.6760094978013786e-06 0.02074999906029899 0 -7.6375350593921244e-05 0.020734956969994878 0 -2.0285112377401994e-05 0.02068946256700439 0 -7.8822007002356728e-05 0.020667375139687319 0 -7.6375350593921244e-05 0.020734956969994878 0 -2.0285112377401994e-05 0.02068946256700439 0 -7.8822007002356728e-05 0.020667375139687319 0 -7.6375350593921244e-05 0.020734956969994878 0 -0.00015153568943593613 0.02070111114637966 0 -0.00020636864082011855 0.020758637108351623 0 -0.0001340286394262542 0.020782264361614813 0 -0.00015153568943593613 0.02070111114637966 0 -0.0001340286394262542 0.020782264361614813 0 -7.6375350593921244e-05 0.020734956969994878 0 -0.00015153568943593613 0.02070111114637966 0 -1.4515038002318425e-06 0.034996032516179644 0 -0.00018173024907930461 0.034210348649405913 0 -9.311582399608376e-05 0.034777562591637619 0 -1.4515038002318425e-06 0.034996032516179644 0 4.4925241483268299e-07 0.035000611202217063 0 -9.311582399608376e-05 0.034777562591637619 0 -0.00018173024907930461 0.034210348649405913 0 1.9602104540836186e-05 0.034545625883806746 0 -9.311582399608376e-05 0.034777562591637619 0 0.00018576532225555068 0.034568940026095868 0 6.1189251420833737e-05 0.034794023247590525 0 -1.4515038002318425e-06 0.034996032516179644 0 -0.00018173024907930461 0.034210348649405913 0 2.192040159851593e-06 0.031256791869555815 0 -0.00018173024907930461 0.034210348649405913 0 0.00026661957457359964 0.033323856143456496 0 0.00037533063636312664 0.034081950368758135 0 -0.00018173024907930461 0.034210348649405913 0 2.192040159851593e-06 0.031256791869555815 0 0.00026661957457359964 0.033323856143456496 0 5.721309206630624e-07 0.031248918656263006 0 0.00041104270493078413 0.031116886730413518 0 2.192040159851593e-06 0.031256791869555815 0 0.00026661957457359964 0.033323856143456496 0 0.0011789123060138066 0.033427665092360115 0 0.00026661957457359964 0.033323856143456496 0 0.00037533063636312664 0.034081950368758135 0 0.0011789123060138066 0.033427665092360115 0 0.00037533063636312664 0.034081950368758135 0 0.00050450269248023113 0.034460431693542869 0 0.0008449577940354842 0.034177295760830971 0 0.00028847888980582424 0.034430132802946573 0 0.00018576532225555068 0.034568940026095868 0 -0.00018173024907930461 0.034210348649405913 0 0.00037533063636312664 0.034081950368758135 0 1.9602104540836186e-05 0.034545625883806746 0 0.00018123361814823355 0.034446953510874935 0 0.00050450269248023113 0.034460431693542869 0 0.00024672020770601165 0.034721161323679479 0 0.00037533063636312664 0.034081950368758135 0 0.00018123361814823355 0.034446953510874935 0 0.00050450269248023113 0.034460431693542869 0 0.00050450269248023113 0.034460431693542869 0 0.00097544621298856888 0.034393591724322999 0 0.0008449577940354842 0.034177295760830971 0 0.00050450269248023113 0.034460431693542869 0 0.00097544621298856888 0.034393591724322999 0 0.00054467067484669711 0.034774314338216226 0 0.00097544621298856888 0.034393591724322999 0 0.0011308741648673806 0.034200204907419422 0 0.0008449577940354842 0.034177295760830971 0 0.00072356226523464628 0.030698210766328147 0 5.3642490353306109e-05 0.028100988850720768 0 0.00097544621298856888 0.034393591724322999 0 0.0011308741648673806 0.034200204907419422 0 0.0010741818470648371 0.034442606345797704 0 -3.5242369126593385e-05 0.029368981473766632 0 -4.0669642152023945e-05 0.02937756732999269 0 -4.2484307660988071e-05 0.029380666471318821 0 -3.5242369126593385e-05 0.029368981473766632 0 -4.0669642152023945e-05 0.02937756732999269 0 -7.7059772191729649e-05 0.029353949373654962 0 0.00037533063636312664 0.034081950368758135 0 0.0008449577940354842 0.034177295760830971 0 0.0011789123060138066 0.033427665092360115 0 0.0011308741648673806 0.034200204907419422 0 0.0008449577940354842 0.034177295760830971 0 0.0011789123060138066 0.033427665092360115 0 0.00072356226523464628 0.030698210766328147 0 0.00041104270493078413 0.031116886730413518 0 1.1165971655988335e-06 0.031246907043307535 0 -4.2484307660988071e-05 0.029380666471318821 0 -1.0925098069917885e-06 0.02952720581640635 0 -1.0925098069917885e-06 0.02952720581640635 0 -0.00012337539183253878 0.029101792440668538 0 1.0685475463230697e-06 0.027807296633424617 0 -4.2484307660988071e-05 0.029380666471318821 0 -1.0925098069917885e-06 0.02952720581640635 0 -0.00012337539183253878 0.029101792440668538 0 -4.0669642152023945e-05 0.02937756732999269 0 -4.2484307660988071e-05 0.029380666471318821 0 -0.00012337539183253878 0.029101792440668538 0 -4.0669642152023945e-05 0.02937756732999269 0 -0.00012337539183253878 0.029101792440668538 0 0.00023460934575278124 0.02922283009725923 0 0.0011942454232620246 0.024727413500476879 0 0.00010673284074386023 0.025065931751990362 0 0.00047198845675266223 0.024021280098807933 0 0.0011942454232620246 0.024727413500476879 0 3.20391482728245e-06 0.027801633183978929 0 3.9474309165341428e-05 0.026037506106816172 0 -0.00012337539183253878 0.029101792440668538 0 0.00023460934575278124 0.02922283009725923 0 1.0685475463230697e-06 0.027807296633424617 0 0.00019480334914468879 0.027059213460836652 0 4.656997861949969e-07 0.027803870956704682 0 -1.7867897949736599e-06 0.025926453230178569 0 3.20391482728245e-06 0.027801633183978929 0 3.9474309165341428e-05 0.026037506106816172 0 -1.7867897949736599e-06 0.025926453230178569 0 -0.00015667104930576289 0.025389897605842402 0 3.9474309165341428e-05 0.026037506106816172 0 -0.00015667104930576289 0.025389897605842402 0 0.00010673284074386023 0.025065931751990362 0 -4.8765168100176531e-05 0.024310931914529033 0 -0.00015667104930576289 0.025389897605842402 0 3.9474309165341428e-05 0.026037506106816172 0 0.00010673284074386023 0.025065931751990362 0 0.0011942454232620246 0.024727413500476879 0 3.9474309165341428e-05 0.026037506106816172 0 0.00010673284074386023 0.025065931751990362 0 0.00010673284074386023 0.025065931751990362 0 -4.8765168100176531e-05 0.024310931914529033 0 0.00047198845675266223 0.024021280098807933 0 0.00012751663320385026 0.023986220968625741 0 -4.8765168100176531e-05 0.024310931914529033 0 0.00047198845675266223 0.024021280098807933 0 -0.00028423395306783386 0.023496391546378281 0 0.00012751663320385026 0.023986220968625741 0 -4.8765168100176531e-05 0.024310931914529033 0 -0.00026273750087850754 0.02297633366462213 0 -0.00028423395306783386 0.023496391546378281 0 0.00012751663320385026 0.023986220968625741 0 0.00018135135672323635 0.022762938530614035 0 0.000249096665096768 0.022960758265252332 0 -8.9181255828984664e-05 0.02345502744033217 0 0.00031433379246175586 0.023446528010431952 0 0.00013459689716033619 0.023209778296485208 0 -8.9181255828984664e-05 0.02345502744033217 0 0.00012751663320385026 0.023986220968625741 0 0.00031433379246175586 0.023446528010431952 0 0.00012751663320385026 0.023986220968625741 0 0.00031433379246175586 0.023446528010431952 0 0.00047198845675266223 0.024021280098807933 0 -4.0669642152023945e-05 0.02937756732999269 0 0.00023460934575278124 0.02922283009725923 0 0.00015889049331341013 0.029566919531321675 0 0.00019480334914468879 0.027059213460836652 0 0.00019950277224738635 0.026595750518035793 0 0.0011942454232620246 0.024727413500476879 0 0.00047198845675266223 0.024021280098807933 0 0.00093601044039847033 0.023272177834516492 0 0.00047447564457372043 0.027160087485220648 0 0.00019950277224738635 0.026595750518035793 0 0.00031433379246175586 0.023446528010431952 0 0.00047198845675266223 0.024021280098807933 0 0.00093601044039847033 0.023272177834516492 0 -3.5242369126593385e-05 0.029368981473766632 0 -7.7059772191729649e-05 0.029353949373654962 0 -7.7434271259297431e-05 0.029302944998838492 0 0.00019950277224738635 0.026595750518035793 0 5.3642490353306109e-05 0.028100988850720768 0 -7.8804632949441408e-05 0.02337683684092029 0 0.00011196540507699307 0.023552566586375809 0 -9.7390008455191382e-05 0.023604265591253781 0 0.00019950277224738635 0.026595750518035793 0 -0.00020884996163081891 0.024889781629721778 0 0.00031433379246175586 0.023446528010431952 0 0.00018561330273248201 0.022960735709962248 0 0.00013459689716033619 0.023209778296485208 0 0.00031433379246175586 0.023446528010431952 0 0.00093601044039847033 0.023272177834516492 0 0.00018561330273248201 0.022960735709962248 0 0.00018561330273248201 0.022960735709962248 0 0.00014012643524432714 0.023026107258992731 0 0.00013459689716033619 0.023209778296485208 0 0.0001159554237958057 0.023708783090595795 0 -9.7390008455191382e-05 0.023604265591253781 0 0.00011953436458902375 0.023956670708468211 0 0.00034462465138361732 0.023728879986880901 0 0.00011196540507699307 0.023552566586375809 0 0.0001159554237958057 0.023708783090595795 0 0.00019386200945981422 0.023337558649779468 0 0.00018561330273248201 0.022960735709962248 0 0.00014012643524432714 0.023026107258992731 0 -0.00011363517832603304 0.024371172232359843 0 -0.00020884996163081891 0.024889781629721778 0 0.00011196540507699307 0.023552566586375809 0 0.0001159554237958057 0.023708783090595795 0 -9.7390008455191382e-05 0.023604265591253781 0 5.3642490353306109e-05 0.028100988850720768 0 -0.00082188721042963898 0.025713471005418206 0 5.3642490353306109e-05 0.028100988850720768 0 -0.00038143956325795185 0.029172388379470133 0 -0.00017193567267208919 0.023577243120274229 0 -0.00021113712539600716 0.024061896014483379 0 0.00011953436458902375 0.023956670708468211 0 0.00034462465138361732 0.023728879986880901 0 0.0001159554237958057 0.023708783090595795 0 0.00011953436458902375 0.023956670708468211 0 0.00034462465138361732 0.023728879986880901 0 0.00034389005912602603 0.024022954782934924 0 0.00011953436458902375 0.023956670708468211 0 0.00034389005912602603 0.024022954782934924 0 0.00032943894634827198 0.024257251815934772 0 9.8798206451695026e-05 0.024200120439682716 0 -0.00021113712539600716 0.024061896014483379 0 0.00011953436458902375 0.023956670708468211 0 9.8798206451695026e-05 0.024200120439682716 0 0.00034389005912602603 0.024022954782934924 0 0.00011953436458902375 0.023956670708468211 0 9.8798206451695026e-05 0.024200120439682716 0 0.00032943894634827198 0.024257251815934772 0 9.8798206451695026e-05 0.024200120439682716 0 0.00013921010262471037 0.024443908957050852 0 9.8798206451695026e-05 0.024200120439682716 0 0.00013921010262471037 0.024443908957050852 0 -0.00025377122512567523 0.024603775815223862 0 -0.00042757804438636613 0.028200283674097163 0 -0.0013471076413141458 0.02969329298434361 0 0.00025743820544085153 0.034992863839854949 0 0.00063777060126630699 0.034840951836161579 0 0.00049883296994258973 0.034684543859152116 0 -0.0013471076413141458 0.02969329298434361 0 -0.0013270856482502837 0.029735679636997983 0 0.00064050106219310616 0.034840813106191908 0 0.00064225197937523145 0.034787431331000616 0 0.00073661594385616058 0.034786534319781535 0 -0.0013471076413141458 0.02969329298434361 0 -0.0013428710242471631 0.029762500759057824 0 -0.00021113712539600716 0.024061896014483379 0 9.8798206451695026e-05 0.024200120439682716 0 -0.00025377122512567523 0.024603775815223862 0 -0.00038143956325795185 0.029172388379470133 0 -0.0013471076413141458 0.02969329298434361 0 0.00094221485324689125 0.034635428906546119 0 0.00076615431927179315 0.034757530106111018 0 0.00078143084825571551 0.034652573603783654 0 0.00094221485324689125 0.034635428906546119 0 0.00077490579781584995 0.034776849572256734 0 0.00076615431927179315 0.034757530106111018 0 0.00076615431927179315 0.034757530106111018 0 0.00073787742316265819 0.034782607465972559 0 0.00073689541108001302 0.034759358004104311 0 0.00076615431927179315 0.034757530106111018 0 0.00073661594385616058 0.034786534319781535 0 0.00073689541108001302 0.034759358004104311 0 0.00077490579781584995 0.034776849572256734 0 0.00076615431927179315 0.034757530106111018 0 0.00073661594385616058 0.034786534319781535 0 0.00076615431927179315 0.034757530106111018 0 0.00068603393256784549 0.034768219352482123 0 0.00073787742316265819 0.034782607465972559 0 0.00076615431927179315 0.034757530106111018 0 0.00078143084825571551 0.034652573603783654 0 0.00068603393256784549 0.034768219352482123 0 0.00078143084825571551 0.034652573603783654 0 0.00090536853747795584 0.034522882740257506 0 0.00068484219864013989 0.034481921440486944 0 0.0010741818470648371 0.034442606345797704 0 0.00094221485324689125 0.034635428906546119 0 0.00090536853747795584 0.034522882740257506 0 0.00094221485324689125 0.034635428906546119 0 0.00078143084825571551 0.034652573603783654 0 0.00090536853747795584 0.034522882740257506 0 0.00097544621298856888 0.034393591724322999 0 0.0010741818470648371 0.034442606345797704 0 0.00090536853747795584 0.034522882740257506 0 0.00073601733639133747 0.034521714988579075 0 0.00059125727339600048 0.034621325986115663 0 0.00097544621298856888 0.034393591724322999 0 0.00090536853747795584 0.034522882740257506 0 0.00068484219864013989 0.034481921440486944 0 0.00050450269248023113 0.034460431693542869 0 0.00054467067484669711 0.034774314338216226 0 0.00024672020770601165 0.034721161323679479 0 0.00054467067484669711 0.034774314338216226 0 0.00024672020770601165 0.034721161323679479 0 0.00019749276063313069 0.034944067379054269 0 0.00059125727339600048 0.034621325986115663 0 0.00038420516088384535 0.034757646344812154 0 0.00068484219864013989 0.034481921440486944 0 0.00044392267991204162 0.034600215764470373 0 0.00062621699654114265 0.034663895766730048 0 0.00078143084825571551 0.034652573603783654 0 0.00068484219864013989 0.034481921440486944 0 0.00062621699654114265 0.034663895766730048 0 0.00078143084825571551 0.034652573603783654 0 0.00062621699654114265 0.034663895766730048 0 0.00068603393256784549 0.034768219352482123 0 0.00062621699654114265 0.034663895766730048 0 0.00068603393256784549 0.034768219352482123 0 0.00048464184756200068 0.034825573648202511 0 0.00068603393256784549 0.034768219352482123 0 0.00060256063457627665 0.03485757450922039 0 0.00073787742316265819 0.034782607465972559 0 0.00068603393256784549 0.034768219352482123 0 0.00048464184756200068 0.034825573648202511 0 0.00060256063457627665 0.03485757450922039 0 0.00048464184756200068 0.034825573648202511 0 0.00032090151871236371 0.035023605291401659 0 0.00060256063457627665 0.03485757450922039 0 0.00044392267991204162 0.034600215764470373 0 0.00062621699654114265 0.034663895766730048 0 0.00048464184756200068 0.034825573648202511 0 0.00038420516088384535 0.034757646344812154 0 0.00027654598854146294 0.034831063987977043 0 0.00044392267991204162 0.034600215764470373 0 0.00048464184756200068 0.034825573648202511 0 0.00011711366647190517 0.034916612991860947 0 0.00048464184756200068 0.034825573648202511 0 0.00011711366647190517 0.034916612991860947 0 0.00032090151871236371 0.035023605291401659 0 5.2410625270110656e-08 0.035000144617321753 0 0.00011711366647190517 0.034916612991860947 0 0.00032090151871236371 0.035023605291401659 0 5.2410625270110656e-08 0.035000144617321753 0 1.3242392873223243e-07 0.034999878975490374 0 0.00011711366647190517 0.034916612991860947 0 1.3242392873223243e-07 0.034999878975490374 0 0.00011711366647190517 0.034916612991860947 0 -8.854158309139227e-08 0.034999634322024145 0 0.00019749276063313069 0.034944067379054269 0 -8.854158309139227e-08 0.034999634322024145 0 5.9837498140554945e-05 0.034762928737112425 0 0.00019749276063313069 0.034944067379054269 0 0.00011711366647190517 0.034916612991860947 0 -8.854158309139227e-08 0.034999634322024145 0 0.00024672020770601165 0.034721161323679479 0 0.00019749276063313069 0.034944067379054269 0 5.9837498140554945e-05 0.034762928737112425 0 0.00018123361814823355 0.034446953510874935 0 0.00024672020770601165 0.034721161323679479 0 5.9837498140554945e-05 0.034762928737112425 0 -4.8797235545427407e-08 0.034999698149747224 0 6.1189251420833737e-05 0.034794023247590525 0 4.0526723662407655e-09 0.034999977391713316 0 8.3195264948514743e-06 0.034979757401431666 0 4.5112554590687763e-06 0.034982627995163607 0 8.3195264948514743e-06 0.034979757401431666 0 1.0994367779803194e-05 0.03496402569948899 0 4.5112554590687763e-06 0.034982627995163607 0 4.0526723662407655e-09 0.034999977391713316 0 8.3195264948514743e-06 0.034979757401431666 0 7.0215608396032742e-09 0.034999979240335918 0 1.3563383334228026e-10 0.034999990255950228 0 7.0215608396032742e-09 0.034999979240335918 0 7.240288363768304e-06 0.034984917153721096 0 1.6338867300143968e-07 0.034999842322410102 0 0.00014344361511469915 0.03492660122875537 0 8.3195264948514743e-06 0.034979757401431666 0 7.0215608396032742e-09 0.034999979240335918 0 7.240288363768304e-06 0.034984917153721096 0 8.3195264948514743e-06 0.034979757401431666 0 7.240288363768304e-06 0.034984917153721096 0 1.5055855171933874e-05 0.03496654805321775 0 0.00014344361511469915 0.03492660122875537 0 0.00026539346931044445 0.034807168451953287 0 0.00032090151871236371 0.035023605291401659 0 0.00060256063457627665 0.03485757450922039 0 0.00065185156845141295 0.034889134170031616 0 0.00060256063457627665 0.03485757450922039 0 0.00065185156845141295 0.034889134170031616 0 0.00073787742316265819 0.034782607465972559 0 1.5055855171933874e-05 0.03496654805321775 0 1.6237603782305065e-05 0.034960002736992492 0 2.3406177262912264e-05 0.034954800942668229 0 8.3195264948514743e-06 0.034979757401431666 0 1.5055855171933874e-05 0.03496654805321775 0 1.6237603782305065e-05 0.034960002736992492 0 8.3195264948514743e-06 0.034979757401431666 0 1.6237603782305065e-05 0.034960002736992492 0 1.0994367779803194e-05 0.03496402569948899 0 1.6237603782305065e-05 0.034960002736992492 0 1.0994367779803194e-05 0.03496402569948899 0 1.8570466302284129e-05 0.034935471437100123 0 1.0994367779803194e-05 0.03496402569948899 0 1.8570466302284129e-05 0.034935471437100123 0 1.1947895634551953e-05 0.034944399817680591 0 1.8570466302284129e-05 0.034935471437100123 0 2.329306999133339e-05 0.03489883724390766 0 1.2688766098745183e-05 0.034897334187188794 0 2.329306999133339e-05 0.03489883724390766 0 2.3406177262912264e-05 0.034954800942668229 0 -2.7550075411838066e-06 0.034960699447166253 0 0.00030949661736418634 0.034597661448016404 0 0.00023763640676850047 0.034244964794348139 0 1.6237603782305065e-05 0.034960002736992492 0 1.8570466302284129e-05 0.034935471437100123 0 2.3406177262912264e-05 0.034954800942668229 0 1.8570466302284129e-05 0.034935471437100123 0 2.329306999133339e-05 0.03489883724390766 0 2.3406177262912264e-05 0.034954800942668229 0 0.00065185156845141295 0.034889134170031616 0 0.00076918513142214544 0.034589800578035922 0 0.00073787742316265819 0.034782607465972559 0 0.00026539346931044445 0.034807168451953287 0 0.00030949661736418634 0.034597661448016404 0 0.00073787742316265819 0.034782607465972559 0 0.00073689541108001302 0.034759358004104311 0 0.00069559871612147469 0.034655581485125028 0 0.00069230910318312741 0.034729511693641094 0 0.00073689541108001302 0.034759358004104311 0 0.00069559871612147469 0.034655581485125028 0 0.00073661594385616058 0.034786534319781535 0 0.00069230910318312741 0.034729511693641094 0 0.00073689541108001302 0.034759358004104311 0 0.00064225197937523145 0.034787431331000616 0 0.00073661594385616058 0.034786534319781535 0 0.00069230910318312741 0.034729511693641094 0 0.00069230910318312741 0.034729511693641094 0 0.00069559871612147469 0.034655581485125028 0 0.00063281679395377059 0.034711930552571421 0 0.00076918513142214544 0.034589800578035922 0 0.00069559871612147469 0.034655581485125028 0 0.00056078542007529286 0.034469808504190506 0 0.00076918513142214544 0.034589800578035922 0 0.00073787742316265819 0.034782607465972559 0 0.00069559871612147469 0.034655581485125028 0 0.00076918513142214544 0.034589800578035922 0 0.00056078542007529286 0.034469808504190506 0 0.00053034956567447227 0.034160379812170433 0 0.00056078542007529286 0.034469808504190506 0 0.00035858361575826002 0.034434068609395289 0 0.00053034956567447227 0.034160379812170433 0 0.00056078542007529286 0.034469808504190506 0 0.00049883296994258973 0.034684543859152116 0 0.00035858361575826002 0.034434068609395289 0 0.00069559871612147469 0.034655581485125028 0 0.00049883296994258973 0.034684543859152116 0 0.00063281679395377059 0.034711930552571421 0 0.00069559871612147469 0.034655581485125028 0 0.00056078542007529286 0.034469808504190506 0 0.00049883296994258973 0.034684543859152116 0 0.00064225197937523145 0.034787431331000616 0 0.00049883296994258973 0.034684543859152116 0 0.00063281679395377059 0.034711930552571421 0 0.00063777060126630699 0.034840951836161579 0 0.00064225197937523145 0.034787431331000616 0 0.00049883296994258973 0.034684543859152116 0 0.00064225197937523145 0.034787431331000616 0 0.00069230910318312741 0.034729511693641094 0 0.00063281679395377059 0.034711930552571421 0 0.00025743820544085153 0.034992863839854949 0 0.00049883296994258973 0.034684543859152116 0 7.2632031708242211e-05 0.034670331695712084 0 0.00049883296994258973 0.034684543859152116 0 0.00035858361575826002 0.034434068609395289 0 7.2632031708242211e-05 0.034670331695712084 0 0.00035858361575826002 0.034434068609395289 0 0.00053034956567447227 0.034160379812170433 0 6.6882684005081864e-05 0.03420429370666201 0 0.00035858361575826002 0.034434068609395289 0 7.2632031708242211e-05 0.034670331695712084 0 6.6882684005081864e-05 0.03420429370666201 0 0.00023763640676850047 0.034244964794348139 0 7.2098722198973963e-05 0.033638181175252718 0 0.00053034956567447227 0.034160379812170433 0 6.6882684005081864e-05 0.03420429370666201 0 5.2502998264359108e-05 0.033771525469548418 0 2.329306999133339e-05 0.03489883724390766 0 -2.7550075411838066e-06 0.034960699447166253 0 9.9402007513593275e-06 0.03478190512616685 0 -2.7550075411838066e-06 0.034960699447166253 0 9.9402007513593275e-06 0.03478190512616685 0 -0.00019809426381762471 0.034947432710927186 0 9.9402007513593275e-06 0.03478190512616685 0 -0.00019809426381762471 0.034947432710927186 0 -0.00022964661711780102 0.034674868335794612 0 9.9402007513593275e-06 0.03478190512616685 0 -0.00014343191612708483 0.034320070794918403 0 -0.00022964661711780102 0.034674868335794612 0 2.329306999133339e-05 0.03489883724390766 0 9.9402007513593275e-06 0.03478190512616685 0 1.2688766098745183e-05 0.034897334187188794 0 9.9402007513593275e-06 0.03478190512616685 0 1.4830671923571665e-05 0.034867343359196293 0 1.2688766098745183e-05 0.034897334187188794 0 1.4830671923571665e-05 0.034867343359196293 0 2.444122569219399e-05 0.034906127553880166 0 1.2755077448000745e-05 0.034900598099305249 0 1.4830671923571665e-05 0.034867343359196293 0 7.1937407670963528e-05 0.034867920722750627 0 4.289957967354736e-05 0.034892829715860094 0 9.9402007513593275e-06 0.03478190512616685 0 1.4830671923571665e-05 0.034867343359196293 0 7.1937407670963528e-05 0.034867920722750627 0 0.00011924486862379348 0.034227294020710029 0 1.5871640903058015e-05 0.033953338110472582 0 7.1937407670963528e-05 0.034867920722750627 0 6.2091983819996009e-05 0.034900090078780623 0 4.289957967354736e-05 0.034892829715860094 0 6.2091983819996009e-05 0.034900090078780623 0 4.289957967354736e-05 0.034892829715860094 0 4.3118619801439613e-05 0.034912397535963896 0 6.2091983819996009e-05 0.034900090078780623 0 4.3118619801439613e-05 0.034912397535963896 0 5.7812097347215075e-05 0.034919037171290752 0 4.3118619801439613e-05 0.034912397535963896 0 5.7812097347215075e-05 0.034919037171290752 0 4.0518527247172395e-05 0.03493231979117823 0 5.7812097347215075e-05 0.034919037171290752 0 4.0518527247172395e-05 0.03493231979117823 0 5.7085694232034727e-05 0.034940464631375817 0 2.8896320965744284e-05 0.034940990255192921 0 2.7019596129166355e-05 0.034925323698802281 0 1.702452947274107e-05 0.03494040165681938 0 4.0518527247172395e-05 0.03493231979117823 0 2.8896320965744284e-05 0.034940990255192921 0 3.4216262298602901e-05 0.034946768203914937 0 4.0518527247172395e-05 0.03493231979117823 0 2.8896320965744284e-05 0.034940990255192921 0 2.7019596129166355e-05 0.034925323698802281 0 4.3118619801439613e-05 0.034912397535963896 0 4.0518527247172395e-05 0.03493231979117823 0 2.7019596129166355e-05 0.034925323698802281 0 2.7019596129166355e-05 0.034925323698802281 0 2.444122569219399e-05 0.034906127553880166 0 1.6394727780393824e-05 0.034920844613034817 0 4.3118619801439613e-05 0.034912397535963896 0 2.7019596129166355e-05 0.034925323698802281 0 2.444122569219399e-05 0.034906127553880166 0 1.4830671923571665e-05 0.034867343359196293 0 4.289957967354736e-05 0.034892829715860094 0 2.444122569219399e-05 0.034906127553880166 0 4.289957967354736e-05 0.034892829715860094 0 4.3118619801439613e-05 0.034912397535963896 0 2.444122569219399e-05 0.034906127553880166 0 2.444122569219399e-05 0.034906127553880166 0 1.6394727780393824e-05 0.034920844613034817 0 1.2755077448000745e-05 0.034900598099305249 0 1.6394727780393824e-05 0.034920844613034817 0 1.702452947274107e-05 0.03494040165681938 0 9.1972374813676416e-06 0.034929460773937313 0 1.6394727780393824e-05 0.034920844613034817 0 9.1972374813676416e-06 0.034929460773937313 0 1.2755077448000745e-05 0.034900598099305249 0 2.7019596129166355e-05 0.034925323698802281 0 1.6394727780393824e-05 0.034920844613034817 0 1.702452947274107e-05 0.03494040165681938 0 2.8896320965744284e-05 0.034940990255192921 0 1.702452947274107e-05 0.03494040165681938 0 2.2388894091970053e-05 0.034947840680338425 0 1.702452947274107e-05 0.03494040165681938 0 8.1900317633027623e-06 0.034952189944271558 0 1.4624001587142492e-05 0.034953169788393516 0 1.702452947274107e-05 0.03494040165681938 0 8.1900317633027623e-06 0.034952189944271558 0 9.1972374813676416e-06 0.034929460773937313 0 8.1900317633027623e-06 0.034952189944271558 0 9.1972374813676416e-06 0.034929460773937313 0 4.2973154792781761e-06 0.034955678326749777 0 9.1972374813676416e-06 0.034929460773937313 0 1.2688766098745183e-05 0.034897334187188794 0 7.1821024451468345e-06 0.034941700276387141 0 1.2688766098745183e-05 0.034897334187188794 0 1.1947895634551953e-05 0.034944399817680591 0 7.1821024451468345e-06 0.034941700276387141 0 1.4830671923571665e-05 0.034867343359196293 0 1.2755077448000745e-05 0.034900598099305249 0 1.2688766098745183e-05 0.034897334187188794 0 9.1972374813676416e-06 0.034929460773937313 0 1.2755077448000745e-05 0.034900598099305249 0 1.2688766098745183e-05 0.034897334187188794 0 1.8570466302284129e-05 0.034935471437100123 0 1.2688766098745183e-05 0.034897334187188794 0 1.1947895634551953e-05 0.034944399817680591 0 1.0994367779803194e-05 0.03496402569948899 0 1.1947895634551953e-05 0.034944399817680591 0 4.6662753626405008e-06 0.034966972729508203 0 1.1947895634551953e-05 0.034944399817680591 0 4.6662753626405008e-06 0.034966972729508203 0 7.1821024451468345e-06 0.034941700276387141 0 9.1972374813676416e-06 0.034929460773937313 0 7.1821024451468345e-06 0.034941700276387141 0 4.2973154792781761e-06 0.034955678326749777 0 4.6662753626405008e-06 0.034966972729508203 0 7.1821024451468345e-06 0.034941700276387141 0 4.2973154792781761e-06 0.034955678326749777 0 8.1900317633027623e-06 0.034952189944271558 0 4.2973154792781761e-06 0.034955678326749777 0 3.4787106596721563e-06 0.034969784790377885 0 4.2973154792781761e-06 0.034955678326749777 0 1.2365652942337324e-06 0.034975185009886875 0 3.4787106596721563e-06 0.034969784790377885 0 4.6662753626405008e-06 0.034966972729508203 0 4.2973154792781761e-06 0.034955678326749777 0 1.2365652942337324e-06 0.034975185009886875 0 4.6662753626405008e-06 0.034966972729508203 0 1.2365652942337324e-06 0.034975185009886875 0 7.705974311254625e-07 0.034983862309595354 0 1.2365652942337324e-06 0.034975185009886875 0 7.705974311254625e-07 0.034983862309595354 0 -5.3126680337812913e-07 0.034989509407982365 0 1.2365652942337324e-06 0.034975185009886875 0 -5.3126680337812913e-07 0.034989509407982365 0 1.5012755934612177e-07 0.034985945015959849 0 -5.3126680337812913e-07 0.034989509407982365 0 -9.0581047758230541e-10 0.034999978685112697 0 -1.589130289679995e-09 0.034999984254964756 0 7.705974311254625e-07 0.034983862309595354 0 -5.3126680337812913e-07 0.034989509407982365 0 -9.0581047758230541e-10 0.034999978685112697 0 7.705974311254625e-07 0.034983862309595354 0 -9.0581047758230541e-10 0.034999978685112697 0 2.2929969455822493e-09 0.034999975064782349 0 4.6662753626405008e-06 0.034966972729508203 0 7.705974311254625e-07 0.034983862309595354 0 2.2929969455822493e-09 0.034999975064782349 0 4.6662753626405008e-06 0.034966972729508203 0 2.2929969455822493e-09 0.034999975064782349 0 4.5112554590687763e-06 0.034982627995163607 0 1.0994367779803194e-05 0.03496402569948899 0 4.6662753626405008e-06 0.034966972729508203 0 4.5112554590687763e-06 0.034982627995163607 0 4.0526723662407655e-09 0.034999977391713316 0 2.2929969455822493e-09 0.034999975064782349 0 4.5112554590687763e-06 0.034982627995163607 0 0.00098321805245097553 0.031686791292246608 0 -0.00024009549864178513 0.031720801638960142 0 0.0012824947450042448 0.029815111691853843 0 0.00098321805245097553 0.031686791292246608 0 0.0012306518791457503 0.032283680094284929 0 0.0018308850901688136 0.029786965490938264 0 3.5648427129313745e-05 0.020784124933814836 0 0.00010025046117203301 0.020884277672692197 0 3.5648427129313745e-05 0.020784124933814836 0 0.00054418670376907361 0.021459079869362477 0 0.00098321805245097553 0.031686791292246608 0 0.0012306518791457503 0.032283680094284929 0 0.00032383376523241665 0.031887625497690149 0 0.00088732499627894876 0.032120612094503183 0 0.00032383376523241665 0.031887625497690149 0 0.00028467344861194137 0.032486100719355177 0 -0.0014151415635682513 0.033840252164760144 0 -0.0014487728549466674 0.034134948894258624 0 -0.001147547469385014 0.034084183477631744 0 -0.00024009549864178513 0.031720801638960142 0 0.00032383376523241665 0.031887625497690149 0 -0.00018731282561077408 0.03243197908227978 0 0.00098321805245097553 0.031686791292246608 0 -0.00024009549864178513 0.031720801638960142 0 0.00032383376523241665 0.031887625497690149 0 0.00028467344861194137 0.032486100719355177 0 -0.00018731282561077408 0.03243197908227978 0 -0.00022888417868242424 0.032850783993041213 0 -0.00018731282561077408 0.03243197908227978 0 -0.00022888417868242424 0.032850783993041213 0 -0.000952071147038001 0.033311636990518131 0 -0.00024009549864178513 0.031720801638960142 0 -0.00018731282561077408 0.03243197908227978 0 -0.000952071147038001 0.033311636990518131 0 0.00032383376523241665 0.031887625497690149 0 0.00028467344861194137 0.032486100719355177 0 -0.00018731282561077408 0.03243197908227978 0 -0.00022888417868242424 0.032850783993041213 0 0.00061174868143248093 0.033096724502239938 0 -0.00018214253201401983 0.033300979163625039 0 0.00028467344861194137 0.032486100719355177 0 -0.00022888417868242424 0.032850783993041213 0 0.00061174868143248093 0.033096724502239938 0 -0.0020114544590385439 0.011196145289677467 0 -0.0020592830732292598 0.0111040260204016 0 -0.0019958325635912413 0.011090411512483604 0 0.00088732499627894876 0.032120612094503183 0 0.00028467344861194137 0.032486100719355177 0 0.00061174868143248093 0.033096724502239938 0 3.5648427129313745e-05 0.020784124933814836 0 -0.00090452076527213279 0.02234506700966031 0 3.5648427129313745e-05 0.020784124933814836 0 -0.0016726315504948408 0.015887413539031094 0 -0.0020114544590385439 0.011196145289677467 0 -0.0020592830732292598 0.0111040260204016 0 -0.0021249679088772527 0.011128796808706034 0 -0.0020592830732292598 0.0111040260204016 0 -0.0021249679088772527 0.011128796808706034 0 -0.002101821380467518 0.011041785980001686 0 -0.0021249679088772527 0.011128796808706034 0 -0.002160414594381768 0.011037770053807383 0 -0.002101821380467518 0.011041785980001686 0 -0.0016726315504948408 0.015887413539031094 0 -0.0026624872695188658 0.011985424791480783 0 -0.0021249679088772527 0.011128796808706034 0 -0.0022145012104650319 0.011044385364532023 0 -0.002160414594381768 0.011037770053807383 0 -0.0010299185358085064 0.015997198103978094 0 -0.0029950625425625259 0.01528604178187175 0 -0.0013040772035978507 0.017240916845542863 0 -0.0026624872695188658 0.011985424791480783 0 -0.0017439227298323761 0.014817059781354338 0 0.00055522091049726139 0.0068224439677775093 0 0.00065457570454869024 0.0068313429542511935 0 0.00059308276640455872 0.006914250379127059 0 0.00055522091049726139 0.0068224439677775093 0 0.00057034492002127821 0.0067253528884843039 0 0.00065457570454869024 0.0068313429542511935 0 0.0009291506599306287 0.016705892970921132 0 -0.0010299185358085064 0.015997198103978094 0 -0.0013040772035978507 0.017240916845542863 0 -0.0017439227298323761 0.014817059781354338 0 0.00010025046117203301 0.020884277672692197 0 0.0009291506599306287 0.016705892970921132 0 -0.0013040772035978507 0.017240916845542863 0 0.00038200297059006258 0.019186993342280276 0 0.00065457570454869024 0.0068313429542511935 0 0.00067196599744742463 0.0069295498856619866 0 0.00074296023290150123 0.0069461736248716448 0 0.00067196599744742463 0.0069295498856619866 0 0.0007288001152277459 0.0070108880559422368 0 0.00074296023290150123 0.0069461736248716448 0 0.0011239914733820989 0.019332730273785306 0 0.00010025046117203301 0.020884277672692197 0 0.00065457570454869024 0.0068313429542511935 0 0.00067196599744742463 0.0069295498856619866 0 0.00059308276640455872 0.006914250379127059 0 0.00067196599744742463 0.0069295498856619866 0 0.00059308276640455872 0.006914250379127059 0 0.00066020710422672545 0.0069955697073336006 0 0.00052719222107991068 0.0070196325928661915 0 0.00067388761000700972 0.0070687147759930773 0 0.0005975409383609802 0.006987806733748902 0 0.00053489103109657661 0.0069456826510207129 0 0.00059308276640455872 0.006914250379127059 0 0.0005975409383609802 0.006987806733748902 0 0.00059308276640455872 0.006914250379127059 0 0.0005975409383609802 0.006987806733748902 0 0.00066020710422672545 0.0069955697073336006 0 0.00067388761000700972 0.0070687147759930773 0 0.0005975409383609802 0.006987806733748902 0 0.00066020710422672545 0.0069955697073336006 0 0.0010315348888641888 0.020160795673694342 0 0.0008178755628846366 0.020411903241167137 0 0.00055752373156798879 0.022269740079394564 0 0.0011864901955248705 0.019152546884295039 0 0.0011899357548782359 0.019147309375648063 0 0.0011851896381514114 0.019181127211285513 0 0.0011239914733820989 0.019332730273785306 0 0.00090315704771770828 0.020144558035320469 0 0.00067196599744742463 0.0069295498856619866 0 0.0007288001152277459 0.0070108880559422368 0 0.00066020710422672545 0.0069955697073336006 0 0.00067388761000700972 0.0070687147759930773 0 0.0007288001152277459 0.0070108880559422368 0 0.00066020710422672545 0.0069955697073336006 0 0.0011239914733820989 0.019332730273785306 0 0.0010572686967941411 0.018665234579995096 0 0.00079981186335118676 0.017992292616324127 0 0.0013381086375423008 0.017358188505658404 0 0.0012456891934723281 0.017780678776079448 0 0.002143258411259035 0.016230824818992091 0 0.0011239914733820989 0.019332730273785306 0 0.00090315704771770828 0.020144558035320469 0 0.0010572686967941411 0.018665234579995096 0 0.00033413411155853203 0.020940681930170957 0 0.00010401768500233753 0.02075743584642652 0 0.00041376279543009454 0.020642629703453114 0 -0.0018062346957054775 0.034303555335087083 0 -0.0014195619958094169 0.034311568462025467 0 -0.0015302951489393009 0.034631558974936208 0 0.00021026518938506187 0.020422853164260832 0 0.00010401768500233753 0.02075743584642652 0 0.00041376279543009454 0.020642629703453114 0 0.00056452049650998069 0.020847245931922068 0 0.00033413411155853203 0.020940681930170957 0 0.00041376279543009454 0.020642629703453114 0 0.00056452049650998069 0.020847245931922068 0 0.00041376279543009454 0.020642629703453114 0 0.00084491380861381814 0.02070226853133806 0 0.00041376279543009454 0.020642629703453114 0 0.00040268035843139181 0.020197065530545014 0 0.00084491380861381814 0.02070226853133806 0 0.00047981825239147872 0.023120655431691162 0 0.0010327493327995192 0.024441744805503752 0 0.00021026518938506187 0.020422853164260832 0 0.00041376279543009454 0.020642629703453114 0 0.00040268035843139181 0.020197065530545014 0 0.00090315704771770828 0.020144558035320469 0 0.00047981825239147872 0.023120655431691162 0 0.00090315704771770828 0.020144558035320469 0 0.00036720871494144475 0.022007448049362707 0 -0.00029035369151332585 0.025744051527995457 0 0.00036720871494144475 0.022007448049362707 0 0.00098321805245097553 0.031686791292246608 0 0.001668868327681191 0.029597820716728659 0 0.0018308850901688136 0.029786965490938264 0 0.0008178755628846366 0.020411903241167137 0 0.00031095327344019615 0.021984367015334138 0 0.00055752373156798879 0.022269740079394564 0 -0.0019152021491786397 0.030045736491227559 0 0.00047981825239147872 0.023120655431691162 0 0.00064656703084072788 0.021951268583574862 0 0.00026674108383587897 0.023132418386432041 0 -4.7572198772644873e-05 0.022768974859498602 0 0.00098321805245097553 0.031686791292246608 0 0.0014966291629615394 0.030060832984426321 0 0.0012824947450042448 0.029815111691853843 0 0.00036720871494144475 0.022007448049362707 0 0.00047981825239147872 0.023120655431691162 0 0.00036720871494144475 0.022007448049362707 0 0.00010025046117203301 0.020884277672692197 0 -0.0014195619958094169 0.034311568462025467 0 -0.0011963644577855056 0.034487864884409525 0 -0.001147547469385014 0.034084183477631744 0 -0.0018062346957054775 0.034303555335087083 0 -0.0014487728549466674 0.034134948894258624 0 -0.0014195619958094169 0.034311568462025467 0 -0.0014151415635682513 0.033840252164760144 0 -0.0018062346957054775 0.034303555335087083 0 -0.0014487728549466674 0.034134948894258624 0 -0.0014487728549466674 0.034134948894258624 0 -0.0014195619958094169 0.034311568462025467 0 -0.001147547469385014 0.034084183477631744 0 -0.0012494407438300738 0.034952863865892692 0 -0.0015302951489393009 0.034631558974936208 0 -0.0011963644577855056 0.034487864884409525 0 -0.0014195619958094169 0.034311568462025467 0 -0.0015302951489393009 0.034631558974936208 0 -0.0011963644577855056 0.034487864884409525 0 -0.0012494407438300738 0.034952863865892692 0 -0.0011963644577855056 0.034487864884409525 0 -0.00089150225895599734 0.034622974680649558 0 -0.0011963644577855056 0.034487864884409525 0 -0.00089150225895599734 0.034622974680649558 0 -0.00094186993617071388 0.03431569484892228 0 -0.00089150225895599734 0.034622974680649558 0 -0.00060049715118266607 0.034357255955644102 0 -0.00094186993617071388 0.03431569484892228 0 -0.00089150225895599734 0.034622974680649558 0 -0.00060049715118266607 0.034357255955644102 0 -0.00042238312371891198 0.034735595256770148 0 -0.00060049715118266607 0.034357255955644102 0 -0.00040015611514903791 0.033985081971685281 0 -0.00079865589190195063 0.033994725965980493 0 -0.00060049715118266607 0.034357255955644102 0 -0.00094186993617071388 0.03431569484892228 0 -0.00079865589190195063 0.033994725965980493 0 -0.001147547469385014 0.034084183477631744 0 -0.00094186993617071388 0.03431569484892228 0 -0.00079865589190195063 0.033994725965980493 0 -0.0011963644577855056 0.034487864884409525 0 -0.001147547469385014 0.034084183477631744 0 -0.00094186993617071388 0.03431569484892228 0 7.2632031708242211e-05 0.034670331695712084 0 -0.00042238312371891198 0.034735595256770148 0 -0.00024013592119357722 0.034417286940177212 0 -0.00060049715118266607 0.034357255955644102 0 -0.00042238312371891198 0.034735595256770148 0 -0.00024013592119357722 0.034417286940177212 0 -0.00060049715118266607 0.034357255955644102 0 -0.00024013592119357722 0.034417286940177212 0 -0.00040015611514903791 0.033985081971685281 0 -0.00024013592119357722 0.034417286940177212 0 6.6882684005081864e-05 0.03420429370666201 0 -0.00040015611514903791 0.033985081971685281 0 7.2632031708242211e-05 0.034670331695712084 0 -0.00024013592119357722 0.034417286940177212 0 6.6882684005081864e-05 0.03420429370666201 0 6.6882684005081864e-05 0.03420429370666201 0 -0.00040015611514903791 0.033985081971685281 0 5.2502998264359108e-05 0.033771525469548418 0 -0.00070188716880395182 0.034849429851567394 0 -0.00019809426381762471 0.034947432710927186 0 -0.00044440098394660493 0.03470521967585475 0 -8.0190933453683073e-05 0.03250218357487409 0 7.2098722198973963e-05 0.033638181175252718 0 -0.00040015611514903791 0.033985081971685281 0 -0.00053993444197680124 0.033421432102509661 0 5.2502998264359108e-05 0.033771525469548418 0 -0.00019809426381762471 0.034947432710927186 0 -0.00022964661711780102 0.034674868335794612 0 -0.00044440098394660493 0.03470521967585475 0 -0.001147547469385014 0.034084183477631744 0 -0.0010075064945259525 0.033761023287694571 0 -0.00079865589190195063 0.033994725965980493 0 -0.0014151415635682513 0.033840252164760144 0 -0.001147547469385014 0.034084183477631744 0 -0.0010075064945259525 0.033761023287694571 0 -0.00040015611514903791 0.033985081971685281 0 -0.00079865589190195063 0.033994725965980493 0 -0.0007442189871284179 0.033667964341696062 0 -0.0010075064945259525 0.033761023287694571 0 -0.00079865589190195063 0.033994725965980493 0 -0.0007442189871284179 0.033667964341696062 0 -0.00053993444197680124 0.033421432102509661 0 -0.0007442189871284179 0.033667964341696062 0 -0.000952071147038001 0.033311636990518131 0 -0.00040015611514903791 0.033985081971685281 0 -0.00053993444197680124 0.033421432102509661 0 -0.0007442189871284179 0.033667964341696062 0 -0.0010075064945259525 0.033761023287694571 0 -0.0007442189871284179 0.033667964341696062 0 -0.000952071147038001 0.033311636990518131 0 -0.0019152021491786397 0.030045736491227559 0 -0.002073743750849311 0.031372268540677727 0 -0.00022888417868242424 0.032850783993041213 0 -0.000952071147038001 0.033311636990518131 0 -0.00059866020935905753 0.033204761346709119 0 -0.0014151415635682513 0.033840252164760144 0 -0.0010075064945259525 0.033761023287694571 0 -0.000952071147038001 0.033311636990518131 0 -0.000952071147038001 0.033311636990518131 0 -0.00094423569076154646 0.033349579328092523 0 -0.00059866020935905753 0.033204761346709119 0 -0.00094423569076154646 0.033349579328092523 0 -0.00059866020935905753 0.033204761346709119 0 -0.00018214253201401983 0.033300979163625039 0 -0.00070188716880395182 0.034849429851567394 0 -0.0012860218196788125 0.03459152887407823 0 -0.00070303436283110918 0.034612982600188809 0 -0.0012860218196788125 0.03459152887407823 0 -0.0012747860940077686 0.034398951080070635 0 -0.00070303436283110918 0.034612982600188809 0 -0.00053993444197680124 0.033421432102509661 0 -0.000952071147038001 0.033311636990518131 0 -0.00094423569076154646 0.033349579328092523 0 -0.0014655646441400834 0.02899981824729881 0 -0.00092470592790391837 0.030374337074797371 0 -8.0190933453683073e-05 0.03250218357487409 0 -0.00017078660385953353 0.030134759359480297 0 -0.0033536349067978242 0.034185728873861218 0 -0.0020123434320223422 0.033799833332658347 0 -0.00070303436283110918 0.034612982600188809 0 -0.0020123434320223422 0.033799833332658347 0 -0.0011738862583679911 0.033956335750527283 0 -0.00070303436283110918 0.034612982600188809 0 -0.0020123434320223422 0.033799833332658347 0 -0.0011738862583679911 0.033956335750527283 0 -0.001069171718831847 0.033181821672104296 0 -0.0011738862583679911 0.033956335750527283 0 -0.001069171718831847 0.033181821672104296 0 -0.00070781847863154047 0.034284236298745809 0 -0.0020123434320223422 0.033799833332658347 0 -0.001069171718831847 0.033181821672104296 0 -0.0016998862146743855 0.032230192199268613 0 -0.0020123434320223422 0.033799833332658347 0 -0.0029514229603815286 0.033065779956318077 0 -0.0016998862146743855 0.032230192199268613 0 -0.0029514229603815286 0.033065779956318077 0 -0.0038548102130120851 0.033350620057780021 0 -0.0043797165708390207 0.032354893826503368 0 -0.0033536349067978242 0.034185728873861218 0 -0.0038548102130120851 0.033350620057780021 0 -0.0030401219425001029 0.033601394984075987 0 -0.0020123434320223422 0.033799833332658347 0 -0.0029514229603815286 0.033065779956318077 0 -0.0030401219425001029 0.033601394984075987 0 -0.0033536349067978242 0.034185728873861218 0 -0.0020123434320223422 0.033799833332658347 0 -0.0030401219425001029 0.033601394984075987 0 -0.0029514229603815286 0.033065779956318077 0 -0.0038548102130120851 0.033350620057780021 0 -0.0030401219425001029 0.033601394984075987 0 -0.00022964661711780102 0.034674868335794612 0 -0.00041348823628008273 0.034521343649248359 0 -0.00044440098394660493 0.03470521967585475 0 -0.00022964661711780102 0.034674868335794612 0 -0.00041348823628008273 0.034521343649248359 0 -0.00030790390033893193 0.034435884237614907 0 -0.00052914999682982151 0.034498085195265198 0 -0.00044440098394660493 0.03470521967585475 0 -0.00070303436283110918 0.034612982600188809 0 -0.00052914999682982151 0.034498085195265198 0 -0.00070781847863154047 0.034284236298745809 0 -0.00049633911280407179 0.034338434343443282 0 -0.00041348823628008273 0.034521343649248359 0 -0.00052914999682982151 0.034498085195265198 0 -0.00044440098394660493 0.03470521967585475 0 -0.00041348823628008273 0.034521343649248359 0 -0.00052914999682982151 0.034498085195265198 0 -0.00049633911280407179 0.034338434343443282 0 -0.00070188716880395182 0.034849429851567394 0 -0.00044440098394660493 0.03470521967585475 0 -0.00070303436283110918 0.034612982600188809 0 -0.00052914999682982151 0.034498085195265198 0 -0.00070303436283110918 0.034612982600188809 0 -0.00070781847863154047 0.034284236298745809 0 -0.0011738862583679911 0.033956335750527283 0 -0.00070303436283110918 0.034612982600188809 0 -0.00070781847863154047 0.034284236298745809 0 -0.00070781847863154047 0.034284236298745809 0 -0.00049633911280407179 0.034338434343443282 0 -0.00046781882005572097 0.034213165907559046 0 -0.001069171718831847 0.033181821672104296 0 -0.00070781847863154047 0.034284236298745809 0 0.00047526658780021005 0.032411387876100616 0 -0.001069171718831847 0.033181821672104296 0 0.00047526658780021005 0.032411387876100616 0 -0.0016998862146743855 0.032230192199268613 0 -0.00063024511533265291 0.033110909345181697 0 -0.00042761327167965596 0.032597178705770419 0 -0.00049633911280407179 0.034338434343443282 0 -0.00042963799330981832 0.034274632110486342 0 -0.00046781882005572097 0.034213165907559046 0 -0.00038606433339065664 0.032684544719024142 0 -0.00042761327167965596 0.032597178705770419 0 -0.00014343191612708483 0.034320070794918403 0 -0.00022964661711780102 0.034674868335794612 0 -0.00030790390033893193 0.034435884237614907 0 -0.00014343191612708483 0.034320070794918403 0 -0.00042963799330981832 0.034274632110486342 0 -0.00038282498976744637 0.033964972759289523 0 -0.0004120028210670116 0.03437997802121754 0 -0.00042963799330981832 0.034274632110486342 0 -0.00030790390033893193 0.034435884237614907 0 -0.00041348823628008273 0.034521343649248359 0 -0.0004120028210670116 0.03437997802121754 0 -0.00030790390033893193 0.034435884237614907 0 -0.00041348823628008273 0.034521343649248359 0 -0.00049633911280407179 0.034338434343443282 0 -0.0004120028210670116 0.03437997802121754 0 -0.00049633911280407179 0.034338434343443282 0 -0.0004120028210670116 0.03437997802121754 0 -0.00042963799330981832 0.034274632110486342 0 -0.00014343191612708483 0.034320070794918403 0 -0.00042963799330981832 0.034274632110486342 0 -0.00030790390033893193 0.034435884237614907 0 1.5871640903058015e-05 0.033953338110472582 0 -0.0004942046057284336 0.032831477381629059 0 7.1937407670963528e-05 0.034867920722750627 0 6.2091983819996009e-05 0.034900090078780623 0 8.8674472224964073e-05 0.034906371291315602 0 -0.00042963799330981832 0.034274632110486342 0 -0.00038282498976744637 0.033964972759289523 0 -0.00050795843988549996 0.034169587613430724 0 6.2091983819996009e-05 0.034900090078780623 0 5.7812097347215075e-05 0.034919037171290752 0 8.8674472224964073e-05 0.034906371291315602 0 -0.0004942046057284336 0.032831477381629059 0 -0.00042761327167965596 0.032597178705770419 0 -0.00042761327167965596 0.032597178705770419 0 -0.00073928398647353196 0.03040109434556116 0 -0.00074202305609253737 0.031023860482057661 0 -0.00069510700802155882 0.030950361930450199 0 -0.00058970152779293228 0.031083569514610134 0 0.00047526658780021005 0.032411387876100616 0 -0.0016998862146743855 0.032230192199268613 0 -0.0011491412855124065 0.030200850359888311 0 -0.0004942046057284336 0.032831477381629059 0 -0.00087678284324910715 0.031711699685613833 0 -0.00074202305609253737 0.031023860482057661 0 -0.00064857671726081432 0.031157352331411616 0 -0.00058970152779293228 0.031083569514610134 0 -0.00094243606947522142 0.030761601338371972 0 -0.00073610281971849966 0.031042740071162728 0 -0.00092851759036003203 0.031122002804478029 0 5.7812097347215075e-05 0.034919037171290752 0 8.8674472224964073e-05 0.034906371291315602 0 5.7085694232034727e-05 0.034940464631375817 0 -0.00094243606947522142 0.030761601338371972 0 -0.00092851759036003203 0.031122002804478029 0 -0.001129797587266231 0.031049938443381508 0 -0.0004942046057284336 0.032831477381629059 0 -0.00052184290380755593 0.033020033155343291 0 -0.0029514229603815286 0.033065779956318077 0 -0.0033560822940583205 0.03075090571465109 0 -0.0016998862146743855 0.032230192199268613 0 -0.0029514229603815286 0.033065779956318077 0 -0.0033560822940583205 0.03075090571465109 0 -0.0043797165708390207 0.032354893826503368 0 -0.0033560822940583205 0.03075090571465109 0 -0.0016998862146743855 0.032230192199268613 0 -0.0011491412855124065 0.030200850359888311 0 -0.00073928398647353196 0.03040109434556116 0 -0.0011538835153784093 0.027832086048751183 0 -0.0033560822940583205 0.03075090571465109 0 -0.0011491412855124065 0.030200850359888311 0 -0.002772194214481041 0.02798260984010827 0 -0.00064857671726081432 0.031157352331411616 0 -0.00058970152779293228 0.031083569514610134 0 -0.00046175588145663235 0.031238773104138595 0 -0.0033560822940583205 0.03075090571465109 0 -0.0049905906114631506 0.028387615817497273 0 -0.002772194214481041 0.02798260984010827 0 -0.0027192094151379759 0.021819445549988215 0 -0.002970352903589297 0.020768456225709386 0 -0.0026016677613667576 0.011208326314065858 0 -0.0027011411685663794 0.01107736402103472 0 -0.0027809042750190243 0.011307540934288608 0 -0.0033560822940583205 0.03075090571465109 0 -0.0055511777559260371 0.031002018333073891 0 -0.0049905906114631506 0.028387615817497273 0 -0.0026016677613667576 0.011208326314065858 0 -0.0025397278015205403 0.011095514385061575 0 -0.0027011411685663794 0.01107736402103472 0 -0.0026016677613667576 0.011208326314065858 0 -0.0025397278015205403 0.011095514385061575 0 -0.002486231089400505 0.011214669065345967 0 -0.0025397278015205403 0.011095514385061575 0 -0.0025602229800436092 0.01098733890043495 0 -0.0027011411685663794 0.01107736402103472 0 -0.0025602229800436092 0.01098733890043495 0 -0.0027011411685663794 0.01107736402103472 0 -0.0026394260196048683 0.010876294704064685 0 -0.0025397278015205403 0.011095514385061575 0 -0.0025602229800436092 0.01098733890043495 0 -0.0024569003856982578 0.011017760245191608 0 -0.0033560822940583205 0.03075090571465109 0 -0.0055511777559260371 0.031002018333073891 0 -0.0043797165708390207 0.032354893826503368 0 -0.0055511777559260371 0.031002018333073891 0 -0.0043797165708390207 0.032354893826503368 0 -0.006117976720911497 0.033599154897874586 0 -0.0027192094151379759 0.021819445549988215 0 -0.0019464838505401257 0.02434904486601229 0 -0.0014655646441400834 0.02899981824729881 0 -0.0019464838505401257 0.02434904486601229 0 -0.0038548102130120851 0.033350620057780021 0 -0.0043797165708390207 0.032354893826503368 0 -0.006117976720911497 0.033599154897874586 0 -0.0033536349067978242 0.034185728873861218 0 -0.0038548102130120851 0.033350620057780021 0 -0.006117976720911497 0.033599154897874586 0 -0.0012747860940077686 0.034398951080070635 0 -0.0019743612864164847 0.0341893477667677 0 -0.0019896573598513056 0.034260302542666078 0 -0.0025602229800436092 0.01098733890043495 0 -0.0025331751350950405 0.010885005728422452 0 -0.0026394260196048683 0.010876294704064685 0 -0.0025602229800436092 0.01098733890043495 0 -0.0025331751350950405 0.010885005728422452 0 -0.0024562942995455068 0.010890327172686601 0 -0.0027644728508793002 0.022453867286429247 0 -0.001959295930518436 0.024246527504592847 0 -0.0020457636601623141 0.010963713384445566 0 -0.00197942566335201 0.011002643838023558 0 -0.0020442096352774027 0.011032939387499958 0 -0.0025141949376060362 0.023213837802564603 0 -0.0017479985458270231 0.023372016732648195 0 -0.0017839081224039698 0.023534311814264526 0 -0.0027644728508793002 0.022453867286429247 0 -0.0019464838505401257 0.02434904486601229 0 -0.0019464838505401257 0.02434904486601229 0 -0.001959295930518436 0.024246527504592847 0 -0.001959295930518436 0.024246527504592847 0 -0.00090452076527213279 0.02234506700966031 0 -0.00197942566335201 0.011002643838023558 0 -0.0020442096352774027 0.011032939387499958 0 -0.0019958325635912413 0.011090411512483604 0 0.00036141938368584159 0.033989771773127668 0 0.00061174868143248093 0.033096724502239938 0 -0.00018214253201401983 0.033300979163625039 0 -0.0020592830732292598 0.0111040260204016 0 -0.0020442096352774027 0.011032939387499958 0 -0.0019958325635912413 0.011090411512483604 0 -0.00094423569076154646 0.033349579328092523 0 0.00036141938368584159 0.033989771773127668 0 -0.00018214253201401983 0.033300979163625039 0 -0.0012860218196788125 0.03459152887407823 0 -0.0012747860940077686 0.034398951080070635 0 -0.0019896573598513056 0.034260302542666078 0 -0.00017078660385953353 0.030134759359480297 0 -0.001959295930518436 0.024246527504592847 0 -0.00022888417868242424 0.032850783993041213 0 -0.00059866020935905753 0.033204761346709119 0 -0.00018214253201401983 0.033300979163625039 0 -0.0021541522217254222 0.010986578227355595 0 -0.0022004226721497044 0.010976264744681953 0 -0.002160414594381768 0.011037770053807383 0 -0.0022145012104650319 0.011044385364532023 0 -0.0022004226721497044 0.010976264744681953 0 -0.002160414594381768 0.011037770053807383 0 -0.0021541522217254222 0.010986578227355595 0 -0.002160414594381768 0.011037770053807383 0 -0.002101821380467518 0.011041785980001686 0 -0.0020592830732292598 0.0111040260204016 0 -0.0020442096352774027 0.011032939387499958 0 -0.002101821380467518 0.011041785980001686 0 -0.0020457636601623141 0.010963713384445566 0 -0.0020442096352774027 0.011032939387499958 0 -0.0020885294797052308 0.010995001675506036 0 -0.0020442096352774027 0.011032939387499958 0 -0.002101821380467518 0.011041785980001686 0 -0.0020885294797052308 0.010995001675506036 0 -0.0021541522217254222 0.010986578227355595 0 -0.002101821380467518 0.011041785980001686 0 -0.0020885294797052308 0.010995001675506036 0 -0.0021541522217254222 0.010986578227355595 0 -0.0020885294797052308 0.010995001675506036 0 -0.0020959889792575579 0.010946213893603292 0 -0.0027644728508793002 0.022453867286429247 0 -0.0030831848380995473 0.020853111597900799 0 -0.0020457636601623141 0.010963713384445566 0 -0.0020885294797052308 0.010995001675506036 0 -0.0020959889792575579 0.010946213893603292 0 -0.0030831848380995473 0.020853111597900799 0 -0.0033101234622745341 0.019295048637760156 0 -0.0021541522217254222 0.010986578227355595 0 -0.0020959889792575579 0.010946213893603292 0 -0.0022332539447018156 0.010925029463270015 0 -0.0021541522217254222 0.010986578227355595 0 -0.0022004226721497044 0.010976264744681953 0 -0.0022332539447018156 0.010925029463270015 0 -0.0024562942995455068 0.010890327172686601 0 -0.0022332539447018156 0.010925029463270015 0 -0.002332297709133819 0.011017677303742902 0 -0.0022332539447018156 0.010925029463270015 0 -0.002332297709133819 0.011017677303742902 0 -0.0022550183248955754 0.011033828959409627 0 -0.002332297709133819 0.011017677303742902 0 -0.0022550183248955754 0.011033828959409627 0 -0.0023899184470270924 0.011095005144566121 0 -0.0025397278015205403 0.011095514385061575 0 -0.0024569003856982578 0.011017760245191608 0 -0.0023899184470270924 0.011095005144566121 0 -0.0024562942995455068 0.010890327172686601 0 -0.002332297709133819 0.011017677303742902 0 -0.0024569003856982578 0.011017760245191608 0 -0.0025602229800436092 0.01098733890043495 0 -0.0024562942995455068 0.010890327172686601 0 -0.0024569003856982578 0.011017760245191608 0 -0.002332297709133819 0.011017677303742902 0 -0.0024569003856982578 0.011017760245191608 0 -0.0023899184470270924 0.011095005144566121 0 -0.0025397278015205403 0.011095514385061575 0 -0.0023899184470270924 0.011095005144566121 0 -0.002486231089400505 0.011214669065345967 0 -0.0023899184470270924 0.011095005144566121 0 -0.002486231089400505 0.011214669065345967 0 -0.0023474720291521436 0.01121682782832681 0 -0.0021975980957941632 0.011131711796986856 0 -0.0022550183248955754 0.011033828959409627 0 -0.0023474720291521436 0.01121682782832681 0 -0.0022550183248955754 0.011033828959409627 0 -0.0023899184470270924 0.011095005144566121 0 -0.0023474720291521436 0.01121682782832681 0 -0.0021975980957941632 0.011131711796986856 0 -0.0023474720291521436 0.01121682782832681 0 -0.002277504000060509 0.011310336502690171 0 -0.0023474720291521436 0.01121682782832681 0 -0.0023887891775561092 0.011399683693101695 0 -0.002277504000060509 0.011310336502690171 0 -0.0023474720291521436 0.01121682782832681 0 -0.0024757510390055609 0.011342733355415469 0 -0.0023887891775561092 0.011399683693101695 0 -0.002486231089400505 0.011214669065345967 0 -0.0023474720291521436 0.01121682782832681 0 -0.0024757510390055609 0.011342733355415469 0 -0.002486231089400505 0.011214669065345967 0 -0.0024757510390055609 0.011342733355415469 0 -0.0025842208250882975 0.011330533662230741 0 -0.0024957603458051914 0.011442065471987012 0 -0.002403878779978007 0.011498269455355814 0 -0.0025867305178353451 0.011533522706411174 0 -0.0024757510390055609 0.011342733355415469 0 -0.0024957603458051914 0.011442065471987012 0 -0.0023887891775561092 0.011399683693101695 0 -0.0024957603458051914 0.011442065471987012 0 -0.0023887891775561092 0.011399683693101695 0 -0.002403878779978007 0.011498269455355814 0 -0.0023887891775561092 0.011399683693101695 0 -0.0023124734662051021 0.011419993859487604 0 -0.002277504000060509 0.011310336502690171 0 -0.0023887891775561092 0.011399683693101695 0 -0.0023124734662051021 0.011419993859487604 0 -0.002403878779978007 0.011498269455355814 0 -0.0026303871422319654 0.011785787223499133 0 -0.0029404313582691161 0.011596626782487945 0 -0.0029017492316042921 0.012150027026183802 0 -0.0028429937346243052 0.014968134733459836 0 -0.0026392229124136157 0.014370986334529531 0 -0.0023124734662051021 0.011419993859487604 0 -0.002403878779978007 0.011498269455355814 0 -0.0022373551037831192 0.011505012425089264 0 -0.0026303871422319654 0.011785787223499133 0 -0.0029404313582691161 0.011596626782487945 0 -0.0023661301265940314 0.011569107326281925 0 -0.0029404313582691161 0.011596626782487945 0 -0.0023661301265940314 0.011569107326281925 0 -0.0022373551037831192 0.011505012425089264 0 -0.0026303871422319654 0.011785787223499133 0 -0.0029017492316042921 0.012150027026183802 0 -0.0022065445641606986 0.011773763987049308 0 -0.0023090469859091954 0.01625382923335509 0 -0.001771563097949305 0.013912000065886344 0 -0.0028429937346243052 0.014968134733459836 0 -0.0031937397895069274 0.017011096982249237 0 -0.0029404313582691161 0.011596626782487945 0 -0.0034380248628418991 0.011853704620765477 0 -0.0036291872285504154 0.011625227746444823 0 -0.0029404313582691161 0.011596626782487945 0 -0.0034380248628418991 0.011853704620765477 0 -0.0033370838264866749 0.012082846706225961 0 -0.0029404313582691161 0.011596626782487945 0 -0.0033370838264866749 0.012082846706225961 0 -0.0029017492316042921 0.012150027026183802 0 -0.0023090469859091954 0.01625382923335509 0 -0.00373069471727495 0.01988412549919634 0 -0.0021416805626706501 0.016792469044965196 0 -0.002339009564092285 0.016891484480071304 0 -0.002168331167639711 0.016923416828319601 0 -0.0033370838264866749 0.012082846706225961 0 -0.0029017492316042921 0.012150027026183802 0 -0.0035504906264580229 0.012487525952986429 0 -0.0021416805626706501 0.016792469044965196 0 -0.0019441512000459471 0.016694020103818038 0 -0.0020116171538581144 0.01684267785160817 0 -0.0021416805626706501 0.016792469044965196 0 -0.0020859659107809237 0.016896834216892857 0 -0.002168331167639711 0.016923416828319601 0 -0.0021416805626706501 0.016792469044965196 0 -0.0020859659107809237 0.016896834216892857 0 -0.0020116171538581144 0.01684267785160817 0 -0.0020859659107809237 0.016896834216892857 0 -0.0020116171538581144 0.01684267785160817 0 -0.0020137080120721444 0.01692336972081639 0 -0.0053561338276232632 0.025300961305130303 0 -0.0062106247674681616 0.025727747431975027 0 -0.0056642422847128513 0.02599094090034491 0 -0.0053561338276232632 0.025300961305130303 0 -0.0056642422847128513 0.02599094090034491 0 -0.005150143046305111 0.02605104452767442 0 -0.0053561338276232632 0.025300961305130303 0 -0.0062106247674681616 0.025727747431975027 0 -0.0062245124966788168 0.024837561522294438 0 -0.0062106247674681616 0.025727747431975027 0 -0.0062245124966788168 0.024837561522294438 0 -0.0068232608977113127 0.025276032211659371 0 -0.0062106247674681616 0.025727747431975027 0 -0.0060809891114883552 0.026388506439030405 0 -0.0071086382628377737 0.026568757018561037 0 -0.0062106247674681616 0.025727747431975027 0 -0.0060809891114883552 0.026388506439030405 0 -0.0056642422847128513 0.02599094090034491 0 -0.0060809891114883552 0.026388506439030405 0 -0.0056642422847128513 0.02599094090034491 0 -0.0055447174292480037 0.026567571939883929 0 -0.0056642422847128513 0.02599094090034491 0 -0.0052007650798215396 0.026299240008257951 0 -0.005150143046305111 0.02605104452767442 0 -0.0055447174292480037 0.026567571939883929 0 -0.0052007650798215396 0.026299240008257951 0 -0.005100856732005078 0.026629733962810244 0 -0.0056642422847128513 0.02599094090034491 0 -0.0055447174292480037 0.026567571939883929 0 -0.0052007650798215396 0.026299240008257951 0 -0.0042984315130690743 0.020227537637345066 0 -0.004233117276335064 0.020805186684956525 0 -0.0053561338276232632 0.025300961305130303 0 -0.005150143046305111 0.02605104452767442 0 -0.0043764418379318376 0.02661262322683423 0 -0.0052007650798215396 0.026299240008257951 0 -0.005150143046305111 0.02605104452767442 0 -0.0043764418379318376 0.02661262322683423 0 -0.0052007650798215396 0.026299240008257951 0 -0.0043764418379318376 0.02661262322683423 0 -0.005100856732005078 0.026629733962810244 0 -0.00373069471727495 0.01988412549919634 0 -0.0042321973442318748 0.018815915282988979 0 -0.0035504906264580229 0.012487525952986429 0 -0.003553926632815695 0.012214159612568913 0 -0.0037609352249178929 0.012209652394309004 0 -0.0035363877831220813 0.012532160646328739 0 -0.0037609352249178929 0.012209652394309004 0 -0.0036120034789882609 0.012565818551342152 0 -0.00373069471727495 0.01988412549919634 0 -0.004233117276335064 0.020805186684956525 0 -0.0033370838264866749 0.012082846706225961 0 -0.0035504906264580229 0.012487525952986429 0 -0.003553926632815695 0.012214159612568913 0 -0.0035659507566040772 0.012076001313454538 0 -0.0037609352249178929 0.012209652394309004 0 -0.0037076572405470515 0.011944202056783067 0 -0.003553926632815695 0.012214159612568913 0 -0.0035659507566040772 0.012076001313454538 0 -0.0037609352249178929 0.012209652394309004 0 -0.0033370838264866749 0.012082846706225961 0 -0.003553926632815695 0.012214159612568913 0 -0.0035659507566040772 0.012076001313454538 0 -0.003963211823053139 0.01205575275420186 0 -0.0037609352249178929 0.012209652394309004 0 -0.0036120034789882609 0.012565818551342152 0 -0.003963211823053139 0.01205575275420186 0 -0.0037609352249178929 0.012209652394309004 0 -0.0037076572405470515 0.011944202056783067 0 -0.003963211823053139 0.01205575275420186 0 -0.0037076572405470515 0.011944202056783067 0 -0.003836905228598286 0.011858198177382441 0 -0.0037076572405470515 0.011944202056783067 0 -0.003836905228598286 0.011858198177382441 0 -0.0036291872285504154 0.011625227746444823 0 -0.003963211823053139 0.01205575275420186 0 -0.003836905228598286 0.011858198177382441 0 -0.0039613698668584038 0.011765008095635467 0 -0.0034380248628418991 0.011853704620765477 0 -0.0037076572405470515 0.011944202056783067 0 -0.0036291872285504154 0.011625227746444823 0 -0.0034380248628418991 0.011853704620765477 0 -0.0035659507566040772 0.012076001313454538 0 -0.0037076572405470515 0.011944202056783067 0 -0.0034380248628418991 0.011853704620765477 0 -0.0033370838264866749 0.012082846706225961 0 -0.0035659507566040772 0.012076001313454538 0 -0.003836905228598286 0.011858198177382441 0 -0.0036291872285504154 0.011625227746444823 0 -0.0039613698668584038 0.011765008095635467 0 -0.0031937397895069274 0.017011096982249237 0 -0.0033164002614127384 0.021366761191565425 0 -0.0036291872285504154 0.011625227746444823 0 -0.0039613698668584038 0.011765008095635467 0 -0.0042864839537782046 0.011628270802148098 0 -0.003963211823053139 0.01205575275420186 0 -0.0039613698668584038 0.011765008095635467 0 -0.0042864839537782046 0.011628270802148098 0 -0.0042984315130690743 0.020227537637345066 0 -0.0033164002614127384 0.021366761191565425 0 -0.0062245124966788168 0.024837561522294438 0 -0.0065319877759412908 0.023981703304983823 0 -0.0068232608977113127 0.025276032211659371 0 -0.0053561338276232632 0.025300961305130303 0 -0.0062245124966788168 0.024837561522294438 0 -0.0063205350697392504 0.023991235701348645 0 -0.0062245124966788168 0.024837561522294438 0 -0.0063205350697392504 0.023991235701348645 0 -0.0065319877759412908 0.023981703304983823 0 -0.0033164002614127384 0.021366761191565425 0 -0.0031142179300061232 0.022077454448155079 0 -0.0013760716763342989 0.021929798245189355 0 -0.00226609359462538 0.021890683784266427 0 -0.0020653512297480114 0.021021129413927319 0 -0.003093580370385499 0.021850098567897255 0 -0.002970352903589297 0.020768456225709386 0 -0.0028065540646749266 0.011562322676089185 0 -0.0028258925858595267 0.011539435847047476 0 -0.002643601991202615 0.011430389500334473 0 -0.003093580370385499 0.021850098567897255 0 -0.0014533312661078779 0.017823723798775313 0 -0.0028584455727898193 0.011606197138536906 0 -0.0026428933181234984 0.011483306243617548 0 -0.0027809042750190243 0.011307540934288608 0 -0.0031142179300061232 0.022077454448155079 0 -0.003093580370385499 0.021850098567897255 0 -0.0033164002614127384 0.021366761191565425 0 -0.003093580370385499 0.021850098567897255 0 -0.0011565522326748669 0.016700433780656491 0 -0.0014533312661078779 0.017823723798775313 0 -0.0024957603458051914 0.011442065471987012 0 -0.0025867305178353451 0.011533522706411174 0 -0.002643601991202615 0.011430389500334473 0 -0.0024757510390055609 0.011342733355415469 0 -0.0024957603458051914 0.011442065471987012 0 -0.002643601991202615 0.011430389500334473 0 -0.0025867305178353451 0.011533522706411174 0 -0.0028065540646749266 0.011562322676089185 0 -0.002643601991202615 0.011430389500334473 0 -0.0024757510390055609 0.011342733355415469 0 -0.0026428933181234984 0.011483306243617548 0 -0.0025842208250882975 0.011330533662230741 0 -0.0026016677613667576 0.011208326314065858 0 -0.0025842208250882975 0.011330533662230741 0 -0.0027809042750190243 0.011307540934288608 0 -0.0026428933181234984 0.011483306243617548 0 -0.0025842208250882975 0.011330533662230741 0 -0.0027809042750190243 0.011307540934288608 0 -0.0026016677613667576 0.011208326314065858 0 -0.002486231089400505 0.011214669065345967 0 -0.0025842208250882975 0.011330533662230741 0 -0.0044178880166842478 0.025752806573225765 0 -0.0049905906114631506 0.028387615817497273 0 -0.002772194214481041 0.02798260984010827 0 -0.00087678284324910715 0.031711699685613833 0 -0.00086469687797412307 0.0315581130087235 0 -0.00064857671726081432 0.031157352331411616 0 -0.00046175588145663235 0.031238773104138595 0 -0.00054142937874937698 0.031321622487585687 0 -0.00046175588145663235 0.031238773104138595 0 -0.00054142937874937698 0.031321622487585687 0 -0.00044177663861206634 0.031392534823254173 0 -0.00054142937874937698 0.031321622487585687 0 -0.00064523904192069568 0.031448578366405272 0 -0.00071272190972209218 0.031362295145027537 0 -0.00054142937874937698 0.031321622487585687 0 -0.00064523904192069568 0.031448578366405272 0 -0.00055709633494955657 0.031457255691048319 0 -0.00064523904192069568 0.031448578366405272 0 -0.00055709633494955657 0.031457255691048319 0 -0.00066509447317122299 0.03155364654058751 0 -0.00055709633494955657 0.031457255691048319 0 -0.00044177663861206634 0.031392534823254173 0 -0.00044267949813221594 0.031463828426010913 0 -0.00054142937874937698 0.031321622487585687 0 -0.00055709633494955657 0.031457255691048319 0 -0.00044177663861206634 0.031392534823254173 0 -0.00030629080374067322 0.031428665681182598 0 -0.00046175588145663235 0.031238773104138595 0 -0.00044177663861206634 0.031392534823254173 0 -0.003093580370385499 0.021850098567897255 0 -0.0011538835153784093 0.027832086048751183 0 -0.00044177663861206634 0.031392534823254173 0 -0.00035366954650844644 0.031454691589594658 0 -0.00044267949813221594 0.031463828426010913 0 -0.00030629080374067322 0.031428665681182598 0 -0.00044177663861206634 0.031392534823254173 0 -0.00035366954650844644 0.031454691589594658 0 -0.003093580370385499 0.021850098567897255 0 -0.0028412489391012982 0.022706902860779147 0 -0.0010629535516734785 0.031253172341889034 0 -0.00092851759036003203 0.031122002804478029 0 -0.001129797587266231 0.031049938443381508 0 -0.0010629535516734785 0.031253172341889034 0 -0.00092851759036003203 0.031122002804478029 0 -0.00088365851190657849 0.031329645409410356 0 -0.00073610281971849966 0.031042740071162728 0 -0.00054142937874937698 0.031321622487585687 0 -0.00075781752162622337 0.031235943174458946 0 -0.00092851759036003203 0.031122002804478029 0 -0.00075781752162622337 0.031235943174458946 0 -0.00088365851190657849 0.031329645409410356 0 -0.00073610281971849966 0.031042740071162728 0 -0.00092851759036003203 0.031122002804478029 0 -0.00075781752162622337 0.031235943174458946 0 -0.00054142937874937698 0.031321622487585687 0 -0.00075781752162622337 0.031235943174458946 0 -0.00071272190972209218 0.031362295145027537 0 -0.00064523904192069568 0.031448578366405272 0 -0.00077985652388240588 0.031477744527882053 0 -0.00066509447317122299 0.03155364654058751 0 -0.00064523904192069568 0.031448578366405272 0 -0.00071272190972209218 0.031362295145027537 0 -0.00077985652388240588 0.031477744527882053 0 -0.00077985652388240588 0.031477744527882053 0 -0.00094277809304911813 0.031449889940915979 0 -0.00090402582058904065 0.03155995633940302 0 -0.00077985652388240588 0.031477744527882053 0 -0.00088365851190657849 0.031329645409410356 0 -0.00094277809304911813 0.031449889940915979 0 -0.00071272190972209218 0.031362295145027537 0 -0.00077985652388240588 0.031477744527882053 0 -0.00088365851190657849 0.031329645409410356 0 -0.00075781752162622337 0.031235943174458946 0 -0.00071272190972209218 0.031362295145027537 0 -0.00088365851190657849 0.031329645409410356 0 -0.00088365851190657849 0.031329645409410356 0 -0.00094277809304911813 0.031449889940915979 0 -0.0010612684708875733 0.031401165900025882 0 -0.00094277809304911813 0.031449889940915979 0 -0.0010612684708875733 0.031401165900025882 0 -0.001070763356838993 0.031561525271569968 0 -0.0010612684708875733 0.031401165900025882 0 -0.001070763356838993 0.031561525271569968 0 -0.00121673024210061 0.03148534993601082 0 -0.0010629535516734785 0.031253172341889034 0 -0.0010612684708875733 0.031401165900025882 0 -0.0011403002880770736 0.031357728692245623 0 -0.0010629535516734785 0.031253172341889034 0 -0.00088365851190657849 0.031329645409410356 0 -0.0010612684708875733 0.031401165900025882 0 -0.001070763356838993 0.031561525271569968 0 -0.0009755822006520616 0.031714763291808397 0 -0.0011413253958048538 0.031743963651714342 0 -0.00094277809304911813 0.031449889940915979 0 -0.001070763356838993 0.031561525271569968 0 -0.00090402582058904065 0.03155995633940302 0 -0.00090402582058904065 0.03155995633940302 0 -0.0009755822006520616 0.031714763291808397 0 -0.00078798568956427357 0.03163026095952147 0 -0.001070763356838993 0.031561525271569968 0 -0.00090402582058904065 0.03155995633940302 0 -0.0009755822006520616 0.031714763291808397 0 -0.0017954760548613536 0.029574389053352749 0 -0.0018137153516132819 0.027679946014778099 0 -0.00078798568956427357 0.03163026095952147 0 -0.00083976010124590234 0.03182684634398137 0 -0.00055324818022987855 0.031665288851875015 0 -0.0009755822006520616 0.031714763291808397 0 -0.00078798568956427357 0.03163026095952147 0 -0.00083976010124590234 0.03182684634398137 0 -0.00077985652388240588 0.031477744527882053 0 -0.00090402582058904065 0.03155995633940302 0 -0.00078798568956427357 0.03163026095952147 0 -0.00078798568956427357 0.03163026095952147 0 -0.00066509447317122299 0.03155364654058751 0 -0.00055324818022987855 0.031665288851875015 0 -0.00077985652388240588 0.031477744527882053 0 -0.00078798568956427357 0.03163026095952147 0 -0.00066509447317122299 0.03155364654058751 0 -0.00094966225249832822 0.032117705896530069 0 -0.0010710571112654834 0.032093970283383962 0 -0.0008820026379219002 0.032001245593272873 0 -0.00094966225249832822 0.032117705896530069 0 -0.0010176568119590625 0.032215162280007974 0 -0.00087031099733683379 0.032211994466834232 0 -0.00094966225249832822 0.032117705896530069 0 -0.0010176568119590625 0.032215162280007974 0 -0.0010710571112654834 0.032093970283383962 0 -0.0009755822006520616 0.031714763291808397 0 -0.0011413253958048538 0.031743963651714342 0 -0.0011244430061067574 0.03200488324331692 0 -0.0010176568119590625 0.032215162280007974 0 -0.0010710571112654834 0.032093970283383962 0 -0.001256458601136887 0.032169261666277066 0 -0.0017954760548613536 0.029574389053352749 0 -0.0017914459814529547 0.030503056121670164 0 -0.0009755822006520616 0.031714763291808397 0 -0.00083976010124590234 0.03182684634398137 0 -0.0011244430061067574 0.03200488324331692 0 -0.0028412489391012982 0.022706902860779147 0 -0.0018137153516132819 0.027679946014778099 0 -0.0031748004676392574 0.025809814834289367 0 -0.0034672100777234862 0.025949484668540312 0 -0.0031624778137099244 0.026012380036013867 0 -0.00034585981827383293 0.031454127274307853 0 -0.00044267949813221594 0.031463828426010913 0 -0.00058835721579238241 0.031606582266090991 0 -0.0031142179300061232 0.022077454448155079 0 -0.0030810559527249897 0.02544977003869377 0 -0.0031189171263546066 0.025811054843651478 0 -0.0031748004676392574 0.025809814834289367 0 -0.0031624778137099244 0.026012380036013867 0 -0.0031142179300061232 0.022077454448155079 0 -0.0028412489391012982 0.022706902860779147 0 -0.0032741860687825887 0.02271104732076528 0 -0.0033183432775599356 0.022902199810285191 0 -0.0029318483993744549 0.022726726312166028 0 -0.0028412489391012982 0.022706902860779147 0 -0.0025248838234479872 0.022988822031947711 0 -0.00055709633494955657 0.031457255691048319 0 -0.00044267949813221594 0.031463828426010913 0 -0.00058835721579238241 0.031606582266090991 0 -0.00055709633494955657 0.031457255691048319 0 -0.00066509447317122299 0.03155364654058751 0 -0.00058835721579238241 0.031606582266090991 0 -0.0015228607720553186 0.028065512842461785 0 -0.0018137153516132819 0.027679946014778099 0 -0.00094966225249832822 0.032117705896530069 0 -0.0008820026379219002 0.032001245593272873 0 -0.00087031099733683379 0.032211994466834232 0 -0.0018137153516132819 0.027679946014778099 0 -0.0026007915134781722 0.028402796716679408 0 -0.0008820026379219002 0.032001245593272873 0 -0.00087031099733683379 0.032211994466834232 0 -0.00066812534315572691 0.032215556072664082 0 -0.0034672100777234862 0.025949484668540312 0 -0.0031624778137099244 0.026012380036013867 0 -0.0032059332170817248 0.026212046726479948 0 -0.0030810559527249897 0.02544977003869377 0 -0.0026007915134781722 0.028402796716679408 0 -0.0062106247674681616 0.025727747431975027 0 -0.0068232608977113127 0.025276032211659371 0 -0.0071086382628377737 0.026568757018561037 0 -0.00066812534315572691 0.032215556072664082 0 -0.00079649564610494552 0.032322053160965043 0 -0.00073164855260789054 0.032460895527777568 0 -0.00070877461495389555 0.032319519744117016 0 -0.00067038331602628379 0.032446798684428332 0 -0.00073164855260789054 0.032460895527777568 0 -0.0026007915134781722 0.028402796716679408 0 -0.0025509005638186437 0.030083096970723981 0 -0.00087031099733683379 0.032211994466834232 0 -0.00066812534315572691 0.032215556072664082 0 -0.00079649564610494552 0.032322053160965043 0 -0.00090456511585307211 0.032393788088127672 0 -0.00079649564610494552 0.032322053160965043 0 -0.00073164855260789054 0.032460895527777568 0 -0.0010176568119590625 0.032215162280007974 0 -0.00087031099733683379 0.032211994466834232 0 -0.00090456511585307211 0.032393788088127672 0 -0.00087031099733683379 0.032211994466834232 0 -0.00090456511585307211 0.032393788088127672 0 -0.00079649564610494552 0.032322053160965043 0 -0.00090456511585307211 0.032393788088127672 0 -0.00092174120446882025 0.032568503758725928 0 -0.00077383430849607758 0.032571363764284808 0 -0.00090456511585307211 0.032393788088127672 0 -0.00073164855260789054 0.032460895527777568 0 -0.00077383430849607758 0.032571363764284808 0 -0.00073164855260789054 0.032460895527777568 0 -0.00077383430849607758 0.032571363764284808 0 -0.00065972785507989408 0.032544513343960343 0 -0.00067038331602628379 0.032446798684428332 0 -0.00073164855260789054 0.032460895527777568 0 -0.00065972785507989408 0.032544513343960343 0 -0.0010176568119590625 0.032215162280007974 0 -0.0010766260045933977 0.032331839425505188 0 -0.001256458601136887 0.032169261666277066 0 -0.0010766260045933977 0.032331839425505188 0 -0.0011859223165858097 0.032392013674047079 0 -0.001256458601136887 0.032169261666277066 0 -0.0011859223165858097 0.032392013674047079 0 -0.001256458601136887 0.032169261666277066 0 -0.0013047097138267261 0.03234910812478442 0 -0.0010176568119590625 0.032215162280007974 0 -0.00090456511585307211 0.032393788088127672 0 -0.0010766260045933977 0.032331839425505188 0 -0.00090456511585307211 0.032393788088127672 0 -0.0010766260045933977 0.032331839425505188 0 -0.0010431285455768588 0.032480749185462107 0 -0.00090456511585307211 0.032393788088127672 0 -0.0010431285455768588 0.032480749185462107 0 -0.00092174120446882025 0.032568503758725928 0 -0.0010766260045933977 0.032331839425505188 0 -0.0010431285455768588 0.032480749185462107 0 -0.0011859223165858097 0.032392013674047079 0 -0.0010431285455768588 0.032480749185462107 0 -0.0011783081731782494 0.032536650418852314 0 -0.0011859223165858097 0.032392013674047079 0 -0.0011783081731782494 0.032536650418852314 0 -0.0011859223165858097 0.032392013674047079 0 -0.0012768909426463908 0.032468773389048029 0 -0.0011749230148962138 0.032660011084081862 0 -0.0010482415577050528 0.032686605130374732 0 -0.0012287434233685447 0.032770025725052186 0 -0.0010431285455768588 0.032480749185462107 0 -0.0011783081731782494 0.032536650418852314 0 -0.0010482415577050528 0.032686605130374732 0 -0.0011749230148962138 0.032660011084081862 0 -0.0012287434233685447 0.032770025725052186 0 -0.0013144097657311709 0.03261470815237312 0 -0.0011783081731782494 0.032536650418852314 0 -0.0011749230148962138 0.032660011084081862 0 -0.0013144097657311709 0.03261470815237312 0 -0.0011783081731782494 0.032536650418852314 0 -0.0011749230148962138 0.032660011084081862 0 -0.0010482415577050528 0.032686605130374732 0 -0.00092174120446882025 0.032568503758725928 0 -0.0010482415577050528 0.032686605130374732 0 -0.00084986889009669615 0.032689159095865082 0 -0.0010431285455768588 0.032480749185462107 0 -0.00092174120446882025 0.032568503758725928 0 -0.0010482415577050528 0.032686605130374732 0 -0.00094632786114898487 0.032767306822251846 0 -0.0011197665766509025 0.032847252942188598 0 -0.000988652070931762 0.032885885029510294 0 -0.0010482415577050528 0.032686605130374732 0 -0.00094632786114898487 0.032767306822251846 0 -0.00084986889009669615 0.032689159095865082 0 -0.0010482415577050528 0.032686605130374732 0 -0.00094632786114898487 0.032767306822251846 0 -0.0011197665766509025 0.032847252942188598 0 -0.00094632786114898487 0.032767306822251846 0 -0.00082230613476204015 0.032798533443906569 0 -0.000988652070931762 0.032885885029510294 0 -0.0010482415577050528 0.032686605130374732 0 -0.0011197665766509025 0.032847252942188598 0 -0.0012287434233685447 0.032770025725052186 0 -0.0011197665766509025 0.032847252942188598 0 -0.0012287434233685447 0.032770025725052186 0 -0.0013470530707925513 0.03287121443220245 0 -0.00067526088426392338 0.032644866541128567 0 -0.00077383430849607758 0.032571363764284808 0 -0.00065972785507989408 0.032544513343960343 0 -0.00073401011331384854 0.032673978575255017 0 -0.00067526088426392338 0.032644866541128567 0 -0.000664450150196742 0.032725055536893213 0 -0.00073401011331384854 0.032673978575255017 0 -0.00067526088426392338 0.032644866541128567 0 -0.00077383430849607758 0.032571363764284808 0 -0.00092174120446882025 0.032568503758725928 0 -0.00077383430849607758 0.032571363764284808 0 -0.00084986889009669615 0.032689159095865082 0 -0.00073401011331384854 0.032673978575255017 0 -0.00077383430849607758 0.032571363764284808 0 -0.00084986889009669615 0.032689159095865082 0 -0.00073401011331384854 0.032673978575255017 0 -0.00084986889009669615 0.032689159095865082 0 -0.00073173131832894123 0.032775018074676102 0 -0.00084986889009669615 0.032689159095865082 0 -0.00082230613476204015 0.032798533443906569 0 -0.00073173131832894123 0.032775018074676102 0 -0.00094632786114898487 0.032767306822251846 0 -0.00084986889009669615 0.032689159095865082 0 -0.00082230613476204015 0.032798533443906569 0 -0.00082230613476204015 0.032798533443906569 0 -0.00073173131832894123 0.032775018074676102 0 -0.00075402755606206954 0.032835779912360412 0 -0.00073401011331384854 0.032673978575255017 0 -0.00073173131832894123 0.032775018074676102 0 -0.000664450150196742 0.032725055536893213 0 -0.00073173131832894123 0.032775018074676102 0 -0.00065295690029077552 0.032808632827018881 0 -0.00070096282473720807 0.03284876849040072 0 -0.00073173131832894123 0.032775018074676102 0 -0.000664450150196742 0.032725055536893213 0 -0.00065295690029077552 0.032808632827018881 0 -0.00065295690029077552 0.032808632827018881 0 -0.00059346223322622035 0.032771141087783916 0 -0.00059401312665385494 0.032849884555997196 0 -0.00059346223322622035 0.032771141087783916 0 -0.00055689453376379266 0.032834369735338216 0 -0.00059401312665385494 0.032849884555997196 0 -0.000664450150196742 0.032725055536893213 0 -0.00065295690029077552 0.032808632827018881 0 -0.00059346223322622035 0.032771141087783916 0 -0.000664450150196742 0.032725055536893213 0 -0.00059346223322622035 0.032771141087783916 0 -0.00061461005888646984 0.032663420997340709 0 -0.00067526088426392338 0.032644866541128567 0 -0.000664450150196742 0.032725055536893213 0 -0.00061461005888646984 0.032663420997340709 0 -0.00061461005888646984 0.032663420997340709 0 -0.00057792561378537124 0.032608286354180019 0 -0.00056046901313632261 0.032703161232441248 0 -0.00059346223322622035 0.032771141087783916 0 -0.00061461005888646984 0.032663420997340709 0 -0.00056046901313632261 0.032703161232441248 0 -0.00061461005888646984 0.032663420997340709 0 -0.00057792561378537124 0.032608286354180019 0 -0.00065972785507989408 0.032544513343960343 0 -0.00067526088426392338 0.032644866541128567 0 -0.00061461005888646984 0.032663420997340709 0 -0.00065972785507989408 0.032544513343960343 0 -0.00057792561378537124 0.032608286354180019 0 -0.0004794931134092548 0.03264658598809117 0 -0.00056046901313632261 0.032703161232441248 0 -0.0004794931134092548 0.03264658598809117 0 -0.00056046901313632261 0.032703161232441248 0 -0.00052371554882724267 0.032761963062330514 0 -0.00059346223322622035 0.032771141087783916 0 -0.00056046901313632261 0.032703161232441248 0 -0.00052371554882724267 0.032761963062330514 0 -0.00059346223322622035 0.032771141087783916 0 -0.00052371554882724267 0.032761963062330514 0 -0.00055689453376379266 0.032834369735338216 0 -0.00052371554882724267 0.032761963062330514 0 -0.00052382482610363341 0.03285253393122739 0 -0.00055689453376379266 0.032834369735338216 0 -0.0004794931134092548 0.03264658598809117 0 -0.00052371554882724267 0.032761963062330514 0 -0.00047243491019367188 0.032816109390699393 0 -0.0005594151498097583 0.033015515732770159 0 -0.00054448414983209077 0.033024292184147458 0 -0.00055365526044375837 0.033029158219627638 0 -0.00052371554882724267 0.032761963062330514 0 -0.00047243491019367188 0.032816109390699393 0 -0.00052382482610363341 0.03285253393122739 0 -0.00054448414983209077 0.033024292184147458 0 -0.00055365526044375837 0.033029158219627638 0 -0.00061066892074982976 0.033007553735984928 0 -0.0028918954293093236 0.030792433816598592 0 -0.0020218450312869483 0.031121231023124408 0 -0.0017462984691622174 0.031938918006138468 0 -0.0016636942620036391 0.031634443935405709 0 -0.0012279442467398062 0.032188934782783687 0 -0.0028918954293093236 0.030792433816598592 0 -0.0020218450312869483 0.031121231023124408 0 -0.0023757295933922932 0.030300323641749397 0 -0.0020218450312869483 0.031121231023124408 0 -0.0016822988114608476 0.030305170935165018 0 -0.0023757295933922932 0.030300323641749397 0 -0.0020913199002036893 0.023851029367864627 0 -0.0025974670447228942 0.022402615809123928 0 -0.0016822988114608476 0.030305170935165018 0 -0.0026335137798323177 0.029610880696334326 0 -0.0029528413041453932 0.028430941450062679 0 -0.0020238024384289497 0.017314840796843457 0 -0.0021773709847559375 0.017100569721829662 0 -0.0020304387483311764 0.017150722814371588 0 -0.0016822988114608476 0.030305170935165018 0 -0.0023757295933922932 0.030300323641749397 0 -0.0026335137798323177 0.029610880696334326 0 -0.0028918954293093236 0.030792433816598592 0 -0.0023757295933922932 0.030300323641749397 0 -0.0026335137798323177 0.029610880696334326 0 -0.0041136334238303356 0.02954583658948591 0 -0.0028918954293093236 0.030792433816598592 0 -0.0026335137798323177 0.029610880696334326 0 -0.0041136334238303356 0.02954583658948591 0 -0.0026335137798323177 0.029610880696334326 0 -0.0031472294140724262 0.029077766941793516 0 -0.0022289756820694424 0.030816876214993603 0 -0.0011603142739286564 0.032450099115133364 0 -0.0022289756820694424 0.030816876214993603 0 -0.0016636942620036391 0.031634443935405709 0 -0.0041136334238303356 0.02954583658948591 0 -0.0035430761725077516 0.028718101168116496 0 -0.004190013967054141 0.028400861095960499 0 -0.0041136334238303356 0.02954583658948591 0 -0.0035430761725077516 0.028718101168116496 0 -0.0031472294140724262 0.029077766941793516 0 -0.0035430761725077516 0.028718101168116496 0 -0.0031472294140724262 0.029077766941793516 0 -0.0029528413041453932 0.028430941450062679 0 -0.0026335137798323177 0.029610880696334326 0 -0.0031472294140724262 0.029077766941793516 0 -0.0029528413041453932 0.028430941450062679 0 -0.0035430761725077516 0.028718101168116496 0 -0.0029528413041453932 0.028430941450062679 0 -0.0034508357224343231 0.028119317880202201 0 -0.0035430761725077516 0.028718101168116496 0 -0.0034508357224343231 0.028119317880202201 0 -0.004190013967054141 0.028400861095960499 0 -0.0034508357224343231 0.028119317880202201 0 -0.0040615040511361852 0.02798719734089232 0 -0.004190013967054141 0.028400861095960499 0 -0.0021773709847559375 0.017100569721829662 0 -0.0020304387483311764 0.017150722814371588 0 -0.0020993352324948835 0.017059307288036847 0 -0.0021773709847559375 0.017100569721829662 0 -0.0020993352324948835 0.017059307288036847 0 -0.0021721716194960366 0.017001314540240738 0 -0.0020304387483311764 0.017150722814371588 0 -0.0020993352324948835 0.017059307288036847 0 -0.0020255504688345455 0.017057608470853323 0 -0.0020837918346532374 0.016994071054128385 0 -0.0019773029496707091 0.016995388848130472 0 -0.0020137080120721444 0.01692336972081639 0 -0.0020255504688345455 0.017057608470853323 0 -0.0020837918346532374 0.016994071054128385 0 -0.0019773029496707091 0.016995388848130472 0 -0.0020993352324948835 0.017059307288036847 0 -0.0020255504688345455 0.017057608470853323 0 -0.0020837918346532374 0.016994071054128385 0 -0.0020993352324948835 0.017059307288036847 0 -0.0020837918346532374 0.016994071054128385 0 -0.0021721716194960366 0.017001314540240738 0 -0.0020837918346532374 0.016994071054128385 0 -0.0021721716194960366 0.017001314540240738 0 -0.002168331167639711 0.016923416828319601 0 -0.0020837918346532374 0.016994071054128385 0 -0.0020859659107809237 0.016896834216892857 0 -0.002168331167639711 0.016923416828319601 0 -0.0020837918346532374 0.016994071054128385 0 -0.0020859659107809237 0.016896834216892857 0 -0.0020137080120721444 0.01692336972081639 0 -0.002339009564092285 0.016891484480071304 0 -0.0021721716194960366 0.017001314540240738 0 -0.002168331167639711 0.016923416828319601 0 -0.00373069471727495 0.01988412549919634 0 -0.0025974670447228942 0.022402615809123928 0 -0.002339009564092285 0.016891484480071304 0 -0.0021773709847559375 0.017100569721829662 0 -0.0021721716194960366 0.017001314540240738 0 -0.0034508357224343231 0.028119317880202201 0 -0.0044873359846967281 0.026697266618207226 0 -0.0042075838454662022 0.027590280138608252 0 -0.0044190481904875789 0.026372047496121268 0 -0.0029528413041453932 0.028430941450062679 0 -0.0034508357224343231 0.028119317880202201 0 -0.0029532553684421567 0.023660855368554595 0 -0.004233117276335064 0.020805186684956525 0 -0.0034508357224343231 0.028119317880202201 0 -0.0040615040511361852 0.02798719734089232 0 -0.0042075838454662022 0.027590280138608252 0 -0.0044873359846967281 0.026697266618207226 0 -0.0045976682761791074 0.027223009386399731 0 -0.0042075838454662022 0.027590280138608252 0 -0.0044190481904875789 0.026372047496121268 0 -0.0034508357224343231 0.028119317880202201 0 -0.004619320974457366 0.026463611700024627 0 -0.0044873359846967281 0.026697266618207226 0 -0.0045976682761791074 0.027223009386399731 0 -0.0048142711811692265 0.027035996168571667 0 -0.004397844659463951 0.027839857778092812 0 -0.0051055820822885796 0.027379143402557139 0 -0.004190013967054141 0.028400861095960499 0 -0.0045976682761791074 0.027223009386399731 0 -0.0042075838454662022 0.027590280138608252 0 -0.0046065199957862589 0.027534835286695668 0 -0.0042075838454662022 0.027590280138608252 0 -0.0046065199957862589 0.027534835286695668 0 -0.004397844659463951 0.027839857778092812 0 -0.0040615040511361852 0.02798719734089232 0 -0.0042075838454662022 0.027590280138608252 0 -0.004397844659463951 0.027839857778092812 0 -0.0046065199957862589 0.027534835286695668 0 -0.004397844659463951 0.027839857778092812 0 -0.0051055820822885796 0.027379143402557139 0 -0.0046065199957862589 0.027534835286695668 0 -0.0047942245712063762 0.027346875107364978 0 -0.0051055820822885796 0.027379143402557139 0 -0.0045976682761791074 0.027223009386399731 0 -0.0046065199957862589 0.027534835286695668 0 -0.0047942245712063762 0.027346875107364978 0 -0.0047942245712063762 0.027346875107364978 0 -0.0051055820822885796 0.027379143402557139 0 -0.0048963262724387932 0.02718226495940201 0 -0.0043764418379318376 0.02661262322683423 0 -0.005100856732005078 0.026629733962810244 0 -0.0052791359338796393 0.027039266893868433 0 -0.0044873359846967281 0.026697266618207226 0 -0.0048142711811692265 0.027035996168571667 0 -0.0052791359338796393 0.027039266893868433 0 -0.0048963262724387932 0.02718226495940201 0 -0.0048142711811692265 0.027035996168571667 0 -0.0052791359338796393 0.027039266893868433 0 -0.0051055820822885796 0.027379143402557139 0 -0.0048963262724387932 0.02718226495940201 0 -0.0052791359338796393 0.027039266893868433 0 -0.004233117276335064 0.020805186684956525 0 -0.004654978686919161 0.021281442834794717 0 -0.0045976682761791074 0.027223009386399731 0 -0.0048963262724387932 0.02718226495940201 0 -0.0048142711811692265 0.027035996168571667 0 -0.0045976682761791074 0.027223009386399731 0 -0.0047942245712063762 0.027346875107364978 0 -0.0048963262724387932 0.02718226495940201 0 -0.0071086382628377737 0.026568757018561037 0 -0.0059271585451133044 0.027078304378962623 0 -0.0055391404640380984 0.028155834579204692 0 -0.0055447174292480037 0.026567571939883929 0 -0.005100856732005078 0.026629733962810244 0 -0.0052791359338796393 0.027039266893868433 0 -0.0060809891114883552 0.026388506439030405 0 -0.0055447174292480037 0.026567571939883929 0 -0.0059271585451133044 0.027078304378962623 0 -0.00070877461495389555 0.032319519744117016 0 -0.00067038331602628379 0.032446798684428332 0 -0.0005790651385344912 0.032471490673395206 0 -0.0055447174292480037 0.026567571939883929 0 -0.0059271585451133044 0.027078304378962623 0 -0.0052791359338796393 0.027039266893868433 0 -0.0026007915134781722 0.028402796716679408 0 -0.0025500115246324239 0.029779508448644115 0 -0.0051055820822885796 0.027379143402557139 0 -0.0052791359338796393 0.027039266893868433 0 -0.005461252776256237 0.027410856424981939 0 -0.0059271585451133044 0.027078304378962623 0 -0.0052791359338796393 0.027039266893868433 0 -0.005461252776256237 0.027410856424981939 0 -0.0060809891114883552 0.026388506439030405 0 -0.0071086382628377737 0.026568757018561037 0 -0.0059271585451133044 0.027078304378962623 0 -0.0059271585451133044 0.027078304378962623 0 -0.005461252776256237 0.027410856424981939 0 -0.0055391404640380984 0.028155834579204692 0 -0.0051055820822885796 0.027379143402557139 0 -0.005461252776256237 0.027410856424981939 0 -0.0055391404640380984 0.028155834579204692 0 -0.00067038331602628379 0.032446798684428332 0 -0.0005790651385344912 0.032471490673395206 0 -0.00065972785507989408 0.032544513343960343 0 -0.00057792561378537124 0.032608286354180019 0 -0.0005790651385344912 0.032471490673395206 0 -0.00065972785507989408 0.032544513343960343 0 -0.0038884231555867525 0.02978189352799912 0 -0.0051055820822885796 0.027379143402557139 0 -0.0055391404640380984 0.028155834579204692 0 -0.0022289756820694424 0.030816876214993603 0 -0.0025500115246324239 0.029779508448644115 0 -0.00057792561378537124 0.032608286354180019 0 -0.0004794931134092548 0.03264658598809117 0 -0.0005790651385344912 0.032471490673395206 0 -0.0022289756820694424 0.030816876214993603 0 -0.0036428380417332464 0.02865469491588607 0 -0.0041136334238303356 0.02954583658948591 0 -0.0051055820822885796 0.027379143402557139 0 -0.004190013967054141 0.028400861095960499 0 -0.0040615040511361852 0.02798719734089232 0 -0.004397844659463951 0.027839857778092812 0 -0.004190013967054141 0.028400861095960499 0 -2.6941895075675218e-09 0.034999998429191673 0 -1.5260764641119748e-06 0.034998772290446359 0 -1.1077792356683678e-09 0.034999997088899643 0 -1.4568100900353426e-06 0.03499873656190227 0 -1.5260764641119748e-06 0.034998772290446359 0 -1.1077792356683678e-09 0.034999997088899643 0 -1.4568100900353426e-06 0.03499873656190227 0 -4.0089923429864728e-06 0.03499798277333549 0 -6.2190869710839229e-06 0.034996943340897139 0 -1.4568100900353426e-06 0.03499873656190227 0 -4.0089923429864728e-06 0.03499798277333549 0 -1.5260764641119748e-06 0.034998772290446359 0 -3.2314218381847374e-06 0.034997234331844547 0 -1.5260764641119748e-06 0.034998772290446359 0 -7.7656048835217844e-07 0.034996303388965887 0 -4.0089923429864728e-06 0.03499798277333549 0 -3.2314218381847374e-06 0.034997234331844547 0 -1.5260764641119748e-06 0.034998772290446359 0 -2.6941895075675218e-09 0.034999998429191673 0 -1.5260764641119748e-06 0.034998772290446359 0 -7.7656048835217844e-07 0.034996303388965887 0 -2.6941895075675218e-09 0.034999998429191673 0 -9.4281670396906723e-07 0.034994177308857642 0 -1.589130289679995e-09 0.034999984254964756 0 -2.6941895075675218e-09 0.034999998429191673 0 -9.4281670396906723e-07 0.034994177308857642 0 -7.7656048835217844e-07 0.034996303388965887 0 -5.3126680337812913e-07 0.034989509407982365 0 -9.4281670396906723e-07 0.034994177308857642 0 -1.589130289679995e-09 0.034999984254964756 0 -5.3126680337812913e-07 0.034989509407982365 0 -9.4281670396906723e-07 0.034994177308857642 0 1.5012755934612177e-07 0.034985945015959849 0 1.5012755934612177e-07 0.034985945015959849 0 -7.7656048835217844e-07 0.034996303388965887 0 1.9297064127383386e-06 0.034982389366353402 0 -3.2314218381847374e-06 0.034997234331844547 0 -7.7656048835217844e-07 0.034996303388965887 0 -7.5470940704335301e-06 0.034999331374394954 0 -9.4281670396906723e-07 0.034994177308857642 0 1.5012755934612177e-07 0.034985945015959849 0 -7.7656048835217844e-07 0.034996303388965887 0 -9.6138315993545918e-06 0.034968602899335906 0 -1.1846589417098758e-05 0.03496225305264887 0 -3.2314218381847374e-06 0.034997234331844547 0 -7.5470940704335301e-06 0.034999331374394954 0 -1.4384317222253607e-05 0.034994818829045302 0 1.2365652942337324e-06 0.034975185009886875 0 1.5012755934612177e-07 0.034985945015959849 0 1.741151180425524e-06 0.034978377487166486 0 1.9297064127383386e-06 0.034982389366353402 0 1.741151180425524e-06 0.034978377487166486 0 3.4787106596721563e-06 0.034969784790377885 0 1.2365652942337324e-06 0.034975185009886875 0 1.741151180425524e-06 0.034978377487166486 0 3.4787106596721563e-06 0.034969784790377885 0 1.5012755934612177e-07 0.034985945015959849 0 1.9297064127383386e-06 0.034982389366353402 0 1.741151180425524e-06 0.034978377487166486 0 3.4787106596721563e-06 0.034969784790377885 0 7.3318205173134662e-06 0.034970451930436963 0 8.8836532970060373e-06 0.034961433323204817 0 8.1900317633027623e-06 0.034952189944271558 0 3.4787106596721563e-06 0.034969784790377885 0 8.8836532970060373e-06 0.034961433323204817 0 -1.1846589417098758e-05 0.03496225305264887 0 -2.1225393738414425e-05 0.034942144309816806 0 -1.4384317222253607e-05 0.034994818829045302 0 -2.3938083843172998e-05 0.034990308823270942 0 -2.0831478834242633e-05 0.034999895474672103 0 -7.5470940704335301e-06 0.034999331374394954 0 -1.4384317222253607e-05 0.034994818829045302 0 -2.0831478834242633e-05 0.034999895474672103 0 1.9297064127383386e-06 0.034982389366353402 0 3.4787106596721563e-06 0.034969784790377885 0 7.3318205173134662e-06 0.034970451930436963 0 -1.5464429966171072e-05 0.034985968511516606 0 -1.4384317222253607e-05 0.034994818829045302 0 -2.3938083843172998e-05 0.034990308823270942 0 5.9696481088257745e-05 0.0348129363195991 0 4.5332469873492537e-05 0.03472124202785782 0 -3.2314218381847374e-06 0.034997234331844547 0 -1.5464429966171072e-05 0.034985968511516606 0 -1.4384317222253607e-05 0.034994818829045302 0 -4.0089923429864728e-06 0.03499798277333549 0 -3.2314218381847374e-06 0.034997234331844547 0 -1.0993306537270164e-05 0.034999342173080684 0 -4.0089923429864728e-06 0.03499798277333549 0 -1.0993306537270164e-05 0.034999342173080684 0 -6.2190869710839229e-06 0.034996943340897139 0 -1.0993306537270164e-05 0.034999342173080684 0 -1.792405846393432e-05 0.034993250539168484 0 -1.3797983246717283e-05 0.034994157688519309 0 -1.0993306537270164e-05 0.034999342173080684 0 -1.0286420172880289e-05 0.034995522679922376 0 -1.3797983246717283e-05 0.034994157688519309 0 -1.0993306537270164e-05 0.034999342173080684 0 -6.2190869710839229e-06 0.034996943340897139 0 -1.0286420172880289e-05 0.034995522679922376 0 -1.5464429966171072e-05 0.034985968511516606 0 -3.2117282501639714e-05 0.034975177449876257 0 -2.6303887335612341e-05 0.034985071286295598 0 4.5332469873492537e-05 0.03472124202785782 0 -0.00018503988768493648 0.034285536391254215 0 -1.0993306537270164e-05 0.034999342173080684 0 -2.2155489133518435e-05 0.034994806751143408 0 -1.792405846393432e-05 0.034993250539168484 0 -3.2117282501639714e-05 0.034975177449876257 0 -3.3851267866764561e-05 0.034988867677991926 0 -2.6303887335612341e-05 0.034985071286295598 0 -0.00043123838625885755 0.03387694638929075 0 -0.00054518446198186085 0.033512698578200648 0 -0.00018503988768493648 0.034285536391254215 0 -0.00011764939991483104 0.034748581364180131 0 4.8388083980268952e-05 0.034900656907865119 0 4.0736299685062449e-05 0.034896808124737409 0 4.5008147317956242e-05 0.03493028395285469 0 4.0736299685062449e-05 0.034896808124737409 0 4.5008147317956242e-05 0.03493028395285469 0 2.6741559070991728e-05 0.034928586456145987 0 -0.00018503988768493648 0.034285536391254215 0 -0.00043123838625885755 0.03387694638929075 0 4.5008147317956242e-05 0.03493028395285469 0 3.249819441774987e-05 0.034943040989052321 0 2.6741559070991728e-05 0.034928586456145987 0 -3.3851267866764561e-05 0.034988867677991926 0 -2.6303887335612341e-05 0.034985071286295598 0 -2.3938083843172998e-05 0.034990308823270942 0 -3.3851267866764561e-05 0.034988867677991926 0 -2.3938083843172998e-05 0.034990308823270942 0 -2.865611508521621e-05 0.034994522288502791 0 -1.5464429966171072e-05 0.034985968511516606 0 -2.6303887335612341e-05 0.034985071286295598 0 -2.3938083843172998e-05 0.034990308823270942 0 -2.3938083843172998e-05 0.034990308823270942 0 -2.865611508521621e-05 0.034994522288502791 0 -2.0831478834242633e-05 0.034999895474672103 0 7.3318205173134662e-06 0.034970451930436963 0 1.3928471383847254e-05 0.034961046270970152 0 2.1847855351153773e-05 0.034961607941343856 0 -2.1225393738414425e-05 0.034942144309816806 0 -5.395389757939511e-05 0.034902412969573492 0 -2.865611508521621e-05 0.034994522288502791 0 -2.0831478834242633e-05 0.034999895474672103 0 -3.5619765264389481e-05 0.035001210031255788 0 7.3318205173134662e-06 0.034970451930436963 0 8.8836532970060373e-06 0.034961433323204817 0 1.3928471383847254e-05 0.034961046270970152 0 8.8836532970060373e-06 0.034961433323204817 0 1.3928471383847254e-05 0.034961046270970152 0 1.4624001587142492e-05 0.034953169788393516 0 8.1900317633027623e-06 0.034952189944271558 0 8.8836532970060373e-06 0.034961433323204817 0 1.4624001587142492e-05 0.034953169788393516 0 1.702452947274107e-05 0.03494040165681938 0 1.4624001587142492e-05 0.034953169788393516 0 2.2388894091970053e-05 0.034947840680338425 0 1.4624001587142492e-05 0.034953169788393516 0 2.2388894091970053e-05 0.034947840680338425 0 2.3090919722848246e-05 0.034954872908048829 0 1.3928471383847254e-05 0.034961046270970152 0 2.3090919722848246e-05 0.034954872908048829 0 2.1847855351153773e-05 0.034961607941343856 0 1.3928471383847254e-05 0.034961046270970152 0 1.4624001587142492e-05 0.034953169788393516 0 2.3090919722848246e-05 0.034954872908048829 0 2.2388894091970053e-05 0.034947840680338425 0 2.3090919722848246e-05 0.034954872908048829 0 2.8592252416265962e-05 0.034948593230575004 0 -0.00011764939991483104 0.034748581364180131 0 -5.395389757939511e-05 0.034902412969573492 0 2.3090919722848246e-05 0.034954872908048829 0 2.3321831472275867e-05 0.034956747279566873 0 3.0242352463509055e-05 0.034952722202082655 0 4.0181092606745365e-05 0.034952453529597034 0 3.249819441774987e-05 0.034943040989052321 0 3.0242352463509055e-05 0.034952722202082655 0 -5.395389757939511e-05 0.034902412969573492 0 -4.4641482457302721e-05 0.034903304113957638 0 4.5008147317956242e-05 0.03493028395285469 0 4.0181092606745365e-05 0.034952453529597034 0 3.249819441774987e-05 0.034943040989052321 0 -3.3851267866764561e-05 0.034988867677991926 0 -2.865611508521621e-05 0.034994522288502791 0 -3.5619765264389481e-05 0.035001210031255788 0 -5.3092308000781942e-05 0.034904887447611894 0 -5.395389757939511e-05 0.034902412969573492 0 3.249819441774987e-05 0.034943040989052321 0 3.0718621006670335e-05 0.034951725014792746 0 2.6741559070991728e-05 0.034928586456145987 0 3.249819441774987e-05 0.034943040989052321 0 3.0242352463509055e-05 0.034952722202082655 0 3.0718621006670335e-05 0.034951725014792746 0 -0.00055443197791754022 0.033241371746165038 0 -0.00054518446198186085 0.033512698578200648 0 3.0242352463509055e-05 0.034952722202082655 0 3.4216262298602901e-05 0.034946768203914937 0 2.8592252416265962e-05 0.034948593230575004 0 2.3090919722848246e-05 0.034954872908048829 0 3.0242352463509055e-05 0.034952722202082655 0 2.8592252416265962e-05 0.034948593230575004 0 3.0242352463509055e-05 0.034952722202082655 0 3.4216262298602901e-05 0.034946768203914937 0 3.0718621006670335e-05 0.034951725014792746 0 2.8896320965744284e-05 0.034940990255192921 0 2.2388894091970053e-05 0.034947840680338425 0 2.8592252416265962e-05 0.034948593230575004 0 2.8896320965744284e-05 0.034940990255192921 0 3.4216262298602901e-05 0.034946768203914937 0 2.8592252416265962e-05 0.034948593230575004 0 -0.00052184290380755593 0.033020033155343291 0 -0.00055443197791754022 0.033241371746165038 0 3.4216262298602901e-05 0.034946768203914937 0 5.7085694232034727e-05 0.034940464631375817 0 3.0718621006670335e-05 0.034951725014792746 0 -0.001129797587266231 0.031049938443381508 0 -0.0012207682604421231 0.031292199561846964 0 -0.0013486141298156853 0.031391238958830933 0 4.0518527247172395e-05 0.03493231979117823 0 3.4216262298602901e-05 0.034946768203914937 0 5.7085694232034727e-05 0.034940464631375817 0 -0.0010629535516734785 0.031253172341889034 0 -0.001129797587266231 0.031049938443381508 0 -0.0012207682604421231 0.031292199561846964 0 -0.0012207682604421231 0.031292199561846964 0 -0.0011403002880770736 0.031357728692245623 0 -0.00121673024210061 0.03148534993601082 0 -0.0012207682604421231 0.031292199561846964 0 -0.00121673024210061 0.03148534993601082 0 -0.0014456331487663167 0.03167697469531456 0 -0.0012207682604421231 0.031292199561846964 0 -0.0013486141298156853 0.031391238958830933 0 -0.0014293224069684353 0.031783400745968901 0 -0.0010629535516734785 0.031253172341889034 0 -0.0012207682604421231 0.031292199561846964 0 -0.0011403002880770736 0.031357728692245623 0 -0.00088063646593061025 0.031838422915117057 0 -0.00086464008236378871 0.032240172722286527 0 -0.0010612684708875733 0.031401165900025882 0 -0.0011403002880770736 0.031357728692245623 0 -0.00121673024210061 0.03148534993601082 0 -0.001070763356838993 0.031561525271569968 0 -0.00121673024210061 0.03148534993601082 0 -0.0012362121095718132 0.031654838670048091 0 -0.001070763356838993 0.031561525271569968 0 -0.0012362121095718132 0.031654838670048091 0 -0.0011413253958048538 0.031743963651714342 0 -0.0012362121095718132 0.031654838670048091 0 -0.0011413253958048538 0.031743963651714342 0 -0.0013143009800999537 0.031812524391521955 0 -0.0012362121095718132 0.031654838670048091 0 -0.0014456331487663167 0.03167697469531456 0 -0.0013143009800999537 0.031812524391521955 0 -0.00121673024210061 0.03148534993601082 0 -0.0012362121095718132 0.031654838670048091 0 -0.0014456331487663167 0.03167697469531456 0 -0.0013486141298156853 0.031391238958830933 0 -0.0015832465525484362 0.031799007690661879 0 -0.0014293224069684353 0.031783400745968901 0 -0.00086464008236378871 0.032240172722286527 0 -0.00073172739905488337 0.033576525912907634 0 -0.0014456331487663167 0.03167697469531456 0 -0.0015782157772943294 0.032009938323250609 0 -0.0013143009800999537 0.031812524391521955 0 -0.0018386003108432909 0.032231556661741857 0 -0.0014293224069684353 0.031783400745968901 0 -0.0016739274661814311 0.032315080045757345 0 -0.0015782157772943294 0.032009938323250609 0 -0.0013432597184181844 0.031988716261563223 0 -0.0013143009800999537 0.031812524391521955 0 -0.0014456331487663167 0.03167697469531456 0 -0.0015782157772943294 0.032009938323250609 0 -0.0016994863574163409 0.032170242155221553 0 -0.0018386003108432909 0.032231556661741857 0 -0.0015832465525484362 0.031799007690661879 0 -0.0014293224069684353 0.031783400745968901 0 -0.0015782157772943294 0.032009938323250609 0 -0.0014572285616878595 0.032069524337262525 0 -0.0013432597184181844 0.031988716261563223 0 -0.0015782157772943294 0.032009938323250609 0 -0.0014572285616878595 0.032069524337262525 0 -0.001607949905903515 0.032227882441109974 0 -0.0014572285616878595 0.032069524337262525 0 -0.0013432597184181844 0.031988716261563223 0 -0.0014617448764531449 0.032222681274090129 0 -0.0013432597184181844 0.031988716261563223 0 -0.0011244430061067574 0.03200488324331692 0 -0.0014617448764531449 0.032222681274090129 0 -0.0011413253958048538 0.031743963651714342 0 -0.0011244430061067574 0.03200488324331692 0 -0.0013143009800999537 0.031812524391521955 0 -0.0013432597184181844 0.031988716261563223 0 -0.0011244430061067574 0.03200488324331692 0 -0.0013143009800999537 0.031812524391521955 0 -0.001256458601136887 0.032169261666277066 0 -0.0013782438647300585 0.032292928682493997 0 -0.0013047097138267261 0.03234910812478442 0 -0.0017914459814529547 0.030503056121670164 0 -0.0018272165991307272 0.030797848411443455 0 -0.001256458601136887 0.032169261666277066 0 -0.0013782438647300585 0.032292928682493997 0 -0.0014617448764531449 0.032222681274090129 0 -0.0013782438647300585 0.032292928682493997 0 -0.0014796882205562112 0.032283004488632507 0 -0.0014049978547371182 0.032450889761204964 0 -0.0013782438647300585 0.032292928682493997 0 -0.0013047097138267261 0.03234910812478442 0 -0.0014049978547371182 0.032450889761204964 0 -0.0013782438647300585 0.032292928682493997 0 -0.0014617448764531449 0.032222681274090129 0 -0.0014796882205562112 0.032283004488632507 0 -0.001548488867015392 0.032248870650709131 0 -0.0014796882205562112 0.032283004488632507 0 -0.0015787629165590466 0.032524988925620217 0 -0.0014572285616878595 0.032069524337262525 0 -0.0014617448764531449 0.032222681274090129 0 -0.001607949905903515 0.032227882441109974 0 -0.0014617448764531449 0.032222681274090129 0 -0.001607949905903515 0.032227882441109974 0 -0.0014796882205562112 0.032283004488632507 0 -0.00076758933519232534 0.033555882679173761 0 -0.00084194955506871998 0.033501143947509672 0 -0.00078130687106228085 0.03333857074195181 0 -0.00076758933519232534 0.033555882679173761 0 -0.0015782157772943294 0.032009938323250609 0 -0.0016994863574163409 0.032170242155221553 0 -0.0016086112385917551 0.032216901353369548 0 -0.00073172739905488337 0.033576525912907634 0 -0.00076758933519232534 0.033555882679173761 0 -0.0014796882205562112 0.032283004488632507 0 -0.0015787629165590466 0.032524988925620217 0 -0.0014049978547371182 0.032450889761204964 0 -0.00076758933519232534 0.033555882679173761 0 -0.00075009145748740282 0.033746182358455841 0 -0.0015787629165590466 0.032524988925620217 0 -0.0014049978547371182 0.032450889761204964 0 -0.0014642311286007905 0.032645596250240771 0 -0.0013047097138267261 0.03234910812478442 0 -0.0014049978547371182 0.032450889761204964 0 -0.0012768909426463908 0.032468773389048029 0 -0.0011859223165858097 0.032392013674047079 0 -0.0013047097138267261 0.03234910812478442 0 -0.0012768909426463908 0.032468773389048029 0 -0.0011783081731782494 0.032536650418852314 0 -0.0012768909426463908 0.032468773389048029 0 -0.0013144097657311709 0.03261470815237312 0 -0.0014049978547371182 0.032450889761204964 0 -0.0012768909426463908 0.032468773389048029 0 -0.0013144097657311709 0.03261470815237312 0 -0.0014049978547371182 0.032450889761204964 0 -0.0013144097657311709 0.03261470815237312 0 -0.0014642311286007905 0.032645596250240771 0 -0.0013144097657311709 0.03261470815237312 0 -0.0013571517180736245 0.032747552671405666 0 -0.0014642311286007905 0.032645596250240771 0 -0.0012287434233685447 0.032770025725052186 0 -0.0013144097657311709 0.03261470815237312 0 -0.0013571517180736245 0.032747552671405666 0 -0.0012287434233685447 0.032770025725052186 0 -0.0013571517180736245 0.032747552671405666 0 -0.0013470530707925513 0.03287121443220245 0 -0.0013571517180736245 0.032747552671405666 0 -0.0013470530707925513 0.03287121443220245 0 -0.001475707044466322 0.032770738469597591 0 -0.0014883370020846985 0.0328692203735046 0 -0.001475707044466322 0.032770738469597591 0 -0.0016030561093205037 0.032791682250879077 0 -0.0014883370020846985 0.0328692203735046 0 -0.0016030561093205037 0.032791682250879077 0 -0.0016162787812722963 0.032885514354307324 0 -0.0013470530707925513 0.03287121443220245 0 -0.0014883370020846985 0.0328692203735046 0 -0.001475707044466322 0.032770738469597591 0 -0.0013571517180736245 0.032747552671405666 0 -0.001475707044466322 0.032770738469597591 0 -0.0014642311286007905 0.032645596250240771 0 -0.001475707044466322 0.032770738469597591 0 -0.0014642311286007905 0.032645596250240771 0 -0.0016104209957310894 0.032792554550371757 0 -0.00087637881938687522 0.033994496928217273 0 -0.00074379493976447033 0.034056735988868679 0 -0.0015787629165590466 0.032524988925620217 0 -0.0014642311286007905 0.032645596250240771 0 -0.0016104209957310894 0.032792554550371757 0 -0.00075009145748740282 0.033746182358455841 0 -0.00074379493976447033 0.034056735988868679 0 6.9643532628036345e-05 0.034893600809676406 0 2.3072952907323329e-05 0.03491329245603924 0 2.1382931513641673e-05 0.034954109238944001 0 6.9643532628036345e-05 0.034893600809676406 0 2.1382931513641673e-05 0.034954109238944001 0 4.1887962462976837e-05 0.034996567586136701 0 2.3072952907323329e-05 0.03491329245603924 0 7.6236960460956616e-07 0.034931704829857073 0 2.1382931513641673e-05 0.034954109238944001 0 7.6236960460956616e-07 0.034931704829857073 0 -3.5794441310215215e-05 0.034874105758565067 0 -5.0091495591373666e-07 0.034899949170145418 0 2.3072952907323329e-05 0.03491329245603924 0 7.6236960460956616e-07 0.034931704829857073 0 -5.0091495591373666e-07 0.034899949170145418 0 7.6236960460956616e-07 0.034931704829857073 0 2.1382931513641673e-05 0.034954109238944001 0 -1.688189589694878e-05 0.034976178340396048 0 2.1382931513641673e-05 0.034954109238944001 0 4.1887962462976837e-05 0.034996567586136701 0 -7.6141473415628315e-06 0.03499370763626667 0 2.1382931513641673e-05 0.034954109238944001 0 -7.6141473415628315e-06 0.03499370763626667 0 -1.688189589694878e-05 0.034976178340396048 0 -0.00074379493976447033 0.034056735988868679 0 -0.00038132731728299766 0.034344077114084215 0 -0.00018795775461500323 0.034931019585623051 0 -0.00024277508202094804 0.034897882326237625 0 -0.00021086881322537863 0.034863137578157573 0 -0.00038132731728299766 0.034344077114084215 0 -0.00071352650567629817 0.034120323856897755 0 -0.0006678320633649237 0.034155082851604783 0 -0.00079775784014550109 0.034174471181671329 0 -0.00068123414998565016 0.034250630482812919 0 -0.00074379493976447033 0.034056735988868679 0 -0.00071352650567629817 0.034120323856897755 0 -7.6141473415628315e-06 0.03499370763626667 0 -1.688189589694878e-05 0.034976178340396048 0 -1.9418799943686977e-05 0.034980727999446418 0 -0.00038132731728299766 0.034344077114084215 0 -0.00012273647377167597 0.034682506586946694 0 -0.00018795775461500323 0.034931019585623051 0 -6.959654300124251e-05 0.034915171225137938 0 -0.00012061223518443832 0.034859755843471535 0 -0.00038132731728299766 0.034344077114084215 0 -8.5429995410205541e-05 0.034626031300207132 0 -2.365951928632839e-05 0.034977091702465372 0 -1.9418799943686977e-05 0.034980727999446418 0 -1.6575519405119598e-05 0.034979560715374801 0 7.6236960460956616e-07 0.034931704829857073 0 -1.688189589694878e-05 0.034976178340396048 0 -3.5794441310215215e-05 0.034874105758565067 0 -0.0002600707557521354 0.034745818442867685 0 -0.00027711319076902428 0.034659759571406039 0 -1.688189589694878e-05 0.034976178340396048 0 -1.8335647010557818e-05 0.034982251031434757 0 -1.9418799943686977e-05 0.034980727999446418 0 -1.688189589694878e-05 0.034976178340396048 0 -1.8335647010557818e-05 0.034982251031434757 0 -2.16855950171012e-05 0.034984401592203986 0 -1.8335647010557818e-05 0.034982251031434757 0 -1.8745021020787542e-05 0.034985263733104219 0 -1.4831008873731356e-05 0.034988539599735996 0 -2.101961372046096e-05 0.0349884131808973 0 -2.16855950171012e-05 0.034984401592203986 0 -2.2002944928606011e-05 0.034989785820908892 0 -1.8335647010557818e-05 0.034982251031434757 0 -1.8745021020787542e-05 0.034985263733104219 0 -2.16855950171012e-05 0.034984401592203986 0 -0.00027711319076902428 0.034659759571406039 0 -0.00032455001743106278 0.034349297957539882 0 -1.88629167360075e-05 0.034987251686759591 0 -1.7278018274559827e-05 0.034990506002695793 0 -1.4831008873731356e-05 0.034988539599735996 0 -1.8745021020787542e-05 0.034985263733104219 0 -1.88629167360075e-05 0.034987251686759591 0 -1.4831008873731356e-05 0.034988539599735996 0 -1.88629167360075e-05 0.034987251686759591 0 -2.101961372046096e-05 0.0349884131808973 0 -1.7278018274559827e-05 0.034990506002695793 0 -1.88629167360075e-05 0.034987251686759591 0 -2.101961372046096e-05 0.0349884131808973 0 -2.16855950171012e-05 0.034984401592203986 0 -1.8745021020787542e-05 0.034985263733104219 0 -1.88629167360075e-05 0.034987251686759591 0 -2.16855950171012e-05 0.034984401592203986 0 -5.0091495591373666e-07 0.034899949170145418 0 2.9036364373531779e-05 0.034871400605740434 0 2.6381216856923153e-05 0.0348235718672417 0 9.0551596270040932e-05 0.034753204435725452 0 6.9643532628036345e-05 0.034893600809676406 0 2.6381216856923153e-05 0.0348235718672417 0 -3.5794441310215215e-05 0.034874105758565067 0 -5.0091495591373666e-07 0.034899949170145418 0 6.6345228337729979e-05 0.034770788966043263 0 -0.00064024756959401923 0.034230439590383036 0 -0.00066417390053011933 0.034079073906883965 0 -3.5794441310215215e-05 0.034874105758565067 0 6.6345228337729979e-05 0.034770788966043263 0 -1.8394556546999665e-05 0.034715515221939504 0 2.3072952907323329e-05 0.03491329245603924 0 -5.0091495591373666e-07 0.034899949170145418 0 2.9036364373531779e-05 0.034871400605740434 0 6.9643532628036345e-05 0.034893600809676406 0 2.3072952907323329e-05 0.03491329245603924 0 2.9036364373531779e-05 0.034871400605740434 0 6.9643532628036345e-05 0.034893600809676406 0 2.9036364373531779e-05 0.034871400605740434 0 2.6381216856923153e-05 0.0348235718672417 0 6.6345228337729979e-05 0.034770788966043263 0 -1.8394556546999665e-05 0.034715515221939504 0 5.9479173788052902e-05 0.034676041659531864 0 -0.00073172739905488337 0.033576525912907634 0 -0.00066417390053011933 0.034079073906883965 0 6.4181848122750484e-05 0.034739567835681016 0 9.0551596270040932e-05 0.034753204435725452 0 2.6381216856923153e-05 0.0348235718672417 0 0.0001350879581993157 0.034628640699596161 0 6.6345228337729979e-05 0.034770788966043263 0 5.9479173788052902e-05 0.034676041659531864 0 -0.00043123838625885755 0.03387694638929075 0 -0.00073172739905488337 0.033576525912907634 0 5.5450928857011684e-05 0.034588729578264296 0 0.0001350879581993157 0.034628640699596161 0 5.9479173788052902e-05 0.034676041659531864 0 -0.00043123838625885755 0.03387694638929075 0 -0.00032455001743106278 0.034349297957539882 0 -0.00018503988768493648 0.034285536391254215 0 -0.00032455001743106278 0.034349297957539882 0 5.5450928857011684e-05 0.034588729578264296 0 -1.8394556546999665e-05 0.034715515221939504 0 5.9479173788052902e-05 0.034676041659531864 0 -0.00037436235215912379 0.033694179657625035 0 -0.00015979009334330109 0.033802495807740175 0 -0.00047244725929713121 0.034311318688831083 0 -2.2155489133518435e-05 0.034994806751143408 0 -2.1614028822628491e-05 0.034989880538370301 0 -1.792405846393432e-05 0.034993250539168484 0 -1.792405846393432e-05 0.034993250539168484 0 -1.7278018274559827e-05 0.034990506002695793 0 -1.3797983246717283e-05 0.034994157688519309 0 -1.792405846393432e-05 0.034993250539168484 0 -1.7278018274559827e-05 0.034990506002695793 0 -1.9431497655201066e-05 0.034990474102918827 0 -2.101961372046096e-05 0.0349884131808973 0 -1.7278018274559827e-05 0.034990506002695793 0 -1.9431497655201066e-05 0.034990474102918827 0 -2.1614028822628491e-05 0.034989880538370301 0 -1.792405846393432e-05 0.034993250539168484 0 -1.9431497655201066e-05 0.034990474102918827 0 -2.101961372046096e-05 0.0349884131808973 0 -2.1614028822628491e-05 0.034989880538370301 0 -1.9431497655201066e-05 0.034990474102918827 0 -0.00032788446594611082 0.034368042791643523 0 -0.00032455001743106278 0.034349297957539882 0 -1.2765508308325958e-05 0.034992508222074011 0 -8.286068663622131e-06 0.034993485687180866 0 -1.4831008873731356e-05 0.034988539599735996 0 -1.7278018274559827e-05 0.034990506002695793 0 -1.2765508308325958e-05 0.034992508222074011 0 -1.3797983246717283e-05 0.034994157688519309 0 -1.7278018274559827e-05 0.034990506002695793 0 -1.2765508308325958e-05 0.034992508222074011 0 -1.4831008873731356e-05 0.034988539599735996 0 -1.0286420172880289e-05 0.034995522679922376 0 -1.2765508308325958e-05 0.034992508222074011 0 -1.3797983246717283e-05 0.034994157688519309 0 -1.0286420172880289e-05 0.034995522679922376 0 -1.2765508308325958e-05 0.034992508222074011 0 -8.286068663622131e-06 0.034993485687180866 0 -6.2190869710839229e-06 0.034996943340897139 0 -1.0286420172880289e-05 0.034995522679922376 0 -8.286068663622131e-06 0.034993485687180866 0 -6.2190869710839229e-06 0.034996943340897139 0 -8.286068663622131e-06 0.034993485687180866 0 -4.0934726007397185e-06 0.034996377594705981 0 -8.286068663622131e-06 0.034993485687180866 0 -1.2829065894028158e-05 0.034987829648830716 0 -7.1372259530948614e-06 0.034991747506100103 0 -8.286068663622131e-06 0.034993485687180866 0 -1.4831008873731356e-05 0.034988539599735996 0 -1.2829065894028158e-05 0.034987829648830716 0 -1.8335647010557818e-05 0.034982251031434757 0 -1.4831008873731356e-05 0.034988539599735996 0 -1.2829065894028158e-05 0.034987829648830716 0 -1.8335647010557818e-05 0.034982251031434757 0 -1.2829065894028158e-05 0.034987829648830716 0 -1.9418799943686977e-05 0.034980727999446418 0 -1.2829065894028158e-05 0.034987829648830716 0 -1.9418799943686977e-05 0.034980727999446418 0 -1.1859724357972419e-05 0.034985602759221857 0 -1.9418799943686977e-05 0.034980727999446418 0 -1.6575519405119598e-05 0.034979560715374801 0 -1.1859724357972419e-05 0.034985602759221857 0 -0.00012273647377167597 0.034682506586946694 0 -2.7999741947439173e-05 0.034867105673005896 0 -1.6575519405119598e-05 0.034979560715374801 0 -1.1859724357972419e-05 0.034985602759221857 0 -5.4543526041722969e-06 0.034988539875563017 0 -7.1372259530948614e-06 0.034991747506100103 0 -1.1859724357972419e-05 0.034985602759221857 0 -5.4543526041722969e-06 0.034988539875563017 0 -1.2829065894028158e-05 0.034987829648830716 0 -7.1372259530948614e-06 0.034991747506100103 0 -1.1859724357972419e-05 0.034985602759221857 0 -7.1372259530948614e-06 0.034991747506100103 0 -3.0207694878791532e-06 0.034995788710847159 0 -5.4543526041722969e-06 0.034988539875563017 0 -6.1451411376134455e-11 0.034999995545818605 0 -3.0207694878791532e-06 0.034995788710847159 0 -5.4543526041722969e-06 0.034988539875563017 0 -6.1451411376134455e-11 0.034999995545818605 0 -2.4548469228523888e-09 0.034999987667875439 0 -5.4543526041722969e-06 0.034988539875563017 0 -6.1451411376134455e-11 0.034999995545818605 0 -3.0207694878791532e-06 0.034995788710847159 0 -4.5521285411043959e-09 0.034999990950773704 0 -2.4474952589389776e-09 0.034999996948364663 0 -1.7401719213998131e-06 0.034999182050436568 0 -3.0207694878791532e-06 0.034995788710847159 0 -4.5521285411043959e-09 0.034999990950773704 0 -4.0934726007397185e-06 0.034996377594705981 0 -8.286068663622131e-06 0.034993485687180866 0 -7.1372259530948614e-06 0.034991747506100103 0 -4.0934726007397185e-06 0.034996377594705981 0 -7.1372259530948614e-06 0.034991747506100103 0 -3.0207694878791532e-06 0.034995788710847159 0 -4.0934726007397185e-06 0.034996377594705981 0 -3.1062962688537726e-06 0.034999344891115503 0 -1.7401719213998131e-06 0.034999182050436568 0 -1.4568100900353426e-06 0.03499873656190227 0 -6.2190869710839229e-06 0.034996943340897139 0 -1.390378945296966e-06 0.034998400834205287 0 -3.0439763299788096e-11 0.034999999073915752 0 -1.390378945296966e-06 0.034998400834205287 0 -1.1077792356683678e-09 0.034999997088899643 0 -1.4568100900353426e-06 0.03499873656190227 0 -1.390378945296966e-06 0.034998400834205287 0 -1.1077792356683678e-09 0.034999997088899643 0 -2.3628967319173287e-05 0.034981280398810113 0 -1.334605484819196e-08 0.034999953783390804 0 -1.570280939110409e-05 0.034999758487407467 0 -2.3628967319173287e-05 0.034981280398810113 0 -4.9184281026481622e-05 0.034994877401500271 0 -1.570280939110409e-05 0.034999758487407467 0 -2.3628967319173287e-05 0.034981280398810113 0 -1.8722779309564286e-05 0.034974734521720223 0 -3.6447410797478613e-05 0.034955268353220055 0 -2.3628967319173287e-05 0.034981280398810113 0 -1.334605484819196e-08 0.034999953783390804 0 -1.8722779309564286e-05 0.034974734521720223 0 -9.9957516906150646e-05 0.034965722435232133 0 -4.9184281026481622e-05 0.034994877401500271 0 -0.00015597747799087069 0.035025340380079185 0 -0.00022711056153661298 0.034874818721702817 0 -4.1729975217780384e-05 0.034910275590409219 0 -4.903714159698995e-05 0.034928339680932133 0 -2.3628967319173287e-05 0.034981280398810113 0 -3.6447410797478613e-05 0.034955268353220055 0 -5.0140420190426315e-05 0.034964933865708245 0 -3.6447410797478613e-05 0.034955268353220055 0 -5.3698057298147482e-05 0.03494632877869714 0 -4.903714159698995e-05 0.034928339680932133 0 -3.6447410797478613e-05 0.034955268353220055 0 -5.3698057298147482e-05 0.03494632877869714 0 -5.0140420190426315e-05 0.034964933865708245 0 -5.3698057298147482e-05 0.03494632877869714 0 -8.752879051443754e-05 0.034939729743100389 0 -4.903714159698995e-05 0.034928339680932133 0 -5.3698057298147482e-05 0.03494632877869714 0 -8.752879051443754e-05 0.034939729743100389 0 -5.0140420190426315e-05 0.034964933865708245 0 -8.752879051443754e-05 0.034939729743100389 0 -9.9957516906150646e-05 0.034965722435232133 0 -5.0140420190426315e-05 0.034964933865708245 0 -9.9957516906150646e-05 0.034965722435232133 0 -5.0140420190426315e-05 0.034964933865708245 0 -4.9184281026481622e-05 0.034994877401500271 0 -2.3628967319173287e-05 0.034981280398810113 0 -5.0140420190426315e-05 0.034964933865708245 0 -4.9184281026481622e-05 0.034994877401500271 0 -5.2752946238148382e-05 0.034911346427445492 0 -0.0001191473761005268 0.034813874821562105 0 2.8595626541091385e-05 0.034852001894540456 0 -9.2423879169145589e-06 0.034804028517612814 0 -3.5764102618687157e-06 0.034718062021218001 0 -4.9184281026481622e-05 0.034994877401500271 0 -1.570280939110409e-05 0.034999758487407467 0 -2.8968481413219867e-05 0.035029549601479089 0 -4.9184281026481622e-05 0.034994877401500271 0 -2.8968481413219867e-05 0.035029549601479089 0 -0.00015597747799087069 0.035025340380079185 0 -1.2409694341193568e-08 0.035000030462926775 0 -1.570280939110409e-05 0.034999758487407467 0 -2.8968481413219867e-05 0.035029549601479089 0 -1.334605484819196e-08 0.034999953783390804 0 -1.2409694341193568e-08 0.035000030462926775 0 -1.570280939110409e-05 0.034999758487407467 0 5.4382936094295113e-08 0.034999883615547928 0 1.2241314682968702e-05 0.034931336394356145 0 2.8595626541091385e-05 0.034852001894540456 0 -1.2409694341193568e-08 0.035000030462926775 0 -6.9976500236741502e-10 0.035000020424666975 0 -2.8968481413219867e-05 0.035029549601479089 0 -4.8287153928221419e-08 0.034999865644701263 0 -5.2752946238148382e-05 0.034911346427445492 0 5.4382936094295113e-08 0.034999883615547928 0 7.0550182024922962e-09 0.034999970499709113 0 1.2241314682968702e-05 0.034931336394356145 0 7.0550182024922962e-09 0.034999970499709113 0 1.2241314682968702e-05 0.034931336394356145 0 6.1875078426909679e-06 0.034919609948561567 0 -2.0023079797068746e-08 0.034999764843299933 0 -2.7999741947439173e-05 0.034867105673005896 0 1.2241314682968702e-05 0.034931336394356145 0 6.1875078426909679e-06 0.034919609948561567 0 -1.6439631650421556e-05 0.034862236946913018 0 2.8595626541091385e-05 0.034852001894540456 0 -9.2423879169145589e-06 0.034804028517612814 0 -1.6439631650421556e-05 0.034862236946913018 0 1.2241314682968702e-05 0.034931336394356145 0 2.8595626541091385e-05 0.034852001894540456 0 -1.6439631650421556e-05 0.034862236946913018 0 -9.2423879169145589e-06 0.034804028517612814 0 -1.6439631650421556e-05 0.034862236946913018 0 -5.514858356787824e-05 0.034778387792857565 0 -6.959654300124251e-05 0.034915171225137938 0 6.1875078426909679e-06 0.034919609948561567 0 -1.6439631650421556e-05 0.034862236946913018 0 -6.959654300124251e-05 0.034915171225137938 0 -8.5792002270939331e-05 0.034827771843885913 0 -0.00012061223518443832 0.034859755843471535 0 -6.959654300124251e-05 0.034915171225137938 0 -1.6439631650421556e-05 0.034862236946913018 0 -8.5792002270939331e-05 0.034827771843885913 0 -1.6439631650421556e-05 0.034862236946913018 0 -8.5792002270939331e-05 0.034827771843885913 0 -5.514858356787824e-05 0.034778387792857565 0 -8.5792002270939331e-05 0.034827771843885913 0 -0.00010268222213686873 0.034742307867828795 0 -0.00013056274077112652 0.034769706242946188 0 -8.5792002270939331e-05 0.034827771843885913 0 -5.514858356787824e-05 0.034778387792857565 0 -0.00010268222213686873 0.034742307867828795 0 -5.514858356787824e-05 0.034778387792857565 0 -0.00010268222213686873 0.034742307867828795 0 -7.1596561905019473e-05 0.03469738343013342 0 -5.514858356787824e-05 0.034778387792857565 0 -7.1596561905019473e-05 0.03469738343013342 0 -3.5764102618687157e-06 0.034718062021218001 0 -0.00010268222213686873 0.034742307867828795 0 -7.1596561905019473e-05 0.03469738343013342 0 -0.00012284461314222272 0.03465371218238715 0 -9.2423879169145589e-06 0.034804028517612814 0 -5.514858356787824e-05 0.034778387792857565 0 -3.5764102618687157e-06 0.034718062021218001 0 -0.00022711056153661298 0.034874818721702817 0 -0.00042173387565789416 0.034849599317087879 0 -0.00020582307334851416 0.034720819840510189 0 -0.00010116347312685718 0.034924026189730631 0 -3.1557112852960161e-05 0.034910236876922254 0 -8.752879051443754e-05 0.034939729743100389 0 -0.00022711056153661298 0.034874818721702817 0 -4.903714159698995e-05 0.034928339680932133 0 -0.00015597747799087069 0.035025340380079185 0 -0.00022711056153661298 0.034874818721702817 0 -0.00042173387565789416 0.034849599317087879 0 -9.9957516906150646e-05 0.034965722435232133 0 -0.00015597747799087069 0.035025340380079185 0 -0.00022711056153661298 0.034874818721702817 0 -8.752879051443754e-05 0.034939729743100389 0 -9.9957516906150646e-05 0.034965722435232133 0 -0.00022711056153661298 0.034874818721702817 0 -0.0001191473761005268 0.034813874821562105 0 -0.00021361348796320774 0.034680998870427339 0 -7.1596561905019473e-05 0.03469738343013342 0 -3.5764102618687157e-06 0.034718062021218001 0 -7.6105250977137229e-05 0.03458760087578526 0 -7.1596561905019473e-05 0.03469738343013342 0 -7.6105250977137229e-05 0.03458760087578526 0 -0.00012284461314222272 0.03465371218238715 0 -0.00014938393247568559 0.034571018586668625 0 -0.00018390460694549151 0.034608474182089115 0 -0.00012284461314222272 0.03465371218238715 0 -7.6105250977137229e-05 0.03458760087578526 0 -0.00014938393247568559 0.034571018586668625 0 -0.00012284461314222272 0.03465371218238715 0 -0.00018390460694549151 0.034608474182089115 0 -0.00025441650854162682 0.034556780386466542 0 -0.00019770977396481158 0.034527743287316413 0 -0.00014938393247568559 0.034571018586668625 0 -0.00018390460694549151 0.034608474182089115 0 -0.00019770977396481158 0.034527743287316413 0 -0.00018390460694549151 0.034608474182089115 0 -0.00022687672512284045 0.034673543086342989 0 -0.00025441650854162682 0.034556780386466542 0 -0.00018390460694549151 0.034608474182089115 0 -0.00022687672512284045 0.034673543086342989 0 -0.00016134332405621409 0.03470505120656623 0 -0.00022687672512284045 0.034673543086342989 0 -0.00019757267148191629 0.034725224255304832 0 -0.00022260123617759143 0.034754410141237285 0 -0.00022687672512284045 0.034673543086342989 0 -0.00016134332405621409 0.03470505120656623 0 -0.00019757267148191629 0.034725224255304832 0 -0.00016134332405621409 0.03470505120656623 0 -0.00016668745710507276 0.034755598093882338 0 -0.00019757267148191629 0.034725224255304832 0 -0.00018390460694549151 0.034608474182089115 0 -0.00016134332405621409 0.03470505120656623 0 -0.00012284461314222272 0.03465371218238715 0 -0.00010268222213686873 0.034742307867828795 0 -0.00016134332405621409 0.03470505120656623 0 -0.00012284461314222272 0.03465371218238715 0 -0.00010268222213686873 0.034742307867828795 0 -0.00016134332405621409 0.03470505120656623 0 -0.00013056274077112652 0.034769706242946188 0 -0.00013056274077112652 0.034769706242946188 0 -0.00016668745710507276 0.034755598093882338 0 -0.00014097092833872501 0.034809158847261983 0 -0.00016134332405621409 0.03470505120656623 0 -0.00013056274077112652 0.034769706242946188 0 -0.00016668745710507276 0.034755598093882338 0 -0.00014097092833872501 0.034809158847261983 0 -0.0001630994484599465 0.034833343595000413 0 -0.00018554800471650874 0.034791988371017754 0 -0.00016668745710507276 0.034755598093882338 0 -0.00014097092833872501 0.034809158847261983 0 -0.00018554800471650874 0.034791988371017754 0 -8.5792002270939331e-05 0.034827771843885913 0 -0.00013056274077112652 0.034769706242946188 0 -0.00014097092833872501 0.034809158847261983 0 -0.00014097092833872501 0.034809158847261983 0 -0.00012061223518443832 0.034859755843471535 0 -0.0001630994484599465 0.034833343595000413 0 -0.00018795775461500323 0.034931019585623051 0 -0.00012061223518443832 0.034859755843471535 0 -0.00017643228186833973 0.034867625156322864 0 -8.5792002270939331e-05 0.034827771843885913 0 -0.00014097092833872501 0.034809158847261983 0 -0.00012061223518443832 0.034859755843471535 0 -0.00012061223518443832 0.034859755843471535 0 -0.0001630994484599465 0.034833343595000413 0 -0.00017643228186833973 0.034867625156322864 0 -0.0001630994484599465 0.034833343595000413 0 -0.00017643228186833973 0.034867625156322864 0 -0.00019495528321277454 0.034835248875423906 0 -0.00024277508202094804 0.034897882326237625 0 -0.00021086881322537863 0.034863137578157573 0 -0.00023513128315257755 0.034820045680015649 0 -0.00071352650567629817 0.034120323856897755 0 -0.00069634280649015989 0.034273319366107828 0 -0.00018795775461500323 0.034931019585623051 0 -0.00017643228186833973 0.034867625156322864 0 -0.00021086881322537863 0.034863137578157573 0 -0.00021086881322537863 0.034863137578157573 0 -0.00019495528321277454 0.034835248875423906 0 -0.00023513128315257755 0.034820045680015649 0 -0.00017643228186833973 0.034867625156322864 0 -0.00021086881322537863 0.034863137578157573 0 -0.00019495528321277454 0.034835248875423906 0 -0.0001630994484599465 0.034833343595000413 0 -0.00019495528321277454 0.034835248875423906 0 -0.00018554800471650874 0.034791988371017754 0 -0.00019495528321277454 0.034835248875423906 0 -0.00023513128315257755 0.034820045680015649 0 -0.00020814178031070666 0.034801164890787509 0 -0.00023513128315257755 0.034820045680015649 0 -0.00020814178031070666 0.034801164890787509 0 -0.00022260123617759143 0.034754410141237285 0 -0.00069634280649015989 0.034273319366107828 0 -0.00068431469624313551 0.034338373733285986 0 -0.00022612209072439259 0.034799004298443528 0 -0.00022260123617759143 0.034754410141237285 0 -0.00027006460641414691 0.034770610637673408 0 -0.00019495528321277454 0.034835248875423906 0 -0.00020814178031070666 0.034801164890787509 0 -0.00018554800471650874 0.034791988371017754 0 -0.00020814178031070666 0.034801164890787509 0 -0.00018554800471650874 0.034791988371017754 0 -0.00022260123617759143 0.034754410141237285 0 -0.00018554800471650874 0.034791988371017754 0 -0.00019757267148191629 0.034725224255304832 0 -0.00022260123617759143 0.034754410141237285 0 -0.00016668745710507276 0.034755598093882338 0 -0.00018554800471650874 0.034791988371017754 0 -0.00019757267148191629 0.034725224255304832 0 -0.00022687672512284045 0.034673543086342989 0 -0.00022260123617759143 0.034754410141237285 0 -0.00028977868723709745 0.034719384568819636 0 -0.00028977868723709745 0.034719384568819636 0 -0.00027006460641414691 0.034770610637673408 0 -0.00034980985772892892 0.034815414383786374 0 -0.00022260123617759143 0.034754410141237285 0 -0.00028977868723709745 0.034719384568819636 0 -0.00027006460641414691 0.034770610637673408 0 -0.00022612209072439259 0.034799004298443528 0 -0.00027006460641414691 0.034770610637673408 0 -0.00034980985772892892 0.034815414383786374 0 -0.00071352650567629817 0.034120323856897755 0 -0.0007477908602761663 0.034203701074011494 0 -0.00069634280649015989 0.034273319366107828 0 -0.0007477908602761663 0.034203701074011494 0 -0.0006710773731737178 0.034243358147022299 0 -0.00066461716866967745 0.034197279167048261 0 -0.0007330779288570406 0.03420311801306266 0 -0.0014883370020846985 0.0328692203735046 0 -0.0016162787812722963 0.032885514354307324 0 -0.0013969282391161492 0.033028596868281163 0 -0.0013470530707925513 0.03287121443220245 0 -0.0013969282391161492 0.033028596868281163 0 -0.0011223341094341744 0.033002999360970967 0 -0.0007477908602761663 0.034203701074011494 0 -0.00074885702769288674 0.033936597438071724 0 -0.0013470530707925513 0.03287121443220245 0 -0.0014883370020846985 0.0328692203735046 0 -0.0013969282391161492 0.033028596868281163 0 -0.0007477908602761663 0.034203701074011494 0 -0.00048078895742898614 0.034469952788147531 0 -0.00034980985772892892 0.034815414383786374 0 -0.00037793171138029768 0.034674656611847786 0 -0.00050957624442472674 0.034719472631842857 0 -0.00028977868723709745 0.034719384568819636 0 -0.00034980985772892892 0.034815414383786374 0 -0.00037793171138029768 0.034674656611847786 0 -0.00037793171138029768 0.034674656611847786 0 -0.00029683812251915629 0.034635458826314677 0 -0.00034778445530363319 0.034553941395510296 0 -0.00037793171138029768 0.034674656611847786 0 -0.00034778445530363319 0.034553941395510296 0 -0.00044935635937829604 0.034564795181925449 0 -0.00028977868723709745 0.034719384568819636 0 -0.00037793171138029768 0.034674656611847786 0 -0.00029683812251915629 0.034635458826314677 0 -0.00022687672512284045 0.034673543086342989 0 -0.00029683812251915629 0.034635458826314677 0 -0.00025441650854162682 0.034556780386466542 0 -0.00022687672512284045 0.034673543086342989 0 -0.00028977868723709745 0.034719384568819636 0 -0.00029683812251915629 0.034635458826314677 0 -0.00025441650854162682 0.034556780386466542 0 -0.00034778445530363319 0.034553941395510296 0 -0.00031891547503663244 0.034438559118638364 0 -0.00029683812251915629 0.034635458826314677 0 -0.00025441650854162682 0.034556780386466542 0 -0.00034778445530363319 0.034553941395510296 0 -0.00034778445530363319 0.034553941395510296 0 -0.00040763267115484812 0.034427697297757666 0 -0.00031891547503663244 0.034438559118638364 0 -0.00034778445530363319 0.034553941395510296 0 -0.00040763267115484812 0.034427697297757666 0 -0.00044935635937829604 0.034564795181925449 0 -0.00040763267115484812 0.034427697297757666 0 -0.0003355757419637667 0.034290625960401104 0 -0.00042592290348166743 0.034212980966954194 0 -0.00040763267115484812 0.034427697297757666 0 -0.00031891547503663244 0.034438559118638364 0 -0.0003355757419637667 0.034290625960401104 0 -0.00031891547503663244 0.034438559118638364 0 -0.00027167624214902592 0.034334142180615868 0 -0.00022104198030959592 0.034380556238336413 0 -0.00025441650854162682 0.034556780386466542 0 -0.00031891547503663244 0.034438559118638364 0 -0.00024493377347343409 0.034478538389636985 0 -0.00027207137542141149 0.034521813793478011 0 -0.00025322366894157256 0.034528255765963661 0 -0.00027167624214902592 0.034334142180615868 0 -0.00022766162835183949 0.034320966006709405 0 -0.00022104198030959592 0.034380556238336413 0 -0.00031891547503663244 0.034438559118638364 0 -0.00027167624214902592 0.034334142180615868 0 -0.0003355757419637667 0.034290625960401104 0 -0.00027167624214902592 0.034334142180615868 0 -0.0002749963156565609 0.034252194790325069 0 -0.0003355757419637667 0.034290625960401104 0 -0.00027167624214902592 0.034334142180615868 0 -0.0002749963156565609 0.034252194790325069 0 -0.00022766162835183949 0.034320966006709405 0 -0.0002749963156565609 0.034252194790325069 0 -0.0003355757419637667 0.034290625960401104 0 -0.00033863332329077628 0.034173874891788643 0 -0.0003355757419637667 0.034290625960401104 0 -0.00033863332329077628 0.034173874891788643 0 -0.00042592290348166743 0.034212980966954194 0 -0.00033863332329077628 0.034173874891788643 0 -0.00030387997446823344 0.034187033056868189 0 -0.00043282155765643428 0.034021723195205585 0 -0.00035213751260198059 0.034110069924811935 0 -0.00030387997446823344 0.034187033056868189 0 -0.00043282155765643428 0.034021723195205585 0 -0.0002749963156565609 0.034252194790325069 0 -0.00030387997446823344 0.034187033056868189 0 -0.00020257843758898279 0.034289888227853477 0 -0.0002749963156565609 0.034252194790325069 0 -0.00033863332329077628 0.034173874891788643 0 -0.00030387997446823344 0.034187033056868189 0 -0.00030387997446823344 0.034187033056868189 0 -0.00020257843758898279 0.034289888227853477 0 -0.00018135199800571551 0.034241248423560834 0 -0.00025825822419142371 0.034284530486587562 0 -0.00030387997446823344 0.034187033056868189 0 -0.00018876430415004555 0.034413197206035535 0 -0.00021451714863879486 0.034305442186153709 0 -0.00017099669173231019 0.034334783200035218 0 -0.00017099669173231019 0.034334783200035218 0 -0.00012638764294705456 0.034375225499497557 0 -0.00020257843758898279 0.034289888227853477 0 -0.00018135199800571551 0.034241248423560834 0 -0.00013066550697715332 0.034331669143435585 0 -0.00018135199800571551 0.034241248423560834 0 -0.00013066550697715332 0.034331669143435585 0 -9.2555276386189852e-05 0.034329305437395027 0 -0.00020257843758898279 0.034289888227853477 0 -0.00013066550697715332 0.034331669143435585 0 -0.00015558536913470392 0.034347111087923717 0 -0.00015558536913470392 0.034347111087923717 0 -0.00017151520342218441 0.034367146019335458 0 -0.00010078549754659539 0.034386122543906675 0 -0.00015558536913470392 0.034347111087923717 0 -0.00018572647873926643 0.034351961612293327 0 -0.00017151520342218441 0.034367146019335458 0 -0.0002749963156565609 0.034252194790325069 0 -0.00020257843758898279 0.034289888227853477 0 -0.00022766162835183949 0.034320966006709405 0 -0.00020257843758898279 0.034289888227853477 0 -0.00015558536913470392 0.034347111087923717 0 -0.00018572647873926643 0.034351961612293327 0 -0.00020257843758898279 0.034289888227853477 0 -0.00022766162835183949 0.034320966006709405 0 -0.00018572647873926643 0.034351961612293327 0 -0.00025322366894157256 0.034528255765963661 0 -0.00024890873835592289 0.034560977451585914 0 -0.00018572647873926643 0.034351961612293327 0 -0.00022104198030959592 0.034380556238336413 0 -0.00017042537345222193 0.034364243002997154 0 -0.00024493377347343409 0.034478538389636985 0 -0.00019770977396481158 0.034527743287316413 0 -0.00016707120050373148 0.034478553534126363 0 -0.00025032888235633862 0.034555822464912005 0 -0.00024890873835592289 0.034560977451585914 0 -0.00022766162835183949 0.034320966006709405 0 -0.00018572647873926643 0.034351961612293327 0 -0.00022104198030959592 0.034380556238336413 0 -0.00025441650854162682 0.034556780386466542 0 -0.00024493377347343409 0.034478538389636985 0 -0.00019770977396481158 0.034527743287316413 0 -0.00024890873835592289 0.034560977451585914 0 -0.00019034994770991603 0.034509062920686298 0 -0.00021361348796320774 0.034680998870427339 0 -0.00024890873835592289 0.034560977451585914 0 -7.6105250977137229e-05 0.03458760087578526 0 -0.00014938393247568559 0.034571018586668625 0 -0.00016707120050373148 0.034478553534126363 0 -0.00014938393247568559 0.034571018586668625 0 -0.00019770977396481158 0.034527743287316413 0 -0.00016707120050373148 0.034478553534126363 0 -0.00042173387565789416 0.034849599317087879 0 -0.00067277577854107809 0.034646408122055737 0 -0.00032552879969026171 0.034560636936405341 0 -0.00042173387565789416 0.034849599317087879 0 -0.00020582307334851416 0.034720819840510189 0 -0.00032552879969026171 0.034560636936405341 0 -0.00020582307334851416 0.034720819840510189 0 -0.00014378786770535994 0.034593525327212007 0 -0.00032552879969026171 0.034560636936405341 0 -0.00022711056153661298 0.034874818721702817 0 -0.00020582307334851416 0.034720819840510189 0 -1.6193517963493598e-05 0.034721298135729529 0 -0.00020582307334851416 0.034720819840510189 0 -0.00014378786770535994 0.034593525327212007 0 -9.2037848350091659e-05 0.034649993499067375 0 -0.00019034994770991603 0.034509062920686298 0 -0.00011044254238413334 0.034481130985758793 0 -0.00014378786770535994 0.034593525327212007 0 -0.00032552879969026171 0.034560636936405341 0 -4.7886106634312913e-05 0.034443415187647423 0 -0.00010078549754659539 0.034386122543906675 0 -8.5600182330663026e-05 0.034380010095968493 0 -4.7886106634312913e-05 0.034443415187647423 0 -0.00013066550697715332 0.034331669143435585 0 -0.00015558536913470392 0.034347111087923717 0 -0.00010078549754659539 0.034386122543906675 0 -0.00013066550697715332 0.034331669143435585 0 -0.00010078549754659539 0.034386122543906675 0 -8.5600182330663026e-05 0.034380010095968493 0 -0.00013066550697715332 0.034331669143435585 0 -9.2555276386189852e-05 0.034329305437395027 0 -8.5600182330663026e-05 0.034380010095968493 0 -9.8558975915338763e-05 0.034492873914177317 0 -0.00018876430415004555 0.034413197206035535 0 -8.2943084065147606e-05 0.034503196953857687 0 -8.2943084065147606e-05 0.034503196953857687 0 -7.8626507333390592e-05 0.034442334395177195 0 -7.6015520554247544e-05 0.034489470862665079 0 -6.6295076643573041e-05 0.034529791385149104 0 -8.2943084065147606e-05 0.034503196953857687 0 -7.6015520554247544e-05 0.034489470862665079 0 -9.8558975915338763e-05 0.034492873914177317 0 -6.6295076643573041e-05 0.034529791385149104 0 -8.2943084065147606e-05 0.034503196953857687 0 -0.00012638764294705456 0.034375225499497557 0 -0.00011883532641119494 0.034390855887675251 0 -9.2555276386189852e-05 0.034329305437395027 0 -8.5600182330663026e-05 0.034380010095968493 0 -6.3843461141500343e-05 0.034414977734540164 0 -9.2555276386189852e-05 0.034329305437395027 0 -6.3843461141500343e-05 0.034414977734540164 0 -7.8626507333390592e-05 0.034442334395177195 0 -7.8626507333390592e-05 0.034442334395177195 0 -0.00010908047402958051 0.034455598685447335 0 -2.6052456153093119e-05 0.034421213244241071 0 -4.0119962556679667e-05 0.034770124931671066 0 -2.7747851316812838e-05 0.03479449091572924 0 -6.3843461141500343e-05 0.034414977734540164 0 -7.8626507333390592e-05 0.034442334395177195 0 -2.6052456153093119e-05 0.034421213244241071 0 -7.8626507333390592e-05 0.034442334395177195 0 -7.6015520554247544e-05 0.034489470862665079 0 -0.00010908047402958051 0.034455598685447335 0 -9.6003343445133507e-05 0.034533566930267802 0 -7.6015520554247544e-05 0.034489470862665079 0 -0.00010908047402958051 0.034455598685447335 0 -6.6295076643573041e-05 0.034529791385149104 0 -9.6003343445133507e-05 0.034533566930267802 0 -7.6015520554247544e-05 0.034489470862665079 0 -0.00016361114170214918 0.034599772521281512 0 -9.6003343445133507e-05 0.034533566930267802 0 -0.00010908047402958051 0.034455598685447335 0 -5.1217939298202818e-05 0.034789633853512886 0 -4.0119962556679667e-05 0.034770124931671066 0 5.5037461674538162e-11 0.035000042833452261 0 -3.4718880098168339e-06 0.035001288723293396 0 -3.9012980467030868e-09 0.034999991504755072 0 -3.9012980467030868e-09 0.034999991504755072 0 -1.3292511390026478e-06 0.035000506286347606 0 -6.7572606556059524e-11 0.035000005171090962 0 -3.4718880098168339e-06 0.035001288723293396 0 -1.3292511390026478e-06 0.035000506286347606 0 -3.5653685623394178e-07 0.034999933080646667 0 -3.4718880098168339e-06 0.035001288723293396 0 -3.9012980467030868e-09 0.034999991504755072 0 -1.3292511390026478e-06 0.035000506286347606 0 -1.3292511390026478e-06 0.035000506286347606 0 -3.5653685623394178e-07 0.034999933080646667 0 -6.7572606556059524e-11 0.035000005171090962 0 -8.5600182330663026e-05 0.034380010095968493 0 -6.3843461141500343e-05 0.034414977734540164 0 -4.7886106634312913e-05 0.034443415187647423 0 -6.3843461141500343e-05 0.034414977734540164 0 -4.7886106634312913e-05 0.034443415187647423 0 -2.6052456153093119e-05 0.034421213244241071 0 -0.00014378786770535994 0.034593525327212007 0 -4.7886106634312913e-05 0.034443415187647423 0 -6.0487604920409153e-05 0.034562589596533438 0 -2.6052456153093119e-05 0.034421213244241071 0 -6.0487604920409153e-05 0.034562589596533438 0 -4.4032221258146171e-05 0.034606864880076797 0 -4.7886106634312913e-05 0.034443415187647423 0 -2.6052456153093119e-05 0.034421213244241071 0 -6.0487604920409153e-05 0.034562589596533438 0 -0.00020582307334851416 0.034720819840510189 0 -9.2037848350091659e-05 0.034649993499067375 0 -1.6193517963493598e-05 0.034721298135729529 0 -2.6052456153093119e-05 0.034421213244241071 0 -4.4032221258146171e-05 0.034606864880076797 0 -1.6193517963493598e-05 0.034721298135729529 0 -2.7747851316812838e-05 0.03479449091572924 0 -3.1557112852960161e-05 0.034910236876922254 0 -0.00014378786770535994 0.034593525327212007 0 -6.0487604920409153e-05 0.034562589596533438 0 -9.2037848350091659e-05 0.034649993499067375 0 -4.4032221258146171e-05 0.034606864880076797 0 -9.2037848350091659e-05 0.034649993499067375 0 -1.6193517963493598e-05 0.034721298135729529 0 -6.0487604920409153e-05 0.034562589596533438 0 -4.4032221258146171e-05 0.034606864880076797 0 -9.2037848350091659e-05 0.034649993499067375 0 -3.1557112852960161e-05 0.034910236876922254 0 -3.1687754920599506e-05 0.034910640515772293 0 -1.8722779309564286e-05 0.034974734521720223 0 -3.6447410797478613e-05 0.034955268353220055 0 -4.4489327168467889e-05 0.034938454034084 0 -3.6447410797478613e-05 0.034955268353220055 0 -4.4489327168467889e-05 0.034938454034084 0 -4.903714159698995e-05 0.034928339680932133 0 -1.334605484819196e-08 0.034999953783390804 0 -1.8722779309564286e-05 0.034974734521720223 0 -5.0041650140480441e-09 0.034999952108474709 0 -3.1557112852960161e-05 0.034910236876922254 0 -8.6375142627163142e-08 0.03499985069122051 0 -3.5653685623394178e-07 0.034999933080646667 0 -1.6915720801567805e-07 0.034999760244760043 0 -6.7572606556059524e-11 0.035000005171090962 0 -1.8722779309564286e-05 0.034974734521720223 0 -4.4489327168467889e-05 0.034938454034084 0 -5.0041650140480441e-09 0.034999952108474709 0 -0.00054956746757612055 0.032955603763901893 0 -0.00053720689086557611 0.03301674502681199 0 -0.00051112468564226069 0.032984490350275654 0 -0.00054956746757612055 0.032955603763901893 0 -0.00052584820551291721 0.032957350879356452 0 -0.00053938210289473693 0.032930017987169748 0 -0.00054956746757612055 0.032955603763901893 0 -0.00051112468564226069 0.032984490350275654 0 -0.00052584820551291721 0.032957350879356452 0 -0.00054956746757612055 0.032955603763901893 0 -0.00059983223477291737 0.032965368079847311 0 -0.00053720689086557611 0.03301674502681199 0 -0.00054956746757612055 0.032955603763901893 0 -0.00059983223477291737 0.032965368079847311 0 -0.00061721502706810834 0.032921677125409152 0 -0.00053720689086557611 0.03301674502681199 0 -0.00051112468564226069 0.032984490350275654 0 -0.00047584178614584581 0.033018600149136046 0 -0.00051112468564226069 0.032984490350275654 0 -0.00049855193656398529 0.032968360066025826 0 -0.00047584178614584581 0.033018600149136046 0 -0.00049855193656398529 0.032968360066025826 0 -0.00051723920966981825 0.032968364883946277 0 -0.00054592695043140346 0.032961684893529054 0 -0.00051112468564226069 0.032984490350275654 0 -0.00049855193656398529 0.032968360066025826 0 -0.00051723920966981825 0.032968364883946277 0 -0.00049855193656398529 0.032968360066025826 0 -0.00055461457798480936 0.03294768612562067 0 -0.00054592695043140346 0.032961684893529054 0 -0.00055461457798480936 0.03294768612562067 0 -0.00057686752285323706 0.032913147571851264 0 -0.00061191455303848173 0.032931513702487945 0 -0.00049855193656398529 0.032968360066025826 0 -0.00055461457798480936 0.03294768612562067 0 -0.00052953558306426129 0.032937690290569525 0 -0.00055461457798480936 0.03294768612562067 0 -0.00057686752285323706 0.032913147571851264 0 -0.00052953558306426129 0.032937690290569525 0 -0.00055461457798480936 0.03294768612562067 0 -0.00059761612774582469 0.032963161593666586 0 -0.00054592695043140346 0.032961684893529054 0 -0.00055461457798480936 0.03294768612562067 0 -0.00059761612774582469 0.032963161593666586 0 -0.00061191455303848173 0.032931513702487945 0 -0.00059761612774582469 0.032963161593666586 0 -0.00054592695043140346 0.032961684893529054 0 -0.00060350213259970228 0.032966686735007848 0 -0.00054592695043140346 0.032961684893529054 0 -0.00060350213259970228 0.032966686735007848 0 -0.00056331498028520726 0.032952086128904871 0 -0.00051112468564226069 0.032984490350275654 0 -0.00051723920966981825 0.032968364883946277 0 -0.00052584820551291721 0.032957350879356452 0 -0.00051723920966981825 0.032968364883946277 0 -0.00054592695043140346 0.032961684893529054 0 -0.00052584820551291721 0.032957350879356452 0 -0.00054592695043140346 0.032961684893529054 0 -0.00052584820551291721 0.032957350879356452 0 -0.00056331498028520726 0.032952086128904871 0 -0.00052584820551291721 0.032957350879356452 0 -0.00053626601065878839 0.032939721064349864 0 -0.00053938210289473693 0.032930017987169748 0 -0.00052584820551291721 0.032957350879356452 0 -0.00053626601065878839 0.032939721064349864 0 -0.00056331498028520726 0.032952086128904871 0 -0.00053626601065878839 0.032939721064349864 0 -0.0005531682487287656 0.032946391959413582 0 -0.00052664017087524786 0.03290697255052992 0 -0.00053626601065878839 0.032939721064349864 0 -0.00052664017087524786 0.03290697255052992 0 -0.00053938210289473693 0.032930017987169748 0 -0.00060350213259970228 0.032966686735007848 0 -0.0006130856607574792 0.032948250481950672 0 -0.00056331498028520726 0.032952086128904871 0 -0.00053626601065878839 0.032939721064349864 0 -0.00056331498028520726 0.032952086128904871 0 -0.0005531682487287656 0.032946391959413582 0 -0.0006130856607574792 0.032948250481950672 0 -0.00056331498028520726 0.032952086128904871 0 -0.0005531682487287656 0.032946391959413582 0 -0.0006130856607574792 0.032948250481950672 0 -0.0005531682487287656 0.032946391959413582 0 -0.00063820314865397439 0.032933133057168766 0 -0.00054448414983209077 0.033024292184147458 0 -0.0005531682487287656 0.032946391959413582 0 -0.00061066892074982976 0.033007553735984928 0 -0.0005531682487287656 0.032946391959413582 0 -0.00061066892074982976 0.033007553735984928 0 -0.00063820314865397439 0.032933133057168766 0 -0.0011603142739286564 0.032450099115133364 0 -0.00094228753065936409 0.032747616756603086 0 -0.00047243491019367188 0.032816109390699393 0 -0.0005531682487287656 0.032946391959413582 0 -0.00051540889502054224 0.03288297732311659 0 -0.0005531682487287656 0.032946391959413582 0 -0.00052664017087524786 0.03290697255052992 0 -0.00051540889502054224 0.03288297732311659 0 -0.00052664017087524786 0.03290697255052992 0 -0.00051540889502054224 0.03288297732311659 0 -0.00052382482610363341 0.03285253393122739 0 -0.00047243491019367188 0.032816109390699393 0 -0.00051540889502054224 0.03288297732311659 0 -0.00052382482610363341 0.03285253393122739 0 -0.00052382482610363341 0.03285253393122739 0 -0.00055689453376379266 0.032834369735338216 0 -0.00055005060882882227 0.032885860586011652 0 -0.00055689453376379266 0.032834369735338216 0 -0.00055005060882882227 0.032885860586011652 0 -0.00059401312665385494 0.032849884555997196 0 -0.00055005060882882227 0.032885860586011652 0 -0.00057771757580085518 0.032907746090467455 0 -0.00059401312665385494 0.032849884555997196 0 -0.00052664017087524786 0.03290697255052992 0 -0.00052382482610363341 0.03285253393122739 0 -0.00055005060882882227 0.032885860586011652 0 -0.00052664017087524786 0.03290697255052992 0 -0.00055005060882882227 0.032885860586011652 0 -0.00053938210289473693 0.032930017987169748 0 -0.00054956746757612055 0.032955603763901893 0 -0.00053938210289473693 0.032930017987169748 0 -0.00057771757580085518 0.032907746090467455 0 -0.00055005060882882227 0.032885860586011652 0 -0.00053938210289473693 0.032930017987169748 0 -0.00057771757580085518 0.032907746090467455 0 -0.00054956746757612055 0.032955603763901893 0 -0.00061721502706810834 0.032921677125409152 0 -0.00057771757580085518 0.032907746090467455 0 -0.00061721502706810834 0.032921677125409152 0 -0.00057771757580085518 0.032907746090467455 0 -0.00063370908066382944 0.032874785386095479 0 -0.00057771757580085518 0.032907746090467455 0 -0.00063370908066382944 0.032874785386095479 0 -0.00059401312665385494 0.032849884555997196 0 -0.00065295690029077552 0.032808632827018881 0 -0.00063370908066382944 0.032874785386095479 0 -0.00059401312665385494 0.032849884555997196 0 -0.00065295690029077552 0.032808632827018881 0 -0.00063370908066382944 0.032874785386095479 0 -0.00070096282473720807 0.03284876849040072 0 -0.00063370908066382944 0.032874785386095479 0 -0.00070096282473720807 0.03284876849040072 0 -0.00066825158769742352 0.032892785096429518 0 -0.00070096282473720807 0.03284876849040072 0 -0.00072000584654493031 0.032887749864962852 0 -0.00066825158769742352 0.032892785096429518 0 -0.00070096282473720807 0.03284876849040072 0 -0.00073350809413597832 0.032860197753351202 0 -0.00072000584654493031 0.032887749864962852 0 -0.00070096282473720807 0.03284876849040072 0 -0.00075402755606206954 0.032835779912360412 0 -0.00073350809413597832 0.032860197753351202 0 -0.00073173131832894123 0.032775018074676102 0 -0.00070096282473720807 0.03284876849040072 0 -0.00075402755606206954 0.032835779912360412 0 -0.00082230613476204015 0.032798533443906569 0 -0.00075402755606206954 0.032835779912360412 0 -0.00076836007433329879 0.0328674655480568 0 -0.00075402755606206954 0.032835779912360412 0 -0.00076836007433329879 0.0328674655480568 0 -0.00075621900350059459 0.032865875627535852 0 -0.00075402755606206954 0.032835779912360412 0 -0.00073350809413597832 0.032860197753351202 0 -0.00075621900350059459 0.032865875627535852 0 -0.0005242508239088181 0.033427791861913775 0 -0.00050846884908180377 0.033658871298868624 0 -0.00082230613476204015 0.032798533443906569 0 -0.0008321100993134218 0.032977721264083389 0 -0.000988652070931762 0.032885885029510294 0 -0.00050846884908180377 0.033658871298868624 0 -0.00051026167093942579 0.033657204321371779 0 -0.00073350809413597832 0.032860197753351202 0 -0.00075621900350059459 0.032865875627535852 0 -0.00072000584654493031 0.032887749864962852 0 -0.00076115686844792569 0.032865888486387669 0 -0.00075621900350059459 0.032865875627535852 0 -0.00072000584654493031 0.032887749864962852 0 -0.00050846884908180377 0.033658871298868624 0 -0.00061658037747180786 0.033768890215790368 0 -0.00076115686844792569 0.032865888486387669 0 -0.00072000584654493031 0.032887749864962852 0 -0.00072654039173343 0.032942399483164853 0 -0.00072000584654493031 0.032887749864962852 0 -0.00067180604775791183 0.032932061888891993 0 -0.00072654039173343 0.032942399483164853 0 -0.00072193474232428085 0.034865460414082158 0 -0.0006217005290871274 0.034762680862169756 0 -0.00071663761456646868 0.03468914718316337 0 -0.00059983223477291737 0.032965368079847311 0 -0.00061721502706810834 0.032921677125409152 0 -0.00067180604775791183 0.032932061888891993 0 -0.00061721502706810834 0.032921677125409152 0 -0.00063370908066382944 0.032874785386095479 0 -0.00066825158769742352 0.032892785096429518 0 -0.00061721502706810834 0.032921677125409152 0 -0.00067180604775791183 0.032932061888891993 0 -0.00066825158769742352 0.032892785096429518 0 -0.00072000584654493031 0.032887749864962852 0 -0.00067180604775791183 0.032932061888891993 0 -0.00066825158769742352 0.032892785096429518 0 -0.0011197665766509025 0.032847252942188598 0 -0.0013470530707925513 0.03287121443220245 0 -0.0011223341094341744 0.033002999360970967 0 -0.0008321100993134218 0.032977721264083389 0 -0.0011223341094341744 0.033002999360970967 0 -0.000988652070931762 0.032885885029510294 0 -0.00050846884908180377 0.033658871298868624 0 -0.00074885702769288674 0.033936597438071724 0 -0.00072193474232428085 0.034865460414082158 0 -0.00052792114032496886 0.034848441263600108 0 -0.0006217005290871274 0.034762680862169756 0 -0.0011197665766509025 0.032847252942188598 0 -0.0011223341094341744 0.033002999360970967 0 -0.000988652070931762 0.032885885029510294 0 -0.00034141398353144497 0.034829412758466523 0 -0.00052792114032496886 0.034848441263600108 0 -0.00050957624442472674 0.034719472631842857 0 -0.00052792114032496886 0.034848441263600108 0 -0.0006217005290871274 0.034762680862169756 0 -0.00050957624442472674 0.034719472631842857 0 -0.00037793171138029768 0.034674656611847786 0 -0.00050957624442472674 0.034719472631842857 0 -0.00044935635937829604 0.034564795181925449 0 -0.00050957624442472674 0.034719472631842857 0 -0.00059304565421152062 0.034611310755841722 0 -0.00044935635937829604 0.034564795181925449 0 -0.0006217005290871274 0.034762680862169756 0 -0.00050957624442472674 0.034719472631842857 0 -0.00059304565421152062 0.034611310755841722 0 -0.00059304565421152062 0.034611310755841722 0 -0.00071663761456646868 0.03468914718316337 0 -0.00072272049620191966 0.034497897279506813 0 -0.0006217005290871274 0.034762680862169756 0 -0.00059304565421152062 0.034611310755841722 0 -0.00071663761456646868 0.03468914718316337 0 -0.00059304565421152062 0.034611310755841722 0 -0.00072272049620191966 0.034497897279506813 0 -0.00053792281046097451 0.034394367232242352 0 -0.00059304565421152062 0.034611310755841722 0 -0.00044935635937829604 0.034564795181925449 0 -0.00053792281046097451 0.034394367232242352 0 -0.00040763267115484812 0.034427697297757666 0 -0.00044935635937829604 0.034564795181925449 0 -0.00053792281046097451 0.034394367232242352 0 -0.00059983223477291737 0.032965368079847311 0 -0.00067180604775791183 0.032932061888891993 0 -0.00064470523823006694 0.032994035344535252 0 -0.00072654039173343 0.032942399483164853 0 -0.00073108192911977424 0.033038415042586075 0 -0.00064470523823006694 0.032994035344535252 0 -0.00061658037747180786 0.033768890215790368 0 -0.00066714823211038723 0.033767018114150261 0 -0.00067180604775791183 0.032932061888891993 0 -0.00072654039173343 0.032942399483164853 0 -0.00064470523823006694 0.032994035344535252 0 -0.00073108192911977424 0.033038415042586075 0 -0.00064470523823006694 0.032994035344535252 0 -0.0005938565794212868 0.033132445725811636 0 -0.00053720689086557611 0.03301674502681199 0 -0.00064470523823006694 0.032994035344535252 0 -0.0005938565794212868 0.033132445725811636 0 -0.00059983223477291737 0.032965368079847311 0 -0.00053720689086557611 0.03301674502681199 0 -0.00064470523823006694 0.032994035344535252 0 -0.00066714823211038723 0.033767018114150261 0 -0.00068686416526466483 0.033750308217914769 0 -0.00073108192911977424 0.033038415042586075 0 -0.0005938565794212868 0.033132445725811636 0 -0.0007655133124153462 0.033239578690807438 0 -0.0005938565794212868 0.033132445725811636 0 -0.00059916500789673071 0.033398291060025405 0 -0.0007655133124153462 0.033239578690807438 0 -0.00059916500789673071 0.033398291060025405 0 -0.0007655133124153462 0.033239578690807438 0 -0.00065657188613084914 0.033777552355593973 0 -0.00068686416526466483 0.033750308217914769 0 -0.0006865985880737677 0.033746656714718555 0 -0.0005938565794212868 0.033132445725811636 0 -0.00059916500789673071 0.033398291060025405 0 -0.00052229071944157599 0.03328868305834623 0 -0.0005938565794212868 0.033132445725811636 0 -0.00052229071944157599 0.03328868305834623 0 -0.00048901508427488544 0.033114460499623383 0 -0.00040763267115484812 0.034427697297757666 0 -0.00053792281046097451 0.034394367232242352 0 -0.00042592290348166743 0.034212980966954194 0 -0.00072272049620191966 0.034497897279506813 0 -0.00073280508417118868 0.034252235642175027 0 -0.00053792281046097451 0.034394367232242352 0 -0.00073280508417118868 0.034252235642175027 0 -0.00054405707584996652 0.03409636995321564 0 -0.00065657188613084914 0.033777552355593973 0 -0.00073280508417118868 0.034252235642175027 0 -0.00053792281046097451 0.034394367232242352 0 -0.00054405707584996652 0.03409636995321564 0 -0.00053792281046097451 0.034394367232242352 0 -0.00054405707584996652 0.03409636995321564 0 -0.00042592290348166743 0.034212980966954194 0 -0.00033863332329077628 0.034173874891788643 0 -0.00042592290348166743 0.034212980966954194 0 -0.00043282155765643428 0.034021723195205585 0 -0.00054405707584996652 0.03409636995321564 0 -0.00042592290348166743 0.034212980966954194 0 -0.00043282155765643428 0.034021723195205585 0 -0.00054405707584996652 0.03409636995321564 0 -0.00043282155765643428 0.034021723195205585 0 -0.00065657188613084914 0.033777552355593973 0 -0.00046087116157273974 0.033935683011145433 0 -0.00043282155765643428 0.034021723195205585 0 -0.00065657188613084914 0.033777552355593973 0 -0.00052402174749958529 0.033781104264910933 0 -0.00046087116157273974 0.033935683011145433 0 -0.00065657188613084914 0.033777552355593973 0 -0.00046087116157273974 0.033935683011145433 0 -0.00035213751260198059 0.034110069924811935 0 -0.00043282155765643428 0.034021723195205585 0 -0.00052229071944157599 0.03328868305834623 0 -0.00054836064792905884 0.033550743155340491 0 -0.00045701693878267142 0.033238822618250057 0 -0.00059916500789673071 0.033398291060025405 0 -0.00052229071944157599 0.03328868305834623 0 -0.00054836064792905884 0.033550743155340491 0 -0.00054836064792905884 0.033550743155340491 0 -0.00049690205225790365 0.033488817221269999 0 -0.00045701693878267142 0.033238822618250057 0 -0.00059916500789673071 0.033398291060025405 0 -0.00054836064792905884 0.033550743155340491 0 -0.00065657188613084914 0.033777552355593973 0 -0.00052402174749958529 0.033781104264910933 0 -0.00054836064792905884 0.033550743155340491 0 -0.00065657188613084914 0.033777552355593973 0 -0.00052402174749958529 0.033781104264910933 0 -0.00054836064792905884 0.033550743155340491 0 -0.00049690205225790365 0.033488817221269999 0 -0.00049354835142216059 0.033655536035670869 0 -0.00049690205225790365 0.033488817221269999 0 -0.00044969886849964812 0.03345553126451372 0 -0.00049690205225790365 0.033488817221269999 0 -0.00044969886849964812 0.03345553126451372 0 -0.00040998368866932268 0.033215919802126501 0 -0.00044969886849964812 0.03345553126451372 0 -0.0003673173941437602 0.033241449151427287 0 -0.00040998368866932268 0.033215919802126501 0 -0.0003930783069048011 0.033530040332819894 0 -0.00044969886849964812 0.03345553126451372 0 -0.0003673173941437602 0.033241449151427287 0 -0.0003673173941437602 0.033241449151427287 0 -0.00040998368866932268 0.033215919802126501 0 -0.00033366396961035261 0.033034125825410869 0 -0.00040998368866932268 0.033215919802126501 0 -0.00039550894634961579 0.033080621478899896 0 -0.00045701693878267142 0.033238822618250057 0 -0.00040998368866932268 0.033215919802126501 0 -0.00039550894634961579 0.033080621478899896 0 -0.00033366396961035261 0.033034125825410869 0 -0.00049690205225790365 0.033488817221269999 0 -0.00040998368866932268 0.033215919802126501 0 -0.00045701693878267142 0.033238822618250057 0 -0.00052229071944157599 0.03328868305834623 0 -0.00045701693878267142 0.033238822618250057 0 -0.00048901508427488544 0.033114460499623383 0 -0.00045701693878267142 0.033238822618250057 0 -0.00043431541104141841 0.033059401098269096 0 -0.00048901508427488544 0.033114460499623383 0 -0.00039550894634961579 0.033080621478899896 0 -0.00045701693878267142 0.033238822618250057 0 -0.00043431541104141841 0.033059401098269096 0 -0.00039550894634961579 0.033080621478899896 0 -0.00043431541104141841 0.033059401098269096 0 -0.00041974138752643006 0.033006377509919235 0 -0.00043431541104141841 0.033059401098269096 0 -0.00046007243183854871 0.032990091552553079 0 -0.00041974138752643006 0.033006377509919235 0 -0.00043431541104141841 0.033059401098269096 0 -0.00047584178614584581 0.033018600149136046 0 -0.00046007243183854871 0.032990091552553079 0 -0.00043431541104141841 0.033059401098269096 0 -0.00047584178614584581 0.033018600149136046 0 -0.00048901508427488544 0.033114460499623383 0 -0.00053720689086557611 0.03301674502681199 0 -0.00047584178614584581 0.033018600149136046 0 -0.00048901508427488544 0.033114460499623383 0 -0.00053720689086557611 0.03301674502681199 0 -0.0005938565794212868 0.033132445725811636 0 -0.00048901508427488544 0.033114460499623383 0 -0.00054251703487221694 0.032905781754281757 0 -0.00050623579547455554 0.032902725061746421 0 -0.00057084181565653688 0.03285414948357699 0 -0.00054251703487221694 0.032905781754281757 0 -0.00049354792483113463 0.032946619963959492 0 -0.00050623579547455554 0.032902725061746421 0 -0.00054251703487221694 0.032905781754281757 0 -0.00057084181565653688 0.03285414948357699 0 -0.00061148721716897971 0.032856808313603082 0 -0.00054251703487221694 0.032905781754281757 0 -0.00057686752285323706 0.032913147571851264 0 -0.00061148721716897971 0.032856808313603082 0 -0.00054251703487221694 0.032905781754281757 0 -0.00052953558306426129 0.032937690290569525 0 -0.00049354792483113463 0.032946619963959492 0 -0.00054251703487221694 0.032905781754281757 0 -0.00057686752285323706 0.032913147571851264 0 -0.00052953558306426129 0.032937690290569525 0 -0.00049855193656398529 0.032968360066025826 0 -0.00052953558306426129 0.032937690290569525 0 -0.00049354792483113463 0.032946619963959492 0 -0.00049855193656398529 0.032968360066025826 0 -0.00047584178614584581 0.033018600149136046 0 -0.00046007243183854871 0.032990091552553079 0 -0.00049855193656398529 0.032968360066025826 0 -0.00046007243183854871 0.032990091552553079 0 -0.00049354792483113463 0.032946619963959492 0 -0.00049354792483113463 0.032946619963959492 0 -0.00045598823634034394 0.032960003956345817 0 -0.00050623579547455554 0.032902725061746421 0 -0.00046007243183854871 0.032990091552553079 0 -0.00049354792483113463 0.032946619963959492 0 -0.00045598823634034394 0.032960003956345817 0 -0.00045598823634034394 0.032960003956345817 0 -0.00046373000006617865 0.03289005311181091 0 -0.00050623579547455554 0.032902725061746421 0 -0.00046007243183854871 0.032990091552553079 0 -0.00045598823634034394 0.032960003956345817 0 -0.00041974138752643006 0.033006377509919235 0 -0.00045598823634034394 0.032960003956345817 0 -0.00041974138752643006 0.033006377509919235 0 -0.00039435516030813991 0.032971459303367492 0 -0.00039550894634961579 0.033080621478899896 0 -0.00041974138752643006 0.033006377509919235 0 -0.00039435516030813991 0.032971459303367492 0 -0.00045598823634034394 0.032960003956345817 0 -0.00046373000006617865 0.03289005311181091 0 -0.00039435516030813991 0.032971459303367492 0 -0.00052917830301776577 0.032853143011896999 0 -0.00046373000006617865 0.03289005311181091 0 -0.00050623579547455554 0.032902725061746421 0 -0.00052917830301776577 0.032853143011896999 0 -0.00046373000006617865 0.03289005311181091 0 -0.00059647447948084267 0.032762237511599374 0 -0.00052917830301776577 0.032853143011896999 0 -0.00050623579547455554 0.032902725061746421 0 -0.00057084181565653688 0.03285414948357699 0 -0.00057084181565653688 0.03285414948357699 0 -0.00059647447948084267 0.032762237511599374 0 -0.00065782533325229838 0.032774350632542942 0 -0.00052917830301776577 0.032853143011896999 0 -0.00057084181565653688 0.03285414948357699 0 -0.00059647447948084267 0.032762237511599374 0 -0.00046373000006617865 0.03289005311181091 0 -0.00049114800514532303 0.032801793784209769 0 -0.00035435413082912539 0.032927739220419479 0 -0.00046373000006617865 0.03289005311181091 0 -0.00059647447948084267 0.032762237511599374 0 -0.00049114800514532303 0.032801793784209769 0 -0.00059647447948084267 0.032762237511599374 0 -0.00049114800514532303 0.032801793784209769 0 -0.00061160612982314095 0.032636257446486142 0 -0.00039550894634961579 0.033080621478899896 0 -0.00039435516030813991 0.032971459303367492 0 -0.00033366396961035261 0.033034125825410869 0 -0.00046373000006617865 0.03289005311181091 0 -0.00039435516030813991 0.032971459303367492 0 -0.00035435413082912539 0.032927739220419479 0 -0.00035435413082912539 0.032927739220419479 0 -0.00033366396961035261 0.033034125825410869 0 -0.00023532768638433651 0.032955429179725666 0 -0.00039435516030813991 0.032971459303367492 0 -0.00035435413082912539 0.032927739220419479 0 -0.00033366396961035261 0.033034125825410869 0 -0.00035237699329126857 0.031948004375511874 0 -0.00023532768638433651 0.032955429179725666 0 -0.00047467178342344739 0.032621689666985164 0 -0.0003673173941437602 0.033241449151427287 0 -0.00033366396961035261 0.033034125825410869 0 -0.00023532768638433651 0.032955429179725666 0 -0.00035435413082912539 0.032927739220419479 0 -0.00023532768638433651 0.032955429179725666 0 -0.00047467178342344739 0.032621689666985164 0 -0.00026042297296292741 0.03337308925674376 0 -0.0003673173941437602 0.033241449151427287 0 -0.00023532768638433651 0.032955429179725666 0 -0.00061160612982314095 0.032636257446486142 0 -0.00047467178342344739 0.032621689666985164 0 -0.0006420587319840562 0.032470025200658469 0 -0.00049114800514532303 0.032801793784209769 0 -0.00035435413082912539 0.032927739220419479 0 -0.00047467178342344739 0.032621689666985164 0 -0.00049114800514532303 0.032801793784209769 0 -0.00061160612982314095 0.032636257446486142 0 -0.00047467178342344739 0.032621689666985164 0 -0.00058387782849844824 0.032385939949376157 0 -0.00047467178342344739 0.032621689666985164 0 -0.0006420587319840562 0.032470025200658469 0 -0.00058387782849844824 0.032385939949376157 0 -0.00067540597880640573 0.032301984209574162 0 -0.0006420587319840562 0.032470025200658469 0 -0.0006420587319840562 0.032470025200658469 0 -0.00074819064453605271 0.032360601820190155 0 -0.00075877028264622563 0.032469624016199516 0 -0.00067540597880640573 0.032301984209574162 0 -0.0006420587319840562 0.032470025200658469 0 -0.00074819064453605271 0.032360601820190155 0 -0.00061160612982314095 0.032636257446486142 0 -0.0006420587319840562 0.032470025200658469 0 -0.00075877028264622563 0.032469624016199516 0 -0.00075877028264622563 0.032469624016199516 0 -0.00093995301265703643 0.032344032843146658 0 -0.00081713310766489062 0.032511286379302812 0 -0.00074819064453605271 0.032360601820190155 0 -0.00075877028264622563 0.032469624016199516 0 -0.00087265344855150327 0.032285147795873173 0 -0.0010479909497506492 0.032180804870453349 0 -0.00093995301265703643 0.032344032843146658 0 -0.001171042690014679 0.032216988125510902 0 -0.0010479909497506492 0.032180804870453349 0 -0.00087265344855150327 0.032285147795873173 0 -0.00093995301265703643 0.032344032843146658 0 -0.00093995301265703643 0.032344032843146658 0 -0.00099009270075446697 0.032398437199904706 0 -0.001171042690014679 0.032216988125510902 0 -0.00075877028264622563 0.032469624016199516 0 -0.00087265344855150327 0.032285147795873173 0 -0.00093995301265703643 0.032344032843146658 0 -0.00093995301265703643 0.032344032843146658 0 -0.00099009270075446697 0.032398437199904706 0 -0.00081713310766489062 0.032511286379302812 0 -0.00099009270075446697 0.032398437199904706 0 -0.0008650377780114217 0.03253672191499208 0 -0.00091990285416337339 0.032548431840584563 0 -0.00099009270075446697 0.032398437199904706 0 -0.0008650377780114217 0.03253672191499208 0 -0.00081713310766489062 0.032511286379302812 0 -0.0008650377780114217 0.03253672191499208 0 -0.00081713310766489062 0.032511286379302812 0 -0.00072311200066819145 0.032666279025644208 0 -0.00069659745594488284 0.032615885885085003 0 -0.00081713310766489062 0.032511286379302812 0 -0.00072311200066819145 0.032666279025644208 0 -0.00059647447948084267 0.032762237511599374 0 -0.00069659745594488284 0.032615885885085003 0 -0.00072311200066819145 0.032666279025644208 0 -0.00059647447948084267 0.032762237511599374 0 -0.00061160612982314095 0.032636257446486142 0 -0.00069659745594488284 0.032615885885085003 0 -0.00061160612982314095 0.032636257446486142 0 -0.00075877028264622563 0.032469624016199516 0 -0.00069659745594488284 0.032615885885085003 0 -0.00075877028264622563 0.032469624016199516 0 -0.00069659745594488284 0.032615885885085003 0 -0.00081713310766489062 0.032511286379302812 0 -0.0013163137728852635 0.032113391899967217 0 -0.0013379307184866963 0.03216693769578715 0 -0.001171042690014679 0.032216988125510902 0 -0.0013379307184866963 0.03216693769578715 0 -0.001171042690014679 0.032216988125510902 0 -0.0012776417839766134 0.032184159197127298 0 -0.00099009270075446697 0.032398437199904706 0 -0.001171042690014679 0.032216988125510902 0 -0.0011424309416670172 0.032320452411394154 0 -0.001171042690014679 0.032216988125510902 0 -0.0011424309416670172 0.032320452411394154 0 -0.0012776417839766134 0.032184159197127298 0 -0.00099009270075446697 0.032398437199904706 0 -0.0011424309416670172 0.032320452411394154 0 -0.00091990285416337339 0.032548431840584563 0 -0.0011424309416670172 0.032320452411394154 0 -0.0012776417839766134 0.032184159197127298 0 -0.0013949891377702404 0.03207898990332695 0 -0.0013379307184866963 0.03216693769578715 0 -0.0012776417839766134 0.032184159197127298 0 -0.0013949891377702404 0.03207898990332695 0 -0.0013379307184866963 0.03216693769578715 0 -0.0013949891377702404 0.03207898990332695 0 -0.0014107398919382963 0.03214374788024052 0 -0.0013949891377702404 0.03207898990332695 0 -0.0012601401357243752 0.032352526353456146 0 -0.0016823925517592949 0.031738093632182558 0 -0.0011424309416670172 0.032320452411394154 0 -0.0013949891377702404 0.03207898990332695 0 -0.0012601401357243752 0.032352526353456146 0 -0.0012601401357243752 0.032352526353456146 0 -0.0010187107002518241 0.032530148224656733 0 -0.0010616561182202437 0.032668485433161996 0 -0.0011424309416670172 0.032320452411394154 0 -0.0012601401357243752 0.032352526353456146 0 -0.0010187107002518241 0.032530148224656733 0 -0.0011424309416670172 0.032320452411394154 0 -0.0010187107002518241 0.032530148224656733 0 -0.00091990285416337339 0.032548431840584563 0 -0.0010187107002518241 0.032530148224656733 0 -0.0010616561182202437 0.032668485433161996 0 -0.00091611574275945584 0.03269572526246077 0 -0.00091915802475472659 0.032786494572117707 0 -0.0010616561182202437 0.032668485433161996 0 -0.00091611574275945584 0.03269572526246077 0 -0.00091915802475472659 0.032786494572117707 0 -0.0010616561182202437 0.032668485433161996 0 -0.0011036094638292775 0.032822911222145132 0 -0.0010616561182202437 0.032668485433161996 0 -0.001270531910057454 0.032635482539600962 0 -0.0011036094638292775 0.032822911222145132 0 -0.0012601401357243752 0.032352526353456146 0 -0.001270531910057454 0.032635482539600962 0 -0.0016847108595764492 0.032513519877570854 0 -0.0012601401357243752 0.032352526353456146 0 -0.0010616561182202437 0.032668485433161996 0 -0.001270531910057454 0.032635482539600962 0 -0.00076105102885363921 0.032689362190669841 0 -0.00065782533325229838 0.032774350632542942 0 -0.00070296436726821707 0.032798771208527124 0 -0.00076105102885363921 0.032689362190669841 0 -0.00082160617395325155 0.032684904923008878 0 -0.00070296436726821707 0.032798771208527124 0 -0.00059647447948084267 0.032762237511599374 0 -0.00065782533325229838 0.032774350632542942 0 -0.00072311200066819145 0.032666279025644208 0 -0.00076105102885363921 0.032689362190669841 0 -0.00065782533325229838 0.032774350632542942 0 -0.00072311200066819145 0.032666279025644208 0 -0.0008650377780114217 0.03253672191499208 0 -0.00076105102885363921 0.032689362190669841 0 -0.00072311200066819145 0.032666279025644208 0 -0.0008650377780114217 0.03253672191499208 0 -0.00076105102885363921 0.032689362190669841 0 -0.00091990285416337339 0.032548431840584563 0 -0.0010187107002518241 0.032530148224656733 0 -0.00091990285416337339 0.032548431840584563 0 -0.00082160617395325155 0.032684904923008878 0 -0.00076105102885363921 0.032689362190669841 0 -0.00091990285416337339 0.032548431840584563 0 -0.00082160617395325155 0.032684904923008878 0 -0.00082160617395325155 0.032684904923008878 0 -0.00078745829299750267 0.032800119503513629 0 -0.00070296436726821707 0.032798771208527124 0 -0.00082160617395325155 0.032684904923008878 0 -0.00091611574275945584 0.03269572526246077 0 -0.00078745829299750267 0.032800119503513629 0 -0.0010187107002518241 0.032530148224656733 0 -0.00082160617395325155 0.032684904923008878 0 -0.00091611574275945584 0.03269572526246077 0 -0.00091915802475472659 0.032786494572117707 0 -0.00078745829299750267 0.032800119503513629 0 -0.00082461167022869443 0.032843126639296463 0 -0.00091915802475472659 0.032786494572117707 0 -0.00091611574275945584 0.03269572526246077 0 -0.00078745829299750267 0.032800119503513629 0 -0.00078745829299750267 0.032800119503513629 0 -0.00070710811291683703 0.032857045368193082 0 -0.00070296436726821707 0.032798771208527124 0 -0.00070710811291683703 0.032857045368193082 0 -0.00070296436726821707 0.032798771208527124 0 -0.0006421235638455773 0.03288021623017847 0 -0.00057084181565653688 0.03285414948357699 0 -0.00065782533325229838 0.032774350632542942 0 -0.00061148721716897971 0.032856808313603082 0 -0.00065782533325229838 0.032774350632542942 0 -0.00070296436726821707 0.032798771208527124 0 -0.00061148721716897971 0.032856808313603082 0 -0.00057686752285323706 0.032913147571851264 0 -0.00061148721716897971 0.032856808313603082 0 -0.0006421235638455773 0.03288021623017847 0 -0.00070296436726821707 0.032798771208527124 0 -0.00061148721716897971 0.032856808313603082 0 -0.0006421235638455773 0.03288021623017847 0 -0.00057686752285323706 0.032913147571851264 0 -0.0006421235638455773 0.03288021623017847 0 -0.00061191455303848173 0.032931513702487945 0 -0.0006421235638455773 0.03288021623017847 0 -0.00061191455303848173 0.032931513702487945 0 -0.00067552685880715546 0.032913039716670041 0 -0.00070710811291683703 0.032857045368193082 0 -0.0006421235638455773 0.03288021623017847 0 -0.00067552685880715546 0.032913039716670041 0 -0.00070710811291683703 0.032857045368193082 0 -0.00067552685880715546 0.032913039716670041 0 -0.0007496655975354514 0.032875643459927363 0 -0.00067552685880715546 0.032913039716670041 0 -0.00064640640298469973 0.032958935656742676 0 -0.00072106283531665684 0.032949446389197494 0 -0.00059761612774582469 0.032963161593666586 0 -0.00061191455303848173 0.032931513702487945 0 -0.00064640640298469973 0.032958935656742676 0 -0.00061191455303848173 0.032931513702487945 0 -0.00067552685880715546 0.032913039716670041 0 -0.00064640640298469973 0.032958935656742676 0 -0.00059761612774582469 0.032963161593666586 0 -0.00060350213259970228 0.032966686735007848 0 -0.0006369438699710344 0.032983931369497357 0 -0.00059761612774582469 0.032963161593666586 0 -0.00064640640298469973 0.032958935656742676 0 -0.0006369438699710344 0.032983931369497357 0 -0.00064640640298469973 0.032958935656742676 0 -0.0006369438699710344 0.032983931369497357 0 -0.00067243784584736233 0.032990651877638631 0 -0.00064640640298469973 0.032958935656742676 0 -0.00067243784584736233 0.032990651877638631 0 -0.00072106283531665684 0.032949446389197494 0 -0.0006369438699710344 0.032983931369497357 0 -0.00066029377330570241 0.033013877971008118 0 -0.00064861816809268246 0.03298521041030196 0 -0.0006369438699710344 0.032983931369497357 0 -0.00067243784584736233 0.032990651877638631 0 -0.00066029377330570241 0.033013877971008118 0 -0.00067243784584736233 0.032990651877638631 0 -0.00066029377330570241 0.033013877971008118 0 -0.00067182080092526551 0.033043231795396956 0 -0.00066029377330570241 0.033013877971008118 0 -0.00067182080092526551 0.033043231795396956 0 -0.00066212712151214343 0.033029823997247701 0 -0.00066029377330570241 0.033013877971008118 0 -0.00064861816809268246 0.03298521041030196 0 -0.00066212712151214343 0.033029823997247701 0 -0.00060350213259970228 0.032966686735007848 0 -0.0006369438699710344 0.032983931369497357 0 -0.00064861816809268246 0.03298521041030196 0 -0.00076849813582498098 0.033029490429338684 0 -0.00075584803762243418 0.033075257234701817 0 -0.00067182080092526551 0.033043231795396956 0 -0.00076849813582498098 0.033029490429338684 0 -0.00075584803762243418 0.033075257234701817 0 -0.0008556175510343936 0.033044798803325635 0 -0.00075584803762243418 0.033075257234701817 0 -0.0008556175510343936 0.033044798803325635 0 -0.0008471811126507414 0.03309170411352641 0 -0.00075584803762243418 0.033075257234701817 0 -0.0008471811126507414 0.03309170411352641 0 -0.00079242420127326283 0.033126643767020118 0 -0.00075584803762243418 0.033075257234701817 0 -0.00067182080092526551 0.033043231795396956 0 -0.00057648350798504176 0.033101816477064658 0 -0.00076849813582498098 0.033029490429338684 0 -0.00067182080092526551 0.033043231795396956 0 -0.00073580718748441905 0.032995561641390392 0 -0.00067243784584736233 0.032990651877638631 0 -0.00073580718748441905 0.032995561641390392 0 -0.00072106283531665684 0.032949446389197494 0 -0.00067243784584736233 0.032990651877638631 0 -0.00067182080092526551 0.033043231795396956 0 -0.00073580718748441905 0.032995561641390392 0 -0.00073580718748441905 0.032995561641390392 0 -0.00078787475383894812 0.032953474852299595 0 -0.00072106283531665684 0.032949446389197494 0 -0.00073580718748441905 0.032995561641390392 0 -0.00084125004819925729 0.032985056648515747 0 -0.00078787475383894812 0.032953474852299595 0 -0.00076849813582498098 0.033029490429338684 0 -0.00073580718748441905 0.032995561641390392 0 -0.00084125004819925729 0.032985056648515747 0 -0.00076849813582498098 0.033029490429338684 0 -0.00084125004819925729 0.032985056648515747 0 -0.0008556175510343936 0.033044798803325635 0 -0.00084125004819925729 0.032985056648515747 0 -0.00078787475383894812 0.032953474852299595 0 -0.00089607366020766387 0.032907525799654433 0 -0.00079819963856541862 0.032905193397359159 0 -0.00082461167022869443 0.032843126639296463 0 -0.00089607366020766387 0.032907525799654433 0 -0.00078787475383894812 0.032953474852299595 0 -0.00079819963856541862 0.032905193397359159 0 -0.00089607366020766387 0.032907525799654433 0 -0.00067552685880715546 0.032913039716670041 0 -0.00072106283531665684 0.032949446389197494 0 -0.0007496655975354514 0.032875643459927363 0 -0.00079819963856541862 0.032905193397359159 0 -0.00072106283531665684 0.032949446389197494 0 -0.0007496655975354514 0.032875643459927363 0 -0.00078787475383894812 0.032953474852299595 0 -0.00079819963856541862 0.032905193397359159 0 -0.00072106283531665684 0.032949446389197494 0 -0.00078745829299750267 0.032800119503513629 0 -0.00070710811291683703 0.032857045368193082 0 -0.0007496655975354514 0.032875643459927363 0 -0.00078745829299750267 0.032800119503513629 0 -0.0007496655975354514 0.032875643459927363 0 -0.00082461167022869443 0.032843126639296463 0 -0.00079819963856541862 0.032905193397359159 0 -0.0007496655975354514 0.032875643459927363 0 -0.00082461167022869443 0.032843126639296463 0 -0.00091915802475472659 0.032786494572117707 0 -0.00082461167022869443 0.032843126639296463 0 -0.00089607366020766387 0.032907525799654433 0 -0.00091915802475472659 0.032786494572117707 0 -0.0011036094638292775 0.032822911222145132 0 -0.00089607366020766387 0.032907525799654433 0 -0.0011036094638292775 0.032822911222145132 0 -0.00089607366020766387 0.032907525799654433 0 -0.0010269010124777137 0.032966549947346296 0 -0.0011036094638292775 0.032822911222145132 0 -0.0012650448898698747 0.033007972846466033 0 -0.0010269010124777137 0.032966549947346296 0 -0.001270531910057454 0.032635482539600962 0 -0.0011036094638292775 0.032822911222145132 0 -0.001377517271186622 0.032784716348650537 0 -0.0011036094638292775 0.032822911222145132 0 -0.001377517271186622 0.032784716348650537 0 -0.0012650448898698747 0.033007972846466033 0 -0.0012650448898698747 0.033007972846466033 0 -0.0012758710104640019 0.033221753880864853 0 -0.0016342390683584329 0.033191993740767083 0 -0.0012650448898698747 0.033007972846466033 0 -0.00099957081248454468 0.033084446065012658 0 -0.0012758710104640019 0.033221753880864853 0 -0.00099957081248454468 0.033084446065012658 0 -0.00090199145484008713 0.033214202117897038 0 -0.0012758710104640019 0.033221753880864853 0 -0.00084125004819925729 0.032985056648515747 0 -0.00089607366020766387 0.032907525799654433 0 -0.00092549028712142251 0.033007082726155976 0 -0.00092549028712142251 0.033007082726155976 0 -0.0010269010124777137 0.032966549947346296 0 -0.00099957081248454468 0.033084446065012658 0 -0.00089607366020766387 0.032907525799654433 0 -0.00092549028712142251 0.033007082726155976 0 -0.0010269010124777137 0.032966549947346296 0 -0.00084125004819925729 0.032985056648515747 0 -0.00092549028712142251 0.033007082726155976 0 -0.0008556175510343936 0.033044798803325635 0 -0.0012650448898698747 0.033007972846466033 0 -0.0010269010124777137 0.032966549947346296 0 -0.00099957081248454468 0.033084446065012658 0 -0.00092549028712142251 0.033007082726155976 0 -0.00099957081248454468 0.033084446065012658 0 -0.0008556175510343936 0.033044798803325635 0 -0.00099957081248454468 0.033084446065012658 0 -0.0008556175510343936 0.033044798803325635 0 -0.0008471811126507414 0.03309170411352641 0 -0.00099957081248454468 0.033084446065012658 0 -0.0008471811126507414 0.03309170411352641 0 -0.00090802650626064759 0.033127088514175167 0 -0.00099957081248454468 0.033084446065012658 0 -0.00090802650626064759 0.033127088514175167 0 -0.00090199145484008713 0.033214202117897038 0 -0.0008471811126507414 0.03309170411352641 0 -0.00087936232592848197 0.033156064240183337 0 -0.00079242420127326283 0.033126643767020118 0 -0.0008471811126507414 0.03309170411352641 0 -0.00090802650626064759 0.033127088514175167 0 -0.00087936232592848197 0.033156064240183337 0 -0.00087936232592848197 0.033156064240183337 0 -0.00090199145484008713 0.033214202117897038 0 -0.00079242420127326283 0.033126643767020118 0 -0.00090802650626064759 0.033127088514175167 0 -0.00087936232592848197 0.033156064240183337 0 -0.00090199145484008713 0.033214202117897038 0 -0.002163778258326293 0.026699794529633111 0 -0.001142344788995209 0.025387724115997563 0 -0.0017076204438424935 0.017825901535529497 0 -0.0015708587136681355 0.017721625059143875 0 -0.0014510943135505616 0.017866518180684896 0 -0.0017076204438424935 0.017825901535529497 0 -0.0016699733908659851 0.017683076523851794 0 -0.0017405586258177638 0.017614019689678351 0 -0.0017076204438424935 0.017825901535529497 0 -0.0015708587136681355 0.017721625059143875 0 -0.0016699733908659851 0.017683076523851794 0 -0.0014510943135505616 0.017866518180684896 0 -0.0014308680704299935 0.01763432118909174 0 -0.0012569651087944052 0.017717789116669144 0 -0.0015708587136681355 0.017721625059143875 0 -0.0014510943135505616 0.017866518180684896 0 -0.0014308680704299935 0.01763432118909174 0 -0.0014308680704299935 0.01763432118909174 0 -0.0014813650024933897 0.017479854673286613 0 -0.0016187898002803305 0.017568440293807937 0 -0.0015708587136681355 0.017721625059143875 0 -0.0014308680704299935 0.01763432118909174 0 -0.0016187898002803305 0.017568440293807937 0 -0.0014308680704299935 0.01763432118909174 0 -0.0014813650024933897 0.017479854673286613 0 -0.0013148304743976784 0.017454855324624385 0 -0.0016699733908659851 0.017683076523851794 0 -0.0016187898002803305 0.017568440293807937 0 -0.0017405586258177638 0.017614019689678351 0 -0.0015708587136681355 0.017721625059143875 0 -0.0016699733908659851 0.017683076523851794 0 -0.0016187898002803305 0.017568440293807937 0 -0.0016187898002803305 0.017568440293807937 0 -0.0017405586258177638 0.017614019689678351 0 -0.0017554127470646977 0.017448522068547603 0 -0.0017405586258177638 0.017614019689678351 0 -0.0018756532942733749 0.017547966565332116 0 -0.0017554127470646977 0.017448522068547603 0 -0.0017076204438424935 0.017825901535529497 0 -0.0017405586258177638 0.017614019689678351 0 -0.0018756532942733749 0.017547966565332116 0 -0.0017462984691622174 0.031938918006138468 0 -0.00058871937521700712 0.032062291810848083 0 -0.00073914075648407504 0.032857216886904433 0 -0.0020218450312869483 0.031121231023124408 0 -0.0017462984691622174 0.031938918006138468 0 -0.00058871937521700712 0.032062291810848083 0 -0.00061066892074982976 0.033007553735984928 0 -0.00073914075648407504 0.032857216886904433 0 -0.00063820314865397439 0.032933133057168766 0 -0.0012279442467398062 0.032188934782783687 0 -0.0010260636052764939 0.032422357089296389 0 -0.0006130856607574792 0.032948250481950672 0 -0.00063820314865397439 0.032933133057168766 0 -0.00067610096309284962 0.032940953030416498 0 -0.00073914075648407504 0.032857216886904433 0 -0.00063820314865397439 0.032933133057168766 0 -0.00067610096309284962 0.032940953030416498 0 -0.0006130856607574792 0.032948250481950672 0 -0.00067610096309284962 0.032940953030416498 0 -0.00064861816809268246 0.03298521041030196 0 -0.00060350213259970228 0.032966686735007848 0 -0.0006130856607574792 0.032948250481950672 0 -0.00064861816809268246 0.03298521041030196 0 -0.00073914075648407504 0.032857216886904433 0 -0.00067610096309284962 0.032940953030416498 0 -0.00066212712151214343 0.033029823997247701 0 -0.00067610096309284962 0.032940953030416498 0 -0.00064861816809268246 0.03298521041030196 0 -0.00066212712151214343 0.033029823997247701 0 -0.00073914075648407504 0.032857216886904433 0 -0.00066212712151214343 0.033029823997247701 0 -0.00057648350798504176 0.033101816477064658 0 -0.00067182080092526551 0.033043231795396956 0 -0.00066212712151214343 0.033029823997247701 0 -0.00057648350798504176 0.033101816477064658 0 -0.002163778258326293 0.026699794529633111 0 -0.001887787125652862 0.025150754176815372 0 5.2542292828450743e-06 0.033194916146663742 0 -0.00058871937521700712 0.032062291810848083 0 -0.00073914075648407504 0.032857216886904433 0 5.2542292828450743e-06 0.033194916146663742 0 -0.00073914075648407504 0.032857216886904433 0 -0.00057648350798504176 0.033101816477064658 0 -0.00075584803762243418 0.033075257234701817 0 -0.00057648350798504176 0.033101816477064658 0 -0.00079242420127326283 0.033126643767020118 0 -0.00090199145484008713 0.033214202117897038 0 -0.00057648350798504176 0.033101816477064658 0 -0.00079242420127326283 0.033126643767020118 0 -0.002163778258326293 0.026699794529633111 0 -0.0016527838968104071 0.027209341209588719 0 0.0021097280542816486 0.018543883743150136 0 0.00076520000785150889 0.019153711235316069 0 0.0028097410344469927 0.019919966545572328 0 0.0021097280542816486 0.018543883743150136 0 0.00076520000785150889 0.019153711235316069 0 0.0012626840782280588 0.017711388315087645 0 0.00076520000785150889 0.019153711235316069 0 0.0028097410344469927 0.019919966545572328 0 0.00096573207399640976 0.020863635296678128 0 0.0028097410344469927 0.019919966545572328 0 0.0041008855624430178 0.019878210427945762 0 0.0045404477011683061 0.021660265870383888 0 0.0041008855624430178 0.019878210427945762 0 0.0052423113143818369 0.01988824432891808 0 0.0045404477011683061 0.021660265870383888 0 0.0052423113143818369 0.01988824432891808 0 0.0038199874599811126 0.018137657979827776 0 0.0059220610944797905 0.017730000258590138 0 0.0041008855624430178 0.019878210427945762 0 0.0052423113143818369 0.01988824432891808 0 0.0038199874599811126 0.018137657979827776 0 0.0028097410344469927 0.019919966545572328 0 0.0041008855624430178 0.019878210427945762 0 0.0038199874599811126 0.018137657979827776 0 0.0021097280542816486 0.018543883743150136 0 0.0028097410344469927 0.019919966545572328 0 0.0038199874599811126 0.018137657979827776 0 0.0038199874599811126 0.018137657979827776 0 0.0020752911894727005 0.017175968917773066 0 0.0033342595421790131 0.015563883164723321 0 0.0038199874599811126 0.018137657979827776 0 0.0048747103983033868 0.016428343359686414 0 0.0033342595421790131 0.015563883164723321 0 0.0038199874599811126 0.018137657979827776 0 0.0048747103983033868 0.016428343359686414 0 0.0059220610944797905 0.017730000258590138 0 0.0014945457706345834 0.016192054823702881 0 0.0020752911894727005 0.017175968917773066 0 0.0033342595421790131 0.015563883164723321 0 0.0014945457706345834 0.016192054823702881 0 0.0020752911894727005 0.017175968917773066 0 0.0011085975151862437 0.016782674149990913 0 0.0021097280542816486 0.018543883743150136 0 0.0020752911894727005 0.017175968917773066 0 0.0012626840782280588 0.017711388315087645 0 0.0021097280542816486 0.018543883743150136 0 0.0038199874599811126 0.018137657979827776 0 0.0020752911894727005 0.017175968917773066 0 0.00076520000785150889 0.019153711235316069 0 0.0012626840782280588 0.017711388315087645 0 0.00050740163369543683 0.016930986433318248 0 0.0020752911894727005 0.017175968917773066 0 0.0012626840782280588 0.017711388315087645 0 0.0011085975151862437 0.016782674149990913 0 0.0012626840782280588 0.017711388315087645 0 0.00050740163369543683 0.016930986433318248 0 0.0011085975151862437 0.016782674149990913 0 0.00050740163369543683 0.016930986433318248 0 0.0011085975151862437 0.016782674149990913 0 0.00064807684469322772 0.015947022448660718 0 0.0014945457706345834 0.016192054823702881 0 0.0011085975151862437 0.016782674149990913 0 0.00064807684469322772 0.015947022448660718 0 0.0014945457706345834 0.016192054823702881 0 0.00064807684469322772 0.015947022448660718 0 0.0012204193965318156 0.015165616518691822 0 6.4991253884508728e-05 0.017817885424341297 0 -0.00067946074033709209 0.016822967025926984 0 0.00017945632227190633 0.016026378015858836 0 -0.00017788370081194465 0.016249741646208831 0 -8.4928081674509113e-05 0.015226578946400801 0 0.00076520000785150889 0.019153711235316069 0 -0.0011312014028599792 0.0173060329535345 0 -0.0011207471372457309 0.017568224032568316 0 0.00076520000785150889 0.019153711235316069 0 -0.00017788370081194465 0.016249741646208831 0 -0.0011872836211105451 0.015600462155222549 0 0.00076520000785150889 0.019153711235316069 0 0.00050740163369543683 0.016930986433318248 0 -0.00017788370081194465 0.016249741646208831 0 0.00050740163369543683 0.016930986433318248 0 0.00017945632227190633 0.016026378015858836 0 -0.00017788370081194465 0.016249741646208831 0 0.00050740163369543683 0.016930986433318248 0 0.00064807684469322772 0.015947022448660718 0 0.00017945632227190633 0.016026378015858836 0 -0.00017788370081194465 0.016249741646208831 0 -0.0011872836211105451 0.015600462155222549 0 -0.00061619307231118201 0.015410911487662623 0 -0.0014308680704299935 0.01763432118909174 0 -0.0013148304743976784 0.017454855324624385 0 -0.0012698542386753132 0.017603900015191236 0 -0.0011207471372457309 0.017568224032568316 0 -0.0013148304743976784 0.017454855324624385 0 -0.0012698542386753132 0.017603900015191236 0 -0.0011312014028599792 0.0173060329535345 0 -0.0011207471372457309 0.017568224032568316 0 -0.0013148304743976784 0.017454855324624385 0 -0.0011207471372457309 0.017568224032568316 0 -0.0012698542386753132 0.017603900015191236 0 -0.0012569651087944052 0.017717789116669144 0 -0.0014308680704299935 0.01763432118909174 0 -0.0012698542386753132 0.017603900015191236 0 -0.0012569651087944052 0.017717789116669144 0 -0.0014510943135505616 0.017866518180684896 0 -0.0012569651087944052 0.017717789116669144 0 -0.00117866457512543 0.017901864650317841 0 9.2711182804638737e-05 0.020151609243472347 0 0.00028459357625538925 0.024045101280060096 0 -0.001142344788995209 0.025387724115997563 0 0.00028459357625538925 0.024045101280060096 0 -0.0011207471372457309 0.017568224032568316 0 -0.0012569651087944052 0.017717789116669144 0 -0.00117866457512543 0.017901864650317841 0 0.00076520000785150889 0.019153711235316069 0 -0.0014878688890611329 0.020381343578500192 0 0.00096573207399640976 0.020863635296678128 0 0.00076520000785150889 0.019153711235316069 0 -0.0011207471372457309 0.017568224032568316 0 -0.0014878688890611329 0.020381343578500192 0 0.0004649564172469393 0.023831358486218056 0 -0.0020950991637113474 0.021383851584690132 0 0.0012882308676994798 0.021661523962993246 0 0.0004649564172469393 0.023831358486218056 0 -0.0020950991637113474 0.021383851584690132 0 -0.0023325997891144716 0.024808410471001529 0 0.00028459357625538925 0.024045101280060096 0 0.0012814873899474174 0.023124019448581515 0 -0.0012650448898698747 0.033007972846466033 0 -0.0016342390683584329 0.033191993740767083 0 -0.0016270848680864603 0.032873321890652722 0 0.00028459357625538925 0.024045101280060096 0 -0.00075341326692073647 0.027813942160169719 0 -0.001377517271186622 0.032784716348650537 0 -0.0016270848680864603 0.032873321890652722 0 -0.0016847108595764492 0.032513519877570854 0 -0.001377517271186622 0.032784716348650537 0 -0.0012650448898698747 0.033007972846466033 0 -0.0016270848680864603 0.032873321890652722 0 0.0004649564172469393 0.023831358486218056 0 -0.0023325997891144716 0.024808410471001529 0 -0.00057250699412137113 0.02624181038396604 0 -0.0023325997891144716 0.024808410471001529 0 -0.00057250699412137113 0.02624181038396604 0 -0.0023490491793858631 0.028364056950500042 0 0.0004649564172469393 0.023831358486218056 0 -0.00057250699412137113 0.02624181038396604 0 0.0011251534555438679 0.025966873681297079 0 0.0011251534555438679 0.025966873681297079 0 0.0028861462401873375 0.02522227881500809 0 0.0021876915132420737 0.024240993793309979 0 0.0011251534555438679 0.025966873681297079 0 0.0028861462401873375 0.02522227881500809 0 0.0018107899942375791 0.027227973684639573 0 0.0028861462401873375 0.02522227881500809 0 0.0021876915132420737 0.024240993793309979 0 0.0034700197433333822 0.02342969201517173 0 0.0004649564172469393 0.023831358486218056 0 0.0011251534555438679 0.025966873681297079 0 0.0021876915132420737 0.024240993793309979 0 0.0028097410344469927 0.019919966545572328 0 0.00096573207399640976 0.020863635296678128 0 0.0045404477011683061 0.021660265870383888 0 0.0004649564172469393 0.023831358486218056 0 0.0024102904067018886 0.022848268457289163 0 0.0012882308676994798 0.021661523962993246 0 0.0012814873899474174 0.023124019448581515 0 0.0023800548349647514 0.022932839437985238 0 0.0004649564172469393 0.023831358486218056 0 0.0021876915132420737 0.024240993793309979 0 0.0024102904067018886 0.022848268457289163 0 0.0024102904067018886 0.022848268457289163 0 0.0012882308676994798 0.021661523962993246 0 0.0045404477011683061 0.021660265870383888 0 0.0021876915132420737 0.024240993793309979 0 0.0024102904067018886 0.022848268457289163 0 0.0034700197433333822 0.02342969201517173 0 0.0052423113143818369 0.01988824432891808 0 0.0045404477011683061 0.021660265870383888 0 0.0054035676544485741 0.022999730646586305 0 0.0024102904067018886 0.022848268457289163 0 0.0045404477011683061 0.021660265870383888 0 0.0034700197433333822 0.02342969201517173 0 0.0045404477011683061 0.021660265870383888 0 0.0034700197433333822 0.02342969201517173 0 0.0054035676544485741 0.022999730646586305 0 -0.007571802883253923 -0.019790538012961392 0 -0.0080101405627266333 -0.018617157928856546 0 -0.0087079248338751327 -0.018067182355012631 0 -0.00073686339830553995 0.0020775477124974082 0 -0.0030140921364560777 0.0042045202141979161 0 0.0028861462401873375 0.02522227881500809 0 0.0054035676544485741 0.022999730646586305 0 0.0033255150554337529 0.027160513501274158 0 -0.007571802883253923 -0.019790538012961392 0 -0.0076154188818819534 -0.018804952059362692 0 -0.0080101405627266333 -0.018617157928856546 0 0.0028861462401873375 0.02522227881500809 0 0.0034700197433333822 0.02342969201517173 0 0.0054035676544485741 0.022999730646586305 0 -0.0076154188818819534 -0.018804952059362692 0 -0.0080101405627266333 -0.018617157928856546 0 -0.0081521404463659724 -0.017810485055370438 0 -0.0081521404463659724 -0.017810485055370438 0 -0.0087079248338751327 -0.018067182355012631 0 -0.0097420049316590419 -0.016819679664689526 0 -0.0079334233600658281 -0.018480986972935719 0 -0.0075743617504098106 -0.017783414241202063 0 -0.0068232952632392672 -0.018282532544793811 0 -0.0080101405627266333 -0.018617157928856546 0 -0.0081521404463659724 -0.017810485055370438 0 -0.0087079248338751327 -0.018067182355012631 0 0.0028861462401873375 0.02522227881500809 0 0.0033255150554337529 0.027160513501274158 0 0.0018107899942375791 0.027227973684639573 0 0.0011251534555438679 0.025966873681297079 0 0.0018107899942375791 0.027227973684639573 0 0.00025803404948371463 0.028177125933187469 0 0.0015226861620506399 0.028962120688804039 0 0.00025803404948371463 0.028177125933187469 0 0.00047043908162878724 0.029605745674431794 0 0.0018107899942375791 0.027227973684639573 0 0.0015226861620506399 0.028962120688804039 0 0.00025803404948371463 0.028177125933187469 0 0.0033255150554337529 0.027160513501274158 0 0.0018107899942375791 0.027227973684639573 0 0.0015226861620506399 0.028962120688804039 0 0.0033255150554337529 0.027160513501274158 0 0.0015226861620506399 0.028962120688804039 0 0.00087823807710746336 0.030990750952340839 0 -0.0087079248338751327 -0.018067182355012631 0 -0.0097420049316590419 -0.016819679664689526 0 -0.0099687632849734132 -0.016773014149902749 0 -0.0079334233600658281 -0.018480986972935719 0 -0.0097420049316590419 -0.016819679664689526 0 -0.0087765172041474101 -0.017166197328361672 0 -0.0079317539316729156 -0.018239919404711549 0 -0.0086481691061141355 -0.017570285560950596 0 -0.0030140921364560777 0.0042045202141979161 0 -0.0051668025381798018 0.0055881291886938841 0 0.0015226861620506399 0.028962120688804039 0 0.00077851658491205503 0.030017499312491789 0 0.00087823807710746336 0.030990750952340839 0 0.0015226861620506399 0.028962120688804039 0 0.00077851658491205503 0.030017499312491789 0 0.00047043908162878724 0.029605745674431794 0 0.00077851658491205503 0.030017499312491789 0 0.00087823807710746336 0.030990750952340839 0 0.00028884398832677811 0.03048373503286959 0 -0.0097420049316590419 -0.016819679664689526 0 -0.0092861362158976977 -0.016564328043396599 0 -0.0097446348683621429 -0.016415355761870257 0 -0.0097420049316590419 -0.016819679664689526 0 -0.0099687632849734132 -0.016773014149902749 0 -0.0097446348683621429 -0.016415355761870257 0 -0.0097420049316590419 -0.016819679664689526 0 -0.0092861362158976977 -0.016564328043396599 0 -0.0087765172041474101 -0.017166197328361672 0 -0.0092861362158976977 -0.016564328043396599 0 -0.0087765172041474101 -0.017166197328361672 0 -0.0086801200921841296 -0.01649538806648429 0 -0.0079334233600658281 -0.018480986972935719 0 -0.0087765172041474101 -0.017166197328361672 0 -0.0081959670768929124 -0.017371338620302681 0 -0.0087765172041474101 -0.017166197328361672 0 -0.0081959670768929124 -0.017371338620302681 0 -0.0086801200921841296 -0.01649538806648429 0 -0.0074065190737464806 -0.016984029762704085 0 -0.0081959670768929124 -0.017371338620302681 0 -0.0086801200921841296 -0.01649538806648429 0 -0.0074065190737464806 -0.016984029762704085 0 -0.0075743617504098106 -0.017783414241202063 0 -0.0081959670768929124 -0.017371338620302681 0 -0.0079334233600658281 -0.018480986972935719 0 -0.0075743617504098106 -0.017783414241202063 0 -0.0081959670768929124 -0.017371338620302681 0 -0.00075341326692073647 0.027813942160169719 0 -0.0012172144651935947 0.02962911227836439 0 -0.001270531910057454 0.032635482539600962 0 -0.001377517271186622 0.032784716348650537 0 -0.0016847108595764492 0.032513519877570854 0 -0.00057250699412137113 0.02624181038396604 0 -0.0023490491793858631 0.028364056950500042 0 0.00025803404948371463 0.028177125933187469 0 -0.0023490491793858631 0.028364056950500042 0 0.00025803404948371463 0.028177125933187469 0 -0.00072456881960184362 0.030074485406591703 0 -0.00057250699412137113 0.02624181038396604 0 0.0011251534555438679 0.025966873681297079 0 0.00025803404948371463 0.028177125933187469 0 0.00047043908162878724 0.029605745674431794 0 0.00028884398832677811 0.03048373503286959 0 -0.00072456881960184362 0.030074485406591703 0 0.00025803404948371463 0.028177125933187469 0 0.00047043908162878724 0.029605745674431794 0 -0.00072456881960184362 0.030074485406591703 0 0.00077851658491205503 0.030017499312491789 0 0.00047043908162878724 0.029605745674431794 0 0.00028884398832677811 0.03048373503286959 0 0.00087823807710746336 0.030990750952340839 0 0.00021252042164548353 0.030945915693239699 0 -0.00031503014760821173 0.031465644910188238 0 0.00028884398832677811 0.03048373503286959 0 -0.00021662087044416032 0.030889425867681248 0 -0.00072456881960184362 0.030074485406591703 0 0.00087823807710746336 0.030990750952340839 0 0.00028884398832677811 0.03048373503286959 0 0.00021252042164548353 0.030945915693239699 0 0.00028884398832677811 0.03048373503286959 0 0.00021252042164548353 0.030945915693239699 0 -0.00021662087044416032 0.030889425867681248 0 0.00021252042164548353 0.030945915693239699 0 -0.00021662087044416032 0.030889425867681248 0 -0.00031503014760821173 0.031465644910188238 0 -0.00094162189679121628 0.03127837996123739 0 -0.00072456881960184362 0.030074485406591703 0 -0.0016823925517592949 0.031738093632182558 0 -0.00021662087044416032 0.030889425867681248 0 -0.00094162189679121628 0.03127837996123739 0 -0.00072456881960184362 0.030074485406591703 0 -0.0023490491793858631 0.028364056950500042 0 -0.00072456881960184362 0.030074485406591703 0 -0.0016823925517592949 0.031738093632182558 0 -0.0012601401357243752 0.032352526353456146 0 -0.0016847108595764492 0.032513519877570854 0 -0.0016823925517592949 0.031738093632182558 0 -0.0012172144651935947 0.02962911227836439 0 -0.001339545972249438 0.030310412183972572 0 -0.0013949891377702404 0.03207898990332695 0 -0.0014107398919382963 0.03214374788024052 0 -0.0016823925517592949 0.031738093632182558 0 -0.00094162189679121628 0.03127837996123739 0 -0.0016823925517592949 0.031738093632182558 0 -0.0012915029021237912 0.03199414178154663 0 -0.0014107398919382963 0.03214374788024052 0 -0.0012915029021237912 0.03199414178154663 0 -0.0011930875818596442 0.032357792524171002 0 -0.0014107398919382963 0.03214374788024052 0 -0.0016823925517592949 0.031738093632182558 0 -0.0012915029021237912 0.03199414178154663 0 -0.0099687632849734132 -0.016773014149902749 0 -0.011472174846166167 -0.014492546170701006 0 -0.010168542153127336 -0.015743002605240215 0 0.00087823807710746336 0.030990750952340839 0 -0.00031503014760821173 0.031465644910188238 0 -0.001061959034590623 0.032638911157317388 0 -0.00090729864327763663 0.032007220449719195 0 -0.00031503014760821173 0.031465644910188238 0 -0.001061959034590623 0.032638911157317388 0 -0.0051668025381798018 0.0055881291886938841 0 -0.0063081724279824333 0.003465664501847739 0 -0.0012915029021237912 0.03199414178154663 0 -0.00090729864327763663 0.032007220449719195 0 -0.0011930875818596442 0.032357792524171002 0 -0.0012915029021237912 0.03199414178154663 0 -0.00090729864327763663 0.032007220449719195 0 -0.00083136092662166694 0.031660785838717065 0 -0.00094162189679121628 0.03127837996123739 0 -0.0012915029021237912 0.03199414178154663 0 -0.00083136092662166694 0.031660785838717065 0 -0.00090729864327763663 0.032007220449719195 0 -0.00083136092662166694 0.031660785838717065 0 -0.00031503014760821173 0.031465644910188238 0 -0.00021662087044416032 0.030889425867681248 0 -0.00094162189679121628 0.03127837996123739 0 -0.00031503014760821173 0.031465644910188238 0 -0.00094162189679121628 0.03127837996123739 0 -0.00083136092662166694 0.031660785838717065 0 -0.00031503014760821173 0.031465644910188238 0 -0.011472174846166167 -0.014492546170701006 0 -0.010193936131942586 -0.015132668226117713 0 -0.010168542153127336 -0.015743002605240215 0 -0.011472174846166167 -0.014492546170701006 0 -0.010193936131942586 -0.015132668226117713 0 -0.010190968473878792 -0.014192845058422535 0 -0.00090729864327763663 0.032007220449719195 0 -0.001061959034590623 0.032638911157317388 0 -0.0011930875818596442 0.032357792524171002 0 -0.0012597092117182754 0.032299523060618708 0 -0.0011930875818596442 0.032357792524171002 0 -0.0013372995648924019 0.032202378559285053 0 -0.0063081724279824333 0.003465664501847739 0 -0.006020000459552562 0.0039173407321839967 0 -0.0072603144817185187 0.0085128139260685527 0 -0.0063081724279824333 0.003465664501847739 0 -0.0014055296616593174 0.032071530530409231 0 -0.0012597092117182754 0.032299523060618708 0 -0.0013372995648924019 0.032202378559285053 0 -0.0014107398919382963 0.03214374788024052 0 -0.0011930875818596442 0.032357792524171002 0 -0.0013372995648924019 0.032202378559285053 0 -0.0013163137728852635 0.032113391899967217 0 -0.0013379307184866963 0.03216693769578715 0 -0.0013372995648924019 0.032202378559285053 0 -0.0013379307184866963 0.03216693769578715 0 -0.0014107398919382963 0.03214374788024052 0 -0.0013372995648924019 0.032202378559285053 0 -0.0088208142531932248 -0.015669607555911416 0 -0.0078640409204559572 -0.015491113535907054 0 -0.009298441478439369 -0.014767273547002663 0 -0.0074065190737464806 -0.016984029762704085 0 -0.0078640409204559572 -0.015491113535907054 0 -0.0086801200921841296 -0.01649538806648429 0 -0.0088208142531932248 -0.015669607555911416 0 -0.0078640409204559572 -0.015491113535907054 0 -0.0086801200921841296 -0.01649538806648429 0 -0.0092861362158976977 -0.016564328043396599 0 -0.0086801200921841296 -0.01649538806648429 0 -0.0094852756802696406 -0.015896543604099624 0 -0.0088208142531932248 -0.015669607555911416 0 -0.0086801200921841296 -0.01649538806648429 0 -0.0094852756802696406 -0.015896543604099624 0 -0.0092861362158976977 -0.016564328043396599 0 -0.0094852756802696406 -0.015896543604099624 0 -0.0097446348683621429 -0.016415355761870257 0 -0.0099687632849734132 -0.016773014149902749 0 -0.0097446348683621429 -0.016415355761870257 0 -0.010168542153127336 -0.015743002605240215 0 -0.0094852756802696406 -0.015896543604099624 0 -0.0097446348683621429 -0.016415355761870257 0 -0.010168542153127336 -0.015743002605240215 0 -0.0094852756802696406 -0.015896543604099624 0 -0.010193936131942586 -0.015132668226117713 0 -0.009298441478439369 -0.014767273547002663 0 -0.0094852756802696406 -0.015896543604099624 0 -0.010193936131942586 -0.015132668226117713 0 -0.010168542153127336 -0.015743002605240215 0 -0.0088208142531932248 -0.015669607555911416 0 -0.0094852756802696406 -0.015896543604099624 0 -0.009298441478439369 -0.014767273547002663 0 -0.0097978897600577222 -0.012357843960745064 0 -0.009298441478439369 -0.014767273547002663 0 -0.010190968473878792 -0.014192845058422535 0 -0.0097978897600577222 -0.012357843960745064 0 -0.011472174846166167 -0.014492546170701006 0 -0.010190968473878792 -0.014192845058422535 0 -0.0097978897600577222 -0.012357843960745064 0 -0.009298441478439369 -0.014767273547002663 0 -0.0081102306364105523 -0.01383156322317043 0 -0.010193936131942586 -0.015132668226117713 0 -0.009298441478439369 -0.014767273547002663 0 -0.010190968473878792 -0.014192845058422535 0 -0.0078640409204559572 -0.015491113535907054 0 -0.009298441478439369 -0.014767273547002663 0 -0.0081102306364105523 -0.01383156322317043 0 -0.0078640409204559572 -0.015491113535907054 0 -0.0081102306364105523 -0.01383156322317043 0 -0.0064122362804689727 -0.014167489500811908 0 -0.0078640409204559572 -0.015491113535907054 0 -0.0064122362804689727 -0.014167489500811908 0 -0.0057923311325179371 -0.016070032447543493 0 -0.0074065190737464806 -0.016984029762704085 0 -0.0078640409204559572 -0.015491113535907054 0 -0.0057923311325179371 -0.016070032447543493 0 -0.0057923311325179371 -0.016070032447543493 0 -0.0043682492217944537 -0.015213345715664926 0 -0.0035959682562599687 -0.016926437747804127 0 -0.0049755980276861983 -0.013661986362752825 0 -0.0064122362804689727 -0.014167489500811908 0 -0.0043682492217944537 -0.015213345715664926 0 -0.0064122362804689727 -0.014167489500811908 0 -0.0057923311325179371 -0.016070032447543493 0 -0.0043682492217944537 -0.015213345715664926 0 -0.0043682492217944537 -0.015213345715664926 0 -0.0030935970060294326 -0.014287654334885323 0 -0.0025176679435772232 -0.016257635824256888 0 -0.0049755980276861983 -0.013661986362752825 0 -0.0043682492217944537 -0.015213345715664926 0 -0.0030935970060294326 -0.014287654334885323 0 -0.0030935970060294326 -0.014287654334885323 0 -0.0013102823589982394 -0.014415468547799111 0 -0.0025176679435772232 -0.016257635824256888 0 -0.0020537231497065257 -0.013353853204127759 0 -0.0030935970060294326 -0.014287654334885323 0 -0.0013102823589982394 -0.014415468547799111 0 -0.0015796918036747973 -0.014952625366229827 0 -0.0017790694300636946 -0.015299974411739222 0 -0.002321465075956577 -0.016184650468181547 0 -0.0025176679435772232 -0.016257635824256888 0 -0.0021668803848027946 -0.016510066393401777 0 -0.0025176679435772232 -0.016257635824256888 0 -0.0021668803848027946 -0.016510066393401777 0 -0.0022249199600066724 -0.017329346467979446 0 -0.0025176679435772232 -0.016257635824256888 0 -0.0035959682562599687 -0.016926437747804127 0 -0.0022249199600066724 -0.017329346467979446 0 -0.0043682492217944537 -0.015213345715664926 0 -0.0025176679435772232 -0.016257635824256888 0 -0.0035959682562599687 -0.016926437747804127 0 -0.0035959682562599687 -0.016926437747804127 0 -0.0029790816273849649 -0.018183106690972433 0 -0.004861008646023568 -0.017823030018387653 0 -0.0037468277373793719 -0.018195928201637623 0 -0.0052325708912306862 -0.017721921368959805 0 -0.0035959682562599687 -0.016926437747804127 0 -0.0029790816273849649 -0.018183106690972433 0 -0.0022249199600066724 -0.017329346467979446 0 -0.0041551040544858253 -0.018197934360644652 0 -0.0026870049217789589 -0.018727324339404303 0 -0.003678479457845849 -0.019513669842792503 0 -0.0041551040544858253 -0.018197934360644652 0 -0.0056837117638309847 -0.017649320176570841 0 -0.0050416630635859057 -0.019350549034522765 0 -0.0060111950197237899 -0.018735980951274191 0 -0.0068232952632392672 -0.018282532544793811 0 -0.0056837117638309847 -0.017649320176570841 0 -0.0060111950197237899 -0.018735980951274191 0 -0.0056837117638309847 -0.017649320176570841 0 -0.0050416630635859057 -0.019350549034522765 0 -0.0079334233600658281 -0.018480986972935719 0 -0.0068232952632392672 -0.018282532544793811 0 -0.006512159779842105 -0.019632264219814326 0 -0.0060111950197237899 -0.018735980951274191 0 -0.0068232952632392672 -0.018282532544793811 0 -0.006512159779842105 -0.019632264219814326 0 -0.0074065190737464806 -0.016984029762704085 0 -0.0075743617504098106 -0.017783414241202063 0 -0.0068232952632392672 -0.018282532544793811 0 -0.0074065190737464806 -0.016984029762704085 0 -0.0068232952632392672 -0.018282532544793811 0 -0.0056837117638309847 -0.017649320176570841 0 -0.0074065190737464806 -0.016984029762704085 0 -0.0057923311325179371 -0.016070032447543493 0 -0.004861008646023568 -0.017823030018387653 0 -0.0061800547528255648 -0.017417493201266458 0 -0.0052325708912306862 -0.017721921368959805 0 -0.0057923311325179371 -0.016070032447543493 0 -0.0035959682562599687 -0.016926437747804127 0 -0.004861008646023568 -0.017823030018387653 0 0.00036268893334133408 -0.017745055894966999 0 -0.00034826271325496145 -0.016632469455776906 0 -0.00048406339797162144 -0.0180494613876254 0 -0.00045382248175068692 -0.016049352138580743 0 8.4317424306076534e-05 -0.016150850146942033 0 -0.00034826271325496145 -0.016632469455776906 0 -0.00034826271325496145 -0.016632469455776906 0 -0.0010692401489770073 -0.017084810159745407 0 -0.0013201884687721658 -0.016102146076637829 0 -0.00058672410360570534 -0.015647478050571758 0 -0.00091099404410447348 -0.01524367288478368 0 -0.00045382248175068692 -0.016049352138580743 0 -0.00034826271325496145 -0.016632469455776906 0 -0.0012530366407762022 -0.016144481916501158 0 -0.00034826271325496145 -0.016632469455776906 0 -0.0010692401489770073 -0.017084810159745407 0 -0.00048406339797162144 -0.0180494613876254 0 -0.0010692401489770073 -0.017084810159745407 0 -0.0017053851021064919 -0.016859894557403447 0 -0.0014315485194652364 -0.017876801579591376 0 -0.0010692401489770073 -0.017084810159745407 0 -0.0017053851021064919 -0.016859894557403447 0 -0.0013201884687721658 -0.016102146076637829 0 -0.0017053851021064919 -0.016859894557403447 0 -0.0013201884687721658 -0.016102146076637829 0 -0.0019518446168590401 -0.016268392148924546 0 -0.0021124147743198118 -0.015720841271360655 0 -0.002321465075956577 -0.016184650468181547 0 -0.0019518446168590401 -0.016268392148924546 0 -0.002321465075956577 -0.016184650468181547 0 -0.0019518446168590401 -0.016268392148924546 0 -0.0021668803848027946 -0.016510066393401777 0 -0.0017053851021064919 -0.016859894557403447 0 -0.0021668803848027946 -0.016510066393401777 0 -0.0022249199600066724 -0.017329346467979446 0 -0.0017053851021064919 -0.016859894557403447 0 -0.0019518446168590401 -0.016268392148924546 0 -0.0021668803848027946 -0.016510066393401777 0 -0.0022249199600066724 -0.017329346467979446 0 -0.0019440956545063006 -0.018554981772336887 0 -0.0014315485194652364 -0.017876801579591376 0 -0.0037468277373793719 -0.018195928201637623 0 -0.0024732539257456194 -0.018626880952645655 0 -0.0029790816273849649 -0.018183106690972433 0 -0.0022249199600066724 -0.017329346467979446 0 -0.0019440956545063006 -0.018554981772336887 0 -0.0024732539257456194 -0.018626880952645655 0 -0.0018237733584363903 -0.018862834115740478 0 -0.0019440956545063006 -0.018554981772336887 0 -0.0014315485194652364 -0.017876801579591376 0 -0.0011926074782162162 -0.019250061242472256 0 -0.0017053851021064919 -0.016859894557403447 0 -0.0022249199600066724 -0.017329346467979446 0 -0.0014315485194652364 -0.017876801579591376 0 -0.0010692401489770073 -0.017084810159745407 0 -0.0014315485194652364 -0.017876801579591376 0 -0.00048406339797162144 -0.0180494613876254 0 -0.0014315485194652364 -0.017876801579591376 0 -0.00048406339797162144 -0.0180494613876254 0 -0.0011926074782162162 -0.019250061242472256 0 0.0004615477044462138 -0.01872097839403657 0 -0.00048406339797162144 -0.0180494613876254 0 -0.00012354350277963882 -0.019480900992531105 0 -0.00048406339797162144 -0.0180494613876254 0 -0.00012354350277963882 -0.019480900992531105 0 -0.0011926074782162162 -0.019250061242472256 0 -0.00057135224557441368 -0.020599661935398708 0 -0.0011926074782162162 -0.019250061242472256 0 -0.0015404638034111407 -0.021151439798770561 0 0.00019858204979220445 -0.020510449363352667 0 -0.00057135224557441368 -0.020599661935398708 0 -0.00012354350277963882 -0.019480900992531105 0 0.00019858204979220445 -0.020510449363352667 0 -3.8544842766449891e-05 -0.021354188100790806 0 -0.00057135224557441368 -0.020599661935398708 0 -0.00057135224557441368 -0.020599661935398708 0 -0.00012354350277963882 -0.019480900992531105 0 -0.0011926074782162162 -0.019250061242472256 0 -0.0011926074782162162 -0.019250061242472256 0 -0.0022931514219315763 -0.020074650988811261 0 -0.0015404638034111407 -0.021151439798770561 0 -0.0022931514219315763 -0.020074650988811261 0 -0.0024152236771834792 -0.021126991056588374 0 -0.0015404638034111407 -0.021151439798770561 0 -0.0026870049217789589 -0.018727324339404303 0 -0.0011926074782162162 -0.019250061242472256 0 -0.0022931514219315763 -0.020074650988811261 0 -0.0026870049217789589 -0.018727324339404303 0 -0.0022931514219315763 -0.020074650988811261 0 -0.003678479457845849 -0.019513669842792503 0 -0.0022931514219315763 -0.020074650988811261 0 -0.0032396705508746285 -0.020672513777713963 0 -0.003678479457845849 -0.019513669842792503 0 -0.0022931514219315763 -0.020074650988811261 0 -0.0032396705508746285 -0.020672513777713963 0 -0.0024152236771834792 -0.021126991056588374 0 -0.0032396705508746285 -0.020672513777713963 0 -0.003034108275970952 -0.021648008221510043 0 -0.0024152236771834792 -0.021126991056588374 0 -0.003034108275970952 -0.021648008221510043 0 -0.0037323911151506926 -0.022074805902664703 0 -0.0028654820106157942 -0.022542511460802574 0 -0.003034108275970952 -0.021648008221510043 0 -0.0020136954480472961 -0.022010607151674223 0 -0.0028654820106157942 -0.022542511460802574 0 -0.0020136954480472961 -0.022010607151674223 0 -0.0021680735520046715 -0.022646018190883587 0 -0.0028654820106157942 -0.022542511460802574 0 -0.0020136954480472961 -0.022010607151674223 0 -0.0012943316006754772 -0.02266695196424285 0 -0.0021680735520046715 -0.022646018190883587 0 -0.003034108275970952 -0.021648008221510043 0 -0.0020136954480472961 -0.022010607151674223 0 -0.0024152236771834792 -0.021126991056588374 0 -0.0020136954480472961 -0.022010607151674223 0 -0.0024152236771834792 -0.021126991056588374 0 -0.0015404638034111407 -0.021151439798770561 0 -0.0020136954480472961 -0.022010607151674223 0 -0.0015404638034111407 -0.021151439798770561 0 -0.00078874491690599337 -0.021957976230108003 0 -0.00057135224557441368 -0.020599661935398708 0 -0.0015404638034111407 -0.021151439798770561 0 -0.00078874491690599337 -0.021957976230108003 0 -0.0020136954480472961 -0.022010607151674223 0 -0.00078874491690599337 -0.021957976230108003 0 -0.0012943316006754772 -0.02266695196424285 0 -2.4168511134651324e-05 -0.022369264476353977 0 -0.00032567974978813132 -0.022936182218639592 0 -0.00078874491690599337 -0.021957976230108003 0 -3.8544842766449891e-05 -0.021354188100790806 0 -0.00057135224557441368 -0.020599661935398708 0 -0.00078874491690599337 -0.021957976230108003 0 -2.4168511134651324e-05 -0.022369264476353977 0 -3.8544842766449891e-05 -0.021354188100790806 0 -0.00078874491690599337 -0.021957976230108003 0 -0.0053259384209915685 -0.02065532461008987 0 -0.0064766981334050573 -0.020288389149199101 0 -0.0066179447713285988 -0.019194872254042181 0 -0.0053259384209915685 -0.02065532461008987 0 -0.006512159779842105 -0.019632264219814326 0 -0.0050416630635859057 -0.019350549034522765 0 -0.0061663435481216326 -0.019928586653221454 0 -0.0068027955963357659 -0.019307450876673439 0 -0.007571802883253923 -0.019790538012961392 0 -0.0064766981334050573 -0.020288389149199101 0 -0.0065842890742065924 -0.020621863716337833 0 -0.007571802883253923 -0.019790538012961392 0 -0.0069794447248454627 -0.01964642583404224 0 -0.0072461385518886919 -0.019303641588297633 0 -0.007571802883253923 -0.019790538012961392 0 -0.0064766981334050573 -0.020288389149199101 0 -0.0069794447248454627 -0.01964642583404224 0 -0.0064766981334050573 -0.020288389149199101 0 -0.0069794447248454627 -0.01964642583404224 0 -0.0066179447713285988 -0.019194872254042181 0 -0.0076154188818819534 -0.018804952059362692 0 -0.0081521404463659724 -0.017810485055370438 0 -0.0066179447713285988 -0.019194872254042181 0 -0.0079317539316729156 -0.018239919404711549 0 -0.0068027955963357659 -0.019307450876673439 0 -0.0076154188818819534 -0.018804952059362692 0 -0.0066179447713285988 -0.019194872254042181 0 -0.0072461385518886919 -0.019303641588297633 0 -0.0069794447248454627 -0.01964642583404224 0 -0.0066179447713285988 -0.019194872254042181 0 -0.0072461385518886919 -0.019303641588297633 0 -0.007571802883253923 -0.019790538012961392 0 -0.0076154188818819534 -0.018804952059362692 0 -0.0072461385518886919 -0.019303641588297633 0 -0.0060111950197237899 -0.018735980951274191 0 -0.006512159779842105 -0.019632264219814326 0 -0.0050416630635859057 -0.019350549034522765 0 -0.0041551040544858253 -0.018197934360644652 0 -0.0050416630635859057 -0.019350549034522765 0 -0.003678479457845849 -0.019513669842792503 0 -0.0050416630635859057 -0.019350549034522765 0 -0.003678479457845849 -0.019513669842792503 0 -0.0043554673658882563 -0.020493185074075396 0 -0.0032396705508746285 -0.020672513777713963 0 -0.003678479457845849 -0.019513669842792503 0 -0.0043554673658882563 -0.020493185074075396 0 -0.0053259384209915685 -0.02065532461008987 0 -0.0050416630635859057 -0.019350549034522765 0 -0.0043554673658882563 -0.020493185074075396 0 -0.0053259384209915685 -0.02065532461008987 0 -0.0043554673658882563 -0.020493185074075396 0 -0.0050343532321076578 -0.021332288029105216 0 -0.0043554673658882563 -0.020493185074075396 0 -0.0050343532321076578 -0.021332288029105216 0 -0.0039869976721165403 -0.021411052872705803 0 -0.0050343532321076578 -0.021332288029105216 0 -0.0039869976721165403 -0.021411052872705803 0 -0.0044682589303600686 -0.021982834360963221 0 -0.0032396705508746285 -0.020672513777713963 0 -0.0043554673658882563 -0.020493185074075396 0 -0.0039869976721165403 -0.021411052872705803 0 -0.0032396705508746285 -0.020672513777713963 0 -0.003034108275970952 -0.021648008221510043 0 -0.0039869976721165403 -0.021411052872705803 0 -0.0037323911151506926 -0.022074805902664703 0 -0.0043521804155761011 -0.022758913888688424 0 -0.0028654820106157942 -0.022542511460802574 0 -0.003034108275970952 -0.021648008221510043 0 -0.0039869976721165403 -0.021411052872705803 0 -0.0037323911151506926 -0.022074805902664703 0 -0.0039869976721165403 -0.021411052872705803 0 -0.0037323911151506926 -0.022074805902664703 0 -0.0044682589303600686 -0.021982834360963221 0 -0.0037323911151506926 -0.022074805902664703 0 -0.0044682589303600686 -0.021982834360963221 0 -0.0043521804155761011 -0.022758913888688424 0 -0.0050343532321076578 -0.021332288029105216 0 -0.0044682589303600686 -0.021982834360963221 0 -0.0052093762154183237 -0.022200319863799434 0 -0.0017469439083359543 -0.012987241175586252 0 -0.0022471645610914197 -0.0089224366241918152 0 -0.0044682589303600686 -0.021982834360963221 0 -0.0052093762154183237 -0.022200319863799434 0 -0.0043521804155761011 -0.022758913888688424 0 0.0075421266639672324 0.018776781954435082 0 0.0077040761186964804 0.016354349666164239 0 0.0098211750971727834 0.014702912611227465 0 0.0015542982193684669 0.00065126615648790245 0 0.0027400155238597088 0.0036672640640442187 0 -0.0050343532321076578 -0.021332288029105216 0 -0.0052093762154183237 -0.022200319863799434 0 -0.006100315453804084 -0.021571341144790458 0 -0.006100315453804084 -0.021571341144790458 0 -0.006425133277357266 -0.021408738118419035 0 -0.0057029367637899718 -0.022338536685653134 0 -0.0054710568584963992 -0.021904514504809042 0 -0.006100315453804084 -0.021571341144790458 0 -0.0057029367637899718 -0.022338536685653134 0 -0.0017469439083359543 -0.012987241175586252 0 -0.0018454436884874389 -0.014076302754423384 0 -0.0053259384209915685 -0.02065532461008987 0 -0.0064766981334050573 -0.020288389149199101 0 -0.0059252380063184156 -0.020991672738946057 0 -0.0050343532321076578 -0.021332288029105216 0 -0.006100315453804084 -0.021571341144790458 0 -0.0059252380063184156 -0.020991672738946057 0 -0.006100315453804084 -0.021571341144790458 0 -0.0059252380063184156 -0.020991672738946057 0 -0.006425133277357266 -0.021408738118419035 0 -0.0064766981334050573 -0.020288389149199101 0 -0.0059252380063184156 -0.020991672738946057 0 -0.0065842890742065924 -0.020621863716337833 0 -0.0053259384209915685 -0.02065532461008987 0 -0.0050343532321076578 -0.021332288029105216 0 -0.0059252380063184156 -0.020991672738946057 0 -0.00073686339830553995 0.0020775477124974082 0 0.0015542982193684669 0.00065126615648790245 0 0.0052423113143818369 0.01988824432891808 0 0.0054035676544485741 0.022999730646586305 0 0.0075421266639672324 0.018776781954435082 0 -0.007571802883253923 -0.019790538012961392 0 -0.0065842890742065924 -0.020621863716337833 0 -0.006425133277357266 -0.021408738118419035 0 -0.0059252380063184156 -0.020991672738946057 0 -0.0065842890742065924 -0.020621863716337833 0 -0.006425133277357266 -0.021408738118419035 0 0.0052423113143818369 0.01988824432891808 0 0.0075421266639672324 0.018776781954435082 0 0.0059220610944797905 0.017730000258590138 0 0.0075421266639672324 0.018776781954435082 0 0.0059220610944797905 0.017730000258590138 0 0.0077040761186964804 0.016354349666164239 0 0.0048747103983033868 0.016428343359686414 0 0.0059211688877405548 0.016230860249822465 0 0.0051841075246178495 0.014403083049605674 0 0.0077040761186964804 0.016354349666164239 0 0.0059211688877405548 0.016230860249822465 0 0.0051841075246178495 0.014403083049605674 0 0.0048747103983033868 0.016428343359686414 0 0.0059220610944797905 0.017730000258590138 0 0.0059211688877405548 0.016230860249822465 0 0.0059220610944797905 0.017730000258590138 0 0.0077040761186964804 0.016354349666164239 0 0.0059211688877405548 0.016230860249822465 0 0.0077040761186964804 0.016354349666164239 0 0.0098211750971727834 0.014702912611227465 0 0.0051841075246178495 0.014403083049605674 0 0.0027400155238597088 0.0036672640640442187 0 0.0032707131855684518 0.0087453930047217791 0 0.0017959570535478063 0.013433189278090417 0 0.0019203365240167735 0.013619091110298012 0 0.0013646214579870483 0.014043622248914958 0 0.0014041268885328377 0.013637459873076305 0 0.0017959570535478063 0.013433189278090417 0 0.0013646214579870483 0.014043622248914958 0 0.0017959570535478063 0.013433189278090417 0 0.0015442647467527057 0.013368632326672694 0 0.0018016877695123331 0.013185898308063937 0 0.0014041268885328377 0.013637459873076305 0 0.0015442647467527057 0.013368632326672694 0 0.0012391390539089385 0.013411700554281671 0 0.0014041268885328377 0.013637459873076305 0 0.0017959570535478063 0.013433189278090417 0 0.0015442647467527057 0.013368632326672694 0 0.0017959570535478063 0.013433189278090417 0 0.002175379513578885 0.013276544300280118 0 0.0021011468202584457 0.013118405986623206 0 0.0020332902982039408 0.012706914134171221 0 0.0019749255671433286 0.012451715859533001 0 0.0017959570535478063 0.013433189278090417 0 0.0019203365240167735 0.013619091110298012 0 0.002175379513578885 0.013276544300280118 0 0.0019203365240167735 0.013619091110298012 0 0.0020668622300488667 0.014020868812296163 0 0.0013646214579870483 0.014043622248914958 0 0.0019203365240167735 0.013619091110298012 0 0.0020668622300488667 0.014020868812296163 0 0.002175379513578885 0.013276544300280118 0 0.0021496838859726458 0.012995728489308741 0 0.0025105948399491594 0.013052231315290388 0 0.0025611223110647034 0.012767738403364528 0 -0.0054710568584963992 -0.021904514504809042 0 -0.0057029367637899718 -0.022338536685653134 0 -0.0049193081757215153 -0.022248014513429375 0 0.0027400155238597088 0.0036672640640442187 0 -0.0022471645610914197 -0.0089224366241918152 0 -0.0022471645610914197 -0.0089224366241918152 0 -0.003203366753383877 -0.011592426052592912 0 -0.0038194057852258289 -0.02256933268225696 0 -0.0028654820106157942 -0.022542511460802574 0 -0.0027846467424467738 -0.023277756245106581 0 0.0025105948399491594 0.013052231315290388 0 0.0025611223110647034 0.012767738403364528 0 0.0031315478856875304 0.012750098913766425 0 -0.0022471645610914197 -0.0089224366241918152 0 -0.00065553388127849292 -0.0070299671405829297 0 0.0025611223110647034 0.012767738403364528 0 0.0028288296779657024 0.012309845869629141 0 0.0031315478856875304 0.012750098913766425 0 0.0025611223110647034 0.012767738403364528 0 0.0024086641975540929 0.012591471612066443 0 0.0028288296779657024 0.012309845869629141 0 0.0027400155238597088 0.0036672640640442187 0 0.00084891207913684492 0.009231914589254259 0 0.0020668622300488667 0.014020868812296163 0 0.002175379513578885 0.013276544300280118 0 0.0024086641975540929 0.012591471612066443 0 0.002175379513578885 0.013276544300280118 0 0.0024086641975540929 0.012591471612066443 0 0.0018426929711909663 0.012266290425185695 0 0.0021496838859726458 0.012995728489308741 0 0.0025611223110647034 0.012767738403364528 0 0.0024086641975540929 0.012591471612066443 0 0.0024086641975540929 0.012591471612066443 0 0.0021817271548863156 0.012052298740028248 0 0.0018426929711909663 0.012266290425185695 0 0.0024086641975540929 0.012591471612066443 0 0.0021817271548863156 0.012052298740028248 0 0.0025949662788833558 0.012160282545227762 0 0.0021817271548863156 0.012052298740028248 0 0.0025949662788833558 0.012160282545227762 0 0.0023382878294900132 0.011742147088996149 0 0.0024086641975540929 0.012591471612066443 0 0.0028288296779657024 0.012309845869629141 0 0.0025949662788833558 0.012160282545227762 0 0.0025949662788833558 0.012160282545227762 0 0.0028571747844097183 0.011850459654237496 0 0.0023382878294900132 0.011742147088996149 0 0.0028288296779657024 0.012309845869629141 0 0.0025949662788833558 0.012160282545227762 0 0.0028571747844097183 0.011850459654237496 0 0.0028288296779657024 0.012309845869629141 0 0.0028571747844097183 0.011850459654237496 0 0.0032054782672769847 0.011827934028316705 0 0.0023011159579862227 0.011724375931566498 0 0.0021112825111815636 0.011800027948760734 0 0.0024867304003967985 0.011429803635160645 0 0.0025953311297128067 0.010776723450472548 0 0.0015055980019230033 0.010872711280260241 0 0.0025953311297128067 0.010776723450472548 0 0.0015055980019230033 0.010872711280260241 0 0.0023942623425947237 0.010135346112134009 0 0.0023011159579862227 0.011724375931566498 0 0.0018823794892760407 0.011448136676336856 0 0.0024867304003967985 0.011429803635160645 0 0.0025953311297128067 0.010776723450472548 0 0.003027792856346937 0.011277874376049596 0 0.0020479828114652165 0.01162893587310016 0 0.0020541786215498028 0.011655105940662514 0 0.0019694601044128708 0.011632518130799192 0 0.0021112825111815636 0.011800027948760734 0 0.0018571231991773495 0.011892872209980138 0 0.0021817271548863156 0.012052298740028248 0 0.0023382878294900132 0.011742147088996149 0 0.0016956286144743015 0.011560972705002901 0 0.0021405912917228593 0.011678150995680361 0 0.0020479828114652165 0.01162893587310016 0 0.0020541786215498028 0.011655105940662514 0 0.0018823794892760407 0.011448136676336856 0 0.0017129288747604607 0.011354203953444362 0 0.0020479828114652165 0.01162893587310016 0 0.0019694601044128708 0.011632518130799192 0 0.0019572516378960556 0.011580814273212782 0 0.0020485052366521284 0.012591267200734457 0 0.0016037229616512687 0.012738835345875931 0 0.0018486585814465148 0.012932204196523536 0 0.0018571231991773495 0.011892872209980138 0 0.0017129288747604607 0.011354203953444362 0 0.0020485052366521284 0.012591267200734457 0 0.0013738319192715207 0.012334654309718222 0 0.0016037229616512687 0.012738835345875931 0 0.0022659105244105067 0.012536471186708932 0 0.0013785477776072043 0.012314995370236406 0 0.0021677345841314569 0.0121210577198243 0 0.0018571231991773495 0.011892872209980138 0 0.0014362699778289636 0.012004214701201877 0 0.0013738319192715207 0.012334654309718222 0 0.0016037229616512687 0.012738835345875931 0 0.0011038198105099222 0.012794249933780776 0 0.0016037229616512687 0.012738835345875931 0 0.0014965452520156403 0.013075078360419597 0 0.0018486585814465148 0.012932204196523536 0 0.0014965452520156403 0.013075078360419597 0 0.0018016877695123331 0.013185898308063937 0 0.0018486585814465148 0.012932204196523536 0 0.0016037229616512687 0.012738835345875931 0 0.0014965452520156403 0.013075078360419597 0 0.0011038198105099222 0.012794249933780776 0 0.0015442647467527057 0.013368632326672694 0 0.0014965452520156403 0.013075078360419597 0 0.0012391390539089385 0.013411700554281671 0 0.0015442647467527057 0.013368632326672694 0 0.0014965452520156403 0.013075078360419597 0 0.0018016877695123331 0.013185898308063937 0 0.0018571231991773495 0.011892872209980138 0 0.0019749255671433286 0.012451715859533001 0 0.0021817271548863156 0.012052298740028248 0 0.0016956286144743015 0.011560972705002901 0 0.0018426929711909663 0.012266290425185695 0 0.0017959570535478063 0.013433189278090417 0 0.0018016877695123331 0.013185898308063937 0 0.0021011468202584457 0.013118405986623206 0 0.0018016877695123331 0.013185898308063937 0 0.0021011468202584457 0.013118405986623206 0 0.0018486585814465148 0.012932204196523536 0 0.0020485052366521284 0.012591267200734457 0 0.0021011468202584457 0.013118405986623206 0 0.0018486585814465148 0.012932204196523536 0 -0.00032567974978813132 -0.022936182218639592 0 -0.00046448474813481672 -0.023524497250318663 0 -0.0010679673999743711 -0.023384952414903494 0 -0.00032567974978813132 -0.022936182218639592 0 -0.0012943316006754772 -0.02266695196424285 0 -0.0010679673999743711 -0.023384952414903494 0 -0.00032567974978813132 -0.022936182218639592 0 -0.00078874491690599337 -0.021957976230108003 0 -0.0012943316006754772 -0.02266695196424285 0 -0.0012943316006754772 -0.02266695196424285 0 -0.0010679673999743711 -0.023384952414903494 0 -0.0018854714354690576 -0.023167712463604738 0 -0.0010679673999743711 -0.023384952414903494 0 -0.0018854714354690576 -0.023167712463604738 0 -0.0015936542992900564 -0.023819960659180624 0 -0.0018854714354690576 -0.023167712463604738 0 -0.0027846467424467738 -0.023277756245106581 0 -0.0015936542992900564 -0.023819960659180624 0 0.0031315478856875304 0.012750098913766425 0 0.0033655685118536001 0.012230209230965527 0 0.0046354890176701349 0.011934298306290539 0 -0.00065553388127849292 -0.0070299671405829297 0 0.00098157697532315217 -0.0069214590468934757 0 -0.0018854714354690576 -0.023167712463604738 0 -0.0021680735520046715 -0.022646018190883587 0 -0.0027846467424467738 -0.023277756245106581 0 -0.0012943316006754772 -0.02266695196424285 0 -0.0018854714354690576 -0.023167712463604738 0 -0.0021680735520046715 -0.022646018190883587 0 -0.0021680735520046715 -0.022646018190883587 0 -0.0028654820106157942 -0.022542511460802574 0 -0.0027846467424467738 -0.023277756245106581 0 0.0028288296779657024 0.012309845869629141 0 0.0031315478856875304 0.012750098913766425 0 0.0033655685118536001 0.012230209230965527 0 0.0028288296779657024 0.012309845869629141 0 0.0033655685118536001 0.012230209230965527 0 0.0032054782672769847 0.011827934028316705 0 0.0033655685118536001 0.012230209230965527 0 0.0032054782672769847 0.011827934028316705 0 0.0038025198452963579 0.011885916568412079 0 0.0032054782672769847 0.011827934028316705 0 0.003027792856346937 0.011277874376049596 0 0.0038025198452963579 0.011885916568412079 0 0.0023011159579862227 0.011724375931566498 0 0.0024869343058208232 0.011795323022500061 0 0.0024867304003967985 0.011429803635160645 0 0.0032054782672769847 0.011827934028316705 0 0.003027792856346937 0.011277874376049596 0 0.003027792856346937 0.011277874376049596 0 0.0034038944914872339 0.010820460202140027 0 0.0038025198452963579 0.011885916568412079 0 0.0025953311297128067 0.010776723450472548 0 0.003027792856346937 0.011277874376049596 0 0.0034038944914872339 0.010820460202140027 0 0.0025953311297128067 0.010776723450472548 0 0.0034038944914872339 0.010820460202140027 0 0.0030354948093591649 0.01031595966110878 0 0.0029262458551385906 0.010161057059029905 0 0.0028862141459537046 0.0088244832522315284 0 0.0034038944914872339 0.010820460202140027 0 0.0038025198452963579 0.011885916568412079 0 0.0042886463677247449 0.010512701395377418 0 0.0033655685118536001 0.012230209230965527 0 0.0046354890176701349 0.011934298306290539 0 0.0038025198452963579 0.011885916568412079 0 0.0046354890176701349 0.011934298306290539 0 0.0038025198452963579 0.011885916568412079 0 0.0043919834231191243 0.0091661728871143336 0 0.00098157697532315217 -0.0069214590468934757 0 0.002462486897961177 -0.0076896275222643464 0 -0.0010679673999743711 -0.023384952414903494 0 -0.0015936542992900564 -0.023819960659180624 0 -0.0006520096034928431 -0.024148190966467451 0 0.0046354890176701349 0.011934298306290539 0 0.0069823195154010923 0.010246190117367115 0 0.0043919834231191243 0.0091661728871143336 0 -0.0002033714030478697 -0.023789405705842134 0 -0.00046448474813481672 -0.023524497250318663 0 -0.0006520096034928431 -0.024148190966467451 0 -0.00046448474813481672 -0.023524497250318663 0 -0.0010679673999743711 -0.023384952414903494 0 -0.0006520096034928431 -0.024148190966467451 0 0.0075564963481352231 0.0065048589005917545 0 0.0064849602116866028 0.0067747813846166854 0 0.0068224667628490766 0.0055525253821274104 0 0.0064849602116866028 0.0067747813846166854 0 0.0061723709987253151 0.0059392303593807493 0 0.0068224667628490766 0.0055525253821274104 0 0.0075564963481352231 0.0065048589005917545 0 0.0064849602116866028 0.0067747813846166854 0 0.0067508143897208857 0.008082321926413517 0 0.0081169680086172463 0.0079046190697909819 0 0.0075564963481352231 0.0065048589005917545 0 0.0067508143897208857 0.008082321926413517 0 0.0081169680086172463 0.0079046190697909819 0 0.0069823195154010923 0.010246190117367115 0 0.0067508143897208857 0.008082321926413517 0 0.0069823195154010923 0.010246190117367115 0 0.0067508143897208857 0.008082321926413517 0 0.0043919834231191243 0.0091661728871143336 0 0.0064849602116866028 0.0067747813846166854 0 0.0067508143897208857 0.008082321926413517 0 0.0043919834231191243 0.0091661728871143336 0 0.0022496918836804837 0.0054255367851943574 0 0.0028862141459537046 0.0088244832522315284 0 0.0064849602116866028 0.0067747813846166854 0 0.0052988798239450158 0.0063387605880540453 0 0.0043919834231191243 0.0091661728871143336 0 0.0048641541257117863 0.0089934538402055703 0 0.0044349320494172168 0.0093612441804069978 0 0.0042886463677247449 0.010512701395377418 0 0.0064849602116866028 0.0067747813846166854 0 0.0052988798239450158 0.0063387605880540453 0 0.0061723709987253151 0.0059392303593807493 0 0.0048641541257117863 0.0089934538402055703 0 0.0046862321562799476 0.0089615422996765851 0 0.0046087936403144038 0.0090889354385624774 0 0.0048641541257117863 0.0089934538402055703 0 0.0046862321562799476 0.0089615422996765851 0 0.0045692332298160618 0.0087157728651932193 0 0.0046862321562799476 0.0089615422996765851 0 0.0044731486657190031 0.009006460538378093 0 0.0045692332298160618 0.0087157728651932193 0 0.0046862321562799476 0.0089615422996765851 0 0.0044731486657190031 0.009006460538378093 0 0.0046087936403144038 0.0090889354385624774 0 0.0048641541257117863 0.0089934538402055703 0 0.0046087936403144038 0.0090889354385624774 0 0.0044349320494172168 0.0093612441804069978 0 0.0044731486657190031 0.009006460538378093 0 0.0046087936403144038 0.0090889354385624774 0 0.0044349320494172168 0.0093612441804069978 0 0.0042292331241931746 0.0091368725912686528 0 0.0042254926677254322 0.008832836343354699 0 0.0037147940111851695 0.0089182421735199396 0 0.0044731486657190031 0.009006460538378093 0 0.0042292331241931746 0.0091368725912686528 0 0.0044349320494172168 0.0093612441804069978 0 0.0044731486657190031 0.009006460538378093 0 0.0042292331241931746 0.0091368725912686528 0 0.0042254926677254322 0.008832836343354699 0 0.0044731486657190031 0.009006460538378093 0 0.0042254926677254322 0.008832836343354699 0 0.0045692332298160618 0.0087157728651932193 0 0.0037147940111851695 0.0089182421735199396 0 0.0039064740096417094 0.0093642144776395105 0 0.0033666021038729148 0.0093681317573947528 0 0.0042292331241931746 0.0091368725912686528 0 0.0037147940111851695 0.0089182421735199396 0 0.0039064740096417094 0.0093642144776395105 0 0.0039064740096417094 0.0093642144776395105 0 0.0037369983339759971 0.010064796731154449 0 0.0033666021038729148 0.0093681317573947528 0 0.0042292331241931746 0.0091368725912686528 0 0.0039064740096417094 0.0093642144776395105 0 0.0044349320494172168 0.0093612441804069978 0 0.0039064740096417094 0.0093642144776395105 0 0.0044349320494172168 0.0093612441804069978 0 0.0037369983339759971 0.010064796731154449 0 0.0034038944914872339 0.010820460202140027 0 0.0042886463677247449 0.010512701395377418 0 0.0037369983339759971 0.010064796731154449 0 0.0044349320494172168 0.0093612441804069978 0 0.0042886463677247449 0.010512701395377418 0 0.0037369983339759971 0.010064796731154449 0 0.0037369983339759971 0.010064796731154449 0 0.0030636739879306998 0.0097876259484596471 0 0.0033666021038729148 0.0093681317573947528 0 0.0037369983339759971 0.010064796731154449 0 0.0030354948093591649 0.01031595966110878 0 0.0030636739879306998 0.0097876259484596471 0 0.0034038944914872339 0.010820460202140027 0 0.0037369983339759971 0.010064796731154449 0 0.0030354948093591649 0.01031595966110878 0 0.0030354948093591649 0.01031595966110878 0 0.0030636739879306998 0.0097876259484596471 0 0.0023942623425947237 0.010135346112134009 0 0.0026732842582866834 0.0090501877062075051 0 0.0023764584536074759 0.008417646855251433 0 0.0030636739879306998 0.0097876259484596471 0 0.0029708822998600398 0.008999006410861982 0 0.0023799754506918552 0.0084342697951810871 0 0.0030636739879306998 0.0097876259484596471 0 0.0033666021038729148 0.0093681317573947528 0 0.0029708822998600398 0.008999006410861982 0 0.0037147940111851695 0.0089182421735199396 0 0.0033666021038729148 0.0093681317573947528 0 0.0029708822998600398 0.008999006410861982 0 0.0029708822998600398 0.008999006410861982 0 0.0026305528781740885 0.007959511530841264 0 0.0023799754506918552 0.0084342697951810871 0 0.0029708822998600398 0.008999006410861982 0 0.0033933789959979606 0.0083371294372320461 0 0.0026421817110363443 0.0076962336893751883 0 0.0026145516917318924 0.0080959717092757236 0 0.0024640037683473807 0.0075391295707304875 0 0.0037147940111851695 0.0089182421735199396 0 0.0029708822998600398 0.008999006410861982 0 0.0033933789959979606 0.0083371294372320461 0 0.0033933789959979606 0.0083371294372320461 0 0.0026421817110363443 0.0076962336893751883 0 0.0035705792965848942 0.0076831415355430735 0 0.0023376902175612571 0.0063860321749764212 0 0.0026421817110363443 0.0076962336893751883 0 0.003160037360909718 0.00697116197237927 0 0.0026421817110363443 0.0076962336893751883 0 0.003160037360909718 0.00697116197237927 0 0.0035705792965848942 0.0076831415355430735 0 0.003160037360909718 0.00697116197237927 0 0.0035705792965848942 0.0076831415355430735 0 0.0041882123733121236 0.0070637027062369438 0 0.0035705792965848942 0.0076831415355430735 0 0.0041882123733121236 0.0070637027062369438 0 0.0043409475686761985 0.0079078559923739522 0 0.0043409475686761985 0.0079078559923739522 0 0.0040436903359906675 0.0083697208536951274 0 0.0046797224137124782 0.0083851762440170612 0 0.0033933789959979606 0.0083371294372320461 0 0.0035705792965848942 0.0076831415355430735 0 0.0040436903359906675 0.0083697208536951274 0 0.0035705792965848942 0.0076831415355430735 0 0.0043409475686761985 0.0079078559923739522 0 0.0040436903359906675 0.0083697208536951274 0 0.0042254926677254322 0.008832836343354699 0 0.0037147940111851695 0.0089182421735199396 0 0.0040436903359906675 0.0083697208536951274 0 0.0037147940111851695 0.0089182421735199396 0 0.0033933789959979606 0.0083371294372320461 0 0.0040436903359906675 0.0083697208536951274 0 0.0042254926677254322 0.008832836343354699 0 0.0040436903359906675 0.0083697208536951274 0 0.0045692332298160618 0.0087157728651932193 0 0.0040436903359906675 0.0083697208536951274 0 0.0046797224137124782 0.0083851762440170612 0 0.0045692332298160618 0.0087157728651932193 0 0.0020861243608051678 0.0046750505327108824 0 0.0020708771661137135 0.004713501732594225 0 0.0020624401618564996 0.0047059407814724168 0 0.0022496918836804837 0.0054255367851943574 0 0.0017078710137027814 0.0038762900049036974 0 0.0048641541257117863 0.0089934538402055703 0 0.0046797224137124782 0.0083851762440170612 0 0.0052168647857806652 0.0080332690092261398 0 0.0048641541257117863 0.0089934538402055703 0 0.0046797224137124782 0.0083851762440170612 0 0.0045692332298160618 0.0087157728651932193 0 0.0022496918836804837 0.0054255367851943574 0 0.0020263076493396894 0.0041116187651542681 0 0.0052988798239450158 0.0063387605880540453 0 0.0061723709987253151 0.0059392303593807493 0 0.0062133199144183303 0.0049957856255827878 0 0.0017078710137027814 0.0038762900049036974 0 0.0020263076493396894 0.0041116187651542681 0 0.0043409475686761985 0.0079078559923739522 0 0.0046797224137124782 0.0083851762440170612 0 0.0052168647857806652 0.0080332690092261398 0 -0.0024866279469379126 -0.00064185766741305214 0 -0.0022337810333106917 -0.0014938886333431779 0 -0.0021290416923175444 -0.00093051979258062221 0 -0.0016519387728447927 -0.0010249388490597405 0 -0.0022337810333106917 -0.0014938886333431779 0 -0.0021290416923175444 -0.00093051979258062221 0 0.0041882123733121236 0.0070637027062369438 0 0.0043409475686761985 0.0079078559923739522 0 0.0052168647857806652 0.0080332690092261398 0 0.0012672894054819013 0.0033965462868892778 0 0.0017078710137027814 0.0038762900049036974 0 -0.0024866279469379126 -0.00064185766741305214 0 -0.0023088249669717393 -0.0010931287173008898 0 -0.002558605108484865 -0.00090760988238925528 0 0.001216137936085764 0.001709547223035517 0 0.0017078710137027814 0.0038762900049036974 0 0.0023716748227763378 0.0015450418345562991 0 0.0020263076493396894 0.0041116187651542681 0 -0.0027983365916081585 -0.00062143146640101512 0 -0.0026291758380448454 -0.0006306644747326362 0 -0.002558605108484865 -0.00090760988238925528 0 0.0027025955877062798 -0.00093596936068726796 0 0.0023716748227763378 0.0015450418345562991 0 0.0081493528962154442 0.0048071039928819842 0 0.0071270466977885463 0.0036404048824422047 0 0.0071029874040944045 0.0046154018591114581 0 0.0081493528962154442 0.0048071039928819842 0 0.0071029874040944045 0.0046154018591114581 0 0.0068224667628490766 0.0055525253821274104 0 0.0081493528962154442 0.0048071039928819842 0 0.0075564963481352231 0.0065048589005917545 0 0.0068224667628490766 0.0055525253821274104 0 0.0071029874040944045 0.0046154018591114581 0 0.0061999576933769538 0.0049859559320627181 0 0.0068224667628490766 0.0055525253821274104 0 -0.0023088249669717393 -0.0010931287173008898 0 -0.002558605108484865 -0.00090760988238925528 0 -0.0023723147167891249 -0.0011508866565831208 0 0.0071270466977885463 0.0036404048824422047 0 0.0071029874040944045 0.0046154018591114581 0 0.0061999576933769538 0.0049859559320627181 0 0.0061723709987253151 0.0059392303593807493 0 0.0062133199144183303 0.0049957856255827878 0 0.0068224667628490766 0.0055525253821274104 0 0.0020263076493396894 0.0041116187651542681 0 0.00237026021444801 0.0043505881741145733 0 0.00089883503294375272 0.009495881157914202 0 0.00029644763754186921 0.0090574453453709045 0 0.00077094181436508527 0.0085629872536840471 0 0.001316756700134861 0.009936044451682953 0 0.0017129288747604607 0.011354203953444362 0 0.00089883503294375272 0.009495881157914202 0 0.0015638764662886816 0.0093446146905759118 0 0.00077094181436508527 0.0085629872536840471 0 0.00089883503294375272 0.009495881157914202 0 0.00029644763754186921 0.0090574453453709045 0 0.00058765108161832854 0.0103651235001912 0 0.0025887100971297618 0.010918519517405911 0 0.0016891502056176242 0.011193640241721566 0 0.0018793146868738115 0.011966725349349989 0 0.0025887100971297618 0.010918519517405911 0 0.0016891502056176242 0.011193640241721566 0 0.0015192028676319328 0.010522137410730345 0 0.0013785477776072043 0.012314995370236406 0 0.0014566555879985479 0.0117491542147469 0 0.0021677345841314569 0.0121210577198243 0 0.0025887100971297618 0.010918519517405911 0 0.0018793146868738115 0.011966725349349989 0 0.0029605542027280663 0.012527238932519637 0 0.0016675909571255841 0.011501620219303744 0 0.0017129288747604607 0.011354203953444362 0 0.00089883503294375272 0.009495881157914202 0 0.00058765108161832854 0.0103651235001912 0 0.001330767531180201 0.010103289267514028 0 0.0015055980019230033 0.010872711280260241 0 0.00058765108161832854 0.0103651235001912 0 0.001330767531180201 0.010103289267514028 0 0.001330767531180201 0.010103289267514028 0 0.0023942623425947237 0.010135346112134009 0 0.0015638764662886816 0.0093446146905759118 0 0.0015055980019230033 0.010872711280260241 0 0.001330767531180201 0.010103289267514028 0 0.0023942623425947237 0.010135346112134009 0 0.0030636739879306998 0.0097876259484596471 0 0.0023942623425947237 0.010135346112134009 0 0.0022638654736239338 0.0092658780973423425 0 0.0025953311297128067 0.010776723450472548 0 0.0030354948093591649 0.01031595966110878 0 0.0023942623425947237 0.010135346112134009 0 0.0018769633533565729 0.0095326143988421867 0 0.0015444865778138101 0.0091797809167135525 0 0.0030636739879306998 0.0097876259484596471 0 0.0022638654736239338 0.0092658780973423425 0 0.0024395548387576098 0.0084955175189218666 0 0.0023942623425947237 0.010135346112134009 0 0.0022638654736239338 0.0092658780973423425 0 0.0015812762446830568 0.0092551109267218507 0 0.00089883503294375272 0.009495881157914202 0 0.001330767531180201 0.010103289267514028 0 0.0015638764662886816 0.0093446146905759118 0 0.0022638654736239338 0.0092658780973423425 0 0.0015812762446830568 0.0092551109267218507 0 0.0018538985695011462 0.0086941194352708716 0 0.0015444865778138101 0.0091797809167135525 0 0.0010109386103102176 0.0085851097245045766 0 0.0018538985695011462 0.0086941194352708716 0 0.0016343516549154912 0.0081343552287130756 0 0.00085304201908725319 0.0084396391166626505 0 0.0015812762446830568 0.0092551109267218507 0 0.0018538985695011462 0.0086941194352708716 0 0.00085304201908725319 0.0084396391166626505 0 0.0018538985695011462 0.0086941194352708716 0 0.0024395548387576098 0.0084955175189218666 0 0.0016343516549154912 0.0081343552287130756 0 0.0022638654736239338 0.0092658780973423425 0 0.0018538985695011462 0.0086941194352708716 0 0.0024395548387576098 0.0084955175189218666 0 0.0018531641838309733 0.0073139813348160288 0 0.0023803725075774809 0.0070560819228197413 0 0.0026305528781740885 0.007959511530841264 0 0.0019133303958269764 0.0074358102234325478 0 0.0023764584536074759 0.008417646855251433 0 0.0018504460291889665 0.0073377658537061964 0 0.0024395548387576098 0.0084955175189218666 0 0.0016343516549154912 0.0081343552287130756 0 0.0018531641838309733 0.0073139813348160288 0 0.0026305528781740885 0.007959511530841264 0 0.0023799754506918552 0.0084342697951810871 0 0.0021174686721614207 0.0063116268643477235 0 0.0024640037683473807 0.0075391295707304875 0 0.0018504460291889665 0.0073377658537061964 0 0.0016343516549154912 0.0081343552287130756 0 0.0014751180354614084 0.0075986039215393767 0 0.0016343516549154912 0.0081343552287130756 0 0.0010420955732821989 0.0077396380991723536 0 0.00085304201908725319 0.0084396391166626505 0 0.0016343516549154912 0.0081343552287130756 0 0.0014751180354614084 0.0075986039215393767 0 0.0010420955732821989 0.0077396380991723536 0 0.0012951064816998695 0.0072994448017263784 0 0.0014751180354614084 0.0075986039215393767 0 0.0010420955732821989 0.0077396380991723536 0 0.0010109386103102176 0.0085851097245045766 0 0.00078009968195601892 0.008245081667962291 0 0.0010420955732821989 0.0077396380991723536 0 0.00085304201908725319 0.0084396391166626505 0 0.00019501812860615221 0.0076757078647052565 0 0.00090791519216108796 0.0070945179065596614 0 0.0010420955732821989 0.0077396380991723536 0 0.00019501812860615221 0.0076757078647052565 0 0.00029644763754186921 0.0090574453453709045 0 0.00077094181436508527 0.0085629872536840471 0 3.1865708146512975e-06 0.0077861425218111744 0 0.0025887100971297618 0.010918519517405911 0 0.00225300148528577 0.009282305855346798 0 0.0015192028676319328 0.010522137410730345 0 0.001316756700134861 0.009936044451682953 0 0.00078009968195601892 0.008245081667962291 0 0.00225300148528577 0.009282305855346798 0 0.00080957179494234907 0.0098446114547467191 0 0.00052032664105458788 0.0088959571051162277 0 0.00080957179494234907 0.0098446114547467191 0 0.00052032664105458788 0.0088959571051162277 0 -0.00031927865339837982 0.0097880629787458293 0 -0.00071996386500937414 0.0085270272664156963 0 0.00052032664105458788 0.0088959571051162277 0 -0.00031927865339837982 0.0097880629787458293 0 0.00080957179494234907 0.0098446114547467191 0 0.00032196853886643374 0.010695642147579525 0 -0.00031927865339837982 0.0097880629787458293 0 0.00225300148528577 0.009282305855346798 0 0.00080957179494234907 0.0098446114547467191 0 0.0015192028676319328 0.010522137410730345 0 0.00080957179494234907 0.0098446114547467191 0 0.00032196853886643374 0.010695642147579525 0 0.0015192028676319328 0.010522137410730345 0 0.0016675909571255841 0.011501620219303744 0 0.0014384710514790228 0.011433192622026451 0 0.00032196853886643374 0.010695642147579525 0 0.0015192028676319328 0.010522137410730345 0 0.00075863926612132026 0.011375248614822239 0 0.0016891502056176242 0.011193640241721566 0 0.0018793146868738115 0.011966725349349989 0 0.00075863926612132026 0.011375248614822239 0 0.0016891502056176242 0.011193640241721566 0 0.0015192028676319328 0.010522137410730345 0 0.00075863926612132026 0.011375248614822239 0 0.00032196853886643374 0.010695642147579525 0 0.00075863926612132026 0.011375248614822239 0 2.1369294165361149e-05 0.011486590002445611 0 0.00075863926612132026 0.011375248614822239 0 2.1369294165361149e-05 0.011486590002445611 0 0.00044558796584408977 0.012086598207001635 0 2.1369294165361149e-05 0.011486590002445611 0 0.00044558796584408977 0.012086598207001635 0 -0.00038046903036002713 0.012061863981431754 0 0.0013785477776072043 0.012314995370236406 0 0.00044558796584408977 0.012086598207001635 0 0.00099204701094583042 0.011871789304260959 0 0.0014566555879985479 0.0117491542147469 0 0.00075863926612132026 0.011375248614822239 0 0.00099204701094583042 0.011871789304260959 0 0.00075863926612132026 0.011375248614822239 0 0.00044558796584408977 0.012086598207001635 0 0.00099204701094583042 0.011871789304260959 0 0.0014362699778289636 0.012004214701201877 0 0.0010931625213489911 0.011979014212815119 0 0.0013785477776072043 0.012314995370236406 0 0.0014566555879985479 0.0117491542147469 0 0.00099204701094583042 0.011871789304260959 0 -0.0010910904111625687 0.011910369609695227 0 -0.00038046903036002713 0.012061863981431754 0 -0.00081633280515114434 0.012504505727524663 0 -0.0010910904111625687 0.011910369609695227 0 -0.00038046903036002713 0.012061863981431754 0 -0.00081030042969944672 0.010980539082143852 0 2.1369294165361149e-05 0.011486590002445611 0 -0.00038046903036002713 0.012061863981431754 0 -0.00081030042969944672 0.010980539082143852 0 0.00032196853886643374 0.010695642147579525 0 2.1369294165361149e-05 0.011486590002445611 0 -0.00081030042969944672 0.010980539082143852 0 -0.0010910904111625687 0.011910369609695227 0 -0.00081030042969944672 0.010980539082143852 0 -0.0013667932242098339 0.011399181220041825 0 -0.0013829186215813887 0.010698499303663542 0 -0.0017544424844231001 0.010351096620484267 0 -0.00081030042969944672 0.010980539082143852 0 -0.0013957331380244711 0.010944218797772106 0 -0.0013667932242098339 0.011399181220041825 0 -0.00081030042969944672 0.010980539082143852 0 -0.00031927865339837982 0.0097880629787458293 0 -0.0020022175699409396 0.0095075964379171228 0 0.00032196853886643374 0.010695642147579525 0 -0.00081030042969944672 0.010980539082143852 0 -0.00031927865339837982 0.0097880629787458293 0 -0.00071996386500937414 0.0085270272664156963 0 -0.00031927865339837982 0.0097880629787458293 0 -0.0020022175699409396 0.0095075964379171228 0 -0.0023802798981869423 0.0098328532266326214 0 -0.0017544424844231001 0.010351096620484267 0 -0.0017767756767620723 0.010911984759266484 0 -0.0013957331380244711 0.010944218797772106 0 -0.0019114945586599344 0.011117495269120795 0 -0.0019114945586599344 0.011117495269120795 0 -0.001715115967866377 0.01128332431441036 0 -0.0021234761458761254 0.01143082070457929 0 -0.0013957331380244711 0.010944218797772106 0 -0.001715115967866377 0.01128332431441036 0 -0.0013667932242098339 0.011399181220041825 0 -0.0013957331380244711 0.010944218797772106 0 -0.0019114945586599344 0.011117495269120795 0 -0.001715115967866377 0.01128332431441036 0 -0.0021975980957941632 0.011131711796986856 0 -0.0021613754014162372 0.011288046157490234 0 -0.002277504000060509 0.011310336502690171 0 -0.0020251675472860668 0.011015164002925678 0 -0.0019114945586599344 0.011117495269120795 0 -0.0020768093523057789 0.011133192441668655 0 -0.0021975980957941632 0.011131711796986856 0 -0.0020768093523057789 0.011133192441668655 0 -0.0021613754014162372 0.011288046157490234 0 -0.0019114945586599344 0.011117495269120795 0 -0.0020768093523057789 0.011133192441668655 0 -0.0021613754014162372 0.011288046157490234 0 -0.0019114945586599344 0.011117495269120795 0 -0.0021613754014162372 0.011288046157490234 0 -0.0021234761458761254 0.01143082070457929 0 -0.0021613754014162372 0.011288046157490234 0 -0.0021976223392436395 0.011438710546146967 0 -0.0021234761458761254 0.01143082070457929 0 -0.0021613754014162372 0.011288046157490234 0 -0.0022348024796427874 0.01138761178306141 0 -0.002277504000060509 0.011310336502690171 0 -0.0021976223392436395 0.011438710546146967 0 -0.0022348024796427874 0.01138761178306141 0 -0.0022373551037831192 0.011505012425089264 0 -0.0021613754014162372 0.011288046157490234 0 -0.0021976223392436395 0.011438710546146967 0 -0.0022348024796427874 0.01138761178306141 0 -0.0023124734662051021 0.011419993859487604 0 -0.0022348024796427874 0.01138761178306141 0 -0.0022373551037831192 0.011505012425089264 0 -0.0023124734662051021 0.011419993859487604 0 -0.0022348024796427874 0.01138761178306141 0 -0.002277504000060509 0.011310336502690171 0 -0.0026303871422319654 0.011785787223499133 0 -0.0022065445641606986 0.011773763987049308 0 -0.0023661301265940314 0.011569107326281925 0 -0.001771563097949305 0.013912000065886344 0 -0.0018612623518828588 0.013775086702049018 0 -0.0022322495471294511 0.011581339888463642 0 -0.0023661301265940314 0.011569107326281925 0 -0.0022373551037831192 0.011505012425089264 0 -0.0021976223392436395 0.011438710546146967 0 -0.0022322495471294511 0.011581339888463642 0 -0.0022373551037831192 0.011505012425089264 0 -0.0021234761458761254 0.01143082070457929 0 -0.0022925193331603494 0.011806811582341059 0 -0.0020341407878038255 0.01189295394832636 0 -0.001771563097949305 0.013912000065886344 0 -0.0016864219509558679 0.013428797511734944 0 -0.0021976223392436395 0.011438710546146967 0 -0.0022322495471294511 0.011581339888463642 0 -0.0021234761458761254 0.01143082070457929 0 -0.0027040941471670635 0.011661938090583785 0 -0.0021234761458761254 0.01143082070457929 0 -0.0022925193331603494 0.011806811582341059 0 -0.001771563097949305 0.013912000065886344 0 -0.0018404606666973763 0.014469483692631577 0 -0.0027040941471670635 0.011661938090583785 0 -0.0022925193331603494 0.011806811582341059 0 -0.0023131851193466339 0.012214136093898048 0 -0.0022925193331603494 0.011806811582341059 0 -0.0020341407878038255 0.01189295394832636 0 -0.0023131851193466339 0.012214136093898048 0 -0.0019441512000459471 0.016694020103818038 0 -0.0020116171538581144 0.01684267785160817 0 -0.0019199704829541181 0.016895097205198707 0 -0.0019441512000459471 0.016694020103818038 0 -0.0019199704829541181 0.016895097205198707 0 -0.0017778521361455531 0.016886815138790621 0 -0.0020116171538581144 0.01684267785160817 0 -0.0020137080120721444 0.01692336972081639 0 -0.0019199704829541181 0.016895097205198707 0 -0.0013667932242098339 0.011399181220041825 0 -0.0017629925837535909 0.011606085037535834 0 -0.0016140855181512289 0.011985726949172109 0 -0.001715115967866377 0.01128332431441036 0 -0.0013667932242098339 0.011399181220041825 0 -0.0017629925837535909 0.011606085037535834 0 -0.001715115967866377 0.01128332431441036 0 -0.0021234761458761254 0.01143082070457929 0 -0.0017629925837535909 0.011606085037535834 0 -0.0021234761458761254 0.01143082070457929 0 -0.0017629925837535909 0.011606085037535834 0 -0.0020341407878038255 0.01189295394832636 0 -0.0020341407878038255 0.01189295394832636 0 -0.0016140855181512289 0.011985726949172109 0 -0.0019625625329714419 0.012368013747984933 0 -0.0017629925837535909 0.011606085037535834 0 -0.0020341407878038255 0.01189295394832636 0 -0.0016140855181512289 0.011985726949172109 0 -0.0020341407878038255 0.01189295394832636 0 -0.0019625625329714419 0.012368013747984933 0 -0.0023131851193466339 0.012214136093898048 0 -0.0010910904111625687 0.011910369609695227 0 -0.0016140855181512289 0.011985726949172109 0 -0.0013474835505418936 0.012345958647875632 0 -0.0010910904111625687 0.011910369609695227 0 -0.0013667932242098339 0.011399181220041825 0 -0.0016140855181512289 0.011985726949172109 0 -0.0016140855181512289 0.011985726949172109 0 -0.0013474835505418936 0.012345958647875632 0 -0.0019625625329714419 0.012368013747984933 0 -0.0013474835505418936 0.012345958647875632 0 -0.0019625625329714419 0.012368013747984933 0 -0.0012465845013279529 0.013060135351574112 0 -0.0016533398262735346 0.012752830645097895 0 -0.0012959498896749414 0.013101650117735647 0 -0.0019625625329714419 0.012368013747984933 0 -0.0020838321442162547 0.012865702663777319 0 -0.0023131851193466339 0.012214136093898048 0 -0.0016961482454059607 0.015045138892069381 0 -0.0018404606666973763 0.014469483692631577 0 -0.0016051038146779248 0.017073579183717158 0 -0.0017778521361455531 0.016886815138790621 0 -0.0017512999730557232 0.017050328074758325 0 -0.0016051038146779248 0.017073579183717158 0 -0.0017053758795158268 0.017166804087071358 0 -0.0016004892783285417 0.017230661238300075 0 -0.0016051038146779248 0.017073579183717158 0 -0.0017053758795158268 0.017166804087071358 0 -0.0017512999730557232 0.017050328074758325 0 -0.0019625625329714419 0.012368013747984933 0 -0.0020838321442162547 0.012865702663777319 0 -0.0016812503465654367 0.012971044184051437 0 -0.0020838321442162547 0.012865702663777319 0 -0.0016812503465654367 0.012971044184051437 0 -0.0018597028290164264 0.013797555031444336 0 -0.0019773029496707091 0.016995388848130472 0 -0.0020137080120721444 0.01692336972081639 0 -0.0019199704829541181 0.016895097205198707 0 -0.0019773029496707091 0.016995388848130472 0 -0.0018538608504968014 0.017006499764405603 0 -0.0019365197317734856 0.0170889682653378 0 -0.0019773029496707091 0.016995388848130472 0 -0.0019199704829541181 0.016895097205198707 0 -0.0018538608504968014 0.017006499764405603 0 -0.0018538608504968014 0.017006499764405603 0 -0.0017778521361455531 0.016886815138790621 0 -0.0017512999730557232 0.017050328074758325 0 -0.0019199704829541181 0.016895097205198707 0 -0.0018538608504968014 0.017006499764405603 0 -0.0017778521361455531 0.016886815138790621 0 -0.0017053758795158268 0.017166804087071358 0 -0.0018143754515830008 0.017118825697824164 0 -0.0017995045322964586 0.017227207493226978 0 -0.0017053758795158268 0.017166804087071358 0 -0.0017512999730557232 0.017050328074758325 0 -0.0018143754515830008 0.017118825697824164 0 -0.0018538608504968014 0.017006499764405603 0 -0.0018143754515830008 0.017118825697824164 0 -0.0019365197317734856 0.0170889682653378 0 -0.0018538608504968014 0.017006499764405603 0 -0.0017512999730557232 0.017050328074758325 0 -0.0018143754515830008 0.017118825697824164 0 -0.0018143754515830008 0.017118825697824164 0 -0.0019365197317734856 0.0170889682653378 0 -0.0019098275182778226 0.017214668165124486 0 -0.0020304387483311764 0.017150722814371588 0 -0.0019365197317734856 0.0170889682653378 0 -0.0019098275182778226 0.017214668165124486 0 -0.0020255504688345455 0.017057608470853323 0 -0.0019773029496707091 0.016995388848130472 0 -0.0019365197317734856 0.0170889682653378 0 -0.0020304387483311764 0.017150722814371588 0 -0.0020255504688345455 0.017057608470853323 0 -0.0019365197317734856 0.0170889682653378 0 -0.0020238024384289497 0.017314840796843457 0 -0.0020304387483311764 0.017150722814371588 0 -0.0019098275182778226 0.017214668165124486 0 -0.0020238024384289497 0.017314840796843457 0 -0.0019098275182778226 0.017214668165124486 0 -0.0018488585148982485 0.01733951541704724 0 -0.0019098275182778226 0.017214668165124486 0 -0.0017995045322964586 0.017227207493226978 0 -0.0018488585148982485 0.01733951541704724 0 -0.0018143754515830008 0.017118825697824164 0 -0.0019098275182778226 0.017214668165124486 0 -0.0017995045322964586 0.017227207493226978 0 -0.0017053758795158268 0.017166804087071358 0 -0.0017995045322964586 0.017227207493226978 0 -0.0017190233163177906 0.017299997944379124 0 -0.0017995045322964586 0.017227207493226978 0 -0.0018488585148982485 0.01733951541704724 0 -0.0017190233163177906 0.017299997944379124 0 -0.0018756532942733749 0.017547966565332116 0 -0.0017554127470646977 0.017448522068547603 0 -0.0018488585148982485 0.01733951541704724 0 -0.0017554127470646977 0.017448522068547603 0 -0.0018488585148982485 0.01733951541704724 0 -0.0017190233163177906 0.017299997944379124 0 -0.0020913199002036893 0.023851029367864627 0 -0.001887787125652862 0.025150754176815372 0 -0.0020238024384289497 0.017314840796843457 0 -0.0018756532942733749 0.017547966565332116 0 -0.0018488585148982485 0.01733951541704724 0 -0.0020218450312869483 0.031121231023124408 0 -0.0016822988114608476 0.030305170935165018 0 -0.00058871937521700712 0.032062291810848083 0 -0.0016961482454059607 0.015045138892069381 0 -0.0013687582617646096 0.015754389734549658 0 -0.0016051038146779248 0.017073579183717158 0 -0.0014193092248257215 0.017251322860814385 0 -0.0016004892783285417 0.017230661238300075 0 -0.0014193092248257215 0.017251322860814385 0 -0.0016004892783285417 0.017230661238300075 0 -0.0015631850597184109 0.017366012874689273 0 -0.0017053758795158268 0.017166804087071358 0 -0.0016004892783285417 0.017230661238300075 0 -0.0017190233163177906 0.017299997944379124 0 -0.0016004892783285417 0.017230661238300075 0 -0.0017190233163177906 0.017299997944379124 0 -0.0015631850597184109 0.017366012874689273 0 -0.0016187898002803305 0.017568440293807937 0 -0.0017554127470646977 0.017448522068547603 0 -0.0015631850597184109 0.017366012874689273 0 -0.0017554127470646977 0.017448522068547603 0 -0.0017190233163177906 0.017299997944379124 0 -0.0015631850597184109 0.017366012874689273 0 -0.0014193092248257215 0.017251322860814385 0 -0.0015631850597184109 0.017366012874689273 0 -0.0013904705472192445 0.017364164671737837 0 -0.0014813650024933897 0.017479854673286613 0 -0.0016187898002803305 0.017568440293807937 0 -0.0015631850597184109 0.017366012874689273 0 -0.0014813650024933897 0.017479854673286613 0 -0.0015631850597184109 0.017366012874689273 0 -0.0013904705472192445 0.017364164671737837 0 -0.0014813650024933897 0.017479854673286613 0 -0.0013148304743976784 0.017454855324624385 0 -0.0013904705472192445 0.017364164671737837 0 -0.00067946074033709209 0.016822967025926984 0 -0.0013687582617646096 0.015754389734549658 0 -0.0011312014028599792 0.0173060329535345 0 -0.0013148304743976784 0.017454855324624385 0 -0.0013904705472192445 0.017364164671737837 0 -0.0011312014028599792 0.0173060329535345 0 -0.0014193092248257215 0.017251322860814385 0 -0.0013904705472192445 0.017364164671737837 0 -0.0011872836211105451 0.015600462155222549 0 -0.0018597028290164264 0.013797555031444336 0 -0.0008410772260322994 0.014666222357990016 0 -0.0018597028290164264 0.013797555031444336 0 -0.00083362426441514358 0.013772969039832956 0 -0.0008410772260322994 0.014666222357990016 0 -0.0012959498896749414 0.013101650117735647 0 -0.00049723596526994758 0.013839689990971 0 -0.0016812503465654367 0.012971044184051437 0 -0.0018597028290164264 0.013797555031444336 0 -0.00083362426441514358 0.013772969039832956 0 -0.00054632520187162387 0.01374841554751728 0 0.00082494758554427542 0.014621834976215178 0 0.00044079067953325891 0.013686545660155652 0 -0.00054632520187162387 0.01374841554751728 0 0.00044079067953325891 0.013686545660155652 0 5.6985911524368705e-05 0.01316244308223896 0 -0.00054632520187162387 0.01374841554751728 0 0.00082494758554427542 0.014621834976215178 0 0.0012204193965318156 0.015165616518691822 0 -0.00049723596526994758 0.013839689990971 0 0.00018978408554354531 0.014450683527141343 0 -0.00083362426441514358 0.013772969039832956 0 -0.0008410772260322994 0.014666222357990016 0 -8.4928081674509113e-05 0.015226578946400801 0 -0.00083362426441514358 0.013772969039832956 0 -8.4928081674509113e-05 0.015226578946400801 0 0.0012204193965318156 0.015165616518691822 0 -0.0008410772260322994 0.014666222357990016 0 -0.00061619307231118201 0.015410911487662623 0 -8.4928081674509113e-05 0.015226578946400801 0 -0.0011872836211105451 0.015600462155222549 0 -0.0008410772260322994 0.014666222357990016 0 -0.00061619307231118201 0.015410911487662623 0 -0.00017788370081194465 0.016249741646208831 0 -0.00061619307231118201 0.015410911487662623 0 -8.4928081674509113e-05 0.015226578946400801 0 0.00064807684469322772 0.015947022448660718 0 0.00017945632227190633 0.016026378015858836 0 -8.4928081674509113e-05 0.015226578946400801 0 0.00082494758554427542 0.014621834976215178 0 0.0012204193965318156 0.015165616518691822 0 0.0033342595421790131 0.015563883164723321 0 0.00064807684469322772 0.015947022448660718 0 -8.4928081674509113e-05 0.015226578946400801 0 0.0012204193965318156 0.015165616518691822 0 0.0014945457706345834 0.016192054823702881 0 0.0012204193965318156 0.015165616518691822 0 0.0033342595421790131 0.015563883164723321 0 0.0023697052049323421 0.010112583815357169 0 0.0032707131855684518 0.0087453930047217791 0 0.00082494758554427542 0.014621834976215178 0 0.0013646214579870483 0.014043622248914958 0 0.0010767445987796222 0.013884874888279794 0 0.00082494758554427542 0.014621834976215178 0 0.0051841075246178495 0.014403083049605674 0 0.0033342595421790131 0.015563883164723321 0 0.0048747103983033868 0.016428343359686414 0 0.0051841075246178495 0.014403083049605674 0 0.0033342595421790131 0.015563883164723321 0 0.0010767445987796222 0.013884874888279794 0 0.0012391390539089385 0.013411700554281671 0 0.00077263342219445702 0.013185846158626793 0 0.0014041268885328377 0.013637459873076305 0 0.0013646214579870483 0.014043622248914958 0 0.0010767445987796222 0.013884874888279794 0 0.0014041268885328377 0.013637459873076305 0 0.0010767445987796222 0.013884874888279794 0 0.0012391390539089385 0.013411700554281671 0 0.00082494758554427542 0.014621834976215178 0 0.0010767445987796222 0.013884874888279794 0 0.00044079067953325891 0.013686545660155652 0 0.0010767445987796222 0.013884874888279794 0 0.00044079067953325891 0.013686545660155652 0 0.00077263342219445702 0.013185846158626793 0 0.00077263342219445702 0.013185846158626793 0 0.0011038198105099222 0.012794249933780776 0 0.0004014816992614019 0.012650709533064833 0 0.00044079067953325891 0.013686545660155652 0 0.00077263342219445702 0.013185846158626793 0 5.6985911524368705e-05 0.01316244308223896 0 0.00077263342219445702 0.013185846158626793 0 0.0004014816992614019 0.012650709533064833 0 5.6985911524368705e-05 0.01316244308223896 0 0.0014965452520156403 0.013075078360419597 0 0.0012391390539089385 0.013411700554281671 0 0.0011596544210324296 0.013115279595148225 0 0.0012391390539089385 0.013411700554281671 0 0.00077263342219445702 0.013185846158626793 0 0.0011596544210324296 0.013115279595148225 0 0.00077263342219445702 0.013185846158626793 0 0.0011596544210324296 0.013115279595148225 0 0.0011038198105099222 0.012794249933780776 0 0.0014965452520156403 0.013075078360419597 0 0.0011596544210324296 0.013115279595148225 0 0.0011038198105099222 0.012794249933780776 0 0.0013738319192715207 0.012334654309718222 0 0.00044558796584408977 0.012086598207001635 0 0.0011038198105099222 0.012794249933780776 0 0.00044558796584408977 0.012086598207001635 0 0.0011038198105099222 0.012794249933780776 0 0.0004014816992614019 0.012650709533064833 0 0.00044558796584408977 0.012086598207001635 0 -0.00038046903036002713 0.012061863981431754 0 0.0004014816992614019 0.012650709533064833 0 -0.00038046903036002713 0.012061863981431754 0 -0.00024277286648160171 0.012676492102794637 0 -0.00081633280515114434 0.012504505727524663 0 -0.00038046903036002713 0.012061863981431754 0 0.0004014816992614019 0.012650709533064833 0 -0.00024277286648160171 0.012676492102794637 0 -0.00024277286648160171 0.012676492102794637 0 -0.00081633280515114434 0.012504505727524663 0 -0.00056899222350536237 0.013005299581595148 0 -0.0013474835505418936 0.012345958647875632 0 -0.0012465845013279529 0.013060135351574112 0 -0.00081633280515114434 0.012504505727524663 0 -0.0010910904111625687 0.011910369609695227 0 -0.0013474835505418936 0.012345958647875632 0 -0.00081633280515114434 0.012504505727524663 0 -0.0012465845013279529 0.013060135351574112 0 -0.00054632520187162387 0.01374841554751728 0 -0.00056899222350536237 0.013005299581595148 0 -0.0012465845013279529 0.013060135351574112 0 -0.00081633280515114434 0.012504505727524663 0 -0.00056899222350536237 0.013005299581595148 0 -0.00054632520187162387 0.01374841554751728 0 5.6985911524368705e-05 0.01316244308223896 0 -0.00056899222350536237 0.013005299581595148 0 -0.00024277286648160171 0.012676492102794637 0 5.6985911524368705e-05 0.01316244308223896 0 -0.00056899222350536237 0.013005299581595148 0 0.0004014816992614019 0.012650709533064833 0 -0.00024277286648160171 0.012676492102794637 0 5.6985911524368705e-05 0.01316244308223896 0 
</DataArray>
</PointData>
<CellData Scalars="region_id,cross_section_updated," Vectors="" Tensors="stress,">
<DataArray type="Float64" Name="region_id" format="ascii">
5 5 5 5 5 6 5 5 5 5 5 5 5 6 5 5 5 5 6 5 5 6 5 5 5 5 6 5 5 5 5 6 5 5 5 5 5 5 5 5 5 5 5 5 5 6 5 5 6 5 5 5 5 5 6 5 5 5 5 5 5 5 6 5 5 5 5 6 5 5 5 5 5 5 5 5 5 6 5 5 6 5 5 6 5 5 5 5 6 5 5 5 5 5 5 5 6 6 6 5 5 6 5 5 5 5 5 6 5 5 5 5 5 5 5 5 5 5 5 5 5 6 5 5 5 6 5 5 5 5 5 5 6 5 5 5 5 5 5 5 5 5 5 5 5 5 5 5 5 5 5 5 5 5 5 5 5 5 6 5 5 5 6 5 5 6 5 5 5 5 5 5 5 5 5 5 5 6 5 5 5 5 5 5 5 5 6 5 5 5 5 5 5 5 5 6 5 5 5 5 5 5 5 5 5 6 5 5 5 5 5 5 5 5 5 5 5 5 5 5 5 5 5 5 5 5 5 5 5 6 5 5 5 6 5 6 5 6 5 5 6 5 5 5 6 5 6 5 6 5 6 6 5 6 5 5 6 5 6 5 5 5 6 5 6 6 5 5 6 5 5 5 6 5 6 6 6 5 6 5 5 5 6 5 6 6 6 5 5 6 6 5 5 5 5 6 5 6 5 5 6 5 5 5 6 5 6 6 6 5 5 5 6 5 6 6 6 6 5 5 5 6 6 5 5 6 6 6 5 6 5 5 5 5 6 5 5 5 5 5 5 5 6 5 5 5 5 5 5 6 6 5 5 5 6 5 5 5 6 5 6 5 6 6 5 5 5 5 6 5 5 6 5 5 5 5 6 5 6 5 5 5 5 5 6 6 5 5 5 5 5 5 5 5 6 5 5 5 6 5 5 6 5 6 5 5 5 5 5 5 5 5 5 5 5 6 5 6 5 6 5 5 5 6 5 6 5 6 5 5 5 5 5 5 6 5 6 5 5 5 6 5 5 5 6 5 6 6 5 5 5 5 6 5 5 5 5 6 6 5 5 6 5 6 5 6 6 5 5 5 6 5 5 5 5 6 5 5 5 5 5 5 5 5 5 5 5 6 5 5 5 5 6 5 5 5 6 5 6 6 6 5 5 5 6 6 5 6 5 5 6 5 5 5 5 6 5 5 5 5 5 5 5 5 5 5 5 6 6 5 5 6 5 5 5 6 5 5 5 5 5 5 6 5 5 5 6 5 5 5 6 5 5 5 5 5 5 5 5 5 5 5 6 5 5 5 6 5 5 5 5 5 5 5 6 5 5 5 5 5 6 5 5 5 5 5 5 5 5 5 5 5 5 5 5 5 5 5 5 5 6 5 5 5 5 6 5 5 6 5 5 5 5 5 5 5 6 5 5 5 5 5 5 5 5 6 5 6 5 5 6 5 5 5 6 5 5 6 5 5 5 6 5 6 5 5 6 5 6 5 5 5 5 5 5 5 5 5 5 5 5 5 5 5 5 5 5 5 5 5 5 6 5 6 5 6 5 5 5 5 5 5 5 5 5 5 5 5 5 5 5 6 5 5 5 5 5 5 5 5 5 6 5 5 5 5 5 5 5 5 5 5 5 5 5 5 5 5 5 5 5 5 5 5 5 5 5 5 5 5 5 6 5 5 6 5 5 5 6 6 5 6 5 5 5 5 5 6 5 5 5 5 5 6 5 5 5 5 5 5 5 5 5 5 5 5 5 5 5 5 5 5 5 5 5 5 5 5 5 5 5 5 5 5 5 5 5 5 5 5 5 5 5 5 5 5 5 5 5 5 5 5 5 6 5 5 5 5 5 5 5 5 5 5 5 5 5 5 5 6 5 5 5 5 6 5 5 5 5 5 5 5 5 5 5 5 5 5 5 5 5 5 5 5 5 5 5 5 5 5 5 5 6 5 5 6 5 6 6 6 6 5 5 6 5 5 5 5 5 5 5 5 5 5 5 5 5 5 5 5 5 6 5 5 6 5 6 5 5 5 5 6 5 6 5 5 5 5 6 5 5 5 6 5 5 5 5 5 6 5 6 5 5 6 6 5 6 5 5 5 5 5 5 5 5 5 5 5 6 5 5 5 6 5 5 5 6 5 5 6 6 6 5 5 5 5 5 5 5 5 5 5 5 6 5 5 5 5 5 5 5 5 6 6 6 5 5 5 5 5 5 5 5 6 6 5 5 5 6 5 5 6 5 5 5 5 5 5 5 5 5 5 5 6 5 5 5 5 5 5 5 5 6 5 5 5 5 5 5 5 5 5 5 6 5 6 6 6 5 5 5 5 5 5 5 6 6 5 6 5 5 5 5 5 6 5 6 6 5 5 5 6 5 6 5 5 5 5 6 5 5 5 5 5 5 5 5 5 5 5 5 5 5 5 5 5 6 5 5 5 6 5 5 5 5 5 6 5 5 5 5 5 5 6 5 6 5 5 5 5 5 5 5 5 6 5 5 5 6 5 5 5 5 5 5 5 5 5 5 5 5 5 5 5 5 5 5 5 5 5 5 5 5 5 6 6 6 5 5 5 5 6 5 5 5 5 6 5 5 5 5 5 5 5 6 5 5 5 5 5 5 5 5 6 5 5 5 5 5 5 5 5 5 5 5 5 6 5 5 5 5 5 5 6 5 5 5 5 5 5 5 5 6 5 5 5 6 5 5 5 5 5 5 5 5 5 5 5 5 6 5 5 5 5 5 5 5 5 5 5 5 5 5 5 5 5 5 5 5 5 5 5 5 5 5 5 5 5 5 5 5 5 5 5 5 5 5 5 5 5 5 5 5 5 5 5 5 6 5 5 5 5 5 5 5 5 5 5 5 5 5 5 5 5 5 5 5 5 5 5 5 5 6 5 5 5 5 5 5 5 5 5 5 6 5 5 6 5 5 5 5 5 5 5 5 5 6 5 6 5 5 5 5 6 5 5 6 5 6 5 5 5 5 5 6 5 5 5 5 5 5 5 5 6 5 5 5 5 5 5 5 5 5 5 5 5 5 5 6 5 6 6 5 5 5 5 5 6 5 5 5 5 5 5 5 5 5 5 5 5 5 5 5 6 5 5 5 5 5 5 5 5 5 5 5 5 5 5 5 5 6 5 5 5 5 5 6 6 5 5 6 5 5 5 5 5 5 5 5 5 5 6 5 5 5 5 5 5 5 5 5 6 5 6 5 5 5 5 5 6 5 5 5 5 6 5 5 5 6 5 5 5 6 5 5 6 5 5 5 5 5 5 5 5 5 5 5 5 5 5 5 5 6 5 5 5 5 5 5 5 6 5 5 5 5 5 5 5 5 5 5 5 5 5 5 5 5 5 5 5 5 5 5 5 5 5 5 5 6 5 5 5 5 6 5 5 5 6 5 5 5 5 5 5 5 5 5 6 5 6 5 5 5 5 5 5 5 5 5 5 5 5 5 5 5 5 5 5 6 6 5 5 5 6 5 5 6 5 5 6 5 5 5 6 5 5 6 5 5 5 5 5 5 5 5 5 5 5 5 5 5 5 5 5 5 5 5 6 5 6 5 5 5 5 5 5 5 5 5 5 5 6 5 6 5 5 5 6 5 5 5 5 5 6 5 5 5 5 5 5 6 5 5 5 5 5 5 5 5 5 5 5 6 5 5 5 5 5 5 5 5 6 5 5 5 6 5 5 6 5 5 5 5 5 6 5 5 5 5 5 5 5 5 5 6 5 5 6 5 6 5 6 6 6 5 6 5 5 5 5 5 5 6 5 5 5 5 5 5 6 5 5 5 5 5 5 5 6 5 5 5 5 6 5 5 5 5 5 6 5 6 5 5 5 5 5 5 5 5 5 5 6 5 5 5 5 5 5 5 6 5 5 5 5 5 5 5 6 5 6 5 5 5 5 5 5 5 5 6 5 5 5 6 6 5 5 5 5 5 6 6 5 6 5 5 6 5 5 6 5 5 5 5 5 5 5 5 6 5 5 5 5 5 6 5 5 5 5 6 5 5 6 5 5 5 5 5 5 5 5 5 5 5 5 5 5 5 5 5 5 5 5 5 5 5 5 5 5 5 5 5 5 5 5 5 5 5 5 5 5 5 5 5 6 5 5 6 5 5 5 5 5 6 5 5 5 5 6 5 5 5 5 5 5 5 5 5 5 5 5 5 5 5 5 5 5 5 5 5 5 5 5 6 5 5 5 6 5 5 5 5 5 5 6 5 5 5 5 5 5 5 5 5 5 5 6 5 6 6 5 5 6 5 5 5 5 5 5 5 5 5 5 5 6 5 5 6 5 5 5 5 5 5 5 5 5 5 5 5 5 5 5 6 5 5 5 5 5 5 5 6 5 6 5 5 5 5 6 5 6 5 5 5 5 5 5 5 5 5 6 5 5 5 5 5 5 5 5 5 5 5 5 5 5 5 5 5 6 5 5 5 5 5 5 5 5 5 5 5 5 5 5 5 5 5 5 5 5 5 5 5 5 5 6 6 5 5 5 5 5 5 5 5 5 5 5 6 5 5 5 5 6 5 5 5 5 6 5 5 5 5 5 5 5 5 6 5 5 5 5 5 5 5 5 5 6 5 5 5 5 5 5 5 5 5 5 5 5 5 5 5 5 5 5 5 5 6 5 5 5 5 5 5 5 5 5 5 5 5 5 5 6 5 6 5 5 5 5 5 5 5 5 6 5 5 6 5 5 5 5 5 5 5 5 5 5 5 5 5 5 5 5 5 5 5 5 5 5 5 5 5 5 5 5 5 5 5 5 5 5 5 5 6 5 5 6 5 5 5 5 6 5 6 5 5 6 5 6 5 5 5 5 5 6 5 5 5 5 5 5 5 5 5 5 5 5 6 5 5 5 6 5 5 5 5 5 5 5 5 5 6 5 5 5 5 6 6 5 5 5 5 5 5 5 5 6 5 5 5 5 5 6 5 5 5 6 5 5 5 6 5 5 5 5 6 5 5 5 5 5 5 5 5 5 5 5 5 5 5 6 5 5 5 5 5 5 6 5 6 6 5 6 5 6 5 5 5 5 6 5 5 5 5 6 5 5 5 5 5 5 5 5 5 6 5 5 5 5 5 5 5 5 5 5 5 5 5 5 6 5 5 5 6 5 5 5 6 5 6 5 5 5 5 5 5 5 5 5 5 5 5 5 5 5 5 6 5 5 5 5 5 5 6 5 5 5 5 5 5 5 5 5 5 5 5 5 5 5 5 5 5 6 5 5 5 5 5 5 5 5 5 5 5 5 5 5 5 5 5 5 5 5 5 5 5 5 5 5 5 5 5 5 5 5 5 5 6 5 5 5 5 6 5 5 5 5 5 5 5 6 5 5 5 5 5 5 5 5 5 6 5 5 6 5 5 5 5 5 6 5 5 5 6 5 5 6 5 5 5 5 5 5 5 5 5 5 5 5 5 5 5 5 5 5 5 5 6 5 5 5 5 5 5 5 5 5 5 6 6 5 6 5 5 5 5 5 6 5 5 5 5 6 5 5 5 5 5 6 5 6 5 5 6 5 5 5 5 5 5 5 5 6 5 5 5 5 5 5 6 5 5 5 5 5 5 6 5 5 5 5 6 5 5 6 5 6 5 5 6 5 5 5 5 5 5 6 5 5 5 5 6 5 5 5 5 5 5 5 5 6 6 5 5 5 5 5 5 5 5 6 5 5 5 5 5 5 6 5 5 5 5 5 5 5 6 5 5 5 6 5 5 5 5 5 5 5 5 5 5 5 5 6 5 5 5 5 6 5 5 6 5 5 5 5 6 5 5 5 6 6 5 5 5 6 5 5 5 6 5 5 5 5 5 5 5 5 5 6 5 5 5 6 5 5 5 5 5 5 5 5 5 5 5 5 6 5 6 5 5 6 5 5 6 5 5 5 5 5 5 5 6 5 5 5 5 5 6 5 6 5 5 5 6 6 5 6 6 5 6 5 5 5 5 5 5 6 5 6 5 5 5 5 5 5 5 5 5 5 5 5 5 6 5 5 6 5 6 5 5 6 5 5 5 6 6 5 5 6 5 5 5 5 5 5 5 5 5 5 5 5 5 5 5 5 5 5 5 5 5 5 5 6 6 5 6 5 6 5 5 6 6 5 5 6 5 5 6 5 5 6 5 6 5 5 5 5 6 5 5 5 5 6 5 6 6 5 6 5 5 6 6 5 5 5 6 5 5 5 5 6 6 5 5 5 5 5 6 5 5 5 5 5 5 5 5 5 5 5 6 5 6 5 6 5 5 6 5 6 5 5 5 5 5 5 5 5 6 5 5 6 5 5 5 5 6 5 5 5 5 5 5 5 5 5 5 5 5 6 5 5 5 5 5 5 5 5 5 5 5 6 5 5 5 5 5 5 6 5 6 5 5 6 5 5 5 5 5 5 5 5 5 5 5 5 5 5 5 5 5 6 6 5 5 5 6 5 5 6 5 5 5 5 5 5 5 5 5 5 5 5 5 5 5 5 5 5 5 5 5 5 5 5 5 6 6 5 5 5 5 5 5 5 5 5 5 5 6 5 5 5 5 5 5 5 5 5 5 5 5 5 5 5 5 5 5 5 5 5 5 5 5 5 5 5 5 5 5 5 5 5 6 5 5 5 5 5 6 5 5 6 5 5 6 6 5 5 5 5 5 5 5 5 5 5 5 5 5 6 5 5 6 5 5 5 5 5 5 6 5 5 6 5 5 5 5 5 5 5 5 5 5 5 5 5 6 5 5 5 5 5 5 5 6 5 5 5 5 5 5 5 5 5 5 5 5 6 5 5 6 5 5 5 5 5 5 5 5 5 5 5 5 5 5 5 5 5 5 5 5 6 5 5 6 5 6 5 5 5 6 5 5 6 5 6 5 5 5 6 5 5 5 5 6 5 5 5 5 5 5 5 6 5 5 5 6 5 5 5 5 5 5 5 5 5 5 5 5 6 5 5 5 5 5 5 5 5 6 5 5 5 5 5 5 5 5 5 5 5 6 5 5 5 5 5 5 5 5 5 5 5 5 5 5 5 5 5 5 5 6 6 5 5 5 6 5 5 5 5 5 5 5 5 5 5 5 5 6 5 5 5 5 5 5 5 5 5 6 5 5 5 5 5 5 5 5 5 5 5 5 5 5 5 5 6 5 6 5 5 5 5 5 6 5 5 5 5 6 5 5 5 6 5 5 5 6 5 5 5 5 5 5 5 5 5 6 5 5 5 6 5 5 6 5 5 5 5 5 5 6 5 5 5 5 5 5 5 5 6 5 5 5 6 5 5 5 5 5 5 5 5 5 5 5 5 5 5 5 5 5 5 5 5 5 5 5 5 5 5 5 6 5 5 5 5 5 5 5 6 5 5 5 5 5 5 5 5 5 5 5 5 5 5 5 5 5 5 5 5 5 5 5 5 5 6 5 6 5 5 5 5 5 5 6 5 5 5 6 5 5 6 5 5 5 5 5 5 5 5 5 5 5 5 6 5 5 5 5 5 6 5 5 5 5 5 5 5 5 5 5 5 5 5 6 5 5 5 6 5 5 5 5 5 5 5 5 5 5 5 5 6 6 5 5 5 5 6 5 5 5 5 5 5 5 5 5 6 6 5 5 5 5 5 6 5 5 5 5 5 6 5 5 5 5 5 6 5 6 5 5 5 5 6 5 6 5 6 6 5 5 5 5 5 5 5 6 6 5 5 5 5 5 5 6 6 6 5 6 6 5 5 5 6 5 5 5 5 5 6 6 6 5 6 5 5 5 6 5 6 6 5 5 5 5 5 5 5 6 6 5 5 6 6 6 5 5 5 5 5 5 5 5 5 5 5 5 5 5 5 5 5 5 5 5 5 5 5 5 5 5 5 5 5 5 5 5 5 5 5 5 5 5 5 5 6 5 5 5 5 5 5 5 5 5 5 6 5 5 5 5 5 5 6 5 5 6 5 5 5 5 5 5 5 5 5 5 5 5 5 6 5 6 5 5 5 5 6 5 5 5 6 5 5 6 5 5 5 6 5 5 6 5 5 5 5 5 6 5 5 5 5 5 5 5 6 5 5 5 5 5 5 5 6 5 5 6 5 5 5 5 6 5 6 5 5 5 5 5 6 5 5 5 5 6 5 5 5 5 5 5 6 6 5 5 5 5 5 6 5 5 6 5 5 5 5 5 5 5 5 5 5 6 5 5 5 5 5 5 5 5 5 5 5 5 5 5 5 5 5 5 6 5 5 5 5 5 5 6 5 5 5 5 5 5 5 6 6 5 5 5 5 6 5 5 5 5 5 5 5 6 5 5 6 5 6 6 6 5 5 5 5 5 5 6 5 5 5 5 5 6 5 5 5 5 6 5 5 5 6 5 5 5 6 5 5 5 5 5 5 5 5 5 5 5 5 5 5 5 5 5 5 5 5 5 5 5 5 5 6 5 5 5 5 5 5 5 6 5 6 5 5 5 5 5 5 6 5 5 6 5 5 5 6 5 5 6 5 5 5 5 5 6 5 5 5 6 6 5 5 5 5 5 5 5 5 5 5 5 5 6 5 5 5 5 5 5 5 5 5 6 5 5 5 5 5 6 6 5 5 5 5 5 5 5 5 5 6 5 5 5 5 5 5 5 5 6 5 5 5 5 5 5 5 5 5 5 5 5 5 5 5 5 5 5 6 5 5 5 5 6 5 6 5 6 5 5 5 5 5 5 5 5 5 5 5 5 5 5 5 5 5 6 5 5 5 5 5 6 5 5 5 6 6 5 5 5 5 5 6 5 5 5 5 6 5 5 5 5 5 5 5 5 6 5 5 5 5 5 5 5 6 5 5 5 5 5 5 5 5 5 6 5 5 5 5 5 5 5 5 5 5 5 5 5 5 5 5 5 5 6 5 5 5 5 5 5 5 5 5 5 5 5 5 6 5 5 5 5 5 5 6 5 5 6 5 5 6 5 5 5 5 5 5 5 5 5 5 5 5 5 5 5 5 5 5 5 5 5 5 5 5 5 5 6 5 6 5 6 6 5 5 5 6 5 5 5 5 5 5 5 5 5 6 6 5 6 5 5 5 5 5 5 5 5 5 5 5 5 5 5 6 5 6 6 5 6 5 5 5 5 5 5 5 5 5 6 6 5 5 5 5 5 5 5 5 5 5 5 5 5 5 5 5 5 5 5 5 5 5 6 5 5 5 5 5 6 5 5 5 5 5 6 5 5 5 6 5 5 5 5 5 5 5 5 5 6 5 5 5 5 6 5 5 5 5 5 5 6 5 5 5 5 5 5 5 6 5 5 5 5 6 5 5 5 5 5 5 5 5 5 5 6 5 5 5 5 6 5 5 5 6 5 5 5 5 5 6 5 5 5 5 5 5 5 5 5 5 5 5 5 5 6 6 5 5 6 5 5 5 5 5 5 5 6 5 5 5 5 5 5 6 5 5 5 5 5 5 5 5 5 5 5 5 5 5 5 5 5 5 5 5 5 5 5 6 5 5 5 5 5 5 5 5 6 5 5 5 5 6 5 5 5 5 5 6 5 6 5 6 5 5 5 5 5 5 5 6 5 5 5 6 5 5 5 5 5 6 5 5 5 5 5 6 5 6 5 5 6 5 6 5 5 5 5 5 6 5 5 5 6 5 5 5 5 5 5 5 5 5 5 6 5 5 5 5 5 5 5 5 5 5 5 5 5 5 5 5 5 5 5 5 5 5 6 5 5 5 5 5 5 5 5 5 5 5 5 5 5 5 5 5 5 6 5 5 5 6 5 5 5 5 5 5 6 5 5 5 6 6 5 6 5 6 6 5 6 5 5 6 5 5 6 6 5 5 5 5 5 5 5 5 6 5 6 5 5 5 5 5 5 5 5 5 5 5 5 5 5 5 5 5 5 5 5 5 5 6 5 5 5 5 5 5 5 5 6 5 5 6 5 5 6 6 5 5 6 5 5 5 5 5 5 5 5 5 5 5 5 5 5 5 5 5 5 5 5 5 5 5 5 5 5 5 5 5 5 5 5 5 5 5 5 5 5 5 6 5 6 5 5 5 5 5 5 5 5 5 5 5 5 5 5 5 5 5 5 5 5 5 5 5 5 5 5 5 5 5 5 5 5 5 5 5 5 5 5 5 5 6 5 5 6 5 5 5 5 5 6 5 6 5 5 6 5 5 5 5 5 5 6 5 5 5 5 5 5 5 5 5 5 5 6 5 5 6 6 5 6 5 5 6 5 5 5 5 6 5 5 5 5 5 5 5 5 5 6 5 6 5 5 5 5 5 5 5 6 5 6 5 5 5 5 5 5 5 5 5 6 5 6 5 5 5 5 5 5 5 5 5 5 6 5 5 5 6 5 5 6 5 5 6 5 5 5 5 6 5 5 5 6 5 5 5 5 5 5 5 5 5 5 5 5 5 5 6 5 5 5 5 5 5 6 5 6 5 6 5 5 5 6 5 5 5 5 5 5 5 5 6 5 5 5 5 5 6 5 5 6 5 5 5 5 5 5 5 5 5 6 5 5 5 6 5 5 5 5 5 5 6 5 5 5 5 5 5 5 5 5 5 5 5 5 5 5 5 5 5 5 5 5 5 5 5 5 5 5 5 5 5 5 6 5 5 5 5 5 6 5 5 6 6 5 5 5 5 6 5 5 5 5 5 6 5 5 5 5 5 5 5 5 5 5 5 5 5 5 5 5 6 5 5 5 5 5 5 5 5 6 6 5 5 5 5 5 5 6 5 5 5 5 6 5 5 5 5 5 5 5 5 5 5 5 5 5 5 5 5 5 5 5 5 5 5 5 5 6 5 5 6 5 5 5 5 5 5 5 5 5 5 5 5 5 5 5 5 5 5 5 5 5 5 5 5 5 5 5 6 5 6 5 5 5 5 5 6 5 5 5 5 5 5 5 5 5 5 5 5 5 5 5 5 5 5 5 5 6 6 5 6 5 5 5 5 5 5 5 5 5 5 5 5 5 5 5 5 6 5 5 5 6 5 5 5 5 5 5 5 5 5 5 5 5 5 6 5 5 5 5 5 5 5 5 5 5 5 5 5 5 5 5 5 5 5 5 5 5 6 5 5 5 5 5 5 5 5 5 5 5 5 5 6 5 6 5 5 6 6 5 5 5 5 5 5 5 5 5 5 5 5 5 5 5 5 5 5 5 5 6 5 5 6 5 5 5 6 5 5 5 5 5 5 6 5 5 5 6 5 5 5 5 5 5 5 5 6 5 5 6 5 5 6 5 6 5 5 5 5 6 6 5 5 6 6 5 5 6 5 5 5 5 6 5 5 6 6 5 6 5 5 5 5 5 5 5 5 5 5 5 5 5 5 5 5 5 5 5 5 6 5 5 5 5 6 5 5 5 5 6 6 5 5 5 5 5 5 5 5 5 5 5 5 6 5 5 5 6 5 5 5 5 5 5 5 6 5 5 5 6 5 5 6 6 5 5 5 6 5 5 5 6 5 5 5 5 5 5 5 5 5 5 5 5 5 5 5 5 5 5 6 5 5 5 5 5 5 5 5 5 5 5 5 5 5 5 5 5 5 6 6 5 5 5 5 5 6 6 5 6 5 5 5 5 5 5 5 5 5 6 5 5 5 6 5 5 5 5 5 5 5 5 5 5 5 5 5 5 6 5 5 5 5 5 5 5 6 5 5 6 5 5 5 5 5 5 6 5 5 5 5 6 5 5 5 5 5 5 6 5 5 5 5 5 5 5 5 6 6 5 5 5 6 6 5 5 5 5 5 6 5 5 5 5 5 5 6 5 5 5 5 6 5 5 5 5 5 6 5 5 5 5 6 5 5 5 5 5 5 5 5 5 5 5 5 5 5 5 5 5 5 5 5 5 5 5 5 5 6 5 5 5 5 6 5 6 5 6 5 5 6 5 5 6 5 5 6 5 5 5 5 5 5 6 5 5 6 5 6 6 6 5 5 6 5 6 6 5 5 5 6 5 6 5 5 5 5 5 5 6 5 5 5 6 5 5 5 5 5 5 5 6 5 5 5 6 5 6 6 5 5 5 5 5 5 5 6 5 5 5 5 5 5 5 5 6 6 5 5 5 5 6 5 5 6 5 5 5 6 5 5 5 6 6 5 5 5 5 6 5 5 5 5 5 6 6 5 5 5 5 5 5 5 5 5 5 5 5 5 5 5 5 5 5 5 5 5 5 5 5 5 5 5 5 5 5 5 6 5 5 5 6 5 5 5 5 5 5 5 5 5 5 5 5 5 5 5 6 5 6 6 5 5 6 5 5 5 5 5 5 5 5 5 5 5 5 5 5 5 5 5 5 5 5 5 5 5 6 5 5 6 6 5 5 5 5 5 5 5 6 5 5 5 6 5 5 5 5 6 6 5 5 5 5 5 5 5 6 5 5 5 5 6 5 5 5 5 6 5 5 5 5 5 5 5 5 5 5 5 5 5 5 5 5 5 5 5 6 5 5 5 5 5 5 5 5 5 5 5 5 5 5 5 5 6 5 5 5 6 5 5 5 5 5 5 5 5 5 6 5 5 5 5 5 5 5 5 5 5 5 5 5 5 5 5 5 5 5 5 5 6 5 5 5 5 5 5 5 5 5 5 5 5 5 5 5 5 5 6 5 5 5 5 5 6 5 5 5 5 5 5 5 5 5 5 5 5 5 5 5 5 5 5 5 5 5 5 5 5 5 5 5 6 5 5 6 5 5 5 6 5 5 5 5 5 5 5 5 5 5 5 5 5 5 5 6 5 6 5 5 5 5 5 5 5 5 5 6 5 5 5 5 5 5 5 5 5 6 6 5 5 5 5 5 5 5 5 5 5 5 5 5 5 5 5 5 5 5 5 5 5 5 5 5 5 5 5 5 5 5 5 5 5 5 5 5 5 5 5 5 5 5 5 5 5 5 5 5 5 5 5 5 5 5 5 5 5 5 5 5 5 5 5 5 5 5 5 5 5 5 6 5 5 5 5 5 5 6 5 5 5 5 5 5 5 5 5 6 5 6 5 5 5 5 5 5 5 5 5 5 5 5 5 5 5 5 5 5 5 5 5 5 5 5 5 5 5 5 5 5 5 5 5 5 6 5 5 5 6 6 5 5 5 5 5 5 5 5 5 5 5 5 5 5 5 5 5 5 5 5 5 5 6 6 5 5 5 5 5 5 5 5 6 5 5 5 5 5 5 6 5 5 5 5 5 6 5 5 5 5 6 5 5 5 6 5 5 5 6 5 5 6 5 5 5 5 5 5 5 5 5 5 5 5 5 6 5 5 5 5 5 5 5 5 6 5 5 5 5 5 5 5 5 5 5 5 6 5 5 5 6 5 5 5 5 6 5 5 5 5 5 5 5 5 6 5 6 5 5 6 5 5 5 5 5 6 5 5 5 5 5 5 5 5 5 5 5 5 6 5 5 5 5 5 5 5 5 5 6 5 5 5 5 5 5 6 5 5 5 5 5 5 5 6 5 5 5 5 5 6 5 5 5 5 5 5 5 5 5 5 5 5 5 5 5 5 5 5 5 5 5 5 5 5 5 5 5 5 5 5 5 5 5 5 5 5 5 5 5 5 5 5 5 5 5 5 5 6 5 6 5 5 5 5 5 5 5 5 5 5 5 5 5 5 6 5 5 5 5 5 5 5 5 5 5 5 5 5 5 5 6 5 5 6 5 6 5 5 5 5 5 6 5 5 5 5 5 5 5 5 5 5 5 5 5 5 5 5 5 5 5 5 6 5 5 5 5 5 5 5 5 5 5 5 6 5 6 5 5 6 5 6 5 5 5 5 5 5 5 6 5 6 5 5 5 5 6 5 5 5 5 6 6 5 5 6 5 5 5 5 5 5 5 5 5 5 5 5 5 5 5 5 6 5 5 5 5 5 5 5 5 5 5 5 5 5 5 6 5 6 5 5 5 5 5 5 5 6 5 6 5 5 5 5 5 5 5 5 5 6 6 5 5 5 6 5 5 5 5 6 5 6 5 5 6 5 6 6 6 5 5 6 5 5 5 6 6 6 5 5 5 5 5 5 5 5 5 5 5 6 5 5 5 5 5 5 6 5 5 5 6 5 5 5 5 5 5 5 5 6 5 5 5 6 5 5 5 5 5 5 5 5 5 5 5 5 5 5 5 5 5 5 5 5 5 5 5 5 5 5 5 5 5 5 5 5 5 5 5 5 5 5 5 5 5 5 5 5 5 5 5 5 5 5 5 5 5 5 5 5 5 5 5 5 6 5 5 5 5 5 6 5 5 5 5 6 5 5 5 6 5 5 5 5 5 5 5 5 5 5 5 5 5 5 5 5 5 5 5 5 5 5 5 5 5 5 5 5 5 5 5 5 5 5 5 5 5 5 5 5 6 5 5 6 5 5 5 5 5 5 5 6 5 5 5 5 5 5 5 5 5 5 5 6 5 5 6 5 6 5 5 5 6 5 5 5 5 5 5 5 5 6 5 5 5 5 6 5 5 5 5 6 5 6 5 5 5 5 5 5 5 5 5 5 5 5 6 5 6 5 5 5 5 5 5 5 5 5 5 5 5 5 6 5 5 5 5 5 5 5 5 5 6 5 5 5 6 5 5 5 5 5 5 5 5 5 5 5 5 5 5 5 5 5 5 5 5 5 5 5 5 5 5 5 5 5 5 5 5 5 5 5 6 5 5 6 5 5 5 5 6 5 5 5 5 5 5 5 5 5 5 5 5 5 5 5 6 5 5 5 5 5 5 5 5 5 6 5 6 5 5 5 5 5 5 5 6 5 5 5 5 5 5 5 5 5 5 5 5 5 5 6 5 5 5 5 5 5 5 5 5 5 5 6 5 5 5 5 5 5 5 5 5 5 5 5 5 5 5 5 5 5 5 5 5 5 5 6 5 6 5 5 5 5 5 5 6 5 6 5 5 5 6 5 5 5 6 5 5 5 6 5 5 6 5 5 5 5 5 5 5 6 5 5 5 5 5 5 5 6 5 5 5 5 5 5 5 5 5 5 5 5 5 6 5 5 5 5 5 5 5 5 6 5 5 5 5 5 5 5 5 5 5 5 5 5 5 5 5 5 5 5 5 6 5 5 5 5 5 5 5 5 5 5 5 5 5 5 5 5 5 5 5 5 5 5 5 5 5 5 5 5 5 5 5 5 5 5 5 5 5 5 5 5 5 5 5 5 5 5 5 5 5 5 6 5 6 5 5 5 6 5 5 6 6 5 6 5 5 5 5 5 5 5 5 5 5 5 5 5 5 5 5 5 5 5 5 5 5 5 5 5 5 5 5 5 5 5 5 5 5 5 6 5 5 5 5 6 5 5 6 5 5 5 6 5 5 5 5 6 5 6 6 5 5 5 5 6 5 5 5 6 5 5 5 6 5 5 5 5 5 5 6 5 5 5 5 5 5 5 5 5 5 5 5 5 5 5 5 5 5 5 5 6 5 5 5 5 5 5 5 5 5 5 5 5 5 5 5 5 5 5 6 5 5 6 5 5 6 5 5 5 5 5 5 5 5 5 5 5 6 5 5 5 5 6 5 5 5 5 6 5 5 5 6 5 5 5 5 5 5 5 5 5 5 5 5 5 5 5 5 5 5 5 5 5 5 5 5 5 6 5 5 5 5 5 5 5 5 6 5 5 5 6 5 5 5 5 5 5 5 5 5 5 5 5 5 5 5 5 5 5 5 5 5 5 5 5 6 5 5 5 6 5 5 5 5 5 5 5 5 6 5 5 6 5 5 5 5 6 5 5 5 5 5 5 5 6 5 6 5 5 6 5 5 6 6 5 5 5 5 5 5 5 5 5 5 5 5 5 5 5 5 5 5 5 5 5 6 5 5 5 5 6 5 5 5 5 5 5 5 5 5 5 5 5 5 6 5 5 6 5 5 5 5 5 5 5 5 5 5 5 5 5 5 5 5 5 5 5 5 5 5 5 5 5 5 5 5 5 5 5 5 5 5 5 5 5 5 5 5 5 5 5 5 5 5 5 5 5 5 5 5 5 5 5 5 5 5 5 5 5 5 5 5 5 5 5 5 5 5 5 5 5 5 5 5 5 5 5 5 5 5 5 5 5 5 5 5 5 5 5 5 5 5 5 5 5 5 5 5 5 5 5 5 5 5 5 5 5 5 5 5 5 5 5 5 5 5 5 5 5 5 5 5 5 5 5 5 6 5 5 5 5 5 5 5 6 5 5 5 5 5 5 5 5 5 6 5 6 5 5 5 6 5 5 6 5 5 5 5 5 5 5 5 5 5 5 5 5 5 5 5 5 5 5 5 5 5 5 5 5 5 5 5 5 5 5 5 5 5 5 5 5 6 5 5 6 6 5 5 6 5 5 6 5 5 5 6 5 5 5 5 5 5 5 5 5 6 5 5 5 5 5 5 6 5 5 5 5 5 5 5 5 5 5 5 5 5 5 5 5 5 5 5 5 5 5 5 5 5 5 5 5 5 5 5 6 5 5 5 5 5 5 5 5 5 5 5 5 5 5 5 5 5 5 5 5 5 5 5 5 5 5 5 5 5 5 5 5 5 5 5 5 5 5 5 5 5 5 5 5 5 5 6 5 6 5 5 5 5 6 5 5 5 5 6 5 5 5 5 6 5 5 5 5 5 5 5 5 6 5 5 6 5 6 5 5 5 5 6 5 5 6 6 5 5 5 5 5 5 6 5 5 5 5 5 5 5 5 5 5 6 6 5 5 5 5 5 6 5 5 6 5 5 5 5 6 5 5 6 5 5 5 5 5 5 5 5 5 5 5 5 5 5 5 5 5 5 5 5 5 5 5 5 5 5 5 5 5 6 5 6 5 5 5 5 5 5 5 5 5 5 5 5 5 6 5 5 5 5 6 6 5 5 5 5 5 5 5 5 5 5 5 5 5 5 5 5 5 5 5 5 5 5 5 5 5 5 5 5 5 5 5 5 5 5 5 5 5 5 5 5 5 5 6 5 5 5 6 5 5 5 5 5 5 5 5 5 5 5 5 5 5 5 5 5 5 5 5 6 5 5 6 5 5 5 5 5 5 5 5 5 6 5 5 5 5 5 6 5 5 5 5 5 6 5 6 5 5 5 5 5 5 5 5 5 5 5 5 5 6 5 5 5 6 6 5 5 5 5 5 5 5 5 6 5 5 6 5 5 6 6 5 5 5 5 5 6 5 5 5 5 5 5 5 6 5 5 6 6 5 5 5 5 5 5 6 6 5 5 5 6 5 5 5 5 5 5 5 6 5 5 5 5 5 5 5 5 5 5 5 5 5 5 5 5 5 5 5 5 5 5 5 5 5 5 6 5 5 5 5 5 5 5 6 5 5 5 5 5 5 5 5 5 5 5 6 5 5 5 5 5 5 5 5 6 5 5 5 5 5 5 5 5 5 5 5 5 5 5 5 5 6 5 5 5 6 5 5 5 5 5 6 5 5 5 5 5 5 5 5 5 5 5 5 5 5 6 5 5 5 5 6 5 5 6 5 5 5 5 5 6 5 5 5 5 5 5 5 5 5 5 5 5 5 5 6 5 6 5 5 5 6 5 6 5 6 5 5 5 5 5 5 6 6 5 5 5 5 5 5 6 5 6 5 5 5 5 5 5 5 5 5 5 5 5 5 5 5 5 5 6 5 5 5 6 6 5 5 5 5 5 6 5 5 6 6 5 5 5 5 5 5 5 5 5 5 5 5 5 5 5 5 5 5 5 5 5 5 5 5 5 5 5 5 5 5 5 5 5 5 5 5 5 5 5 5 5 5 5 5 6 5 5 6 6 6 5 5 5 5 5 5 6 5 5 5 5 5 5 5 5 5 6 5 5 5 6 5 5 5 5 5 5 5 5 5 5 5 5 5 5 5 5 5 5 5 5 6 5 5 5 5 6 5 5 5 5 5 5 5 5 5 5 5 5 5 5 5 5 5 5 5 5 5 5 5 5 5 5 5 5 5 5 5 5 5 5 6 5 6 5 5 5 5 5 5 5 5 6 5 5 5 6 5 6 5 5 5 5 5 5 5 5 6 5 5 5 5 6 5 5 5 5 6 5 5 5 5 5 5 5 6 5 5 5 5 6 5 5 5 5 5 5 5 5 5 5 5 5 5 5 5 5 5 5 5 5 5 5 5 5 5 5 5 5 5 5 5 5 5 5 5 5 5 5 5 5 5 5 5 5 5 5 6 5 5 5 5 6 6 5 5 6 6 5 5 5 5 5 5 5 5 5 5 5 5 5 5 5 5 5 5 5 6 5 5 5 6 6 5 5 5 5 5 5 5 5 5 5 5 5 5 5 5 5 5 5 5 5 5 5 5 5 5 5 5 6 5 5 5 5 5 5 5 6 5 5 5 5 5 5 5 5 5 5 5 5 5 5 5 6 5 5 5 5 5 5 5 5 6 5 6 6 5 5 5 5 5 5 5 5 5 5 5 5 6 5 5 5 5 5 5 5 5 5 5 5 5 5 5 5 5 5 5 6 5 5 5 6 5 5 5 5 5 5 5 5 6 5 5 5 5 5 5 5 5 5 5 5 5 5 5 5 6 5 5 5 6 5 5 5 5 5 5 5 5 5 5 5 5 5 5 5 5 5 5 5 5 5 5 5 5 5 5 5 5 5 5 5 5 5 6 5 6 5 5 5 5 5 5 5 5 6 5 5 5 5 5 5 5 5 5 6 5 5 6 5 5 5 5 5 6 5 5 5 5 6 5 5 5 5 6 5 5 5 6 5 6 5 5 6 5 5 5 5 5 5 5 5 5 5 5 5 5 5 6 5 5 6 5 6 5 5 5 6 5 5 6 5 5 5 5 6 5 6 5 5 5 5 5 5 6 5 6 5 5 5 5 5 6 5 5 5 5 6 5 5 5 5 5 5 6 5 5 5 5 5 5 5 5 5 5 5 5 5 5 5 5 5 5 5 5 5 5 5 5 5 5 5 5 5 5 5 5 5 6 6 5 5 5 5 5 5 5 5 5 5 6 5 5 6 6 5 6 5 5 5 5 5 5 5 6 5 5 5 5 5 5 5 5 5 5 5 5 6 5 5 5 5 6 5 5 5 5 5 5 5 5 5 5 5 5 6 5 5 5 5 5 5 5 5 5 5 5 5 5 5 5 5 5 6 5 5 5 5 5 6 5 5 5 6 5 5 5 5 5 5 6 5 6 5 5 5 6 5 5 5 5 5 5 5 5 5 6 5 5 6 5 5 5 5 5 5 5 6 5 5 5 5 5 5 5 5 5 5 5 5 5 6 5 5 6 5 5 5 5 5 5 6 5 5 5 5 5 5 6 5 5 5 5 5 5 5 6 5 5 5 5 5 5 5 5 5 5 5 5 5 5 5 5 5 5 5 5 5 5 6 5 5 5 5 5 5 5 5 5 5 6 5 5 5 5 6 6 5 5 5 5 6 5 5 5 5 5 5 5 5 5 6 5 5 5 5 5 5 5 5 5 5 5 6 5 5 5 6 5 5 5 6 5 5 5 5 5 5 5 5 5 5 5 5 6 5 5 5 5 5 6 5 5 6 5 5 5 5 5 5 5 5 5 5 5 5 5 5 6 5 5 5 5 5 5 5 6 5 5 5 6 5 5 5 5 5 6 5 5 5 5 5 5 5 5 5 6 5 5 5 5 5 5 5 5 6 5 5 5 5 5 6 5 5 5 5 5 5 5 6 5 5 5 5 5 5 5 5 5 5 5 5 5 5 5 5 5 5 5 5 5 5 5 5 5 5 5 5 5 5 5 5 5 5 5 5 5 5 5 5 5 5 5 5 5 5 5 5 6 5 5 5 5 5 5 5 6 5 5 5 5 5 5 5 5 5 5 5 5 5 5 5 5 5 5 5 5 5 5 6 6 5 5 6 6 5 5 5 5 5 5 5 6 5 5 5 5 5 5 5 5 5 5 5 5 5 5 6 5 5 5 5 5 5 5 5 6 5 5 6 5 5 5 6 5 5 5 5 5 5 5 5 5 5 5 5 5 5 5 5 5 5 5 5 5 5 5 5 5 5 5 5 6 5 5 5 5 5 5 5 5 6 5 5 5 5 5 5 6 6 5 5 5 5 6 5 5 6 5 5 6 5 5 5 5 5 5 6 5 5 5 5 5 5 5 5 6 5 5 5 5 5 5 5 5 5 5 5 6 5 5 6 5 5 5 5 5 5 5 6 5 5 5 6 5 6 5 6 5 5 5 5 5 5 5 5 5 5 5 5 5 5 5 5 5 6 5 6 5 5 5 5 5 5 5 5 5 5 6 5 5 5 5 5 5 5 6 5 5 5 6 5 6 6 5 5 6 5 5 5 5 6 5 5 5 6 5 5 5 6 5 6 6 5 5 5 5 5 5 6 5 5 5 5 5 5 5 5 6 6 6 5 6 5 5 6 6 5 5 6 5 5 5 5 5 5 5 5 5 5 5 6 5 5 5 5 5 5 5 5 5 5 5 5 5 6 6 5 5 5 5 6 5 5 5 6 5 5 5 5 5 6 6 5 5 5 6 5 5 5 5 5 5 5 5 5 5 5 5 5 5 5 6 5 5 5 6 5 5 5 6 5 5 5 5 5 5 6 5 5 5 5 5 6 5 5 5 5 5 5 5 5 6 5 5 5 5 5 5 5 5 5 6 5 5 5 5 6 5 6 5 5 6 5 6 5 5 5 5 5 5 6 5 6 6 5 5 5 5 5 5 5 5 6 5 6 5 6 5 6 5 5 5 5 5 5 5 5 5 5 5 6 5 5 5 6 5 5 5 5 5 5 5 5 6 5 5 5 5 5 5 5 5 5 6 5 5 5 5 6 5 5 6 5 5 5 5 5 5 5 5 5 6 5 5 5 6 5 5 5 5 5 5 5 5 5 5 5 5 5 5 5 5 5 5 5 6 5 5 5 5 5 5 5 5 5 5 6 5 5 5 5 5 5 5 5 5 5 5 5 5 5 5 5 5 5 5 5 5 5 5 5 5 5 5 5 5 5 5 5 5 5 5 5 5 5 5 5 5 5 5 5 5 6 6 5 5 5 5 5 5 5 5 5 5 5 5 5 6 6 5 5 5 6 5 5 6 5 5 5 6 5 5 5 6 5 5 5 5 5 5 5 5 6 5 5 6 5 6 6 5 5 5 5 5 5 6 5 6 6 6 5 5 6 5 5 6 6 5 5 5 5 5 5 5 5 5 5 5 5 5 5 5 5 5 5 5 5 5 6 5 5 5 5 5 5 5 5 5 6 5 5 5 5 5 5 5 6 6 5 5 5 5 5 5 5 5 5 5 5 5 5 5 5 5 5 5 5 5 5 5 5 6 5 6 5 5 5 5 5 5 5 6 5 5 5 6 6 5 5 6 5 5 5 5 6 5 5 5 6 5 5 5 6 5 5 5 5 5 5 5 5 5 6 6 5 5 5 5 5 6 5 5 6 6 6 5 5 5 5 5 6 5 5 5 5 5 5 5 5 5 6 5 6 5 5 5 5 5 5 5 5 5 5 5 5 5 5 5 5 5 5 5 5 5 5 5 5 6 5 5 5 5 6 6 5 5 5 6 5 5 5 5 5 5 5 5 5 5 5 5 5 5 5 5 6 5 5 5 6 5 5 6 5 5 5 5 5 5 5 5 5 5 5 5 5 6 5 5 6 5 5 5 6 5 6 5 6 5 6 6 6 5 5 5 5 5 5 5 5 6 5 5 5 5 5 5 5 5 6 5 5 6 5 5 5 5 5 5 5 5 5 5 5 5 5 5 5 5 5 5 5 5 5 6 5 5 5 5 5 5 5 5 5 5 6 5 6 5 5 6 5 6 5 6 5 5 6 5 6 5 5 6 5 5 5 6 5 5 5 5 5 5 5 5 5 5 5 5 5 5 5 5 5 5 5 5 5 5 5 5 5 5 5 5 5 5 5 5 5 5 5 5 5 5 5 5 5 5 5 5 5 5 5 5 5 5 5 5 5 5 5 5 5 5 5 5 5 6 5 5 6 5 5 5 5 5 5 6 6 5 5 5 5 5 5 5 5 5 5 5 5 5 5 5 5 5 5 6 5 5 5 6 5 5 5 5 5 5 5 5 5 5 5 5 5 5 5 5 6 5 5 5 5 5 5 5 6 5 5 5 5 5 5 5 5 6 5 6 5 5 5 5 5 5 5 5 5 5 5 5 5 5 5 5 6 5 5 5 5 5 5 5 6 5 5 5 5 6 5 5 5 5 5 5 5 6 5 5 6 6 5 5 6 5 5 5 5 5 5 6 5 5 5 5 5 5 5 5 5 6 5 5 6 5 5 6 5 5 6 5 5 5 5 5 6 5 5 5 5 5 5 5 5 6 5 5 5 5 5 5 5 6 5 5 5 5 5 5 5 5 5 5 5 5 6 5 5 5 5 5 5 5 6 6 5 6 5 6 5 5 5 5 5 5 5 5 5 5 5 5 5 5 5 6 5 6 5 5 5 5 5 5 5 5 6 5 6 5 6 5 6 5 6 5 5 6 5 5 5 5 5 6 5 5 5 5 5 5 5 5 6 5 5 5 5 5 6 5 5 6 5 6 6 5 5 5 5 5 5 5 5 6 5 5 5 5 5 5 5 5 5 5 5 5 5 6 5 5 5 5 5 5 5 6 5 5 5 6 5 5 5 5 5 5 5 5 5 5 5 5 5 5 5 5 5 6 5 5 5 5 5 5 5 6 5 5 6 5 5 5 5 5 5 5 5 5 5 5 5 5 5 5 6 5 5 5 5 6 5 5 5 5 5 5 5 5 5 5 5 5 5 5 5 5 5 5 5 5 5 5 5 5 5 6 5 5 5 5 5 5 6 5 5 5 5 5 5 5 5 5 6 6 5 5 5 6 5 6 5 5 5 5 5 5 5 5 5 5 5 5 5 5 5 6 5 5 5 5 5 5 5 5 5 5 5 5 6 6 5 5 5 5 5 5 5 5 6 5 5 6 5 5 6 6 5 5 5 5 5 5 5 6 5 5 5 5 5 5 5 5 5 6 5 5 5 6 5 5 5 5 5 6 5 5 5 5 5 5 5 5 5 5 5 5 6 5 5 5 6 5 5 5 6 5 5 5 5 5 5 5 5 5 5 5 5 5 5 5 5 5 5 5 5 5 5 5 5 5 5 5 5 5 5 5 5 6 5 5 5 5 5 5 5 5 5 5 5 5 5 5 5 5 5 5 5 5 5 5 5 5 6 5 6 5 5 6 5 5 5 5 5 5 5 5 5 6 5 5 5 5 5 5 5 5 5 5 5 5 5 5 6 5 5 5 5 6 5 5 5 6 5 5 5 5 5 5 5 5 5 5 5 5 5 5 5 5 5 5 5 5 5 5 5 5 5 5 5 5 5 5 5 5 5 5 5 5 5 5 5 5 5 5 5 5 5 5 5 5 5 5 5 5 5 5 5 5 5 5 5 5 5 5 5 5 5 5 5 5 5 5 5 5 5 5 5 5 5 5 5 5 5 5 5 5 5 5 5 5 5 5 5 5 5 5 5 5 5 5 5 5 5 5 5 5 5 5 5 5 5 5 5 5 5 5 5 5 5 5 5 5 5 5 5 5 5 5 5 5 5 5 5 5 5 5 5 5 5 5 5 5 5 5 5 5 5 5 5 5 5 5 5 5 5 5 5 5 5 5 5 5 5 5 5 5 5 5 5 5 5 5 5 5 5 5 5 5 5 5 5 5 5 5 5 5 5 5 5 5 5 6 5 5 5 5 5 5 5 5 5 5 5 5 5 5 5 5 6 5 5 5 5 5 5 5 5 6 5 5 5 5 6 5 5 5 5 5 5 5 5 5 5 5 5 5 5 5 5 5 5 5 5 5 5 6 5 5 5 5 5 5 5 5 5 5 5 5 5 6 6 5 5 5 5 5 6 5 6 5 5 5 5 5 5 5 5 5 5 5 6 5 5 5 5 5 5 5 6 5 5 5 5 5 5 5 5 5 5 5 5 5 5 5 6 6 5 5 5 5 5 5 5 5 5 5 5 5 6 5 5 5 5 5 5 5 5 5 5 5 5 5 5 5 5 6 5 5 5 5 5 5 5 6 5 5 5 5 5 5 5 5 5 5 6 6 5 5 5 5 5 5 5 5 5 5 5 5 5 5 5 5 5 5 5 5 5 5 5 5 5 5 5 5 5 5 6 5 5 5 5 5 6 5 5 5 5 5 5 5 5 5 5 6 5 5 5 5 6 5 5 5 5 5 5 5 5 5 5 6 5 6 5 5 5 5 5 5 5 5 5 5 5 5 5 5 5 5 5 5 5 5 5 5 5 5 5 5 5 5 5 5 5 6 5 5 5 5 5 6 5 5 5 5 5 5 5 5 5 5 5 5 5 5 5 5 5 5 6 5 5 6 5 5 5 6 5 5 5 5 5 6 5 5 5 5 5 5 5 5 5 5 6 5 5 5 5 5 5 6 5 5 5 5 5 6 6 5 5 6 5 5 6 5 5 5 5 5 5 5 5 5 5 6 5 5 6 5 5 6 5 5 6 5 5 6 5 5 6 5 5 5 5 5 5 6 5 5 5 5 5 5 5 5 5 5 5 6 5 5 5 5 5 5 5 6 5 5 5 5 6 5 5 5 6 5 5 5 5 5 5 5 5 5 5 5 6 5 5 5 5 5 5 5 5 5 5 5 5 5 5 5 5 5 5 5 5 5 5 5 5 6 5 5 5 5 5 6 5 5 5 5 5 5 5 5 5 5 5 5 5 5 6 5 5 6 5 6 5 5 5 5 6 5 6 6 5 6 5 5 5 5 5 5 5 6 5 6 5 5 5 5 5 5 6 5 5 5 5 5 5 6 5 5 5 5 6 5 5 5 5 5 6 5 5 6 5 5 5 5 6 5 5 5 5 6 5 5 5 5 5 5 6 5 5 5 5 5 5 5 5 5 6 5 5 5 5 5 5 6 5 5 5 5 6 5 5 5 5 5 5 5 5 5 5 5 5 5 5 5 5 6 5 5 5 6 5 5 6 5 5 5 5 5 5 5 5 5 5 5 5 5 5 5 5 6 5 6 5 5 5 5 5 5 5 5 5 5 5 5 5 5 5 5 5 5 5 5 5 5 5 5 5 5 6 5 5 6 5 5 5 5 5 5 5 5 5 5 6 5 5 5 5 6 5 5 5 5 6 5 5 5 5 5 5 5 5 5 6 5 5 5 5 5 5 5 5 5 5 5 5 5 5 5 5 5 5 5 5 5 5 5 5 5 5 5 5 
</DataArray>
<DataArray type="Float64" Name="stress" NumberOfComponents="9" format="ascii">
227736042.56275266 815102015.46882439 0 815102015.46882439 -2200452075.4061737 0 0 0 0 145297937.02917379 135990648.69865227 0 135990648.69865227 -1538419434.535183 0 0 0 0 -1045318.5223336441 119849861.01928902 0 119849861.01928902 -1217048246.0848656 0 0 0 0 -158015656.35618863 311284640.51230049 0 311284640.51230049 -595158803.46334076 0 0 0 0 34982339.543600932 181717440.39102936 0 181717440.39102936 -598148199.51995265 0 0 0 0 283566.36173366464 148252.36097050831 0 148252.36097050831 -1773414.9018201083 0 0 0 0 3831735.2031878233 -81528960.539981842 0 -81528960.539981842 46519558.218341827 0 0 0 0 -71017491.360269547 23830049.517547607 0 23830049.517547607 -15693079.97423172 0 0 0 0 -97770872.212739795 645035977.09416008 0 645035977.09416008 -1374176648.6406021 0 0 0 0 -361021509.5444451 349097132.92046452 0 349097132.92046452 -546971440.40407562 0 0 0 0 -5367941.8260506392 236751544.49442291 0 236751544.49442291 -678106977.86278248 0 0 0 0 -1419653539.8310556 1190420582.1934319 0 1190420582.1934319 -422365645.41820526 0 0 0 0 -498385018.65658104 -1286630738.714756 0 -1286630738.714756 -2201516139.1577721 0 0 0 0 -1626596.8161715961 -68914.343185974285 0 -68914.343185974285 -3188265.2301564999 0 0 0 0 81808429.249216706 -554404010.41220856 0 -554404010.41220856 -1600411192.7578506 0 0 0 0 334052704.71893275 -209425287.16363144 0 -209425287.16363144 -2205267256.3492517 0 0 0 0 5879510.8506351858 -423274680.32781792 0 -423274680.32781792 -894677656.96044159 0 0 0 0 -43049145.918095797 -248373450.55052185 0 -248373450.55052185 -935283088.63415337 0 0 0 0 -1524441.6310205811 983033.76721090451 0 983033.76721090451 -7547062.629775092 0 0 0 0 -139923424.37443441 -184724983.25288391 0 -184724983.25288391 -481410538.49628448 0 0 0 0 131284517.89394283 114917579.43640137 0 114917579.43640137 -1193510769.6703529 0 0 0 0 -781684.38240231317 -2549668.0480624903 0 -2549668.0480624903 -8090224.7952207755 0 0 0 0 34861189.041758716 -19011267.285932541 0 -19011267.285932541 -11625288.145019531 0 0 0 0 75964422.16087079 -7451176.1187210083 0 -7451176.1187210083 -35742880.275108337 0 0 0 0 20045243.988108158 -8838878.4440956116 0 -8838878.4440956116 -17463881.055267334 0 0 0 0 86847959.122894406 78850973.109992981 0 78850973.109992981 30038498.784378052 0 0 0 0 125515.67920309253 3973024.3853218891 0 3973024.3853218891 -15275765.441229779 0 0 0 0 -65298771.062523842 65377634.403205872 0 65377634.403205872 42972738.350601196 0 0 0 0 14384363.133734465 23205726.33411026 0 23205726.33411026 -16990784.982746124 0 0 0 0 29665109.329913974 13019116.533713341 0 13019116.533713341 -42226218.596221924 0 0 0 0 -86133849.388258219 -4400263.2670135498 0 -4400263.2670135498 122139057.89323044 0 0 0 0 1399698.0841344472 772403.24808739498 0 772403.24808739498 -6391148.9038098864 0 0 0 0 -295485260.74969357 218727464.00792313 0 218727464.00792313 -174899259.96096802 0 0 0 0 -99025840.812461376 -52852535.610534668 0 -52852535.610534668 -60359517.364532471 0 0 0 0 -18962917.084063411 62286090.680324554 0 62286090.680324554 -101212134.31535339 0 0 0 0 -31017101.251810551 65916436.269378662 0 65916436.269378662 46680406.8396492 0 0 0 0 48158462.384886272 -658200.1160543859 0 -658200.1160543859 -129531078.86486816 0 0 0 0 15788977.242857322 17261369.146670341 0 17261369.146670341 -128386418.03793335 0 0 0 0 18655924.332911491 66758062.92427063 0 66758062.92427063 -152729484.50473022 0 0 0 0 8736421.2228941917 49826995.670730591 0 49826995.670730591 -149541703.25894165 0 0 0 0 48239056.767216571 18414676.875433981 0 18414676.875433981 -195231444.62002563 0 0 0 0 -43429129.630386829 7438266.2802276611 0 7438266.2802276611 -79662947.926490784 0 0 0 0 -166413032.82852054 -138176052.828125 0 -138176052.828125 -251786495.25621033 0 0 0 0 -239471710.83205706 65614324.61624527 0 65614324.61624527 -94351785.372055054 0 0 0 0 -26560631.753294945 -27144587.822875977 0 -27144587.822875977 -299224509.10617065 0 0 0 0 -89192.246846634895 -297117.29043713026 0 -297117.29043713026 -366104.41367452592 0 0 0 0 -141162216.23739839 116152724.77952576 0 116152724.77952576 -112122934.9664917 0 0 0 0 -231069134.84487283 -153248218.83813667 0 -153248218.83813667 -122411553.60290527 0 0 0 0 12557.973458469147 -196056.57650678419 0 -196056.57650678419 -171488.05000779778 0 0 0 0 -43525935.499372721 105709779.36495209 0 105709779.36495209 -28677302.750656128 0 0 0 0 2682138.5383185148 36410816.852642059 0 36410816.852642059 -170500673.07330322 0 0 0 0 68681380.451874733 108693197.7482605 0 108693197.7482605 -418884203.7381134 0 0 0 0 16598330.819054127 56101834.507965088 0 56101834.507965088 -169731706.08333683 0 0 0 0 1525077.4885587692 -3652862.0759429932 0 -3652862.0759429932 -9675647.3323230743 0 0 0 0 793132.3312121944 -743810.90282182954 0 -743810.90282182954 -2509117.8144894093 0 0 0 0 29979234.561255693 3448898.6384429932 0 3448898.6384429932 -34159770.925621033 0 0 0 0 -3097292.4520366192 -6816253.4638023376 0 -6816253.4638023376 -28292090.150123596 0 0 0 0 -4252514.0263003595 5480230.4344027042 0 5480230.4344027042 -63043879.273849487 0 0 0 0 -6013364.2831976712 30394664.085748672 0 30394664.085748672 -68624285.664993286 0 0 0 0 19531101.695031643 31066857.851211548 0 31066857.851211548 -78787723.627944946 0 0 0 0 149648786.50875044 86140490.332382202 0 86140490.332382202 -55023120.280105591 0 0 0 0 16258779.506002426 24333611.761390686 0 24333611.761390686 -17098085.394515991 0 0 0 0 -25829.331959155854 3623860.5123894103 0 3623860.5123894103 -14549119.862612743 0 0 0 0 36298295.126980782 -19458040.650917053 0 -19458040.650917053 -12391822.158336639 0 0 0 0 93422410.713687003 -22718229.675891876 0 -22718229.675891876 -91549508.071777344 0 0 0 0 -26313854.192543983 18483977.286193848 0 18483977.286193848 -75498435.874801636 0 0 0 0 -66475699.998365998 -79022634.033355713 0 -79022634.033355713 -25692329.219280243 0 0 0 0 -717340.34617009421 -1055616.2554783132 0 -1055616.2554783132 20757.208361685276 0 0 0 0 -20542798.551740646 -87921814.499176025 0 -87921814.499176025 -102621338.32258415 0 0 0 0 -76385643.804559946 -48960608.576324463 0 -48960608.576324463 -52805369.802032471 0 0 0 0 28150522.658842027 -6155571.8433227539 0 -6155571.8433227539 -34103766.033889771 0 0 0 0 50947743.73662293 -23231858.477081299 0 -23231858.477081299 -47594489.697319031 0 0 0 0 61703131.921657838 -8044568.6558933258 0 -8044568.6558933258 -23811839.668685913 0 0 0 0 54964085.843952954 -30177158.627124786 0 -30177158.627124786 -35737300.825302124 0 0 0 0 16802709.645384908 -42606505.073642731 0 -42606505.073642731 -35266766.115310669 0 0 0 0 39147798.570228904 -8832720.4186439514 0 -8832720.4186439514 -32527364.062942505 0 0 0 0 -59492155.348301411 -24552496.262794495 0 -24552496.262794495 -12741856.382392883 0 0 0 0 -130148.08180303738 -2482538.7608440388 0 -2482538.7608440388 -835190.80936045945 0 0 0 0 92218.785826325417 -2546343.1798868179 0 -2546343.1798868179 -3805043.1933288574 0 0 0 0 773619.59062099457 -1142967.6249408722 0 -1142967.6249408722 -2577410.0164642334 0 0 0 0 469887.28992216079 -1351234.467666883 0 -1351234.467666883 -7190523.0278372923 0 0 0 0 1205570.905857563 -6443978.9513816833 0 -6443978.9513816833 -30175472.16519165 0 0 0 0 -13096331.643543243 -15475356.639206409 0 -15475356.639206409 -29755143.458847046 0 0 0 0 -759823.45852474426 -2807138.8963480182 0 -2807138.8963480182 -7013639.6280730991 0 0 0 0 -16783793.234580755 -45158226.239326477 0 -45158226.239326477 -27103116.635509491 0 0 0 0 -488283.69652843475 -2260970.7662315369 0 -2260970.7662315369 -2609522.7802124023 0 0 0 0 899816.47430062294 4355208.7643127441 0 4355208.7643127441 -2781844.9145431519 0 0 0 0 8422770.0890045166 -9718675.7828369141 0 -9718675.7828369141 -5124173.4060592651 0 0 0 0 1081463.4139075305 -1492373.5773802097 0 -1492373.5773802097 -4230559.338699609 0 0 0 0 -4688821.0702598691 -7320016.6385803223 0 -7320016.6385803223 845371.19956207275 0 0 0 0 388866.44833445549 -78107.543643951416 0 -78107.543643951416 -5147560.0367221832 0 0 0 0 -3541134.1829592586 418814.59097671509 0 418814.59097671509 3909148.3784637451 0 0 0 0 -13347183.920428932 -14391140.648414612 0 -14391140.648414612 -9473154.9023303986 0 0 0 0 -8893536.0232236981 -188182.58938217163 0 -188182.58938217163 3040628.4899749756 0 0 0 0 -69615512.54001005 13181333.425231934 0 13181333.425231934 -32146740.975746155 0 0 0 0 471690.88137124828 73862.260991096497 0 73862.260991096497 -1243570.4352340698 0 0 0 0 86769.664626018828 23429.601218458265 0 23429.601218458265 -107715.03155561537 0 0 0 0 1155.0881728497407 5833.1611677650362 0 5833.1611677650362 5380.0207888558507 0 0 0 0 -31718.949746943726 -110695.75761486124 0 -110695.75761486124 -40398.22667055577 0 0 0 0 2814160.2256055884 -3151291.8762245178 0 -3151291.8762245178 -2698351.8533248901 0 0 0 0 2281243.815843299 1056336.0456619263 0 1056336.0456619263 -478035.77917861938 0 0 0 0 -185291.25916672641 -304669.6758025568 0 -304669.6758025568 307223.2067264542 0 0 0 0 141971.05490967445 -804180.84763336182 0 -804180.84763336182 -416425.48540496826 0 0 0 0 832686.08642867883 -1178580.3546867371 0 -1178580.3546867371 -591315.20245361328 0 0 0 0 418925.94571327372 1450505.5063934326 0 1450505.5063934326 224687.95179748535 0 0 0 0 431451.35490277875 -1255604.1028556824 0 -1255604.1028556824 287432.7783203125 0 0 0 0 747658.26229137462 -1029747.1355819702 0 -1029747.1355819702 -826928.52838897705 0 0 0 0 -4889.9743472424507 25454.308589346707 0 25454.308589346707 -71867.531166516244 0 0 0 0 198221.11912781349 465057.28162384033 0 465057.28162384033 -2637068.2466659546 0 0 0 0 -214531.46614175531 16013745.280727386 0 16013745.280727386 -71201288.627536774 0 0 0 0 10327304.552749868 64262982.333395004 0 64262982.333395004 -157978385.4850235 0 0 0 0 -94678420.545870677 115767901.48208618 0 115767901.48208618 -150482764.29660416 0 0 0 0 119854.00560015324 48588189.399634339 0 48588189.399634339 -332940359.79255676 0 0 0 0 -22917384.066705473 68921760.719913483 0 68921760.719913483 -238251510.48478699 0 0 0 0 -132005200.29875247 245816030.81751251 0 245816030.81751251 -287323507.75286865 0 0 0 0 -156438145.27954608 122309487.9293623 0 122309487.9293623 -120803822.92711639 0 0 0 0 -14750045.216692746 -6145869.7433013916 0 -6145869.7433013916 -121649873.49982738 0 0 0 0 -6199483.986061899 1815750.4977445602 0 1815750.4977445602 -114277703.48957825 0 0 0 0 -7141331.2961518764 -7103147.7312698364 0 -7103147.7312698364 -69720588.910179138 0 0 0 0 -8839449.2903273106 23556357.541168213 0 23556357.541168213 -61796092.557983398 0 0 0 0 -20359726.565695763 -18634180.176856995 0 -18634180.176856995 -92244814.917747498 0 0 0 0 52335.001305698956 -42265.298822425306 0 -42265.298822425306 -84542.624674238265 0 0 0 0 20559025.971516192 52608370.777565002 0 52608370.777565002 -112825213.3724823 0 0 0 0 36264858.320983529 6935285.6469116211 0 6935285.6469116211 -74757171.524719238 0 0 0 0 -96957772.260579646 51533699.929801941 0 51533699.929801941 -103152971.73477173 0 0 0 0 -1290445.8355170968 -1454891.045702606 0 -1454891.045702606 -3125263.2149070725 0 0 0 0 -173912899.71314242 -151174756.59166431 0 -151174756.59166431 -61150161.296531677 0 0 0 0 129505907.95423193 -108151809.32741737 0 -108151809.32741737 -7520255.400472641 0 0 0 0 -69364532.233684182 -101717995.37041616 0 -101717995.37041616 93921107.649719238 0 0 0 0 -84733982.283736974 47163921.657260895 0 47163921.657260895 137872046.93214417 0 0 0 0 -42526695.652224153 24285861.527657509 0 24285861.527657509 -758679107.93221283 0 0 0 0 -196918620.60718912 23181346.063020706 0 23181346.063020706 123812827.36949921 0 0 0 0 -426890.72246410529 -306202.23742288165 0 -306202.23742288165 -1283915.4372538477 0 0 0 0 53201674.553248674 405346106.44867325 0 405346106.44867325 -739051934.16589737 0 0 0 0 -541374543.24848437 -479471558.52906871 0 -479471558.52906871 -594548579.03755951 0 0 0 0 -247966491.9487094 107900935.01930356 0 107900935.01930356 -1706684586.2738037 0 0 0 0 -195849392.57249013 450699176.53965902 0 450699176.53965902 -1488954585.3213882 0 0 0 0 234876425.84855223 65736782.538356781 0 65736782.538356781 -2205272013.6716232 0 0 0 0 182703038.82087666 59275645.093969345 0 59275645.093969345 -1716841468.5374603 0 0 0 0 32431327.46635744 110304877.24811745 0 110304877.24811745 -784061107.25324249 0 0 0 0 31050527.357127499 -184148440.62718201 0 -184148440.62718201 -886667515.36225128 0 0 0 0 164702716.95864803 -83395117.003437042 0 -83395117.003437042 -1761310600.7644997 0 0 0 0 168289330.02925926 -182284422.37973976 0 -182284422.37973976 -2204849699.5820465 0 0 0 0 199801335.86492664 -35145986.426952362 0 -35145986.426952362 -1773815619.9410629 0 0 0 0 -403693902.00579607 -199305041.78910446 0 -199305041.78910446 -1881512597.2292709 0 0 0 0 -258461648.0356704 -570522851.86042213 0 -570522851.86042213 -398494215.7303009 0 0 0 0 126501154.42723784 -334546083.58355713 0 -334546083.58355713 -1957627368.9255371 0 0 0 0 24095299.058312416 37821847.107707977 0 37821847.107707977 -427422688.23864746 0 0 0 0 -35904448.78116852 97253873.106468201 0 97253873.106468201 -31760737.810379028 0 0 0 0 2105117.2009952068 36225508.157989502 0 36225508.157989502 -257325915.96130562 0 0 0 0 -182987673.19565386 -10501213.172620773 0 -10501213.172620773 -212538710.04795074 0 0 0 0 -152959381.69372183 52772658.61163044 0 52772658.61163044 -208582894.51277924 0 0 0 0 23892.772746443748 -134507872.28555679 0 -134507872.28555679 -902199464.48794556 0 0 0 0 -19142177.868539989 -149012621.38390732 0 -149012621.38390732 -72179163.449817657 0 0 0 0 -25292456.648742009 181125168.49014583 0 181125168.49014583 16949308.85597229 0 0 0 0 -64450125.95507735 20114271.629512787 0 20114271.629512787 206825196.56008148 0 0 0 0 -59180668.915108204 62073470.099136353 0 62073470.099136353 61759528.9282341 0 0 0 0 38931275.447123766 33347726.516288757 0 33347726.516288757 11620178.031799316 0 0 0 0 -97590.416038773837 -219267.48434225097 0 -219267.48434225097 -59590.22646997124 0 0 0 0 -1510966.7181706429 -14723003.095947266 0 -14723003.095947266 6656308.6614925861 0 0 0 0 105759001.36283088 113667601.20584202 0 113667601.20584202 -46164857.413467407 0 0 0 0 -66931990.062339425 59823483.495580673 0 59823483.495580673 -47703650.074752808 0 0 0 0 -721968.27449683053 243898.73531726189 0 243898.73531726189 -713483.5357299 0 0 0 0 -45853731.302908063 23064317.10024929 0 23064317.10024929 -56171266.507247925 0 0 0 0 -15745431.2774086 108096748.1320343 0 108096748.1320343 -54121581.27532959 0 0 0 0 -333768.96398476977 -121948.0626486172 0 -121948.0626486172 -697418.17545704171 0 0 0 0 47721933.844097376 21002706.146133423 0 21002706.146133423 -34928949.533218384 0 0 0 0 -18530487.481493711 20553260.669818878 0 20553260.669818878 -97176422.468963623 0 0 0 0 -33244191.880164862 57155315.567049026 0 57155315.567049026 -79706056.537963867 0 0 0 0 66491573.723660469 20680419.679679871 0 20680419.679679871 -104448587.64555359 0 0 0 0 22769486.153990269 80478184.220127106 0 80478184.220127106 -105221973.2073822 0 0 0 0 78668149.281682491 -17417045.202537537 0 -17417045.202537537 -199508273.47431564 0 0 0 0 80365052.579800785 -53964296.226115227 0 -53964296.226115227 -154588171.4445343 0 0 0 0 60877523.506929636 67723694.161735535 0 67723694.161735535 -229806303.40414429 0 0 0 0 37303245.669933319 49865198.096099854 0 49865198.096099854 7340335.8186721802 0 0 0 0 50244641.222149372 -62399590.825717926 0 -62399590.825717926 -204237977.76814842 0 0 0 0 -149901927.83834267 -203189752.52799034 0 -203189752.52799034 333828976.73874664 0 0 0 0 -718344.0335210209 -665312.00019138493 0 -665312.00019138493 -1171331.0753869377 0 0 0 0 -9024236.518167913 170245785.53603745 0 170245785.53603745 -3156001358.8814697 0 0 0 0 72563449.993215561 255525591.22985077 0 255525591.22985077 -59188073.65832901 0 0 0 0 -187476175.83805817 53859905.351554871 0 53859905.351554871 -2205300326.9876885 0 0 0 0 -316859690.99356246 -137564330.12514114 0 -137564330.12514114 -2371303305.0103073 0 0 0 0 -272073267.17435229 -257132564.54778099 0 -257132564.54778099 -2830700825.8516083 0 0 0 0 -60058920.060025692 374486285.37462997 0 374486285.37462997 -2691691116.3161354 0 0 0 0 -60356869.19705756 334983169.35970569 0 334983169.35970569 -2095001215.9457245 0 0 0 0 19685739.535572067 -36095320.202232361 0 -36095320.202232361 -2235236720.3561859 0 0 0 0 -1532827.5321107532 -1987085.3588349521 0 -1987085.3588349521 -3137541.9818056822 0 0 0 0 10325895.710644513 169735531.70939255 0 169735531.70939255 -1944336829.2704315 0 0 0 0 -1273132.4534265995 -52444611.425516129 0 -52444611.425516129 151665022.48196411 0 0 0 0 151081879.73188829 -119314192.69976044 0 -119314192.69976044 -425161743.63610077 0 0 0 0 84904161.202744007 -110135839.53248215 0 -110135839.53248215 -55974091.612143517 0 0 0 0 57498954.180427745 270401621.13925934 0 270401621.13925934 -1752250729.5218277 0 0 0 0 165109188.50692824 79436954.760746002 0 79436954.760746002 -2204597063.304245 0 0 0 0 304267836.93656862 -206674306.13559341 0 -206674306.13559341 -1872735774.2004242 0 0 0 0 36180180.406474411 -57136226.681236267 0 -57136226.681236267 -1320033758.2886696 0 0 0 0 -1519722.8865079065 -2670027.2705964111 0 -2670027.2705964111 -5075861.9363328852 0 0 0 0 54047203.478803039 67302610.497091293 0 67302610.497091293 -84258388.882804871 0 0 0 0 -192210126.61374855 -93243857.448654175 0 -93243857.448654175 62511957.608631134 0 0 0 0 -71649059.645325184 65788327.338653564 0 65788327.338653564 -25641329.127944946 0 0 0 0 141873835.10620403 -38494767.784297943 0 -38494767.784297943 -203305702.39927673 0 0 0 0 101252333.02843046 62586389.218418121 0 62586389.218418121 -67542200.167114258 0 0 0 0 35185246.57921505 -21481224.358695984 0 -21481224.358695984 -123215551.70979309 0 0 0 0 -17696690.923267841 -20468129.308372498 0 -20468129.308372498 -95666735.398490906 0 0 0 0 -80391312.377152443 1025509.0664787292 0 1025509.0664787292 2705599.9962997437 0 0 0 0 26375734.231527328 -126774568.93056107 0 -126774568.93056107 -187833072.48417473 0 0 0 0 -318359.70762842079 75081.645477628335 0 75081.645477628335 -167859.28794031963 0 0 0 0 -17168697.998725414 -8645351.7857780457 0 -8645351.7857780457 3662236.5358276367 0 0 0 0 -13556406.550213337 -4002830.2391891479 0 -4002830.2391891479 -50846480.192779541 0 0 0 0 8999788.1188147068 -11379058.441574097 0 -11379058.441574097 -11631655.635467529 0 0 0 0 -4195978.4997596741 14868924.244400024 0 14868924.244400024 -13050506.555450439 0 0 0 0 -6341053.6527824402 2161882.4193458557 0 2161882.4193458557 -9704738.8999557495 0 0 0 0 -9724468.964202404 -1379401.2643928528 0 -1379401.2643928528 -13326329.150688171 0 0 0 0 -17404358.121968031 2566684.6439437866 0 2566684.6439437866 -3818313.3955307007 0 0 0 0 -8143705.0347247124 14797237.735790253 0 14797237.735790253 -1719821.5070552826 0 0 0 0 1687335.4517399073 44527390.220859528 0 44527390.220859528 -19964579.966598511 0 0 0 0 -55016388.273405552 14590459.680953979 0 14590459.680953979 1170378.6936454773 0 0 0 0 2593332.3237297535 9921380.9635734558 0 9921380.9635734558 -4200100.3796005249 0 0 0 0 -1914655.2897715569 10698597.657669067 0 10698597.657669067 -1630235.5114822388 0 0 0 0 -2744935.3642568588 6576009.6607551575 0 6576009.6607551575 -689977.96842193604 0 0 0 0 -6845667.3599030972 1989143.9216880798 0 1989143.9216880798 -2716590.8080673218 0 0 0 0 -12464452.295290947 6860029.1745681763 0 6860029.1745681763 -298576.39153289795 0 0 0 0 -7598309.3902592659 3554194.1450691223 0 3554194.1450691223 153576.21784973145 0 0 0 0 -3352319.2041339874 -562705.47682952881 0 -562705.47682952881 -939655.85116577148 0 0 0 0 -3946871.1965427399 7323160.7263412476 0 7323160.7263412476 -544637.39169311523 0 0 0 0 -1657900.6443058252 6593662.1090869904 0 6593662.1090869904 -827428.15251159668 0 0 0 0 1471218.3754820824 4373077.7885856628 0 4373077.7885856628 -5255569.7415924072 0 0 0 0 -2331018.2900748253 4444300.9175605774 0 4444300.9175605774 420314.37232971191 0 0 0 0 -12015.18691444397 3796990.6521148682 0 3796990.6521148682 151948.47343826294 0 0 0 0 -1640309.1423857212 231582.83827400208 0 231582.83827400208 -1693664.4589233398 0 0 0 0 29665.299900053535 -61153.484978333116 0 -61153.484978333116 -142653.07867223304 0 0 0 0 178368.2555770874 2862896.2875404358 0 2862896.2875404358 -2163614.4748268127 0 0 0 0 -651231.67230224609 4140433.1706066132 0 4140433.1706066132 -458790.11898803711 0 0 0 0 4555417.5359930992 10920266.00088501 0 10920266.00088501 -2390246.7438278198 0 0 0 0 524385.91818115185 2554573.7414294304 0 2554573.7414294304 -14503130.896611996 0 0 0 0 2450063.429469347 6247225.8514785767 0 6247225.8514785767 -2919036.2307395935 0 0 0 0 37210.706956428912 -227104.07676621154 0 -227104.07676621154 -2402129.348698183 0 0 0 0 13361608.016730368 13405333.90234375 0 13405333.90234375 -14851055.543567657 0 0 0 0 -720318.76036287774 2473799.5992093729 0 2473799.5992093729 -8228646.7421518415 0 0 0 0 3841693.3459867239 3193277.3292160034 0 3193277.3292160034 -20739585.054336548 0 0 0 0 -2836110.2863307148 -2974679.686164856 0 -2974679.686164856 -20184515.220586777 0 0 0 0 -1620627.2253092828 -3578347.4451545775 0 -3578347.4451545775 -9040638.9673953895 0 0 0 0 -199520.91558253765 -3209638.3936271667 0 -3209638.3936271667 -26694723.384162903 0 0 0 0 2236310.5220742226 1764217.9548664093 0 1764217.9548664093 -3727568.3757171631 0 0 0 0 1219958.2362747192 817147.85694599152 0 817147.85694599152 -5734336.3117980957 0 0 0 0 956176.93234416482 1359175.3683861382 0 1359175.3683861382 -4537856.8572845161 0 0 0 0 1684998.7666091919 -2283338.6888122559 0 -2283338.6888122559 -3002287.0320091248 0 0 0 0 1357318.4822721339 -553711.72487964481 0 -553711.72487964481 -11140665.820314614 0 0 0 0 2184780.9765262604 -690261.98391723633 0 -690261.98391723633 -1843171.861199379 0 0 0 0 686424.41016062233 -585331.12656182051 0 -585331.12656182051 -13716368.147940535 0 0 0 0 2965427.719250679 988971.64624023438 0 988971.64624023438 -3028399.9467163086 0 0 0 0 950652.75796393398 35864.54610173963 0 35864.54610173963 -11257029.013794497 0 0 0 0 734460.2496419244 916574.90062661842 0 916574.90062661842 -9789503.7936219145 0 0 0 0 2027704.0323069692 755012.17616844177 0 755012.17616844177 -5282870.2450866699 0 0 0 0 372988.83924318524 -217849.39664639905 0 -217849.39664639905 -7751003.8861701963 0 0 0 0 274520.64382100105 -170982.3985080719 0 -170982.3985080719 -5611713.5887298584 0 0 0 0 755761.31474208832 850840.29849243164 0 850840.29849243164 -3491831.0750379562 0 0 0 0 498749.21935759112 -423205.40265759267 0 -423205.40265759267 -9845859.2011580467 0 0 0 0 1408523.0783126354 496966.65328598022 0 496966.65328598022 -6025726.0625839233 0 0 0 0 678464.5046199332 275491.67927215435 0 275491.67927215435 -8353229.9805528596 0 0 0 0 1565628.1095638275 652114.98748016357 0 652114.98748016357 -6389366.8466644287 0 0 0 0 895405.14292144775 -698332.42433929443 0 -698332.42433929443 -9043739.7697093487 0 0 0 0 257140.85706496239 -686370.67516994476 0 -686370.67516994476 -5874906.2169113159 0 0 0 0 -161503.34074468398 -1240439.7137719151 0 -1240439.7137719151 -5581496.8761883266 0 0 0 0 59364.453241944313 43386.620120048523 0 43386.620120048523 -4387821.9770584106 0 0 0 0 -394308.33852901892 20770.299510385841 0 20770.299510385841 -3578247.4125932716 0 0 0 0 -172287.92759801541 -33197.84634145163 0 -33197.84634145163 -5421764.8327374477 0 0 0 0 -486469.44699859619 217278.4447517395 0 217278.4447517395 -3275361.0629386902 0 0 0 0 -854333.02765846252 298063.67737960815 0 298063.67737960815 -2395413.2911300659 0 0 0 0 -418266.96779832104 581735.9870450329 0 581735.9870450329 -3808955.579305456 0 0 0 0 -841515.47516846657 324483.37900257111 0 324483.37900257111 -2495004.8975601196 0 0 0 0 864701.63297653198 2340136.4047241211 0 2340136.4047241211 -1426414.3852539062 0 0 0 0 393449.70735120773 1691960.4203567505 0 1691960.4203567505 -1964263.5029585361 0 0 0 0 -730101.24114265805 1136807.4371303944 0 1136807.4371303944 -1416616.493113216 0 0 0 0 -675607.69129800797 536151.9169883728 0 536151.9169883728 -2593241.8570709229 0 0 0 0 225905.382674461 3469893.4368267814 0 3469893.4368267814 -1863303.3910437673 0 0 0 0 81645.758885009622 768563.38781039999 0 768563.38781039999 -1363784.0367908701 0 0 0 0 -668653.4956873646 -8986.7194783650339 0 -8986.7194783650339 -928766.97594211996 0 0 0 0 526303.72064971924 328064.73071289062 0 328064.73071289062 -422067.216381073 0 0 0 0 -239490.78659186512 569101.40891962871 0 569101.40891962871 -3134464.6106691845 0 0 0 0 309138.78499317169 -3723385.0045166016 0 -3723385.0045166016 1180591.5046882629 0 0 0 0 191860.66795277596 414119.42015075684 0 414119.42015075684 -1734797.5617828369 0 0 0 0 294288.33397078514 606235.1019487381 0 606235.1019487381 -1759158.1642227173 0 0 0 0 23552.489470359986 -153851.4782308368 0 -153851.4782308368 -165508.45635714009 0 0 0 0 771887.74744033813 -862374.5719833374 0 -862374.5719833374 -1311396.5689849854 0 0 0 0 -579690.75443477882 1039907.9183319646 0 1039907.9183319646 -1884045.8650470451 0 0 0 0 -903541.31319583952 417117.94470286556 0 417117.94470286556 -2353098.3544998188 0 0 0 0 -893055.67360452877 -265962.39124406409 0 -265962.39124406409 386447.72799339145 0 0 0 0 -5630310.9179252386 6493119.7635231018 0 6493119.7635231018 9043546.9042162895 0 0 0 0 -2663649.7537263632 -2833320.5469141006 0 -2833320.5469141006 1471576.2053070068 0 0 0 0 -1545489.1970653441 871219.45788950473 0 871219.45788950473 -3111001.5317099579 0 0 0 0 -1890780.6133202375 -30743.718432113528 0 -30743.718432113528 -2080874.1899115797 0 0 0 0 5498438.2031854391 28539120.053243637 0 28539120.053243637 77303350.699066162 0 0 0 0 -235732.7376203537 -126168.52588653564 0 -126168.52588653564 -844119.11369132996 0 0 0 0 267563.2779000774 3287394.5986862183 0 3287394.5986862183 6320783.8542098999 0 0 0 0 20488691.063245878 -61916127.589447021 0 -61916127.589447021 97455889.290657043 0 0 0 0 -2851067.179794502 -1299613.822579626 0 -1299613.822579626 -2672705.807797933 0 0 0 0 -1540014.6856369972 -1010806.3437614441 0 -1010806.3437614441 -3599327.1906089783 0 0 0 0 -629709.42322136916 -465753.66582088359 0 -465753.66582088359 397819.619392097 0 0 0 0 23975218.571677435 51869533.736882687 0 51869533.736882687 96652304.587997437 0 0 0 0 -1143140.4199228287 -816132.06732368469 0 -816132.06732368469 -4343501.456615448 0 0 0 0 -1087597.3860043061 -317853.17899336282 0 -317853.17899336282 -2175660.627323579 0 0 0 0 -1214987.5587201118 -1006559.5981445312 0 -1006559.5981445312 -4613765.1236877441 0 0 0 0 -368251.10673618317 -652702.56770706177 0 -652702.56770706177 -1126000.293258667 0 0 0 0 -274605.12428092957 -142077.68410873413 0 -142077.68410873413 -841098.73654174805 0 0 0 0 -716303.5790358563 -879347.50194591284 0 -879347.50194591284 -1611101.2904319465 0 0 0 0 -567653.24802684784 -160091.42397689819 0 -160091.42397689819 -2781440.9804172516 0 0 0 0 -951114.6978048163 -567206.83093781117 0 -567206.83093781117 -1795289.3544934988 0 0 0 0 -914975.55850611837 -551011.55038541928 0 -551011.55038541928 -2065157.0322751664 0 0 0 0 -1235573.5940744202 -539653.18452746235 0 -539653.18452746235 -753620.59396695346 0 0 0 0 -199462.63143062592 -196126.87901687622 0 -196126.87901687622 -599992.78845977783 0 0 0 0 -106014.33333587646 22643.288707733154 0 22643.288707733154 -4307542.936706543 0 0 0 0 -636510.85552406311 -455723.63913726807 0 -455723.63913726807 -516125.57841014862 0 0 0 0 336100.00065990211 -259107.15630691499 0 -259107.15630691499 -6039230.7707544304 0 0 0 0 598543.26530170441 194038.52584838867 0 194038.52584838867 -616998.02041625977 0 0 0 0 -837656.77540514653 -426147.94844997022 0 -426147.94844997022 -2197166.1200094558 0 0 0 0 -809610.79567882861 129026.32744052424 0 129026.32744052424 -3670979.0054555573 0 0 0 0 575340.631741805 -598651.8219185099 0 -598651.8219185099 -10956191.254132994 0 0 0 0 -449398.71816721326 323041.72265341133 0 323041.72265341133 -5890749.4202741273 0 0 0 0 351263.81747627258 -2664444.8349456787 0 -2664444.8349456787 -5829064.0616607666 0 0 0 0 997105.61662483215 -1210485.1429672241 0 -1210485.1429672241 -6502454.4858551025 0 0 0 0 -456688.17861652374 -3646958.6345863342 0 -3646958.6345863342 -5216702.9478759766 0 0 0 0 -1435490.9593360238 -3335515.3948712246 0 -3335515.3948712246 -3064541.7482266128 0 0 0 0 285490.23283704743 -326771.60162931867 0 -326771.60162931867 -381545.48015879095 0 0 0 0 -51263.633781433105 420207.30859375 0 420207.30859375 -4910853.5348510742 0 0 0 0 1832292.4550132751 -913733.6123752594 0 -913733.6123752594 -1314360.3923950195 0 0 0 0 -90886.883003463736 -2197751.4880550345 0 -2197751.4880550345 -3524901.8746191598 0 0 0 0 233989.82578328019 -600622.36976343358 0 -600622.36976343358 -2949528.4463840462 0 0 0 0 444590.41458697384 -614106.46346391365 0 -614106.46346391365 -11091595.221547814 0 0 0 0 255579.67507743835 -3624394.3460388184 0 -3624394.3460388184 -9689889.5770492554 0 0 0 0 673715.00134202 -1240442.6475815233 0 -1240442.6475815233 -8922999.5603033397 0 0 0 0 -3330239.0921287537 572625.48121261597 0 572625.48121261597 -4688430.2539825439 0 0 0 0 4110024.5739192963 1883962.6839637756 0 1883962.6839637756 3112154.2231063843 0 0 0 0 11938.030599594116 -7366538.3241729736 0 -7366538.3241729736 -16388157.297286987 0 0 0 0 1150507.7352182865 -9519317.9595117569 0 -9519317.9595117569 -15015023.280151367 0 0 0 0 512540.8709734038 -877432.56468636263 0 -877432.56468636263 -928504.75821277872 0 0 0 0 8012764.5253429413 3147193.8776931763 0 3147193.8776931763 -10404139.297805786 0 0 0 0 6296236.8942070007 599900.35291290283 0 599900.35291290283 -12664114.550636292 0 0 0 0 4629125.1964893341 3426513.3534393311 0 3426513.3534393311 -15951019.341552734 0 0 0 0 -1372393.5935554504 5037737.8414497375 0 5037737.8414497375 -17729647.046684265 0 0 0 0 129680.62159538269 2086627.1299133301 0 2086627.1299133301 -11932026.362991333 0 0 0 0 -4049584.5934963226 -8886853.2488670349 0 -8886853.2488670349 986162.86531829834 0 0 0 0 3724730.2190294266 -1328030.5078487396 0 -1328030.5078487396 -28377833.445922852 0 0 0 0 -674210.43100998318 -1483170.5182591379 0 -1483170.5182591379 -6225081.4617155856 0 0 0 0 -798922.26805114746 -795756.86911010742 0 -795756.86911010742 -6732533.0023345947 0 0 0 0 3787644.0688967705 -3522042.6640720367 0 -3522042.6640720367 -11803155.378326416 0 0 0 0 4585991.3362131119 -1469366.7379283905 0 -1469366.7379283905 -8839645.9743423462 0 0 0 0 4728940.1781826019 -2301909.70728302 0 -2301909.70728302 -6814947.7211341858 0 0 0 0 -927691.58805084229 1619768.2501754761 0 1619768.2501754761 -4287330.9208526611 0 0 0 0 359396.0766544342 -2781718.2303161621 0 -2781718.2303161621 -8395162.5628356934 0 0 0 0 -2316905.7143147606 -985894.98074541637 0 -985894.98074541637 -1671924.8561738245 0 0 0 0 118456.31820709072 -31264.871592080221 0 -31264.871592080221 -240953.50719865784 0 0 0 0 -470053.28281116486 -902991.18256378174 0 -902991.18256378174 -6709565.6901473999 0 0 0 0 773124.6154396534 -7377359.6464138031 0 -7377359.6464138031 -9458520.1531524658 0 0 0 0 -3894567.2345371842 8953878.575853467 0 8953878.575853467 2320605.5780143738 0 0 0 0 -372224.97106008697 -1469464.479502853 0 -1469464.479502853 -6247140.2271592868 0 0 0 0 -757478.13972663879 -1855275.6296768188 0 -1855275.6296768188 -5814336.9491150379 0 0 0 0 -7014657.887134552 -22458749.739135742 0 -22458749.739135742 -16983278.478256226 0 0 0 0 -4980290.0337247849 -3626264.6487159729 0 -3626264.6487159729 3765225.8769073486 0 0 0 0 277935.79764311924 -1399010.3074229839 0 -1399010.3074229839 -561911.64992019162 0 0 0 0 -2896988.9255261421 3168771.5495548248 0 3168771.5495548248 -12337988.97290802 0 0 0 0 418695.09162692307 -1544358.1215142338 0 -1544358.1215142338 -7397278.879121338 0 0 0 0 3674778.6704645157 -3832021.7202644348 0 -3832021.7202644348 -15010043.53547287 0 0 0 0 2022256.2068387759 186724.93693170231 0 186724.93693170231 -3908141.633449479 0 0 0 0 -1466862.3340845844 -4443778.1008128654 0 -4443778.1008128654 -4153896.4171556383 0 0 0 0 13397336.692688942 -8443513.7274131775 0 -8443513.7274131775 -25035984.032333374 0 0 0 0 15830646.740470886 -12993380.968903542 0 -12993380.968903542 -20414126.810358047 0 0 0 0 4328570.9627933502 -8352040.6660919189 0 -8352040.6660919189 2686856.5928611755 0 0 0 0 -96752.384174346924 7972487.6973075867 0 7972487.6973075867 4751663.1320915222 0 0 0 0 524859.91750297602 96567.611662968062 0 96567.611662968062 -3027714.1428186297 0 0 0 0 -2122487.4609737396 -27586389.026256561 0 -27586389.026256561 35296396.120014191 0 0 0 0 -6408756.434305191 -16761660.797019958 0 -16761660.797019958 -8909895.8756484985 0 0 0 0 -1986123.0535896854 -3236480.0185225792 0 -3236480.0185225792 -4544346.7669489197 0 0 0 0 -935692.77144145966 -2391333.2810573578 0 -2391333.2810573578 -4373111.1485710144 0 0 0 0 -1209129.2133407593 -1681998.2180633545 0 -1681998.2180633545 -4337521.9804105759 0 0 0 0 51819779.824048042 1978031.4608821869 0 1978031.4608821869 -5949154.2678527832 0 0 0 0 60775401.155803204 26300194.731831074 0 26300194.731831074 -27213906.023483276 0 0 0 0 -322646.12692697265 -1311859.7690514894 0 -1311859.7690514894 -224222.90244429186 0 0 0 0 128452609.42624283 5031189.9455871582 0 5031189.9455871582 -21249259.05557251 0 0 0 0 353796.15044636652 210068.4250999752 0 210068.4250999752 -281069.15257725492 0 0 0 0 -1624540.456076622 -1290127.2351703644 0 -1290127.2351703644 -4252901.8379554749 0 0 0 0 -703740.04504013062 -1649843.6869068146 0 -1649843.6869068146 -5284647.6640129089 0 0 0 0 -1191926.9082058668 -898988.87273931503 0 -898988.87273931503 -4489099.8623657227 0 0 0 0 -1569012.7832252979 -1520609.3123569489 0 -1520609.3123569489 -3304436.8142776489 0 0 0 0 -1750756.7678699493 -1976536.9296340942 0 -1976536.9296340942 -2602103.2003288269 0 0 0 0 -2431090.6058174833 -4145822.9394183736 0 -4145822.9394183736 -3871115.4140489697 0 0 0 0 -2750259.017992191 -2039855.2914070226 0 -2039855.2914070226 -3262466.9725388498 0 0 0 0 -1375961.7804484367 -2065878.2864074707 0 -2065878.2864074707 -3500769.0424003601 0 0 0 0 60945783.808247566 -22721828.649978638 0 -22721828.649978638 -21613258.914596558 0 0 0 0 284994163.09680271 64350968.736834526 0 64350968.736834526 -157041777.75091934 0 0 0 0 106018964.5979805 11278958.244814873 0 11278958.244814873 -122792428.95671844 0 0 0 0 197902207.43353558 21113270.804493904 0 21113270.804493904 -148138060.09885025 0 0 0 0 109504424.14104986 4513333.2233977318 0 4513333.2233977318 -145725653.12342834 0 0 0 0 266008985.54354954 -31474716.127162933 0 -31474716.127162933 -194399055.68851089 0 0 0 0 -17902560.802789688 -14647577.559671402 0 -14647577.559671402 -16100612.291669846 0 0 0 0 165296.3455523689 -973903.50159992743 0 -973903.50159992743 -752892.20940867253 0 0 0 0 190704333.92323875 -12185675.211051941 0 -12185675.211051941 -363668614.8591156 0 0 0 0 -17558385.285627529 -54379925.917026296 0 -54379925.917026296 -35080893.593639374 0 0 0 0 -1692999.9920463562 -5548756.0905227661 0 -5548756.0905227661 86449925.55526948 0 0 0 0 1335489.9555756357 -2999440.3078795439 0 -2999440.3078795439 -2545822.1253447775 0 0 0 0 -22801240.644948244 14828344.314608574 0 14828344.314608574 84298445.852954865 0 0 0 0 46448521.1572752 15877217.837263107 0 15877217.837263107 -55234040.040121078 0 0 0 0 1457449.4179037332 179777.67906582355 0 179777.67906582355 -7813830.4448377863 0 0 0 0 35252524.910881042 43757314.323619843 0 43757314.323619843 29728167.701971054 0 0 0 0 67987.328547484241 -144116.80087106489 0 -144116.80087106489 -265067.77480813279 0 0 0 0 117662465.654953 46445744.230039597 0 46445744.230039597 89547129.920476913 0 0 0 0 218842565.52066135 111529016.9401474 0 111529016.9401474 -27061561.590660095 0 0 0 0 206914153.52434802 65236341.627825737 0 65236341.627825737 -106296243.16276169 0 0 0 0 85668857.377943993 -18890122.504301071 0 -18890122.504301071 -18875336.272081375 0 0 0 0 67744134.097456217 13020338.861371994 0 13020338.861371994 -63442617.664474487 0 0 0 0 103959002.24238777 -77637765.090021133 0 -77637765.090021133 20234891.681674957 0 0 0 0 45915900.857015133 -102896962.49185753 0 -102896962.49185753 -53039727.869880676 0 0 0 0 86406525.593837261 -50313071.546509743 0 -50313071.546509743 -9587707.3331375122 0 0 0 0 40010698.939546585 -58288770.692157745 0 -58288770.692157745 79086462.447816849 0 0 0 0 35667916.371952534 -89412903.835199356 0 -89412903.835199356 44169695.540979385 0 0 0 0 81014949.376553535 -79371500.125749588 0 -79371500.125749588 -16181215.991652966 0 0 0 0 731496.01516830758 -1832203.1439615157 0 -1832203.1439615157 -6012230.0445545875 0 0 0 0 1100404.0612030029 -3161083.8660812378 0 -3161083.8660812378 -120872.10674977303 0 0 0 0 592506.6689004025 -4761424.5367398653 0 -4761424.5367398653 -3098312.7498994358 0 0 0 0 -9216900.8830013275 4183748.0001964569 0 4183748.0001964569 8168754.61353302 0 0 0 0 -305406.28820009832 -3786648.0046961764 0 -3786648.0046961764 -2749797.2253220156 0 0 0 0 94020128.904319048 -41418657.651480913 0 -41418657.651480913 21549162.896427155 0 0 0 0 129303630.2383337 -48985154.248999119 0 -48985154.248999119 -10174264.608798981 0 0 0 0 -5656458.8681986332 -20562075.096801758 0 -20562075.096801758 -4114488.3312721252 0 0 0 0 539367.80223498098 -3855343.5611297255 0 -3855343.5611297255 -2467704.3066796567 0 0 0 0 551402.71076107025 -1081919.1339912415 0 -1081919.1339912415 -4946610.6971931458 0 0 0 0 275661.56701770704 455110.8899691496 0 455110.8899691496 -521675.66733963601 0 0 0 0 2842543.8849205971 -2925721.9053344727 0 -2925721.9053344727 -5149610.2891254425 0 0 0 0 455640.72716157022 -2813438.5830374863 0 -2813438.5830374863 -4436035.9089808855 0 0 0 0 2817859.9111728668 -1211979.2619934082 0 -1211979.2619934082 -6015007.2380532026 0 0 0 0 2445337.705265522 -3140263.0782375336 0 -3140263.0782375336 -3299047.0494537354 0 0 0 0 3045576.1135826111 -1445068.6313056946 0 -1445068.6313056946 -3470944.4812359214 0 0 0 0 1988121.3416099548 -867416.60139465332 0 -867416.60139465332 -5265795.2010588646 0 0 0 0 696893.48731803894 -1029262.1632804871 0 -1029262.1632804871 -4465157.8449325562 0 0 0 0 2633233.4535107613 -358891.09287643433 0 -358891.09287643433 -5029878.6032867432 0 0 0 0 -19859.027592421102 -1108241.461108184 0 -1108241.461108184 -3796096.7116519511 0 0 0 0 1621432.2396178246 218048.66380310059 0 218048.66380310059 -3347886.5285110474 0 0 0 0 211564.40576730692 -2732784.9838872366 0 -2732784.9838872366 -8260592.6655807011 0 0 0 0 16501178.244942188 3710107.8661804199 0 3710107.8661804199 -25181557.087814331 0 0 0 0 7676988.7339805365 -5009248.2277879715 0 -5009248.2277879715 -9691609.7053375244 0 0 0 0 3563342.5197854042 -1919797.4919643402 0 -1919797.4919643402 -3410205.6680640578 0 0 0 0 -90099.958953751862 -688836.69906201109 0 -688836.69906201109 -4025029.2930467203 0 0 0 0 -1608486.6988325119 -6676210.8002853394 0 -6676210.8002853394 -8894479.6815414429 0 0 0 0 283263.18905353546 -13590099.453414917 0 -13590099.453414917 -13609731.79360199 0 0 0 0 -16559612.356000543 -5700304.688375473 0 -5700304.688375473 -6404039.7620391846 0 0 0 0 424107.48000353039 -2977744.4488745201 0 -2977744.4488745201 -7877056.9826296978 0 0 0 0 2961335.6590614319 -2646539.9997253418 0 -2646539.9997253418 -2997168.3456878662 0 0 0 0 -180271.01624862431 -4169472.916665772 0 -4169472.916665772 -5721270.4964751527 0 0 0 0 -797079.56862400239 -2724532.585257411 0 -2724532.585257411 -8964924.6793375965 0 0 0 0 -3483906.6919174194 -705527.77816772461 0 -705527.77816772461 -2467188.1126918793 0 0 0 0 2818253.0634555817 3489105.4155406952 0 3489105.4155406952 -9904318.5993804932 0 0 0 0 7539753.5900306702 4523168.9120359421 0 4523168.9120359421 -9056417.42137146 0 0 0 0 5786839.2700901031 -6476137.8887748718 0 -6476137.8887748718 -22842452.723144531 0 0 0 0 3175748.8185348613 -3167488.8396167904 0 -3167488.8396167904 -12851585.876909599 0 0 0 0 -4751688.2400045395 -5803560.9415187836 0 -5803560.9415187836 -19425732.259122849 0 0 0 0 3104261.4686098099 -1807604.6948642731 0 -1807604.6948642731 -11934823.580810547 0 0 0 0 6878523.7172787189 -17659554.276004314 0 -17659554.276004314 -32289038.100063324 0 0 0 0 1778571.8802719116 812182.78911781311 0 812182.78911781311 -13645037.296463013 0 0 0 0 1211246.4626412007 -2865611.407605092 0 -2865611.407605092 -12078851.228331605 0 0 0 0 -1184721.5288219468 -1080813.4730700012 0 -1080813.4730700012 -13121185.612140434 0 0 0 0 2287211.6331672668 -1314338.5893287659 0 -1314338.5893287659 -3667540.3398284912 0 0 0 0 4335350.3646316528 -1853792.417098999 0 -1853792.417098999 -7370545.7381439209 0 0 0 0 1095901.1338032587 548688.26869506575 0 548688.26869506575 -14952776.819115605 0 0 0 0 380868.63768005371 -2506337.5928649902 0 -2506337.5928649902 -3095136.1633148193 0 0 0 0 -933920.6370149866 -2095186.3083038854 0 -2095186.3083038854 -2859284.4355324581 0 0 0 0 6735782.0664024353 1684861.8260860443 0 1684861.8260860443 -21470924.029785156 0 0 0 0 595207.1417765622 108995.45305395126 0 108995.45305395126 -13277632.517761806 0 0 0 0 467516.33146465058 198892.1844068151 0 198892.1844068151 -13750259.225637451 0 0 0 0 495983.13859963417 960851.54685211182 0 960851.54685211182 -14861665.249053955 0 0 0 0 -330491.24349522591 5938709.1903414726 0 5938709.1903414726 -28774254.904556274 0 0 0 0 -9476338.9918966293 -25863672.302085876 0 -25863672.302085876 -21143278.066650391 0 0 0 0 975180.77484246437 -1389007.6637703944 0 -1389007.6637703944 -3211431.822313033 0 0 0 0 -4181421.8159794807 -2951471.8351383209 0 -2951471.8351383209 -14526758.068519592 0 0 0 0 3210662.7736696005 -18687582.254310608 0 -18687582.254310608 -34405107.387962341 0 0 0 0 12892899.236636519 -6978536.7216262817 0 -6978536.7216262817 -36075931.425216675 0 0 0 0 -24502731.526961327 -2697317.3512954712 0 -2697317.3512954712 -10400384.739120483 0 0 0 0 -213364.66281685792 -962347.80938767176 0 -962347.80938767176 -6469654.3214023151 0 0 0 0 6884498.7395281792 1922177.1280651093 0 1922177.1280651093 -9727730.1193008423 0 0 0 0 -4131458.8678159714 4102135.0931777954 0 4102135.0931777954 -9342812.6654586792 0 0 0 0 -6815448.0297403336 -664397.73791503906 0 -664397.73791503906 -5211744.9007322788 0 0 0 0 2749706.6616067886 -1660691.9414725304 0 -1660691.9414725304 -9061423.2817001343 0 0 0 0 -12409147.705543518 -11551429.734413147 0 -11551429.734413147 -16173677.658588409 0 0 0 0 1834746.4501752853 -646878.26108551025 0 -646878.26108551025 -9307784.6219215393 0 0 0 0 -1708296.6394569874 -14393865.506288528 0 -14393865.506288528 -31745077.14150238 0 0 0 0 1012613.5618448257 -8192131.4082984924 0 -8192131.4082984924 -22851877.462219238 0 0 0 0 1026713.3068342209 -7949321.3662290573 0 -7949321.3662290573 -20024018.106719971 0 0 0 0 1377608.3596000671 -4060745.4191551208 0 -4060745.4191551208 -20641445.158348083 0 0 0 0 -1051679.266210556 -5851860.7412185669 0 -5851860.7412185669 -16560587.809402466 0 0 0 0 253384.22396187345 -621033.84496740997 0 -621033.84496740997 -960960.85834354907 0 0 0 0 -3143832.7251434326 -11333603.226146698 0 -11333603.226146698 -21462072.96415329 0 0 0 0 -298638.57984161377 900401.62919616699 0 900401.62919616699 -8550227.5319890976 0 0 0 0 -3326145.1103286743 -8741551.2198867798 0 -8741551.2198867798 -19100670.275138855 0 0 0 0 2255133.51298666 -3083654.5141506195 0 -3083654.5141506195 -7047254.8722991943 0 0 0 0 -401872.99801446067 -764676.29237043858 0 -764676.29237043858 -8266071.3788616657 0 0 0 0 1674307.3746814728 -1775151.0654602051 0 -1775151.0654602051 -2751091.9299926758 0 0 0 0 1045410.346282959 -2607687.4425048828 0 -2607687.4425048828 -6496650.2802734375 0 0 0 0 1618285.2160518169 -2097228.7476882935 0 -2097228.7476882935 -7763325.6421051025 0 0 0 0 -1408116.5424266234 -2226094.7131003439 0 -2226094.7131003439 -5450636.5572949797 0 0 0 0 -14468108.543006897 -12939871.83102417 0 -12939871.83102417 -4898757.015411377 0 0 0 0 879720.7605595733 408739.75154855289 0 408739.75154855289 -2437608.8144403324 0 0 0 0 -2614555.0225079423 -4311473.9563271105 0 -4311473.9563271105 -1717523.3857469 0 0 0 0 -169015.21291031293 -264317.62157975161 0 -264317.62157975161 133563.34956059605 0 0 0 0 -247551.61558842659 -539082.5404586792 0 -539082.5404586792 -8004553.9903869629 0 0 0 0 -1658597.8274188042 -5657962.320482254 0 -5657962.320482254 -13440256.762500763 0 0 0 0 -3328158.3266048431 -3712622.3236985207 0 -3712622.3236985207 -11953486.181598663 0 0 0 0 -1734417.6354916603 -1644427.2232998461 0 -1644427.2232998461 -8781985.5024629328 0 0 0 0 1314295.4582679973 2072649.226265341 0 2072649.226265341 -13477972.390595198 0 0 0 0 2476307.4268434048 -1863469.4979705811 0 -1863469.4979705811 -16356429.270381927 0 0 0 0 1822242.2180426174 1829267.8033878356 0 1829267.8033878356 -14869103.29134009 0 0 0 0 2414025.9473259747 -2082376.6268424988 0 -2082376.6268424988 -23068088.782928467 0 0 0 0 2712854.8288407326 4690598.5031108856 0 4690598.5031108856 -16033768.499268532 0 0 0 0 902338.50662856048 -654880.37126624584 0 -654880.37126624584 -9586660.8342953734 0 0 0 0 1049197.3074089289 -725498.31732940674 0 -725498.31732940674 -24073149.75258255 0 0 0 0 427413.44388107676 9532089.1621322632 0 9532089.1621322632 -16822640.153862 0 0 0 0 3965271.7611626461 6708416.0445785522 0 6708416.0445785522 -15034229.140403748 0 0 0 0 4899630.9061294422 7162928.8834781647 0 7162928.8834781647 -18227194.008811951 0 0 0 0 565423.39459232427 2746947.3872332918 0 2746947.3872332918 -14576806.731976055 0 0 0 0 5160677.0286977589 8361702.7391986847 0 8361702.7391986847 -18883539.594711304 0 0 0 0 6068513.257977955 10486039.788442612 0 10486039.788442612 -16789703.449493408 0 0 0 0 18670175.824389711 5028129.3390932083 0 5028129.3390932083 -28072839.050918579 0 0 0 0 15787049.512090016 16645875.173125267 0 16645875.173125267 -40752022.683609009 0 0 0 0 49775975.193434134 19656505.555633545 0 19656505.555633545 -47203677.384109497 0 0 0 0 33733897.890219092 14302372.875305176 0 14302372.875305176 -40573019.576826096 0 0 0 0 19762327.995329499 -3523249.083190918 0 -3523249.083190918 -36905106.362678528 0 0 0 0 14236297.274825484 -5753820.476184845 0 -5753820.476184845 -19321505.845031738 0 0 0 0 11032779.875724718 4869342.0985774994 0 4869342.0985774994 -24984659.963191986 0 0 0 0 3103407.3038301468 3685854.959643364 0 3685854.959643364 -20921715.963291168 0 0 0 0 7248618.5366788656 -549599.67148971558 0 -549599.67148971558 -23427261.367307663 0 0 0 0 846744.34877994587 1584080.910365643 0 1584080.910365643 -17051411.395202711 0 0 0 0 1236861.2613223712 -3498401.7611494027 0 -3498401.7611494027 -15500771.004274681 0 0 0 0 10896094.668152809 -1668925.1535797119 0 -1668925.1535797119 -23702780.297371864 0 0 0 0 7903632.9166107178 -6143992.3264503479 0 -6143992.3264503479 -11002758.68649292 0 0 0 0 1756186.8945935233 -7789737.0668382291 0 -7789737.0668382291 -12844327.383365802 0 0 0 0 19853572.650834799 -10446802.515079498 0 -10446802.515079498 -11787127.77437067 0 0 0 0 7361273.4762595594 -1321798.2033884525 0 -1321798.2033884525 -13271276.976348877 0 0 0 0 -2990042.2513716221 -2730387.0681152344 0 -2730387.0681152344 -9826368.6793365479 0 0 0 0 1067094.2775740076 860205.72401949763 0 860205.72401949763 -1719582.4829476103 0 0 0 0 6660155.3840145767 -3006956.5290710926 0 -3006956.5290710926 -10958864.824829102 0 0 0 0 6431060.4694884717 -1239787.6171607971 0 -1239787.6171607971 -14766456.876602173 0 0 0 0 -1221891.0098149776 -371236.59418296814 0 -371236.59418296814 -15053928.642520905 0 0 0 0 -631479.21929812431 397581.86046028137 0 397581.86046028137 -17661302.821866989 0 0 0 0 4589096.2533380389 2908782.1447958946 0 2908782.1447958946 -14206413.710922241 0 0 0 0 4148799.2366726398 1520891.6432676315 0 1520891.6432676315 -10474895.805328369 0 0 0 0 403835.87247897184 -4076910.6742882957 0 -4076910.6742882957 -16875064.58469139 0 0 0 0 10874490.570546865 -1369279.663438797 0 -1369279.663438797 -17921083.214056015 0 0 0 0 11034945.481218338 -32625255.922992706 0 -32625255.922992706 -21388363.356201172 0 0 0 0 8275692.5143709183 -31820459.769121647 0 -31820459.769121647 -14649979.183475494 0 0 0 0 614860.05910280626 -5160738.9306274895 0 -5160738.9306274895 -2472414.1041177921 0 0 0 0 8335102.1583538055 -29374627.373847008 0 -29374627.373847008 -24048822.590007782 0 0 0 0 3598030.7932081223 -2810447.5201358795 0 -2810447.5201358795 -6224558.3550796509 0 0 0 0 19571195.65531826 2557069.2355422974 0 2557069.2355422974 -20138482.606838226 0 0 0 0 2220748.6673420751 -1546131.1870282283 0 -1546131.1870282283 -9222324.3148412146 0 0 0 0 17301512.589455605 -4005723.6093301773 0 -4005723.6093301773 -12285745.007476807 0 0 0 0 6920633.1404495239 -27476310.241668701 0 -27476310.241668701 -28309137.421478271 0 0 0 0 435350.85660171509 -22437538.837711334 0 -22437538.837711334 -29794228.070075989 0 0 0 0 -5671587.475440979 -21892866.716938019 0 -21892866.716938019 -20161443.651500702 0 0 0 0 -11842979.710983276 -11184579.688209534 0 -11184579.688209534 -32793234.269114494 0 0 0 0 -26205442.707382202 -22772864.785449028 0 -22772864.785449028 -17843875.146457672 0 0 0 0 2024497.7968673706 -16986928.028926849 0 -16986928.028926849 -30548726.103244781 0 0 0 0 -42000668.504047394 -8288917.3369522095 0 -8288917.3369522095 -17726355.584871292 0 0 0 0 12306413.980459213 -22959692.880531311 0 -22959692.880531311 -33160951.2654953 0 0 0 0 14416252.851250648 2918621.9697170258 0 2918621.9697170258 -16142759.645913124 0 0 0 0 59969427.114644885 -16734746.794820786 0 -16734746.794820786 -38384116.838251114 0 0 0 0 774594.5395686517 -2668314.5551249911 0 -2668314.5551249911 -17219653.75443846 0 0 0 0 1561651.0338358879 -16119049.717136502 0 -16119049.717136502 -5112222.5270576477 0 0 0 0 30278544.413557291 7779253.2298183441 0 7779253.2298183441 -31503956.127555847 0 0 0 0 15678821.641352654 -11089222.833939552 0 -11089222.833939552 -7931336.5057001114 0 0 0 0 2034920.0463645209 327366.13142142259 0 327366.13142142259 -17728504.388295256 0 0 0 0 54141486.187173843 6805624.6081500053 0 6805624.6081500053 -40623913.430242538 0 0 0 0 -8424372.8965654373 -21100745.662347794 0 -21100745.662347794 -39231468.969432831 0 0 0 0 27138626.079642296 3551163.363984108 0 3551163.363984108 -65871565.325062752 0 0 0 0 16153512.306715012 -12182462.720935822 0 -12182462.720935822 -47224601.581123352 0 0 0 0 -16618424.293091774 -20108627.597533941 0 -20108627.597533941 -17355666.603199005 0 0 0 0 -14605318.538434029 -12825233.25787735 0 -12825233.25787735 -45438618.638873577 0 0 0 0 -10817897.177499413 -34098171.157392025 0 -34098171.157392025 -59186088.427381516 0 0 0 0 -168786.24633540795 -476447.61080262344 0 -476447.61080262344 -1126451.660918897 0 0 0 0 -44551789.817332745 -68816903.801995754 0 -68816903.801995754 -120256636.2025423 0 0 0 0 -13427922.788630962 89200437.60943222 0 89200437.60943222 15800571.790352345 0 0 0 0 -5604294.8142442703 33977234.445049286 0 33977234.445049286 29184422.299057961 0 0 0 0 90777291.76028347 49414901.43208313 0 49414901.43208313 -28226629.136672974 0 0 0 0 -46613079.320524603 -52910308.425419271 0 -52910308.425419271 -30069556.531087875 0 0 0 0 -181813.34923637263 -2055620.2265904266 0 -2055620.2265904266 -4336151.1066371948 0 0 0 0 75683611.540394783 16180846.755226135 0 16180846.755226135 -24052689.670490265 0 0 0 0 66817339.910800934 29402628.888299942 0 29402628.888299942 -308499.15167999268 0 0 0 0 93076352.21786499 7111576.1533966064 0 7111576.1533966064 -19411709.129188538 0 0 0 0 62785938.008987427 -9339172.6022529602 0 -9339172.6022529602 -29966357.759601593 0 0 0 0 55368790.504772186 -11175572.743156433 0 -11175572.743156433 -27713827.440950394 0 0 0 0 99960109.591970444 -24275779.321699142 0 -24275779.321699142 -64932356.474723816 0 0 0 0 21244711.89263916 1904373.1132926941 0 1904373.1132926941 -4762039.702811718 0 0 0 0 46212939.887160301 4840998.7779760361 0 4840998.7779760361 -18679562.270477295 0 0 0 0 21431248.316862106 -3469690.7501392365 0 -3469690.7501392365 -24189506.691749573 0 0 0 0 17738747.430341721 -7291945.9245281219 0 -7291945.9245281219 -21005772.707788944 0 0 0 0 27902427.45278883 -30294954.644512177 0 -30294954.644512177 -41932314.812568665 0 0 0 0 64333371.597616196 -38733572.087741852 0 -38733572.087741852 -66228161.914829254 0 0 0 0 167108620.48510075 -68993631.668083191 0 -68993631.668083191 -195443199.26124763 0 0 0 0 46032069.208937168 9742325.8730545044 0 9742325.8730545044 6591462.2811861038 0 0 0 0 155922109.95754611 -274650539.25023484 0 -274650539.25023484 -34972685.093269348 0 0 0 0 123019528.87854385 -4004940.4378585815 0 -4004940.4378585815 -49236956.8947258 0 0 0 0 107052774.61393958 104822247.22162509 0 104822247.22162509 154668790.91373444 0 0 0 0 6862315.2030280828 6615415.9617843628 0 6615415.9617843628 -13293531.542766571 0 0 0 0 -1641555.6420228854 -17832347.671180725 0 -17832347.671180725 10975613.387794495 0 0 0 0 275902.62445265631 324636.62531518936 0 324636.62531518936 -1482650.4907926396 0 0 0 0 4653409.9455150366 -915700.130423069 0 -915700.130423069 -6737755.2719192505 0 0 0 0 -22485760.803381458 34019379.696889877 0 34019379.696889877 -57099965.060707092 0 0 0 0 -8557671.0633109622 6378973.617193222 0 6378973.617193222 -80103256.454284668 0 0 0 0 15429642.008405611 25726502.525062561 0 25726502.525062561 -66190265.697891235 0 0 0 0 92820.25089328528 116087.16960656643 0 116087.16960656643 -804349.089776963 0 0 0 0 2772661.9896734748 21849997.847848892 0 21849997.847848892 -68541284.757995605 0 0 0 0 -21901676.625055321 58796256.882797241 0 58796256.882797241 -21561999.539321899 0 0 0 0 -3798.1971103800097 80199.846216630191 0 80199.846216630191 -507209.12350741774 0 0 0 0 23931.453111422332 -399693.47846984863 0 -399693.47846984863 -11676192.075244904 0 0 0 0 -16504656.496677384 4772307.8144836426 0 4772307.8144836426 36836622.944580078 0 0 0 0 4935026.8399420921 -1416136.2831926346 0 -1416136.2831926346 -11979663.438415527 0 0 0 0 -19713506.743976697 20887041.872135162 0 20887041.872135162 -8421053.0287628174 0 0 0 0 -9842960.328081524 -10768907.641048431 0 -10768907.641048431 -8889299.5864028931 0 0 0 0 3845129.1521525858 -9531557.870880127 0 -9531557.870880127 -46929968.473693848 0 0 0 0 26442456.473945547 -25747113.922241211 0 -25747113.922241211 -80277038.043182373 0 0 0 0 44277.455383019238 39374.733971031383 0 39374.733971031383 -171931.99070756137 0 0 0 0 -3599904.8015854103 77490.932121276855 0 77490.932121276855 1283269.7798156738 0 0 0 0 -4557780.7746650539 -5374175.7778968811 0 -5374175.7778968811 -3457579.7995529175 0 0 0 0 -2129.6012506318252 -3500963.7646903992 0 -3500963.7646903992 -12431095.247364044 0 0 0 0 -5770.7093940812683 -550896.85534340423 0 -550896.85534340423 -801925.87528991699 0 0 0 0 -281738.97831765888 -1244351.1714553833 0 -1244351.1714553833 -2239506.1064357758 0 0 0 0 2608361.2358685504 1079430.7821578979 0 1079430.7821578979 -2062918.7713775635 0 0 0 0 2786719.7855928745 572301.0531463623 0 572301.0531463623 -835906.32699584961 0 0 0 0 -467234.313258223 -1298329.357427597 0 -1298329.357427597 -518335.71781921387 0 0 0 0 4383.1214474212529 -63522.345949657261 0 -63522.345949657261 -96481.339296172955 0 0 0 0 -1867433.5222503245 3753683.0922985077 0 3753683.0922985077 -6174642.6522750854 0 0 0 0 144983.34978007589 117102.19511695858 0 117102.19511695858 -506010.06957127154 0 0 0 0 -5096711.4862518609 4808340.6931934357 0 4808340.6931934357 -6059042.4036483765 0 0 0 0 445384.81268566847 1959380.8198852539 0 1959380.8198852539 -5199631.3563690186 0 0 0 0 -99050.604056012759 -595829.06271083653 0 -595829.06271083653 -1553356.6187638626 0 0 0 0 333321.68924224377 1258093.3625965118 0 1258093.3625965118 -7310481.0859832764 0 0 0 0 582536.96523821354 839798.32397460938 0 839798.32397460938 -6753877.0138361454 0 0 0 0 492659.66986751556 618857.07948303223 0 618857.07948303223 -7097679.8880233765 0 0 0 0 34327.430787264952 -766045.48492577299 0 -766045.48492577299 -3192505.7976715751 0 0 0 0 784672.46071207523 604958.05380249023 0 604958.05380249023 -7163469.9032897949 0 0 0 0 -3445309.003723653 15239893.444413662 0 15239893.444413662 -43115864.722061157 0 0 0 0 609644.74175466818 581000.21332608908 0 581000.21332608908 -3164735.3145826347 0 0 0 0 989148.30191099644 865198.22038269043 0 865198.22038269043 -7581758.4466323853 0 0 0 0 1525891.6101582646 -1629971.0166606903 0 -1629971.0166606903 -6171906.1827735901 0 0 0 0 723074.15221238136 99389.269927978516 0 99389.269927978516 -8489637.905325532 0 0 0 0 -48530.707358504529 -1798697.313414067 0 -1798697.313414067 -6039323.3716762587 0 0 0 0 1802339.7601536512 -1171020.9019927979 0 -1171020.9019927979 -5412181.4161372185 0 0 0 0 1764689.8990543401 315007.00413542381 0 315007.00413542381 -5061642.1268653497 0 0 0 0 573472.94442749023 6429706.6954803467 0 6429706.6954803467 -20167730.603126526 0 0 0 0 7172414.1012206972 15489812.985864639 0 15489812.985864639 -44668826.806274414 0 0 0 0 -78142.452596282572 341862.33327400172 0 341862.33327400172 98517.535652630031 0 0 0 0 5667560.4530654848 6902756.9687156677 0 6902756.9687156677 -20139005.595336914 0 0 0 0 1883328.6681752729 2963603.971161034 0 2963603.971161034 -6574822.9091258645 0 0 0 0 3058949.4910879731 4463007.5678329468 0 4463007.5678329468 -19252409.019981384 0 0 0 0 816439.7424556911 101647.15253639221 0 101647.15253639221 -14533014.103614807 0 0 0 0 3900416.9168072641 128662.89282989502 0 128662.89282989502 -23503328.943572998 0 0 0 0 3932330.70925273 -4191.5555973052979 0 -4191.5555973052979 -25695910.254608154 0 0 0 0 -1709427.6578954086 8036775.7629127502 0 8036775.7629127502 -31490237.437240601 0 0 0 0 3474960.9832080603 1549413.7769050598 0 1549413.7769050598 -30750362.786911011 0 0 0 0 6560023.7974200845 -4073414.296295166 0 -4073414.296295166 -25521599.439002991 0 0 0 0 579836.02337682247 1391656.0097351074 0 1391656.0097351074 -23378959.407058716 0 0 0 0 7199596.0670218021 1762080.5718579292 0 1762080.5718579292 -38287497.945663452 0 0 0 0 2893231.4396814704 -5199650.1976776123 0 -5199650.1976776123 -25689568.283210754 0 0 0 0 4084810.3284690678 -10081847.83007431 0 -10081847.83007431 -6198107.7091522217 0 0 0 0 3008997.0734053552 -4824296.5392837524 0 -4824296.5392837524 -24487196.82585907 0 0 0 0 1041922.3917904892 -4601652.5061539337 0 -4601652.5061539337 -22629738.754379272 0 0 0 0 -8454817.280140698 13320174.806404114 0 13320174.806404114 -37738049.929595947 0 0 0 0 -1535694.1584849358 24056026.838638306 0 24056026.838638306 -52431963.311321259 0 0 0 0 7300786.3239253759 12188759.328346252 0 12188759.328346252 -45767597.913780212 0 0 0 0 25819956.98181352 7076124.4484977722 0 7076124.4484977722 -49839275.309959412 0 0 0 0 17193628.193283781 -13020635.690067291 0 -13020635.690067291 -26657413.316654205 0 0 0 0 -8887293.7195165008 -4206780.0642356873 0 -4206780.0642356873 2159547.1371994019 0 0 0 0 13720447.715202298 8249432.1963744164 0 8249432.1963744164 -9105882.4832000732 0 0 0 0 16785099.886450648 -10050303.45926857 0 -10050303.45926857 -9016056.188621521 0 0 0 0 2484486.2910526991 -4979150.6633071899 0 -4979150.6633071899 -10777178.025764465 0 0 0 0 3367.1060056717724 18844.638261573389 0 18844.638261573389 -136980.61469394714 0 0 0 0 17031566.522469565 -7344330.9677124023 0 -7344330.9677124023 -28153850.513023376 0 0 0 0 286200.46280258754 173717.050287202 0 173717.050287202 -4403427.8397968411 0 0 0 0 -1090887.2701442493 8313509.4009017944 0 8313509.4009017944 -12306511.388748169 0 0 0 0 71159.203478633252 106980.49807034805 0 106980.49807034805 -1280187.3858425766 0 0 0 0 -762066.1748367101 9359214.9005203247 0 9359214.9005203247 -3242207.9598808289 0 0 0 0 -1577423.1775343292 7287122.5799007416 0 7287122.5799007416 -8504689.2587585449 0 0 0 0 -1691862.9560275227 5865249.6058082581 0 5865249.6058082581 -6380716.1324920654 0 0 0 0 -7690400.2864181101 15921281.13923645 0 15921281.13923645 -11178454.48143959 0 0 0 0 966403.44728500396 16942999.735958099 0 16942999.735958099 -24503661.347251892 0 0 0 0 890552.82838319801 15980660.158776045 0 15980660.158776045 -16735206.099349976 0 0 0 0 12666319.672941498 16926434.370063782 0 16926434.370063782 -26931602.744346619 0 0 0 0 -17464887.930957451 13756779.395118713 0 13756779.395118713 -9903279.8286705017 0 0 0 0 -7458990.1012191176 24657049.416938782 0 24657049.416938782 -25509728.352363586 0 0 0 0 -32254259.278638899 38507050.724060059 0 38507050.724060059 -37568425.802337646 0 0 0 0 -16395269.393925592 4485785.9240264893 0 4485785.9240264893 -73345028.676841736 0 0 0 0 -3020983.9752772637 21296065.798397064 0 21296065.798397064 -27992762.727619171 0 0 0 0 -1019834.5737402439 30708560.103837967 0 30708560.103837967 -37144858.869003296 0 0 0 0 22501337.698174469 33167070.195579529 0 33167070.195579529 -49272560.086608887 0 0 0 0 -1327889.9969003275 -4162039.3507175446 0 -4162039.3507175446 -1995932.3955764771 0 0 0 0 3306.0372508980035 2707.5534372366965 0 2707.5534372366965 -75163.141862101853 0 0 0 0 -17059065.370085195 24396382.499141693 0 24396382.499141693 -20040674.956829071 0 0 0 0 -25400263.745629311 -52752648.642700195 0 -52752648.642700195 -66383169.081054688 0 0 0 0 -1098882.8887781687 -22694631.544490814 0 -22694631.544490814 -58382752.889755249 0 0 0 0 -4388796.5248747617 -32345488.231925964 0 -32345488.231925964 -36999955.522422791 0 0 0 0 -5158355.2858261913 -13815557.331291199 0 -13815557.331291199 -20351285.246490479 0 0 0 0 -2359365.9044443257 -17605558.111642838 0 -17605558.111642838 -2018630.4806976318 0 0 0 0 -6393242.0309425592 -5062188.3658599854 0 -5062188.3658599854 -28679746.615195274 0 0 0 0 -1910331.5203851312 20532453.367219925 0 20532453.367219925 -26345048.541229248 0 0 0 0 -3854448.0015853047 11958469.971843719 0 11958469.971843719 -62737974.513904572 0 0 0 0 -4975.8379839597656 17029.921549160033 0 17029.921549160033 -59975.000343598425 0 0 0 0 -11378578.818762302 -16457249.564540863 0 -16457249.564540863 -57496215.436186165 0 0 0 0 17117582.424452439 33846134.574832916 0 33846134.574832916 -33920864.729248047 0 0 0 0 2092525.5181367695 29686090.554985046 0 29686090.554985046 -16215123.048091888 0 0 0 0 -4814594.0357571179 16602485.501346588 0 16602485.501346588 -96390765.816993713 0 0 0 0 -11091388.86459052 10752670.132314682 0 10752670.132314682 -41544516.697898865 0 0 0 0 -7024230.9153186036 -9020935.499830246 0 -9020935.499830246 -52785606.786567688 0 0 0 0 -7361283.9443158507 -6325267.6677780151 0 -6325267.6677780151 -54637433.203983307 0 0 0 0 -41290.641061937829 -6733303.9524726868 0 -6733303.9524726868 -58251845.748718262 0 0 0 0 3206.9494603490457 -12083978.601070404 0 -12083978.601070404 -50134503.398265839 0 0 0 0 -8795713.1805297751 -12209609.758922577 0 -12209609.758922577 -42893230.727508545 0 0 0 0 142462.09371463209 -19033967.699417114 0 -19033967.699417114 -48075998.207508087 0 0 0 0 -1777156.1364065097 -15267172.890836716 0 -15267172.890836716 -54792279.4715271 0 0 0 0 5880.4116514608231 -10475197.347156525 0 -10475197.347156525 -53965570.395111084 0 0 0 0 4604644.8686065041 -12623289.508514404 0 -12623289.508514404 -54896966.092231035 0 0 0 0 3447712.9925161134 -15990311.187725067 0 -15990311.187725067 -64403169.978126526 0 0 0 0 8766618.9201883115 -4871894.2633399963 0 -4871894.2633399963 -60677668.712911606 0 0 0 0 6593590.0903608948 -1228661.9509620667 0 -1228661.9509620667 -50033745.318595886 0 0 0 0 4479414.9793699905 -27104911.58259964 0 -27104911.58259964 -81736990.084037781 0 0 0 0 5087070.6906778738 -19482368.08007431 0 -19482368.08007431 -57772690.159408569 0 0 0 0 6818430.9962846544 -4810725.3274078369 0 -4810725.3274078369 -53837584.002212524 0 0 0 0 7416138.3106022701 4603719.7264328003 0 4603719.7264328003 -89984845.709144592 0 0 0 0 -588495.4392005289 6635957.6657209396 0 6635957.6657209396 -56067208.838378906 0 0 0 0 -1864449.3238480552 15392183.656413555 0 15392183.656413555 -40348017.101516724 0 0 0 0 -112353.52719555795 -2136827.5360870361 0 -2136827.5360870361 -22891866.877334595 0 0 0 0 6202.322220559563 -7327600.8032455444 0 -7327600.8032455444 -37797265.955436707 0 0 0 0 -2245978.5746506806 3000040.1686439514 0 3000040.1686439514 -8274300.9292602539 0 0 0 0 2462090.8098944686 2336087.852306366 0 2336087.852306366 -31308789.623817444 0 0 0 0 -2059.8887221033674 -5361232.0595016479 0 -5361232.0595016479 -8517100.9620056152 0 0 0 0 552160.73286743555 1962519.7526397705 0 1962519.7526397705 3195490.2901000977 0 0 0 0 -330162.78175458149 -540403.18321776018 0 -540403.18321776018 -863475.3100245893 0 0 0 0 701.78615911130692 -12105.709632873535 0 -12105.709632873535 -792906.92349243164 0 0 0 0 422795.55559362308 -1815572.5803451538 0 -1815572.5803451538 -156350.36530303955 0 0 0 0 328879.47177388251 51381.012571744621 0 51381.012571744621 -883109.27041270584 0 0 0 0 3136346.704438448 -3621736.6475219727 0 -3621736.6475219727 -2433483.1950826645 0 0 0 0 2118449.7951803207 -2934002.3395767212 0 -2934002.3395767212 -2408641.6070594788 0 0 0 0 85775.472525515856 1131442.647377491 0 1131442.647377491 199709.44515228271 0 0 0 0 828473.16893520323 -108426.8725217022 0 -108426.8725217022 -1229379.8426252119 0 0 0 0 -686067.96696394437 -999999.45215448737 0 -999999.45215448737 -1073751.4515540227 0 0 0 0 -3054384.182818871 -5829736.0434360504 0 -5829736.0434360504 -5664878.7226257324 0 0 0 0 -850520.26892696379 -656866.83726127446 0 -656866.83726127446 -521328.99990737438 0 0 0 0 12720835.924034595 -10234999.357788086 0 -10234999.357788086 3898174.4606323242 0 0 0 0 16348090.927818924 -5108809.5408153534 0 -5108809.5408153534 -9595126.8621902466 0 0 0 0 17098989.243034005 -1566675.9943962097 0 -1566675.9943962097 -6346632.5302619934 0 0 0 0 1954893.4771158695 -1277679.3688735962 0 -1277679.3688735962 -3400347.1944825649 0 0 0 0 3655631.0213474631 -2055981.7033967972 0 -2055981.7033967972 -3443831.8984527588 0 0 0 0 876687.90596614941 277859.21513171494 0 277859.21513171494 -1212706.4668688066 0 0 0 0 655878.4789175177 2072044.2850379944 0 2072044.2850379944 -1403968.3331785202 0 0 0 0 10721159.59281987 2431710.1046209335 0 2431710.1046209335 -4137759.022644043 0 0 0 0 13455593.029473662 8761746.6822853088 0 8761746.6822853088 2650639.2113056183 0 0 0 0 10726470.34650442 2778461.803647995 0 2778461.803647995 -8897596.8450546265 0 0 0 0 12707328.654403329 17031609.769947052 0 17031609.769947052 4001830.4159679413 0 0 0 0 756344.15390417783 543611.39049552754 0 543611.39049552754 -1171009.7244620174 0 0 0 0 -1448075.125979092 -1790939.7089691162 0 -1790939.7089691162 -2210716.1009521484 0 0 0 0 -3431597.9376555169 392050.92461776733 0 392050.92461776733 -3668293.6484146118 0 0 0 0 969927.5235022679 -1607074.0007324219 0 -1607074.0007324219 -7163035.2452430725 0 0 0 0 -2007662.2494497932 -5632633.6449508667 0 -5632633.6449508667 -11563455.785087585 0 0 0 0 18819.950648440874 -1241347.97538265 0 -1241347.97538265 -3391998.0792999268 0 0 0 0 -1287772.0788766036 -1633863.3036880493 0 -1633863.3036880493 59828.153442382812 0 0 0 0 -2108715.2842648965 1105674.5906214714 0 1105674.5906214714 287979.86325073242 0 0 0 0 202547.88562643249 -1941321.1073379517 0 -1941321.1073379517 -2188999.0127563477 0 0 0 0 1382058.4448504448 27362367.815132141 0 27362367.815132141 -49382936.647508621 0 0 0 0 -25681348.411067307 29950335.642361641 0 29950335.642361641 -1335446.8802947998 0 0 0 0 3047042.2361007929 16617847.16683197 0 16617847.16683197 -9119526.8943939209 0 0 0 0 -18672473.690943617 4452018.0589942932 0 4452018.0589942932 -2379044.3118972778 0 0 0 0 -55737834.957305029 37804057.488990784 0 37804057.488990784 -30727205.067573547 0 0 0 0 1160307.1712363288 13595913.798587799 0 13595913.798587799 270240.27417755127 0 0 0 0 -15803191.155580938 19961620.337661743 0 19961620.337661743 30077741.116027832 0 0 0 0 -5421867.8331837654 15728170.0962677 0 15728170.0962677 4717989.7949523926 0 0 0 0 462290.84162098169 24946734.462760925 0 24946734.462760925 -9084669.7422332764 0 0 0 0 -9638695.9861521721 21880550.085105896 0 21880550.085105896 16745734.02192688 0 0 0 0 -2995291.8283392191 13852816.500732422 0 13852816.500732422 20452202.563552856 0 0 0 0 2251613.440505743 19283833.790618896 0 19283833.790618896 11255137.763186455 0 0 0 0 1366845.5296729803 17546888.022315979 0 17546888.022315979 19492485.057357788 0 0 0 0 8613214.6643874645 13560466.844284058 0 13560466.844284058 11833867.902877808 0 0 0 0 3808347.306343317 18135088.682830811 0 18135088.682830811 12438518.650650024 0 0 0 0 5215645.2985488176 21178361.672561646 0 21178361.672561646 -1660264.9355621338 0 0 0 0 1513369.4767389297 18075270.288528442 0 18075270.288528442 11264050.846633971 0 0 0 0 14785080.955638885 10111291.967094421 0 10111291.967094421 9097265.3786315918 0 0 0 0 11394567.75507623 17315097.045484543 0 17315097.045484543 -1109948.7937164307 0 0 0 0 14484182.023094773 7481179.1769828796 0 7481179.1769828796 -17646808.326591492 0 0 0 0 10062227.770751476 15113137.836265564 0 15113137.836265564 -725667.44732379913 0 0 0 0 7826702.8102585673 20408990.590238571 0 20408990.590238571 -21144269.789993286 0 0 0 0 9910261.2374768257 12263627.478240967 0 12263627.478240967 -6913433.3632659912 0 0 0 0 12306244.733719707 653971.98673629761 0 653971.98673629761 -32928314.306270599 0 0 0 0 13537237.793185383 5580816.53282547 0 5580816.53282547 -15360994.243545532 0 0 0 0 17324264.207605958 -392602.20043182373 0 -392602.20043182373 -24420311.065910339 0 0 0 0 11950525.620067596 -6355465.982219696 0 -6355465.982219696 3941791.476852417 0 0 0 0 11140646.002682924 -15399619.211219788 0 -15399619.211219788 -15178760.861591339 0 0 0 0 7473563.4168083668 -9424056.5123672485 0 -9424056.5123672485 -15511544.659057617 0 0 0 0 -8891502.1395207942 -28464814.374851227 0 -28464814.374851227 -44313326.942581177 0 0 0 0 -8620729.2211232483 -29659592.174407959 0 -29659592.174407959 -40396456.390541077 0 0 0 0 -25186100.729193836 -62101915.066726685 0 -62101915.066726685 -25822276.401733398 0 0 0 0 9613539.7362752855 6727287.9591999054 0 6727287.9591999054 -45257072.165153503 0 0 0 0 -740379.87367868423 1087977.2257080078 0 1087977.2257080078 -42151453.905014038 0 0 0 0 -16401693.462468803 -21480583.289171219 0 -21480583.289171219 -224924057.16702271 0 0 0 0 -18608893.39090221 -30884452.841285706 0 -30884452.841285706 -69180063.909339905 0 0 0 0 3119845.7906202786 132586.49641227722 0 132586.49641227722 -114055598.46051025 0 0 0 0 -65161524.935636014 -92576674.698867798 0 -92576674.698867798 -67477581.336776733 0 0 0 0 -13904320.431875825 -43235319.19393158 0 -43235319.19393158 -86768914.542655945 0 0 0 0 -63378647.853983343 -56355205.813545227 0 -56355205.813545227 -34551709.932746887 0 0 0 0 -65044907.919705644 -58994456.476112366 0 -58994456.476112366 12396357.487304688 0 0 0 0 513033.67943842651 715306.88888566196 0 715306.88888566196 -1342538.843132101 0 0 0 0 12219432.200033903 28237856.641288757 0 28237856.641288757 -80577434.926712036 0 0 0 0 15694951.500273541 -88912676.137390137 0 -88912676.137390137 26169026.343261719 0 0 0 0 4122323.6976756901 -49728748.48674202 0 -49728748.48674202 44242135.526031494 0 0 0 0 -43434932.453637391 -63443309.847305298 0 -63443309.847305298 18688831.795722961 0 0 0 0 10820680.688527122 -73051134.977876663 0 -73051134.977876663 -10968107.380584717 0 0 0 0 -30670125.175863653 -42516765.306411743 0 -42516765.306411743 -30050750.054290771 0 0 0 0 -28050872.66424638 -44746902.681255341 0 -44746902.681255341 2877881.9652862549 0 0 0 0 -44170613.888993993 -54354287.166199684 0 -54354287.166199684 17758962.434646606 0 0 0 0 -40158544.869250312 -96832764.318092346 0 -96832764.318092346 -64474551.72555542 0 0 0 0 -95194891.443185359 -79418615.848426819 0 -79418615.848426819 7967380.7572441101 0 0 0 0 18290111.105975419 -67235387.917114258 0 -67235387.917114258 -14873746.860992432 0 0 0 0 28443141.062144607 -20020285.967937469 0 -20020285.967937469 -26840831.73626709 0 0 0 0 67808980.393841088 -32152915.537849426 0 -32152915.537849426 5830598.779045105 0 0 0 0 -11718633.64184089 -51513117.009750366 0 -51513117.009750366 7741765.7615966797 0 0 0 0 8563.8372234404087 -70565517.253761292 0 -70565517.253761292 4968897.4339447021 0 0 0 0 -659675.55044432636 -418556.22738216817 0 -418556.22738216817 -285844.6914890781 0 0 0 0 21020369.19575572 -33227968.27722168 0 -33227968.27722168 13985960.018297195 0 0 0 0 10905758.862575889 -3010793.6134300232 0 -3010793.6134300232 10409508.825820923 0 0 0 0 -35649522.753786027 -31947008.280166626 0 -31947008.280166626 -5420073.971988678 0 0 0 0 -78518621.572204441 -26115076.376205444 0 -26115076.376205444 41198679.501487732 0 0 0 0 -281802.21890984796 -140797.02017873153 0 -140797.02017873153 -80690.191079631448 0 0 0 0 -8805858.6244781464 10424631.378559113 0 10424631.378559113 -57574841.751365662 0 0 0 0 -1256701.1582085341 21546568.656040192 0 21546568.656040192 -162706849.84613037 0 0 0 0 -58263537.495035447 -53188356.1699543 0 -53188356.1699543 -120259079.31583405 0 0 0 0 -4961903.0251437128 -14655146.643764496 0 -14655146.643764496 -92667415.773384094 0 0 0 0 26113276.164245069 -13729196.748020172 0 -13729196.748020172 -45932760.823303223 0 0 0 0 62044681.658358753 -40290237.920295715 0 -40290237.920295715 -38018483.75472641 0 0 0 0 70717425.75173077 -5735543.4604187012 0 -5735543.4604187012 -51797423.84602356 0 0 0 0 -73147766.236038461 40433292.138734818 0 40433292.138734818 -65567579.43421936 0 0 0 0 16521491.173043787 -54908226.533426285 0 -54908226.533426285 -124458152.74507904 0 0 0 0 5768342.2956449017 26472465.541107178 0 26472465.541107178 -122144546.90287328 0 0 0 0 -103687291.56974283 -23769857.566215515 0 -23769857.566215515 -60050011.909805298 0 0 0 0 37367.550953350961 14828695.433662415 0 14828695.433662415 -68043652.172874451 0 0 0 0 3672746.1832205784 32171965.220182419 0 32171965.220182419 -41610805.381469727 0 0 0 0 43051898.677068323 15454850.087913513 0 15454850.087913513 -72533115.00402832 0 0 0 0 25824663.396472141 18265236.830810547 0 18265236.830810547 -44297299.120376587 0 0 0 0 54599221.398787528 5840936.3112564087 0 5840936.3112564087 -37217419.514411926 0 0 0 0 39876330.840651467 29020112.648887634 0 29020112.648887634 -47641294.501190186 0 0 0 0 45015847.609977536 -18231563.888781548 0 -18231563.888781548 -50618352.116622925 0 0 0 0 109736491.47062835 -5406424.7342376709 0 -5406424.7342376709 -48253800.412582397 0 0 0 0 68251446.449467659 -2423185.2275238037 0 -2423185.2275238037 -22845896.537628174 0 0 0 0 101424677.41369814 22800735.234382629 0 22800735.234382629 -5893269.8861999512 0 0 0 0 64866724.580376692 19371890.4842062 0 19371890.4842062 -19648467.030517578 0 0 0 0 76839540.522930443 -8501836.0087127686 0 -8501836.0087127686 -27313241.788154602 0 0 0 0 77009846.369719133 -11600998.829842567 0 -11600998.829842567 24295930.467285156 0 0 0 0 56591460.688869268 -9061859.1924667358 0 -9061859.1924667358 -32114341.240314484 0 0 0 0 107216506.61353764 -14440712.780902863 0 -14440712.780902863 -35094482.897720337 0 0 0 0 87284955.779083788 -33896806.695953369 0 -33896806.695953369 -42342588.008651733 0 0 0 0 2179277.3653683113 -601378.4569059331 0 -601378.4569059331 -6860061.9712590054 0 0 0 0 55659375.965649277 -6390973.4759750366 0 -6390973.4759750366 -12351739.613708496 0 0 0 0 111744863.91839397 -39295793.091068268 0 -39295793.091068268 -24784391.650920868 0 0 0 0 872411.8592809519 753797.9584687762 0 753797.9584687762 -2770242.7562701255 0 0 0 0 7540382.0033558607 -711921.49602508545 0 -711921.49602508545 -3754372.5303192139 0 0 0 0 894956.47116089077 -193535.25031559356 0 -193535.25031559356 -9442182.3743557148 0 0 0 0 1056638.6299347945 2750297.5459137838 0 2750297.5459137838 -4776571.2917501852 0 0 0 0 1641440.6730093239 -6693182.3267028369 0 -6693182.3267028369 -2909121.6693347581 0 0 0 0 -518525.45166296768 -5206757.5533949519 0 -5206757.5533949519 -13576394.216731347 0 0 0 0 -6682825.0600669682 -6216268.7538909912 0 -6216268.7538909912 7848090.8994445801 0 0 0 0 6003788.9604886323 -23919872.786943436 0 -23919872.786943436 -23710625.684432983 0 0 0 0 -600764.93603726092 -1869881.905183115 0 -1869881.905183115 616890.17955103517 0 0 0 0 129896703.02180627 7261082.6710739136 0 7261082.6710739136 -41862397.984771729 0 0 0 0 2594371.6482214928 -4233658.4474601746 0 -4233658.4474601746 -16177246.211143494 0 0 0 0 1461207.4807114601 -2240327.169254303 0 -2240327.169254303 -12850568.17171669 0 0 0 0 4121113.0449483395 -1010763.7261657715 0 -1010763.7261657715 -15310539.252693176 0 0 0 0 4313390.1789536476 -764406.0174407959 0 -764406.0174407959 -15172898.791656494 0 0 0 0 3752854.4196236134 -2470842.7090167999 0 -2470842.7090167999 -16006247.174926758 0 0 0 0 3349783.410421133 -580029.75527572632 0 -580029.75527572632 -13218990.604881287 0 0 0 0 366847.38749313354 -2451328.7334766388 0 -2451328.7334766388 -20084317.626113892 0 0 0 0 3602974.047606945 -161371.47035598755 0 -161371.47035598755 -16695972.037185669 0 0 0 0 2793246.1813857555 -3077994.8646717072 0 -3077994.8646717072 -16260628.570495605 0 0 0 0 1681081.7108888626 -1702077.341468811 0 -1702077.341468811 -15422997.011985779 0 0 0 0 2124627.8453621864 -2730476.2612419128 0 -2730476.2612419128 -19361773.602035522 0 0 0 0 578408.51964092255 -1040693.9249572754 0 -1040693.9249572754 -16618493.864616871 0 0 0 0 -1533946.0458936691 -5333492.8614349365 0 -5333492.8614349365 -16449562.319927216 0 0 0 0 -1045341.4199829102 -1952211.997177124 0 -1952211.997177124 -5102220.4888458252 0 0 0 0 483117.53975296021 -2246553.6663208008 0 -2246553.6663208008 -16559743.036964417 0 0 0 0 1321484.458378315 -2326201.2267856598 0 -2326201.2267856598 -19135179.551887512 0 0 0 0 676377.51748777356 135714.67063169554 0 135714.67063169554 -7260925.7344993949 0 0 0 0 309399.17730617523 -3411697.7240982056 0 -3411697.7240982056 -19522392.541187286 0 0 0 0 -967747.04070942104 -1913818.5187492371 0 -1913818.5187492371 -5884108.7234802246 0 0 0 0 2687313.7115394836 1716517.8982590921 0 1716517.8982590921 -19332579.69217167 0 0 0 0 -2547308.6967692375 -3764674.358379364 0 -3764674.358379364 -18349605.760959864 0 0 0 0 -1234754.2368613663 -1465958.6888077706 0 -1465958.6888077706 -17732880.135232776 0 0 0 0 15235366.252963543 13132112.966693878 0 13132112.966693878 15375890.901632786 0 0 0 0 1733275.6740007401 -1442886.6571884155 0 -1442886.6571884155 -22869226.78338623 0 0 0 0 -151218.76871728897 -1309842.7903633118 0 -1309842.7903633118 -20010739.018436432 0 0 0 0 11354109.577240955 39161392.46661377 0 39161392.46661377 2266787.6351318359 0 0 0 0 1934374.1239573343 3106548.5717629883 0 3106548.5717629883 -10817867.432445746 0 0 0 0 2232845.7466269732 26092951.36369133 0 26092951.36369133 25615699.712493896 0 0 0 0 -1567518.4337873224 2199901.2681201398 0 2199901.2681201398 5831040.8621167094 0 0 0 0 -11245673.644653097 3585885.1303253174 0 3585885.1303253174 -2840757.7254943848 0 0 0 0 37891507.382575512 -6233270.4819564819 0 -6233270.4819564819 47345040.766891479 0 0 0 0 82825.643736898899 1904192.3003253937 0 1904192.3003253937 -4790988.0219573975 0 0 0 0 -1311059.8475093842 -2913364.1218719482 0 -2913364.1218719482 -10754280.883789062 0 0 0 0 -1167064.7366784746 1197997.1622826494 0 1197997.1622826494 2546073.5419147983 0 0 0 0 4431399.5715279579 6019861.4133911133 0 6019861.4133911133 -11118796.193807602 0 0 0 0 -567958.55347716808 2271491.4735450745 0 2271491.4735450745 932252.40545654297 0 0 0 0 1756183.8209377527 2391794.767539978 0 2391794.767539978 -4874262.5810804367 0 0 0 0 883064.04846255959 1991597.6152442303 0 1991597.6152442303 -5564764.093943283 0 0 0 0 238228.60026085377 1898191.8203125 0 1898191.8203125 -3974912.3287277222 0 0 0 0 1419014.7236146629 2025408.6397285461 0 2025408.6397285461 -6056292.8088989258 0 0 0 0 2252028.9608129859 1155217.5532989502 0 1155217.5532989502 -13204763.366714478 0 0 0 0 -1978130.3195841312 6787396.2835388184 0 6787396.2835388184 -772143.11145019531 0 0 0 0 1316152.0292196274 339273.04396057129 0 339273.04396057129 -1048719.0972459316 0 0 0 0 16368.201755677845 915856.59526512399 0 915856.59526512399 -2940236.855790155 0 0 0 0 91119941.44867754 -73387958.441883087 0 -73387958.441883087 27182746.87588501 0 0 0 0 1720470.5185875951 2022810.0111967213 0 2022810.0111967213 -3852004.017149508 0 0 0 0 101219958.34512675 -58610015.384262085 0 -58610015.384262085 3916813.1953430176 0 0 0 0 68958521.099652618 -21691199.594459534 0 -21691199.594459534 9321478.2623443604 0 0 0 0 134628.56703766945 362825.02294213139 0 362825.02294213139 -2331226.0002553016 0 0 0 0 1319009.3442382035 -606973.80417618714 0 -606973.80417618714 -5669607.137388207 0 0 0 0 1198030.2303476334 2093636.4281158447 0 2093636.4281158447 -5375143.5642242432 0 0 0 0 776618.81792422093 686580.26755528152 0 686580.26755528152 -6108001.5670643263 0 0 0 0 1552662.325871706 741517.83033752441 0 741517.83033752441 -4405257.2848701477 0 0 0 0 1494381.1191965342 789301.44100952148 0 789301.44100952148 -4419813.2842712402 0 0 0 0 -6310464.5798864365 -16262995.220598936 0 -16262995.220598936 -4819945.7112541199 0 0 0 0 -25012989.716236115 27888132.988378048 0 27888132.988378048 37979620.73833847 0 0 0 0 -10054983.41434598 39330922.74151516 0 39330922.74151516 -109589702.59509468 0 0 0 0 -10716017.40395546 9571068.1368246078 0 9571068.1368246078 -27403648.01080513 0 0 0 0 6369711.7830123901 27200087.949196815 0 27200087.949196815 -23535881.446780443 0 0 0 0 3983657.2974009514 22638874.004146099 0 22638874.004146099 7396501.4272537231 0 0 0 0 20435426.147699356 13795769.306454182 0 13795769.306454182 -16249524.908197403 0 0 0 0 15392308.438559532 27598848.256627083 0 27598848.256627083 -12616584.234623194 0 0 0 0 5923893.4653654099 30391214.893309593 0 30391214.893309593 -35193469.728153229 0 0 0 0 803746.65948384674 1488433.3290894404 0 1488433.3290894404 -19535931.364595801 0 0 0 0 33934778.904734612 24798196.569504738 0 24798196.569504738 -24245419.750863433 0 0 0 0 27177548.770675063 5663766.9308168292 0 5663766.9308168292 -21992257.853757858 0 0 0 0 4877892.720684588 2679843.4252257347 0 2679843.4252257347 -15857145.623649597 0 0 0 0 98641.777564153308 3108718.3229198391 0 3108718.3229198391 -17106336.027267296 0 0 0 0 -796199.30392313004 452099.70714950562 0 452099.70714950562 -16070164.700544119 0 0 0 0 -713026.32916596532 -321312.86250305176 0 -321312.86250305176 -19825613.138130188 0 0 0 0 -4037783.7020642757 -1282303.6083278656 0 -1282303.6083278656 -14918089.100448608 0 0 0 0 -1306062.0833186244 -1109758.3947199266 0 -1109758.3947199266 -17967533.480923094 0 0 0 0 -354183.97719907761 1841756.1289234161 0 1841756.1289234161 -14424164.330639362 0 0 0 0 4404516.3885130882 -3246825.5053491592 0 -3246825.5053491592 -33974916.517766953 0 0 0 0 1430212.9624532603 1428672.3983869376 0 1428672.3983869376 -18287850.198033135 0 0 0 0 385343.91191108106 -1103346.2395773167 0 -1103346.2395773167 -9861799.3265537806 0 0 0 0 92173.150245334487 -111442.4276531795 0 -111442.4276531795 -2981619.9664349565 0 0 0 0 287238.60009145737 -7447753.9780220985 0 -7447753.9780220985 -28939323.028581619 0 0 0 0 18496610.970759869 4117062.545124054 0 4117062.545124054 -26512138.941321611 0 0 0 0 -4289962.6025629044 -6212915.4341268539 0 -6212915.4341268539 -33129712.243577003 0 0 0 0 7706511.1078071594 3916378.6532115936 0 3916378.6532115936 -47492043.91248703 0 0 0 0 16095517.123596907 2378931.3092031479 0 2378931.3092031479 -29597274.363296509 0 0 0 0 10066573.049329758 -10162950.663011074 0 -10162950.663011074 -37918734.216833115 0 0 0 0 28355372.015534401 37337495.717770338 0 37337495.717770338 -51186940.307453156 0 0 0 0 18521468.071592331 7109447.9763813019 0 7109447.9763813019 -36965725.782491684 0 0 0 0 9669520.026720047 23680354.890922546 0 23680354.890922546 -54054340.236383438 0 0 0 0 7180310.7970738411 14531784.716608524 0 14531784.716608524 -28989906.697341919 0 0 0 0 -24162454.223234177 8619553.7675390244 0 8619553.7675390244 57171759.141101837 0 0 0 0 -1440298.7906279163 3876397.823559985 0 3876397.823559985 1677003.6397425309 0 0 0 0 135111.71058034897 30544437.944978595 0 30544437.944978595 -14261829.888044357 0 0 0 0 -142267.9321346283 33874170.162184715 0 33874170.162184715 -41801597.995452881 0 0 0 0 -1005877.7479364872 25356238.536015272 0 25356238.536015272 -27009558.801139832 0 0 0 0 10734207.200789928 -3813353.9225440025 0 -3813353.9225440025 -27896186.590270042 0 0 0 0 -15155.474843978882 11506428.484232903 0 11506428.484232903 -35884776.786966324 0 0 0 0 -2148618.9616956711 13494552.067867756 0 13494552.067867756 -8855150.307756424 0 0 0 0 -1687624.577501297 12047796.229053497 0 12047796.229053497 -35031626.703943253 0 0 0 0 -1322753.9753468037 4947042.6517086029 0 4947042.6517086029 -10693936.763626099 0 0 0 0 266311.1635532889 2993279.8232563743 0 2993279.8232563743 -15538546.450581439 0 0 0 0 -196696.37495912728 1698945.0298265126 0 1698945.0298265126 -22389435.274861064 0 0 0 0 -2356966.3105638586 5062647.1492208876 0 5062647.1492208876 -11676251.763277356 0 0 0 0 -674771.55439662933 -53484.392534255981 0 -53484.392534255981 -11329729.067520142 0 0 0 0 -5490879.4530039579 197249915.15716553 0 197249915.15716553 67676090.345462799 0 0 0 0 -174004640.43806612 -7451455.8972244263 0 -7451455.8972244263 -6593416.7261352539 0 0 0 0 -46391515.243439123 -72627300.965240479 0 -72627300.965240479 -56463604.912242889 0 0 0 0 -35393077.48786664 -69842259.508701324 0 -69842259.508701324 81047531.738433838 0 0 0 0 139134359.05066484 23481370.99760437 0 23481370.99760437 -30290191.791763306 0 0 0 0 -1972245.0470225811 -1987317.1217556 0 -1987317.1217556 -14902537.103736877 0 0 0 0 -47720476.966571331 86549591.657539368 0 86549591.657539368 114490371.36381531 0 0 0 0 225299.21437206265 3169535.9820048567 0 3169535.9820048567 -14217881.390915003 0 0 0 0 30161.098281189799 263562.09852078557 0 263562.09852078557 198539.13655090053 0 0 0 0 36464581.787111044 -5292357.5574035645 0 -5292357.5574035645 25036180.598843336 0 0 0 0 27229644.567201853 47173137.710426331 0 47173137.710426331 27825447.873535156 0 0 0 0 -6447523.3393001556 44512939.907745361 0 44512939.907745361 -8267516.2545166016 0 0 0 0 -1314942.4238934354 1107555.3669559732 0 1107555.3669559732 4689764.3195219934 0 0 0 0 -20137527.24941346 -36435025.878199577 0 -36435025.878199577 -66187082.573913574 0 0 0 0 -19377601.968590796 -26939711.163707733 0 -26939711.163707733 -38138257.547073364 0 0 0 0 -780304.39403218764 1188884.7452793606 0 1188884.7452793606 1129610.068507228 0 0 0 0 -57774764.03571105 -8248339.2386989594 0 -8248339.2386989594 2621014.7833709717 0 0 0 0 4131749.097579509 -16416229.201763153 0 -16416229.201763153 -98805296.344284058 0 0 0 0 -11290827.800708316 -40857365.566682816 0 -40857365.566682816 -67335354.742645264 0 0 0 0 -12758414.749000803 -31273883.752005577 0 -31273883.752005577 -129387275.65145874 0 0 0 0 -26237011.837063245 2896493.4052743912 0 2896493.4052743912 -34593188.514694214 0 0 0 0 -33683366.176677905 37388677.795433044 0 37388677.795433044 -45375913.841323853 0 0 0 0 -32361706.891056791 62742138.631629944 0 62742138.631629944 -76224949.539028168 0 0 0 0 -19616042.792933345 -9127098.8353967667 0 -9127098.8353967667 -145399571.8228302 0 0 0 0 -175404981.10878259 64693071.881816864 0 64693071.881816864 -161446150.50930786 0 0 0 0 -94487665.273751244 -37456358.05872345 0 -37456358.05872345 -103039040.90536499 0 0 0 0 -47250194.348227918 -30254783.779118359 0 -30254783.779118359 -137752201.34753418 0 0 0 0 -250883.52499023048 369461.65346223488 0 369461.65346223488 329193.8709570393 0 0 0 0 -16542354.219948173 68786981.065299988 0 68786981.065299988 102681303.65757561 0 0 0 0 -73821017.97826007 183795852.4768219 0 183795852.4768219 -109863182.1545105 0 0 0 0 232104488.28921604 26036690.364204407 0 26036690.364204407 -97434734.345596313 0 0 0 0 52189489.026478112 -10460327.001213074 0 -10460327.001213074 -36339392.568725586 0 0 0 0 37173551.58698985 33652701.394870758 0 33652701.394870758 -164639363.44746399 0 0 0 0 -77559710.529288262 -78707354.710128784 0 -78707354.710128784 -163635624.85694695 0 0 0 0 -209652997.24998423 30780591.472270966 0 30780591.472270966 -128299691.80499268 0 0 0 0 -71084746.065625638 -31659912.876144409 0 -31659912.876144409 -218413287.78224945 0 0 0 0 -348618.56655594957 -345725.34424047358 0 -345725.34424047358 -734153.86086571217 0 0 0 0 -151551708.72877833 -180065822.78281403 0 -180065822.78281403 -114517026.26333618 0 0 0 0 52361696.761724383 -75189506.131652832 0 -75189506.131652832 -89634238.655128479 0 0 0 0 -134435963.68141729 -53292217.720596313 0 -53292217.720596313 -13638641.026016235 0 0 0 0 28952548.760305613 4013063.5896224976 0 4013063.5896224976 -64538704.70324707 0 0 0 0 -37054218.22130236 -95515590.997673035 0 -95515590.997673035 -98804218.981994629 0 0 0 0 79794744.513908863 -24080521.910919189 0 -24080521.910919189 -81236394.006698608 0 0 0 0 191331776.69739267 58445584.066665649 0 58445584.066665649 -42912638.751831055 0 0 0 0 115569445.98514175 -71690894.800041199 0 -71690894.800041199 -72115776.024841309 0 0 0 0 40472192.086367466 -24312197.101793289 0 -24312197.101793289 35764985.612426758 0 0 0 0 156158342.54286462 79709703.835319519 0 79709703.835319519 -4111168.5440139771 0 0 0 0 1089961.2060430131 -823641.61336829886 0 -823641.61336829886 -2584581.6996122561 0 0 0 0 4093959.6791248322 -1585061.2668399811 0 -1585061.2668399811 -4211237.7004394531 0 0 0 0 4024765.0178567702 327158.28146760538 0 327158.28146760538 -23876885.737812154 0 0 0 0 9425380.1088413578 543867.65487490781 0 543867.65487490781 -30775954.770024989 0 0 0 0 -2520906.3353860015 -4998451.8368850052 0 -4998451.8368850052 -6341569.8767297901 0 0 0 0 199433502.57036793 26429874.76374054 0 26429874.76374054 -80620401.309188843 0 0 0 0 267531667.79944599 -27536674.033355713 0 -27536674.033355713 -37968906.012481689 0 0 0 0 434727.65256404877 -664901.90003347397 0 -664901.90003347397 -5154194.3176994324 0 0 0 0 165921762.37117916 48891678.38986969 0 48891678.38986969 -110810074.41053009 0 0 0 0 172386593.6590274 19829776.913661957 0 19829776.913661957 -9389819.8917999268 0 0 0 0 10886166.579868317 8029553.7258911133 0 8029553.7258911133 2049750.6512756348 0 0 0 0 259091158.46407765 137556064.08356476 0 137556064.08356476 -43063033.221679688 0 0 0 0 -640909.19669287535 3046096.3114543054 0 3046096.3114543054 -20445451.654797733 0 0 0 0 -854734.78626245959 -694394.05821180344 0 -694394.05821180344 -21750985.399620246 0 0 0 0 1317579.4065418243 6190343.1900901794 0 6190343.1900901794 -8884718.2907733917 0 0 0 0 -3379583.1317371158 4816554.7824669201 0 4816554.7824669201 617604.02912232652 0 0 0 0 5244533.6897008419 -10506642.10943985 0 -10506642.10943985 -85389464.038024902 0 0 0 0 21769899.054968193 -5507273.1459960938 0 -5507273.1459960938 -120579327.76124573 0 0 0 0 -4823958.5873599946 -45876357.493606567 0 -45876357.493606567 -207547170.633564 0 0 0 0 -155192740.26425785 18550784.3189888 0 18550784.3189888 -64837468.653800964 0 0 0 0 -26936353.402518749 57634935.620010376 0 57634935.620010376 -114840886.1991272 0 0 0 0 10562.9784381707 972586.18804825936 0 972586.18804825936 -601475.88401456177 0 0 0 0 -95204189.088219926 -15680780.340854645 0 -15680780.340854645 -7597480.9653320312 0 0 0 0 97581.832977903658 183117.25831573829 0 183117.25831573829 -361939.03808271047 0 0 0 0 -676037.71772059798 1491279.0723039545 0 1491279.0723039545 -979749.71189322881 0 0 0 0 843880.36205923557 3224656.7342605591 0 3224656.7342605591 -2449919.8525085449 0 0 0 0 -22264894.273001239 27564875.7045784 0 27564875.7045784 -34228173.826789856 0 0 0 0 15266016.261147559 -9262237.0047149658 0 -9262237.0047149658 -93587189.723693848 0 0 0 0 -289634.70285966777 1563841.7135404535 0 1563841.7135404535 -985095.64902988728 0 0 0 0 1832947.4118658602 9202182.5517044067 0 9202182.5517044067 5736173.8126602173 0 0 0 0 88099.372527898071 1478676.6508251913 0 1478676.6508251913 -1114912.7662569471 0 0 0 0 -44342854.47051546 41815452.375061035 0 41815452.375061035 9727079.5157165527 0 0 0 0 -5920756.0682185292 -27812787.344787598 0 -27812787.344787598 -61387333.725248337 0 0 0 0 -7867373.8803597987 -19787927.488182068 0 -19787927.488182068 5554935.1324920654 0 0 0 0 850749.94496542215 -21907276.036231995 0 -21907276.036231995 5582453.4564361572 0 0 0 0 -302657.12906476104 348798.06029377878 0 348798.06029377878 722282.68779639155 0 0 0 0 20036038.828912079 -3189269.8645477295 0 -3189269.8645477295 -1610242.8987808228 0 0 0 0 -412147.60672610998 -27658899.435993195 0 -27658899.435993195 -73228746.751525879 0 0 0 0 2938563.4567625076 -31203435.718894958 0 -31203435.718894958 -74779986.345916748 0 0 0 0 2275701.908951357 -38945229.859169006 0 -38945229.859169006 -69801870.70249939 0 0 0 0 20994923.578351296 -15279653.34619236 0 -15279653.34619236 -87411391.634613037 0 0 0 0 33285860.177402258 -14704690.568817139 0 -14704690.568817139 -88190826.699588776 0 0 0 0 3520046.7639430761 -16587682.386367798 0 -16587682.386367798 -44703109.990032196 0 0 0 0 25546268.811324354 -42124237.785183907 0 -42124237.785183907 -71130378.669616699 0 0 0 0 31663651.714169174 -43339003.385116577 0 -43339003.385116577 -21017270.617218018 0 0 0 0 53583938.678306505 10870239.026198387 0 10870239.026198387 -22633307.749229431 0 0 0 0 -10197688.055784807 -26116361.107688904 0 -26116361.107688904 95209252.424957275 0 0 0 0 26916272.006001949 -25984027.360136032 0 -25984027.360136032 -92519748.030456543 0 0 0 0 18852237.173789948 -33172735.309867859 0 -33172735.309867859 -43984676.355308533 0 0 0 0 -49696910.210071035 -8977368.8495407104 0 -8977368.8495407104 7027382.1336746216 0 0 0 0 -24999050.923419952 -12621736.812614441 0 -12621736.812614441 -57695399.268758774 0 0 0 0 -32928808.244432524 9103854.3680915833 0 9103854.3680915833 60972371.547523499 0 0 0 0 15728743.012176365 -7319203.1370811462 0 -7319203.1370811462 7054409.3833503723 0 0 0 0 363464.39870229329 286391.47829904407 0 286391.47829904407 -282066.70069148019 0 0 0 0 178872.64929610491 7300351.9970245361 0 7300351.9970245361 -8821852.6475067139 0 0 0 0 -5366731.5252537578 -27275068.310646057 0 -27275068.310646057 78307035.019557953 0 0 0 0 -4823046.6528366208 4930453.6361732483 0 4930453.6361732483 5470671.4638061523 0 0 0 0 -815277.94206244755 231849.19910053536 0 231849.19910053536 -241736.76855878159 0 0 0 0 -8828256.7200530767 13981975.163414001 0 13981975.163414001 -21084175.174650192 0 0 0 0 10028199.783379272 10931343.083965302 0 10931343.083965302 14496964.334030151 0 0 0 0 3530427.3291548789 1149922.8592910767 0 1149922.8592910767 35230.991600036621 0 0 0 0 -6114478.425099194 1512240.6801528931 0 1512240.6801528931 112855.38212585449 0 0 0 0 20917872.145583034 681.19795989990234 0 681.19795989990234 -12439830.770942688 0 0 0 0 118425.79208591045 72307.704895950854 0 72307.704895950854 -79302.362962506711 0 0 0 0 33668141.952028483 15012070.904163361 0 15012070.904163361 -5267163.3368606567 0 0 0 0 -7404898.5103098452 33300748.244724274 0 33300748.244724274 23276930.524747849 0 0 0 0 -22974318.796472572 13626076.991123199 0 13626076.991123199 5999179.3631439209 0 0 0 0 -46690573.329472527 26979359.277492523 0 26979359.277492523 14134852.631561279 0 0 0 0 7292374.5040512085 5819955.2478218079 0 5819955.2478218079 10342365.16809082 0 0 0 0 13182368.971122563 16127429.651035309 0 16127429.651035309 -4930739.4382667542 0 0 0 0 -591476.11832432426 165901.7948253192 0 165901.7948253192 -136412.37707795762 0 0 0 0 -16155450.703495085 3271240.1778907776 0 3271240.1778907776 -49039711.90055275 0 0 0 0 -227109.56177601678 60101.572114598006 0 60101.572114598006 -50355.245441861451 0 0 0 0 4072282.1762187034 20839076.082759857 0 20839076.082759857 -153605249.19572449 0 0 0 0 -59475362.834255725 6870999.2000770569 0 6870999.2000770569 38318566.958694458 0 0 0 0 -36057400.7141276 58026871.571926117 0 58026871.571926117 -118084837.44274902 0 0 0 0 -40386520.30539906 2580438.729637146 0 2580438.729637146 -81947517.424535751 0 0 0 0 -10263567.67773959 -26697744.823038101 0 -26697744.823038101 -106500124.55169678 0 0 0 0 -23724703.836769462 -16684052.418464661 0 -16684052.418464661 -84267654.736557007 0 0 0 0 -8142350.3877874613 -33674247.123508453 0 -33674247.123508453 -71335288.338012695 0 0 0 0 5684651.0458427072 5019990.6305770874 0 5019990.6305770874 -83877338.488380432 0 0 0 0 -815341.27486995189 -1336307.4434057754 0 -1336307.4434057754 -2831123.2235274762 0 0 0 0 -11458697.709662069 3793339.9579609632 0 3793339.9579609632 28188190.334671021 0 0 0 0 118602026.72822924 15560276.051929474 0 15560276.051929474 -91333268.570297241 0 0 0 0 -13228478.596891157 -91129043.87923789 0 -91129043.87923789 -90069553.545211792 0 0 0 0 2048818.212633834 10614749.897643933 0 10614749.897643933 -15347783.486574739 0 0 0 0 28605933.057486087 -6725418.9132347107 0 -6725418.9132347107 -72981209.606781006 0 0 0 0 49683653.083910257 55653246.170154572 0 55653246.170154572 22073728.563911438 0 0 0 0 51182070.294403762 39022056.679264069 0 39022056.679264069 -30216713.934242249 0 0 0 0 -67443940.012794957 77893907.111534119 0 77893907.111534119 -22184660.327526093 0 0 0 0 -32713612.8341171 48316948.559854507 0 48316948.559854507 -2821939.4325866699 0 0 0 0 -34950350.085980207 71244002.913414001 0 71244002.913414001 27083290.424293518 0 0 0 0 -8464555.4268507957 5943870.894323349 0 5943870.894323349 26736730.972846985 0 0 0 0 -58336032.153494969 32139166.442245483 0 32139166.442245483 16399027.864002228 0 0 0 0 -47931542.896024264 41708226.01002121 0 41708226.01002121 18077215.551712036 0 0 0 0 -96596361.103769153 47680972.099990845 0 47680972.099990845 26503367.879875183 0 0 0 0 -49228225.328423455 24811024.117235184 0 24811024.117235184 19038655.358047485 0 0 0 0 -56253856.512277424 -21384629.566479683 0 -21384629.566479683 -60996395.596374512 0 0 0 0 -86051624.60905017 42395093.905817032 0 42395093.905817032 -58262294.345848083 0 0 0 0 -3224022.2717755437 383011.0365562439 0 383011.0365562439 -64582926.272003174 0 0 0 0 -1719205.6253498793 -14798818.100334167 0 -14798818.100334167 -36493592.508476257 0 0 0 0 1047433.9499485791 23102356.617435455 0 23102356.617435455 -101460711.5177002 0 0 0 0 5135.2750979363918 29806305.687632561 0 29806305.687632561 -12260263.951263428 0 0 0 0 40584655.01461494 10681359.453735352 0 10681359.453735352 -60870857.865936279 0 0 0 0 41720841.403767541 18134551.055617332 0 18134551.055617332 -22683469.501464844 0 0 0 0 33370498.89413017 -9596260.499130249 0 -9596260.499130249 -24065924.939296722 0 0 0 0 58644394.054560483 9587391.8679580688 0 9587391.8679580688 -43618837.69985199 0 0 0 0 58810620.534307219 6799141.565369606 0 6799141.565369606 -11915621.181594849 0 0 0 0 68182019.141952902 3370461.5679550171 0 3370461.5679550171 -22224677.275352478 0 0 0 0 67612005.783807203 26991125.903253555 0 26991125.903253555 -20447006.398742676 0 0 0 0 62912985.488342166 11696185.741828918 0 11696185.741828918 -29412949.299987793 0 0 0 0 218898.34401600162 -3793263.0785910711 0 -3793263.0785910711 -7861925.8864988685 0 0 0 0 1462026.4812128651 743597.14574029204 0 743597.14574029204 -7653898.870951511 0 0 0 0 843884.44630557601 1905017.7774025965 0 1905017.7774025965 -6997542.8329002857 0 0 0 0 13432327.476800919 936656.23328399658 0 936656.23328399658 6063752.3998260498 0 0 0 0 66346914.015942097 -14331068.525535583 0 -14331068.525535583 -562763.83312988281 0 0 0 0 105909637.72913411 -38737849.841858387 0 -38737849.841858387 -42157690.461608887 0 0 0 0 14080234.30372715 -17977928.03717804 0 -17977928.03717804 -44757709.407821655 0 0 0 0 474495.55821289052 -2443586.9636988239 0 -2443586.9636988239 -3953132.8137475103 0 0 0 0 9081227.7935959697 -58607438.2759552 0 -58607438.2759552 88441119.240234375 0 0 0 0 53201457.998191893 -35707432.518424988 0 -35707432.518424988 -35448761.358032227 0 0 0 0 100659238.31521408 23726795.188964844 0 23726795.188964844 -64275241.999633789 0 0 0 0 63931455.087834582 -32737553.124433994 0 -32737553.124433994 6450637.6028747559 0 0 0 0 529752.40775602171 -1278074.2860877495 0 -1278074.2860877495 -3701168.9966856726 0 0 0 0 53857037.360097818 -3594169.4865665436 0 -3594169.4865665436 5936079.9551391602 0 0 0 0 53104675.201842636 4379817.2672390938 0 4379817.2672390938 -19794798.825302124 0 0 0 0 62999859.326758847 -23744966.368181705 0 -23744966.368181705 -27380612.70123291 0 0 0 0 41612152.348501503 -16311714.084991455 0 -16311714.084991455 -26790468.076095581 0 0 0 0 39703597.125121802 -10286453.069717407 0 -10286453.069717407 -44896689.962722778 0 0 0 0 18735137.417705446 -23512439.364795685 0 -23512439.364795685 -36194074.924156189 0 0 0 0 28987905.263646118 539476.58139705658 0 539476.58139705658 -39791045.737670898 0 0 0 0 -166576.51080523376 38560.604539424181 0 38560.604539424181 7469.0132748214528 0 0 0 0 50040376.881677568 -13791514.647659302 0 -13791514.647659302 60181451.472982407 0 0 0 0 29884369.206601113 -14071036.203666687 0 -14071036.203666687 -61845383.554569244 0 0 0 0 50466431.424567878 -29143704.205780029 0 -29143704.205780029 -51199143.727264404 0 0 0 0 -2932155.7605588138 -11058343.988098145 0 -11058343.988098145 -39353625.654022217 0 0 0 0 -2486635.3132878877 -8701076.6026134491 0 -8701076.6026134491 -34674980.146385193 0 0 0 0 -20377539.418894 21773229.904900551 0 21773229.904900551 -73901315.102088928 0 0 0 0 -33653437.155429453 -14521345.544784546 0 -14521345.544784546 -34286913.408638 0 0 0 0 -24179118.381071597 -11269434.714754105 0 -11269434.714754105 -5514585.3324737549 0 0 0 0 -378520.93122515641 9954.4859575890005 0 9954.4859575890005 -5855.7920536305755 0 0 0 0 -49294141.619252026 -55934041.64128685 0 -55934041.64128685 10419812.02734375 0 0 0 0 -29390366.817696333 -12487889.352073669 0 -12487889.352073669 -47248520.098236084 0 0 0 0 -4659285.311502099 -81592661.392837524 0 -81592661.392837524 -173806651.83905792 0 0 0 0 -36944181.120576859 -104946108.42047119 0 -104946108.42047119 -168498602.64882469 0 0 0 0 -72673472.389900178 -55794747.641427994 0 -55794747.641427994 -10762957.224365234 0 0 0 0 -62227191.069707274 -119628107.08751678 0 -119628107.08751678 -144070674.53515625 0 0 0 0 -47823112.5105986 -129020861.40834808 0 -129020861.40834808 -139020151.95579529 0 0 0 0 22247762.131218135 -5030254.6307201385 0 -5030254.6307201385 -31542347.594657898 0 0 0 0 -19475815.379967451 7379483.0821304321 0 7379483.0821304321 54803688.715866089 0 0 0 0 137551541.2293936 45506929.688976288 0 45506929.688976288 13173091.743499756 0 0 0 0 89974508.641537368 -3794498.9564819336 0 -3794498.9564819336 351706.74031066895 0 0 0 0 -73364629.619934678 -57010106.431129456 0 -57010106.431129456 76248251.740188599 0 0 0 0 -50465.174470157246 6505.2125824224204 0 6505.2125824224204 -1171516.7259405255 0 0 0 0 -62817550.499393582 -169293418.21044922 0 -169293418.21044922 -134627918.19787598 0 0 0 0 -11968001.272050142 -51718646.797073364 0 -51718646.797073364 17806980.397865295 0 0 0 0 -35696053.744491056 -11217156.727745056 0 -11217156.727745056 85210235.055343628 0 0 0 0 58167911.517745793 33267793.16015625 0 33267793.16015625 80674302.87336731 0 0 0 0 -114167037.28807676 150910172.92334557 0 150910172.92334557 -164096896.46054077 0 0 0 0 -4999917.3180596828 -89246574.885715485 0 -89246574.885715485 -64666793.06902504 0 0 0 0 715355.25225882558 2942571.8057532841 0 2942571.8057532841 -1426788.7014798 0 0 0 0 -75438416.258723736 154011249.48761368 0 154011249.48761368 -266120948.44766235 0 0 0 0 -16648101.985944271 63996637.953125 0 63996637.953125 -113518000.30001831 0 0 0 0 -39846544.33462739 118087491.91271591 0 118087491.91271591 -197984939.64178467 0 0 0 0 -55879396.509492159 103844558.63458252 0 103844558.63458252 -142919752.60223389 0 0 0 0 -95168760.070995331 124787378.59869385 0 124787378.59869385 -112601462.75796509 0 0 0 0 -82975611.987198353 83183090.489013672 0 83183090.489013672 -26751085.423248291 0 0 0 0 -114503170.97172928 109648412.5914917 0 109648412.5914917 -12061151.225524902 0 0 0 0 -110243567.22358322 129564634.60774994 0 129564634.60774994 -48511126.083129883 0 0 0 0 3049367.0911637708 -650903.32671648357 0 -650903.32671648357 -11724700.560667105 0 0 0 0 -18069067.876316071 30765613.378101349 0 30765613.378101349 16117910.153869629 0 0 0 0 12490561.098558664 12840702.847883224 0 12840702.847883224 -21930082.717384338 0 0 0 0 149456798.782639 -31274969.036575317 0 -31274969.036575317 9861287.2289581299 0 0 0 0 -13190.515351025537 243523.52682674397 0 243523.52682674397 -3602054.1715972573 0 0 0 0 56494364.026818752 68114773.63105011 0 68114773.63105011 -14454885.313922882 0 0 0 0 -137761937.8451544 -70926779.76789856 0 -70926779.76789856 -98222505.721112251 0 0 0 0 -56880954.765328825 -81555472.99058342 0 -81555472.99058342 -190051195.2587204 0 0 0 0 -55602041.551804721 -69516366.131362915 0 -69516366.131362915 -142368329.97122955 0 0 0 0 -27573826.162839711 -54558233.182388306 0 -54558233.182388306 -142360024.19717407 0 0 0 0 -67572064.298246861 -42403478.100460052 0 -42403478.100460052 -101633387.9987812 0 0 0 0 -45376909.452400625 -10546847.003475189 0 -10546847.003475189 -80912500.951263428 0 0 0 0 -47801128.525799751 -5325120.1565818787 0 -5325120.1565818787 -88630954.861869812 0 0 0 0 -37375650.109693937 33519889.032958984 0 33519889.032958984 -70286676.762405396 0 0 0 0 -17694903.616367191 34542450.123981476 0 34542450.123981476 -76866954.735313416 0 0 0 0 -1603499.3943952322 -8316990.0669441223 0 -8316990.0669441223 -45730976.734909058 0 0 0 0 -95811020.391433954 25546777.743873596 0 25546777.743873596 -6944707.0630874634 0 0 0 0 -216340.23221254756 -7007.2290458269417 0 -7007.2290458269417 -17876.24528330192 0 0 0 0 -98876140.548566818 -122205930.45930481 0 -122205930.45930481 -184353453.73983002 0 0 0 0 2704082.216855824 -38600879.264438629 0 -38600879.264438629 -213325372.41062927 0 0 0 0 -4979217.6773793697 -114609292.63933945 0 -114609292.63933945 -255521344.69446945 0 0 0 0 -127284248.43655705 -88893644.733810425 0 -88893644.733810425 -200891760.14446747 0 0 0 0 -105867592.48009789 -63240698.706031799 0 -63240698.706031799 -185927981.76926422 0 0 0 0 -49983388.000526726 -103968269.21759796 0 -103968269.21759796 -221107470.41333008 0 0 0 0 -8481274.7553606033 -79887211.228862762 0 -79887211.228862762 -212765749.80384111 0 0 0 0 5100723.0007419586 -65238831.980434418 0 -65238831.980434418 -214649275.76393414 0 0 0 0 -6244108.6252189875 -70648216.823181152 0 -70648216.823181152 -192106143.41122437 0 0 0 0 -22523144.912490219 -73098339.871021271 0 -73098339.871021271 -194715523.21234894 0 0 0 0 -15507177.777071685 -70463688.669576645 0 -70463688.669576645 -164139190.05285645 0 0 0 0 -25958926.474587321 -88508001.668052673 0 -88508001.668052673 -194614525.32367244 0 0 0 0 -6390428.8124108613 -85845968.264448166 0 -85845968.264448166 -187029802.22087097 0 0 0 0 -6642824.4032337368 -58465107.319784164 0 -58465107.319784164 -149486676.88955688 0 0 0 0 -9279829.1366423965 -64842946.199863434 0 -64842946.199863434 -164910843.93949556 0 0 0 0 -31261189.923632383 -60012719.370714188 0 -60012719.370714188 -128927511.73807526 0 0 0 0 13491398.150054842 -81733249.18088913 0 -81733249.18088913 -200554027.39165497 0 0 0 0 12496763.708307505 -64261088.701869965 0 -64261088.701869965 -202425205.81819534 0 0 0 0 13737274.731899768 -51401447.634677887 0 -51401447.634677887 -213978207.69017601 0 0 0 0 9237021.1174750924 -59788927.312931061 0 -59788927.312931061 -167915593.44793701 0 0 0 0 6619594.0253870487 -65915785.964504242 0 -65915785.964504242 -180392874.11583012 0 0 0 0 4305822.2658566236 -76473568.492111206 0 -76473568.492111206 -180317120.56981036 0 0 0 0 8269803.8065745234 -83050076.077449799 0 -83050076.077449799 -193332848.85440445 0 0 0 0 13845943.214980662 -79672586.951389313 0 -79672586.951389313 -191311671.08264923 0 0 0 0 9904796.3255514055 -86493336.315881729 0 -86493336.315881729 -177349882.47091675 0 0 0 0 11731195.939632922 -86438752.508644104 0 -86438752.508644104 -191507400.30577087 0 0 0 0 -1598097.6298167109 -81629810.904197693 0 -81629810.904197693 -171824944.98809433 0 0 0 0 5658328.5804987252 -45261030.537220001 0 -45261030.537220001 -204238883.94402695 0 0 0 0 3273294.0463255644 -44762197.864898682 0 -44762197.864898682 -124280916.3210659 0 0 0 0 -5320740.946602881 -104306427.59896851 0 -104306427.59896851 -109379812.91845322 0 0 0 0 9515437.8582276776 -69945775.15983963 0 -69945775.15983963 -108932865.38180542 0 0 0 0 6830344.8978649676 -80846623.616287231 0 -80846623.616287231 -135501251.11244583 0 0 0 0 6592505.5469922125 -81528749.121621132 0 -81528749.121621132 -212552034.74975586 0 0 0 0 12446990.591117293 -100002547.64425373 0 -100002547.64425373 -200280093.76751709 0 0 0 0 16415924.375305891 -82345415.257514954 0 -82345415.257514954 -191269932.01599121 0 0 0 0 13481706.607080042 -95675175.183280945 0 -95675175.183280945 -170403322.34625244 0 0 0 0 19819273.958558187 -91364728.153118134 0 -91364728.153118134 -183555038.01953125 0 0 0 0 19812944.150866535 -17660334.053436279 0 -17660334.053436279 -4179806.2692365646 0 0 0 0 -9941734.3004692495 -4154081.8555145264 0 -4154081.8555145264 -2791059.1081390381 0 0 0 0 -136046816.2841354 -100468969.18748474 0 -100468969.18748474 -37289410.062080383 0 0 0 0 -41519887.760886997 -78539064.621231079 0 -78539064.621231079 -35589797.769737244 0 0 0 0 -25000990.621653289 -123405486.25020599 0 -123405486.25020599 -132836315.76521301 0 0 0 0 -58237846.124513656 -117652991.78462219 0 -117652991.78462219 -201474473.94805908 0 0 0 0 -23854014.919661857 -105416516.74852085 0 -105416516.74852085 -197139112.96388245 0 0 0 0 54505066.713435732 17703747.725067139 0 17703747.725067139 -13733849.269049644 0 0 0 0 -178453477.44233501 -176934079.7178688 0 -176934079.7178688 -167021898.71247864 0 0 0 0 124406.75790845201 -115397047.60387802 0 -115397047.60387802 -285504843.8732605 0 0 0 0 24639.948164251589 -55947.403302944265 0 -55947.403302944265 -259577.96865102649 0 0 0 0 -58256154.666783094 -152243166.77362823 0 -152243166.77362823 -351120312.41921997 0 0 0 0 -29167853.251472883 -68280199.402923584 0 -68280199.402923584 -278522736.18287945 0 0 0 0 -88743216.726290539 -61282936.754020691 0 -61282936.754020691 -278907456.19088745 0 0 0 0 -37390430.947157696 -47918360.036705017 0 -47918360.036705017 -357444262.00062561 0 0 0 0 -32814853.534618184 -29048473.744735718 0 -29048473.744735718 -265842288.96727097 0 0 0 0 -36690502.585727304 -76685709.019424438 0 -76685709.019424438 -266386106.69585109 0 0 0 0 -9909809.8452512734 -78112985.373659134 0 -78112985.373659134 -303118738.24273682 0 0 0 0 -8838496.6207022518 -88653608.814300537 0 -88653608.814300537 -215839487.46900558 0 0 0 0 -21023097.119372815 -42309729.863508224 0 -42309729.863508224 -244028293.12399292 0 0 0 0 -24396970.873447478 -45652355.118318558 0 -45652355.118318558 -238367914.93488312 0 0 0 0 -35817944.363239229 -34423614.77684021 0 -34423614.77684021 -238023176.66778326 0 0 0 0 -114440.12273652012 -39616156.462619781 0 -39616156.462619781 -255159323.13180542 0 0 0 0 8734645.2799789906 -90569306.989433289 0 -90569306.989433289 -196691071.1336441 0 0 0 0 6750772.3714696765 -72696585.711151123 0 -72696585.711151123 -209850027.02868271 0 0 0 0 17146038.305126004 -81718678.072540283 0 -81718678.072540283 -224519814.32836914 0 0 0 0 3485727.9692925811 -75691934.453987122 0 -75691934.453987122 -208387094.46184731 0 0 0 0 6903517.0592211187 -75288729.092636108 0 -75288729.092636108 -250682374.17890167 0 0 0 0 -5314838.2704136074 -61401294.724815369 0 -61401294.724815369 -223038697.40961266 0 0 0 0 -16680693.067124516 -40035730.016349792 0 -40035730.016349792 -234657812.58972168 0 0 0 0 -3377335.9738976955 -60456353.84879303 0 -60456353.84879303 -230543828.784729 0 0 0 0 -16560938.036424845 -55040860.804367065 0 -55040860.804367065 -216224825.53887177 0 0 0 0 8362560.3098363578 -73029664.252983093 0 -73029664.252983093 -219940176.85932922 0 0 0 0 8175082.0096000433 -62338266.946691513 0 -62338266.946691513 -233348570.7593689 0 0 0 0 170926.41024339199 -14761636.822929382 0 -14761636.822929382 -355654237.91199493 0 0 0 0 -136986.11597561999 -90606.939687918872 0 -90606.939687918872 -134689.3599650953 0 0 0 0 -1533133.5631257892 562594.5051574707 0 562594.5051574707 -199209209.6064682 0 0 0 0 2350896.4849052131 -10031183.528049469 0 -10031183.528049469 -182313975.58712769 0 0 0 0 -27280567.066069648 -28025913.649417877 0 -28025913.649417877 -234473944.33479309 0 0 0 0 -21785781.406398274 -45369155.724018097 0 -45369155.724018097 -240168999.13811493 0 0 0 0 -47924553.92558521 -54068262.817886353 0 -54068262.817886353 -242345706.84060097 0 0 0 0 -39557304.70536498 -33854831.700912476 0 -33854831.700912476 -233193025.67662144 0 0 0 0 44308.914186545604 -6951956.0548019409 0 -6951956.0548019409 -214932818.51285934 0 0 0 0 -28878248.306523696 -92268912.245353699 0 -92268912.245353699 -126115726.79379272 0 0 0 0 -51719368.705181092 -37451947.863992691 0 -37451947.863992691 -5296736.7660369873 0 0 0 0 -28321818.455865655 7223047.0180931091 0 7223047.0180931091 11074709.872680664 0 0 0 0 42502.155820890279 2440.9945203512907 0 2440.9945203512907 -95147.466191614047 0 0 0 0 9501695.1872817799 -7954056.9784412384 0 -7954056.9784412384 -72059759.258270264 0 0 0 0 -64854.538189232277 -2965510.3927955627 0 -2965510.3927955627 -13143516.422985077 0 0 0 0 -380837.01546083932 -254725.24104299396 0 -254725.24104299396 -351767.65169027075 0 0 0 0 -2192573.7862561345 782495.19498825073 0 782495.19498825073 -1162853.7570037842 0 0 0 0 9119536.4307929426 -5978103.8779258728 0 -5978103.8779258728 2003532.9292144775 0 0 0 0 -24808411.643976986 -9535458.7953948975 0 -9535458.7953948975 18751529.327854156 0 0 0 0 12419830.687051944 -2342957.7460689545 0 -2342957.7460689545 -14135215.664733887 0 0 0 0 4556791.8752395511 -8576503.3739891052 0 -8576503.3739891052 -31627004.4609375 0 0 0 0 8498475.9703371078 7539792.2558555603 0 7539792.2558555603 -9587634.8354301453 0 0 0 0 1611135.309988955 -589883.19419288635 0 -589883.19419288635 -5659153.7145843506 0 0 0 0 8898359.1493205428 3690299.8202667236 0 3690299.8202667236 -1823796.2957382202 0 0 0 0 -987159.95243027806 -144931.30274200439 0 -144931.30274200439 -1180606.588684082 0 0 0 0 140391.60046612399 -38655.245841473341 0 -38655.245841473341 -322941.30285573006 0 0 0 0 593389.77381840348 -165505.10782814026 0 -165505.10782814026 -4917076.1461486816 0 0 0 0 216081.94649672078 -190581.56093697995 0 -190581.56093697995 -702346.07515887171 0 0 0 0 4419671.7114422321 13565901.987350464 0 13565901.987350464 22493151.224838257 0 0 0 0 885322.91596156359 -2273780.3736743927 0 -2273780.3736743927 -3628600.5816955566 0 0 0 0 -10120359.620347321 -16536682.748771667 0 -16536682.748771667 -69845718.681533813 0 0 0 0 -883398.77740192413 -400140.21200561523 0 -400140.21200561523 -1789507.3866729736 0 0 0 0 -552934.92505619698 -399022.83637640998 0 -399022.83637640998 -590872.96497106366 0 0 0 0 3805886.1504250765 -13246114.103340149 0 -13246114.103340149 -90813849.540008545 0 0 0 0 12848489.226109982 1917657.8248138428 0 1917657.8248138428 13048630.040618896 0 0 0 0 263741.82245707931 487729.85770088807 0 487729.85770088807 -926100.83034146205 0 0 0 0 15393.97050100565 30097.947875976562 0 30097.947875976562 -175609.75836181641 0 0 0 0 263958.82855668594 50451.377699222416 0 50451.377699222416 -683779.22710121796 0 0 0 0 2171764.5427148342 18318222.40020752 0 18318222.40020752 22923328.147140503 0 0 0 0 11410445.707302213 10739685.313236237 0 10739685.313236237 23757152.366241455 0 0 0 0 4506818.1260344982 9011419.9038848877 0 9011419.9038848877 25610936.895294189 0 0 0 0 4691671.7521524429 17807656.759124756 0 17807656.759124756 22948703.072631836 0 0 0 0 10392896.966320038 7841628.7453613281 0 7841628.7453613281 22913788.870910645 0 0 0 0 589133.36994910846 760252.34390729293 0 760252.34390729293 -1084174.3196722195 0 0 0 0 8412092.4514536858 10652211.455200195 0 10652211.455200195 25954679.794525146 0 0 0 0 2707681.9073693752 13862691.397979736 0 13862691.397979736 23473832.098234177 0 0 0 0 879895.97883659601 15336073.759529114 0 15336073.759529114 24387906.91027832 0 0 0 0 4605863.8040486574 17203140.97038269 0 17203140.97038269 19526331.485656738 0 0 0 0 -4072348.2974959612 16701758.121673584 0 16701758.121673584 24689141.285964966 0 0 0 0 -6441111.5302138329 -4589494.2520294189 0 -4589494.2520294189 53197756.075267792 0 0 0 0 -3844037.5719231367 19475305.273139954 0 19475305.273139954 22376648.903533936 0 0 0 0 -11692333.52131021 5768374.4881744385 0 5768374.4881744385 54186028.046737671 0 0 0 0 665645.97288099176 563454.91725827008 0 563454.91725827008 -690457.64916260913 0 0 0 0 -584429.35786008835 8315960.6589813232 0 8315960.6589813232 33775919.152770996 0 0 0 0 -9841787.0801300406 12886765.703399658 0 12886765.703399658 38801332.413818359 0 0 0 0 -1928178.1053606272 1627924.4911956787 0 1627924.4911956787 41329058.491352081 0 0 0 0 13821017.534659386 -2275470.5359802246 0 -2275470.5359802246 24304151.301452637 0 0 0 0 2485939.385982275 5121692.0939025879 0 5121692.0939025879 30331080.350921631 0 0 0 0 6441092.1102280617 -414539.90669250488 0 -414539.90669250488 36882802.479354858 0 0 0 0 12043596.822091103 -6337930.6692352295 0 -6337930.6692352295 32638860.10144043 0 0 0 0 -2814354.6345653981 7378899.7807807922 0 7378899.7807807922 33525222.463256836 0 0 0 0 -3830972.5752459541 16008951.0598526 0 16008951.0598526 43891871.322441101 0 0 0 0 -4854409.9254754186 7769848.2205581665 0 7769848.2205581665 31895030.91248703 0 0 0 0 -1088147.5538773835 4710587.1669726372 0 4710587.1669726372 -1727743.7585220337 0 0 0 0 -1561660.7556663156 -3427539.0365028381 0 -3427539.0365028381 -1926155.475818634 0 0 0 0 1603303.7034273148 -3177150.5023880005 0 -3177150.5023880005 -2642673.7493934631 0 0 0 0 -1897970.4424133301 -327158.57077789307 0 -327158.57077789307 1266863.9689712524 0 0 0 0 -902151.93767051282 387258.60496510193 0 387258.60496510193 -489386.53912812844 0 0 0 0 189212.54916393757 -292006.05325317383 0 -292006.05325317383 -350224.17895889282 0 0 0 0 -357525.21704089711 158477.58108213544 0 158477.58108213544 -1014619.132164225 0 0 0 0 -232402.78367114358 -121363.67230452225 0 -121363.67230452225 -55091.347958259284 0 0 0 0 -2720901.1855100393 1753764.8491973877 0 1753764.8491973877 -57833672.276626587 0 0 0 0 7243674.7938372493 -30017021.425727844 0 -30017021.425727844 -129120259.52182007 0 0 0 0 -11597100.527526855 -38688151.769187927 0 -38688151.769187927 -72236151.61242485 0 0 0 0 -9523170.9491914213 -42605267.809565544 0 -42605267.809565544 -123803525.07102966 0 0 0 0 -15018686.871110678 -35349444.584022522 0 -35349444.584022522 -120948828.42972183 0 0 0 0 -63564.443928481953 -29877.024164035916 0 -29877.024164035916 -39273.565546646714 0 0 0 0 -10194724.460617244 -33875087.410919189 0 -33875087.410919189 -124471889.18188477 0 0 0 0 -17175078.921130031 -37642169.920083046 0 -37642169.920083046 -123182279.65597534 0 0 0 0 -12795623.806739688 -36799257.667671204 0 -36799257.667671204 -127549430.13678837 0 0 0 0 1780403.5862353444 -37718990.684402466 0 -37718990.684402466 -128340177.32792664 0 0 0 0 -30482.193795681 -45440674.65436554 0 -45440674.65436554 -149321428.59440613 0 0 0 0 13797806.508513182 -35748436.219780922 0 -35748436.219780922 -141761319.35618591 0 0 0 0 11915170.815993726 -44623005.215072632 0 -44623005.215072632 -168790597.95036817 0 0 0 0 16957906.607571483 -42520975.833652496 0 -42520975.833652496 -198151281.18040466 0 0 0 0 13088161.008691788 -55076790.632415771 0 -55076790.632415771 -174970345.48377991 0 0 0 0 5632718.5660495758 1886199.2387332916 0 1886199.2387332916 -139524385.40065002 0 0 0 0 -2462157.5022689104 1094794.9055099487 0 1094794.9055099487 -87258935.797058105 0 0 0 0 6343614.9177885056 -19299610.98758316 0 -19299610.98758316 -148718136.32194519 0 0 0 0 1657071.9348483086 -22507645.325340271 0 -22507645.325340271 -89970826.672266483 0 0 0 0 15071452.32662034 -237952.55479955673 0 -237952.55479955673 203957818.39085388 0 0 0 0 79586031.448034286 -34676875.325214386 0 -34676875.325214386 -103201843.9555521 0 0 0 0 458031.51379426086 901610.47159445286 0 901610.47159445286 -1598909.4780657571 0 0 0 0 193180262.16225386 44232543.10363245 0 44232543.10363245 20945775.909659386 0 0 0 0 129479339.35541928 178062678.01458263 0 178062678.01458263 98611314.721733093 0 0 0 0 2754199.5668492317 18340038.265900612 0 18340038.265900612 42635990.155286789 0 0 0 0 33839414.042128563 16362004.840482712 0 16362004.840482712 22874082.764350891 0 0 0 0 41866329.230364271 91496288.502812028 0 91496288.502812028 44066989.598361969 0 0 0 0 -25357568.938227892 93008095.571657181 0 93008095.571657181 80317017.690852642 0 0 0 0 -33660504.745213985 50686310.732122421 0 50686310.732122421 25904081.608528137 0 0 0 0 11948689.743359566 37122157.423114777 0 37122157.423114777 3186117.7818946838 0 0 0 0 -11267038.552744865 4410450.0020027161 0 4410450.0020027161 -17086714.479650497 0 0 0 0 17190559.217945337 -3772408.6657702923 0 -3772408.6657702923 -45547670.539890289 0 0 0 0 -3941087.4558763504 25383402.704957008 0 25383402.704957008 35275817.038789749 0 0 0 0 -13040924.725717545 182541011.39186621 0 182541011.39186621 85156442.832253575 0 0 0 0 -445902520.52239609 -65943063.488693237 0 -65943063.488693237 233635183.42940044 0 0 0 0 -85412571.528692245 -55640701.094909191 0 -55640701.094909191 -30071076.675508499 0 0 0 0 -81326192.503863573 2133741.1380144656 0 2133741.1380144656 -21196658.871929169 0 0 0 0 -145653825.82910442 -32006735.230874062 0 -32006735.230874062 -31345932.577138901 0 0 0 0 579782.3950383137 -1484341.1570432493 0 -1484341.1570432493 -1195168.8612284865 0 0 0 0 -178767876.48256493 -58601622.30269599 0 -58601622.30269599 50923509.339527607 0 0 0 0 -119484747.50263596 -74005111.349992275 0 -74005111.349992275 107068880.64030623 0 0 0 0 143879110.38609934 225908444.06503057 0 225908444.06503057 -55845284.318650246 0 0 0 0 -40930076.701435089 -1254787.3994226456 0 -1254787.3994226456 -21788124.914813042 0 0 0 0 -4683746.5888175964 88689936.717141032 0 88689936.717141032 170825669.8372089 0 0 0 0 -774446.8495104434 2153172.9580669911 0 2153172.9580669911 -3113167.515524141 0 0 0 0 1109043.8413136643 -267368.94982899877 0 -267368.94982899877 -1340968.8864596824 0 0 0 0 -2607359.7903699875 -50526800.505362034 0 -50526800.505362034 -18322599.524635259 0 0 0 0 -80640603.890324831 67945948.622015953 0 67945948.622015953 -19059124.042037964 0 0 0 0 -78844.720530754421 1942687.0847013886 0 1942687.0847013886 -2860977.8811771264 0 0 0 0 72110679.086402416 262091849.53826189 0 262091849.53826189 177716876.54141331 0 0 0 0 -46844774.648603082 -83108932.483374119 0 -83108932.483374119 -49345825.830838203 0 0 0 0 -140112741.94322443 -142552350.15981102 0 -142552350.15981102 -84444114.948414803 0 0 0 0 -122390764.2621913 -56511371.016060352 0 -56511371.016060352 -37458747.288318634 0 0 0 0 -196773285.80330753 -184852442.16163278 0 -184852442.16163278 -85083148.399567604 0 0 0 0 -216426050.55862617 27097717.678219795 0 27097717.678219795 -25738926.861146331 0 0 0 0 -353764714.35680962 -244933474.19798756 0 -244933474.19798756 3922829.9628614783 0 0 0 0 208845617.80019039 -2560608.4728188217 0 -2560608.4728188217 -190809193.27890205 0 0 0 0 -287455082.64262581 -421239462.88611841 0 -421239462.88611841 -389738335.36371136 0 0 0 0 276906331.6719296 -717297597.25765014 0 -717297597.25765014 1008758528.765728 0 0 0 0 -51199.271998459939 438750.86216395814 0 438750.86216395814 -1237411.4553068015 0 0 0 0 222065699.44985008 -129940168.75218105 0 -129940168.75218105 -62320779.078403473 0 0 0 0 49496328.814008713 -73382183.369522095 0 -73382183.369522095 -711422410.723032 0 0 0 0 -126509380.99972439 635285107.30098057 0 635285107.30098057 -1881206299.212204 0 0 0 0 -190735091.2847414 378695859.61012554 0 378695859.61012554 -344333533.94683027 0 0 0 0 -104596380.27079788 -46874855.193823919 0 -46874855.193823919 199531623.51387215 0 0 0 0 -87574125.887892723 259341370.17923641 0 259341370.17923641 -277681999.03514957 0 0 0 0 -130246537.13783753 -62348807.39970541 0 -62348807.39970541 -6988629.8590297699 0 0 0 0 -148648135.09611893 -38949810.43874836 0 -38949810.43874836 32278193.66223526 0 0 0 0 -151193538.93340874 -85987572.588319778 0 -85987572.588319778 50564368.968353748 0 0 0 0 999685.66991249309 320033.91333644278 0 320033.91333644278 -1914111.2790628532 0 0 0 0 -205713950.2339642 -94098618.056749344 0 -94098618.056749344 23261760.628284454 0 0 0 0 -227824.32608331146 -5306798.5113885421 0 -5306798.5113885421 -18636797.515570227 0 0 0 0 46344742.378861427 -22057091.118088722 0 -22057091.118088722 -10710433.513236046 0 0 0 0 55103655.026085138 -38445742.624005079 0 -38445742.624005079 -18617935.692352295 0 0 0 0 21604923.74952507 -46561998.115307331 0 -46561998.115307331 -18625702.797452927 0 0 0 0 10614172.077789307 -130656223.97636127 0 -130656223.97636127 35851428.452215195 0 0 0 0 27749172.555784225 -61704444.246098518 0 -61704444.246098518 17988093.570888519 0 0 0 0 -14254.42156846798 -2118227.2256188141 0 -2118227.2256188141 -714715.30595343933 0 0 0 0 -23952557.657278061 -9554891.6671764851 0 -9554891.6671764851 3746354.2756061554 0 0 0 0 -76068239.95236969 -100396741.69944572 0 -100396741.69944572 32505498.05860424 0 0 0 0 -72406268.656182289 -53035879.764033794 0 -53035879.764033794 17270947.936115146 0 0 0 0 39851819.040031642 -12585484.55439043 0 -12585484.55439043 -26419266.94417572 0 0 0 0 -1177612.2585431389 -6654820.5378308287 0 -6654820.5378308287 -19865195.624928877 0 0 0 0 36534032.925673902 -1868146.3013772964 0 -1868146.3013772964 -30479278.87412262 0 0 0 0 27219430.326204658 4541654.7399435043 0 4541654.7399435043 -34307980.287902832 0 0 0 0 23010081.630148888 -7189203.0706710815 0 -7189203.0706710815 -16926195.187274933 0 0 0 0 1543764.6248221074 -9061284.6090775337 0 -9061284.6090775337 -3810966.0216362001 0 0 0 0 -213999997.65426636 144683668.97234726 0 144683668.97234726 126259070.22322845 0 0 0 0 12222176.815816879 -43748434.553901196 0 -43748434.553901196 -18808017.38202548 0 0 0 0 5659744.1198292375 -29178963.06936264 0 -29178963.06936264 -33526328.307052612 0 0 0 0 -3326314.9335330771 -6397821.0371121895 0 -6397821.0371121895 -15966825.677185055 0 0 0 0 17730562.173609257 -20833984.139245987 0 -20833984.139245987 71817665.541842461 0 0 0 0 -67174815.815617085 -152187161.20702744 0 -152187161.20702744 -60079117.522844315 0 0 0 0 2104009.3091638647 -7539075.0873573553 0 -7539075.0873573553 -7260698.6207900271 0 0 0 0 5325099.3020267487 1230340.6983604431 0 1230340.6983604431 -20663950.089593887 0 0 0 0 15231893.740838528 12344689.406223297 0 12344689.406223297 -27844989.528587341 0 0 0 0 26198729.201951981 9598489.6468505859 0 9598489.6468505859 -27929705.480270386 0 0 0 0 -260650553.78900433 -194459763.53751373 0 -194459763.53751373 -41422144.671584129 0 0 0 0 10244402.791699886 218705647.9143486 0 218705647.9143486 190028983.40790939 0 0 0 0 -414317025.73435116 -103182768.96947861 0 -103182768.96947861 52642492.321853638 0 0 0 0 -379770877.52936935 28667234.853401184 0 28667234.853401184 -11013799.002773285 0 0 0 0 -146163399.45369434 13458326.086730003 0 13458326.086730003 -83791688.347892761 0 0 0 0 -390374441.99091816 261860617.97170258 0 261860617.97170258 -185623766.71921539 0 0 0 0 -534976795.62331772 101555711.63685226 0 101555711.63685226 8488987.6191825867 0 0 0 0 -137956943.51201344 -12158308.489393234 0 -12158308.489393234 -6164189.1922416687 0 0 0 0 -331697468.39046621 -123135823.08929062 0 -123135823.08929062 21025479.786348343 0 0 0 0 -174475568.49846458 -61114297.772485256 0 -61114297.772485256 25573443.063627243 0 0 0 0 73854041.285984993 71936488.27600956 0 71936488.27600956 -60742196.71987915 0 0 0 0 -62642705.162069321 -260009743.31411362 0 -260009743.31411362 179898650.231574 0 0 0 0 42248192.814407349 96940657.117254257 0 96940657.117254257 17740069.213588715 0 0 0 0 620756.40836627665 149583.39763159351 0 149583.39763159351 -1058335.4221361354 0 0 0 0 -132145915.17185593 -19394275.768205643 0 -19394275.768205643 -7415119.2156200409 0 0 0 0 41976536.981173515 -36767799.814210892 0 -36767799.814210892 -24315806.068321228 0 0 0 0 4537332.8166751862 21724480.947967529 0 21724480.947967529 94239319.390392303 0 0 0 0 -1996524.014166832 8946403.3152523041 0 8946403.3152523041 -42173699.709738016 0 0 0 0 -38597742.247150421 94213559.25623703 0 94213559.25623703 -27847582.651834488 0 0 0 0 -34680669.403896987 29023198.511894822 0 29023198.511894822 -29946784.521522522 0 0 0 0 -31854677.375501633 65376949.063110352 0 65376949.063110352 -184200063.19902039 0 0 0 0 2086975.4846048367 -2866989.3138881 0 -2866989.3138881 -4490143.6409219624 0 0 0 0 -79852549.853082657 -55839991.360309601 0 -55839991.360309601 77794036.386161804 0 0 0 0 17758018.62589407 -20473567.078369141 0 -20473567.078369141 49060432.354481339 0 0 0 0 -117499772.88882518 -43031055.349143744 0 -43031055.349143744 10360885.998474121 0 0 0 0 -2031816.0507159233 3727446.4397764206 0 3727446.4397764206 69155940.100435615 0 0 0 0 2578144.0675215721 33846124.848607063 0 33846124.848607063 54896148.943065643 0 0 0 0 -126881046.56686163 -17786229.397012711 0 -17786229.397012711 74003870.741313934 0 0 0 0 -163079892.11931247 39884850.332048535 0 39884850.332048535 116312498.96854401 0 0 0 0 -159130629.06381425 -50048646.968391895 0 -50048646.968391895 151251210.89272308 0 0 0 0 -126069472.74187374 84560346.986179352 0 84560346.986179352 168302110.44959259 0 0 0 0 -312272380.81813133 69498573.84723568 0 69498573.84723568 190465170.45823669 0 0 0 0 56270906.695806503 111965866.31057358 0 111965866.31057358 -548331940.25128937 0 0 0 0 -489102500.17190647 -211238476.69861412 0 -211238476.69861412 106778539.37560272 0 0 0 0 -17911755.847898483 -133254289.92116928 0 -133254289.92116928 -86876843.705860138 0 0 0 0 -30049884.009895563 126763086.70183945 0 126763086.70183945 119186928.54874039 0 0 0 0 -173205669.2663455 134910062.14680862 0 134910062.14680862 216459153.07155132 0 0 0 0 -117188705.22583294 70801483.739135742 0 70801483.739135742 83446982.112701416 0 0 0 0 -30131038.407001972 55599979.373263359 0 55599979.373263359 26879613.635601044 0 0 0 0 -70357049.743043184 75526627.598285675 0 75526627.598285675 82333869.816492081 0 0 0 0 -100954009.65486699 29484326.153650284 0 29484326.153650284 33171429.553775787 0 0 0 0 -57497310.270069003 35927224.317314148 0 35927224.317314148 13843769.544319153 0 0 0 0 -61219549.91769588 46125950.867835999 0 46125950.867835999 38944724.089355469 0 0 0 0 -43063844.444779277 37964323.569255829 0 37964323.569255829 -8807559.0028610229 0 0 0 0 -43867266.840761006 34024883.68523407 0 34024883.68523407 -15723533.218463898 0 0 0 0 -59931143.224571705 26184949.720251083 0 26184949.720251083 7552099.0950775146 0 0 0 0 -81669217.50929594 13896352.68816185 0 13896352.68816185 608004.00960159302 0 0 0 0 -71001443.559426308 -7736748.2392892838 0 -7736748.2392892838 -33371794.317779541 0 0 0 0 -33538796.997543812 13029319.962377548 0 13029319.962377548 -23449101.057445526 0 0 0 0 -3224681.080253901 -2867294.5387312961 0 -2867294.5387312961 -6318739.7960260343 0 0 0 0 -2892802.0654258728 1473986.1018028259 0 1473986.1018028259 -1469654.3471603394 0 0 0 0 -41383036.648089305 31224925.556378365 0 31224925.556378365 -22869703.903038025 0 0 0 0 -29989970.239159644 18769283.318696976 0 18769283.318696976 -11227770.642698288 0 0 0 0 -3179256.1775426865 20741588.368209839 0 20741588.368209839 -20725311.981725812 0 0 0 0 345974.69757694565 -1884962.0169812525 0 -1884962.0169812525 -1926418.1190080494 0 0 0 0 18945590.952728271 19293294.846000671 0 19293294.846000671 -20678089.713985443 0 0 0 0 34965873.39178288 12275012.702032089 0 12275012.702032089 -20938005.141103745 0 0 0 0 -3042160.6403849125 2342115.0558300018 0 2342115.0558300018 -1246862.3235015869 0 0 0 0 577252.9056432707 78329.832974469289 0 78329.832974469289 -13769817.95749649 0 0 0 0 -35645651.310610175 -151551482.79735661 0 -151551482.79735661 -70042727.561218262 0 0 0 0 -73616104.132154226 63047506.058700562 0 63047506.058700562 -44998990.352310181 0 0 0 0 -200571352.04188633 187358771.10140228 0 187358771.10140228 27919818.490787506 0 0 0 0 -192278632.65797615 -38606813.433815002 0 -38606813.433815002 -11099242.732208252 0 0 0 0 -33466396.763523102 -96472076.309860229 0 -96472076.309860229 -134182064.66618347 0 0 0 0 23572970.320609093 -24189241.668670654 0 -24189241.668670654 -167299465.65779114 0 0 0 0 14025110.290710449 13942000.70199585 0 13942000.70199585 -1976802.2690429688 0 0 0 0 -2373938.8413143158 156455943.45056152 0 156455943.45056152 -3484287.1635131836 0 0 0 0 3021572.9057531357 17144785.33420372 0 17144785.33420372 11002552.0442276 0 0 0 0 -18919.661845835857 2104447.3688315889 0 2104447.3688315889 -11175073.905944049 0 0 0 0 20144337.753464341 39035958.702400208 0 39035958.702400208 49039772.005027771 0 0 0 0 191676.43489320052 95068.938162539154 0 95068.938162539154 -296559.85526180267 0 0 0 0 40394557.483687639 -59334063.367998123 0 -59334063.367998123 19494808.81652832 0 0 0 0 -10032616.005450726 -42871694.789966583 0 -42871694.789966583 17875184.124694824 0 0 0 0 61979590.433795452 -23624281.95149231 0 -23624281.95149231 -8216658.9304504395 0 0 0 0 27551112.678781748 -4549949.9912338257 0 -4549949.9912338257 -7512975.3916625977 0 0 0 0 -8934713.7507796288 6766606.9932670593 0 6766606.9932670593 13062273.485970497 0 0 0 0 -1179463.8781623244 2588174.6266245842 0 2588174.6266245842 -1356404.9370193481 0 0 0 0 -6436378.2507333755 2931881.2439575195 0 2931881.2439575195 5326215.7206993103 0 0 0 0 -7645576.7011365891 -10366403.654733658 0 -10366403.654733658 -21678085.93730545 0 0 0 0 -11522961.097202778 -3318978.8290901184 0 -3318978.8290901184 -6351499.9070930481 0 0 0 0 -15292111.886736214 -7874060.5159902573 0 -7874060.5159902573 668288.55023193359 0 0 0 0 -12208490.709311873 6371825.7632436752 0 6371825.7632436752 15735913.302825928 0 0 0 0 -18123765.179799557 15551069.436880112 0 15551069.436880112 17470298.303108215 0 0 0 0 -36030969.911981821 -19359321.399478912 0 -19359321.399478912 3669239.5911884308 0 0 0 0 3791151.3487113416 7684113.8090209961 0 7684113.8090209961 -1320054.8846130371 0 0 0 0 -1974346.0143018961 26878949.109725952 0 26878949.109725952 57675871.838134766 0 0 0 0 14727789.200982213 10904203.588874817 0 10904203.588874817 12982600.850654602 0 0 0 0 20186160.722031474 39069244.433921814 0 39069244.433921814 40959882.22467041 0 0 0 0 34169880.649502605 63260130.795928955 0 63260130.795928955 59578096.677032471 0 0 0 0 -689777.07644577033 270318.86360745039 0 270318.86360745039 815881.62311096303 0 0 0 0 -4038739.5995714888 -3147738.9301182609 0 -3147738.9301182609 -2711325.9169532303 0 0 0 0 -11035279.143315673 4526334.6659450531 0 4526334.6659450531 -23715918.611432076 0 0 0 0 -9297143.5532269478 -2264182.8599777222 0 -2264182.8599777222 -810605.55673980713 0 0 0 0 -6033648.5339562893 -4361759.914978981 0 -4361759.914978981 -4724630.9539680481 0 0 0 0 264945.15433230484 -229214.49878756329 0 -229214.49878756329 -2204464.5646125712 0 0 0 0 -9593983.969117403 -8851059.8737773895 0 -8851059.8737773895 -7225716.7874298096 0 0 0 0 -37654887.946046829 39645531.351631165 0 39645531.351631165 -32922811.639463425 0 0 0 0 -2129338.3464065334 -2250662.2037258828 0 -2250662.2037258828 -1390986.7867943756 0 0 0 0 -77914891.285476685 -79145881.545131683 0 -79145881.545131683 -69994322.541423798 0 0 0 0 -119621625.3047142 -154034609.37630463 0 -154034609.37630463 -127165064.68497467 0 0 0 0 497920.20329470397 831175.4859157335 0 831175.4859157335 -2785795.8530073054 0 0 0 0 -101164669.73688698 15571722.064483643 0 15571722.064483643 -1276298.8074245453 0 0 0 0 -510830703.9169693 -167247190.46739769 0 -167247190.46739769 -190382811.4535675 0 0 0 0 -490159229.04663277 -223124164.98036957 0 -223124164.98036957 -55933393.201713562 0 0 0 0 630338.19377226545 -1760843.7955556107 0 -1760843.7955556107 -1161701.2785882019 0 0 0 0 -219798583.14798546 -141888536.52059364 0 -141888536.52059364 -100232301.42846298 0 0 0 0 -126529736.58704805 45502110.130869389 0 45502110.130869389 -279017557.6807518 0 0 0 0 431861.44418171374 552136.49508108757 0 552136.49508108757 -1224205.7494107839 0 0 0 0 -18474705.852396488 83801986.005556107 0 83801986.005556107 -176293691.53790379 0 0 0 0 -18240909.62501812 14117983.539176941 0 14117983.539176941 -28177838.568681717 0 0 0 0 -16922252.145373344 18164517.462509632 0 18164517.462509632 -21528941.782325745 0 0 0 0 -23942888.299921989 33973671.855348349 0 33973671.855348349 -54487738.824954987 0 0 0 0 -54454104.315915585 53800370.541147232 0 53800370.541147232 -27737753.923957825 0 0 0 0 -70076447.878754854 24993409.922822952 0 24993409.922822952 647221.44931793213 0 0 0 0 -202105765.28636265 117870254.86026382 0 117870254.86026382 -2641276.2526321411 0 0 0 0 -238477403.38717651 30887221.344060898 0 30887221.344060898 75329766.005340576 0 0 0 0 -137689855.21862626 -41193729.69875288 0 -41193729.69875288 92854851.181938171 0 0 0 0 -111144276.02354431 49431180.793746948 0 49431180.793746948 11304178.50052166 0 0 0 0 -47671535.549554825 -56248874.993183136 0 -56248874.993183136 -31822037.825996876 0 0 0 0 -91261844.687021255 -63296266.533163071 0 -63296266.533163071 19790263.766220093 0 0 0 0 -43763749.590832859 6672544.6926204562 0 6672544.6926204562 -2536569.61485672 0 0 0 0 -35199647.764059544 44354775.52762413 0 44354775.52762413 -4030970.8464851379 0 0 0 0 -44841830.733905315 25953451.883678436 0 25953451.883678436 -4583747.3287200928 0 0 0 0 4988415.1953413486 43960252.969765186 0 43960252.969765186 1887949.3875236511 0 0 0 0 -31652218.884572983 14377615.09167099 0 14377615.09167099 -532834.99820327759 0 0 0 0 -312570897.45840263 -353150923.97769177 0 -353150923.97769177 -309507225.03536797 0 0 0 0 -48333072.88831234 88867540.239019394 0 88867540.239019394 -544166183.86093712 0 0 0 0 152941755.03455019 -140494735.99677086 0 -140494735.99677086 -589341472.81495953 0 0 0 0 1063247.0654613583 -2776633.1590960044 0 -2776633.1590960044 -2169780.9093227871 0 0 0 0 -175766796.33898926 -279132766.00349522 0 -279132766.00349522 28298541.475048065 0 0 0 0 -2211660.6265338194 -389869.79922879487 0 -389869.79922879487 -187126.67195062432 0 0 0 0 -175474540.27210528 -272373036.14293092 0 -272373036.14293092 173572687.15225029 0 0 0 0 207698160.10582733 -102208416.8292141 0 -102208416.8292141 -91665404.683578491 0 0 0 0 -190710393.8839232 -123670077.25197089 0 -123670077.25197089 218517429.49946022 0 0 0 0 -447504937.87049556 -316706320.44702101 0 -316706320.44702101 -27027548.973953247 0 0 0 0 -190581054.3202343 -126407267.05261993 0 -126407267.05261993 63724578.477423668 0 0 0 0 -47127964.142479897 -140949566.00587845 0 -140949566.00587845 -249134005.50756073 0 0 0 0 -119563483.68724632 -75838987.915626526 0 -75838987.915626526 -254341070.35103226 0 0 0 0 -16459855.776332855 -37516569.793643951 0 -37516569.793643951 -37168540.181394577 0 0 0 0 116695358.25972176 -90871406.975616932 0 -90871406.975616932 -151240055.58537674 0 0 0 0 -23952966.201479912 57488270.317734718 0 57488270.317734718 -89701665.041360855 0 0 0 0 103660499.59943199 -91419062.772377014 0 -91419062.772377014 58817029.246717215 0 0 0 0 -3509848.7902227882 -84007.829040318727 0 -84007.829040318727 -3749651.5564201791 0 0 0 0 229696803.02397156 -254595409.87285042 0 -254595409.87285042 35873778.533734798 0 0 0 0 4430502.5096237641 3370597.6950503178 0 3370597.6950503178 -18446099.196035057 0 0 0 0 14426241.416772842 41716361.549323082 0 41716361.549323082 -34288117.104943991 0 0 0 0 53007019.554559469 85105896.751022339 0 85105896.751022339 26407586.495128632 0 0 0 0 182581691.56001472 103206214.68903351 0 103206214.68903351 23720810.789424896 0 0 0 0 6176509.5396351041 5904162.749754224 0 5904162.749754224 -46629803.938379511 0 0 0 0 43130608.613733292 40101253.108430386 0 40101253.108430386 -59441389.217775345 0 0 0 0 10936782.361852646 15162974.522566795 0 15162974.522566795 -39524184.962221146 0 0 0 0 50718701.819480896 658220.07072353363 0 658220.07072353363 -81793466.508980751 0 0 0 0 61657907.002691269 -19945068.213420868 0 -19945068.213420868 -64606994.858932972 0 0 0 0 44135788.295098305 -32060105.999353886 0 -32060105.999353886 -35098208.310428619 0 0 0 0 4822373.1825764123 -828563.71977635752 0 -828563.71977635752 -12448660.747302175 0 0 0 0 43152460.601801395 22201675.89056921 0 22201675.89056921 -142002003.34039116 0 0 0 0 16708130.253923416 -47959741.759608269 0 -47959741.759608269 -86870008.680839062 0 0 0 0 16985661.414079666 -58461142.461473942 0 -58461142.461473942 -263107947.23052835 0 0 0 0 -15054414.831378937 10221543.651643276 0 10221543.651643276 -87548681.211411476 0 0 0 0 -46924008.647015572 61451459.353526115 0 61451459.353526115 -156336394.28814411 0 0 0 0 11635847.504152298 -8930002.8075523376 0 -8930002.8075523376 -16201185.253273964 0 0 0 0 2396719.0095832162 6433291.4974909555 0 6433291.4974909555 -1664793.822227817 0 0 0 0 -60156892.144109249 4577673.8785400391 0 4577673.8785400391 26299779.172943115 0 0 0 0 16611948.971263975 38168858.843734741 0 38168858.843734741 -109470992.13114929 0 0 0 0 11482913.077299118 9888201.0951271057 0 9888201.0951271057 -72976706.501266479 0 0 0 0 -17390410.296253756 77251854.612594604 0 77251854.612594604 -129282006.79272461 0 0 0 0 22054078.646380424 33007712.59690094 0 33007712.59690094 -176407242.62801361 0 0 0 0 28975117.179906487 38005180.020145416 0 38005180.020145416 -209483640.34611511 0 0 0 0 22312606.949923038 10859964.142494202 0 10859964.142494202 -122375435.37923431 0 0 0 0 -5470211.822198391 -7543910.2732620239 0 -7543910.2732620239 -105443128.58502197 0 0 0 0 28007505.933833122 12585245.598350525 0 12585245.598350525 -160265719.82318878 0 0 0 0 -8015717.2268118858 35607536.296085358 0 35607536.296085358 -26326022.257751465 0 0 0 0 -6030876.5069322586 17917320.681583405 0 17917320.681583405 -16583202.955354691 0 0 0 0 3593233.1246793279 7560509.9223498348 0 7560509.9223498348 -5135873.814931944 0 0 0 0 -4160588.0981018543 32176591.093715668 0 32176591.093715668 -16556924.88168335 0 0 0 0 8831289.8984265327 17178032.693897247 0 17178032.693897247 -38983137.491394043 0 0 0 0 -4620502.0604943484 13627950.105845928 0 13627950.105845928 -31035731.923309326 0 0 0 0 -22888709.318236589 -57603498.249759674 0 -57603498.249759674 -123211843.93942261 0 0 0 0 -11543309.183233261 -12021772.959461212 0 -12021772.959461212 8441524.493686676 0 0 0 0 34916389.281439781 23015129.949840546 0 23015129.949840546 -38442529.411514282 0 0 0 0 9887651.2496555746 27022335.63825655 0 27022335.63825655 -10396603.45059967 0 0 0 0 30567671.281803131 -9951986.3846030235 0 -9951986.3846030235 -44275053.663211823 0 0 0 0 6386809.5571504841 7424870.7597331014 0 7424870.7597331014 -42319748.526688948 0 0 0 0 31171100.782453537 49694307.029850006 0 49694307.029850006 -10392629.048768286 0 0 0 0 19539881.948623657 36635543.907055855 0 36635543.907055855 -24551549.611728668 0 0 0 0 12355111.724693298 16759157.872162819 0 16759157.872162819 -65740527.187577248 0 0 0 0 4116164.7484803032 5050318.8715594895 0 5050318.8715594895 -27656544.605719477 0 0 0 0 -8230385.5310134888 -5654940.7075653076 0 -5654940.7075653076 -25834360.576005936 0 0 0 0 -1845804.8404216766 8383487.586391449 0 8383487.586391449 -38449035.53377533 0 0 0 0 10604840.175685428 6181855.5375444442 0 6181855.5375444442 -18609955.074430957 0 0 0 0 18097285.399579287 29031120.944339752 0 29031120.944339752 -19897135.820411682 0 0 0 0 -555528.60275363922 -140836.5456237793 0 -140836.5456237793 -22032700.324455261 0 0 0 0 8503829.5463161469 13517789.63205719 0 13517789.63205719 -44854763.774723053 0 0 0 0 14866788.672327042 1174398.5629997253 0 1174398.5629997253 -30887734.733112335 0 0 0 0 15434035.101696968 -20820799.867393494 0 -20820799.867393494 -16690040.414104462 0 0 0 0 -281101.44843579229 -2806534.6605788595 0 -2806534.6605788595 -6717492.8335281424 0 0 0 0 61475445.687874138 -15754027.797854185 0 -15754027.797854185 -796669.63040161133 0 0 0 0 15608253.326648101 -14103116.854694128 0 -14103116.854694128 -7311675.2387313843 0 0 0 0 61700777.044478416 -19592209.63910675 0 -19592209.63910675 3933188.3758544922 0 0 0 0 19603147.383646011 6517036.8157615662 0 6517036.8157615662 -23296612.762229919 0 0 0 0 784509.22463607788 4900390.6119384766 0 4900390.6119384766 -15666448.275863647 0 0 0 0 29274174.725838661 -6168618.4114189148 0 -6168618.4114189148 -25048191.392822266 0 0 0 0 -9394009.8686648607 -25180260.862953186 0 -25180260.862953186 -9938391.6548614502 0 0 0 0 50322732.685117722 -101889181.97460556 0 -101889181.97460556 -70840911.154253006 0 0 0 0 9782112.5872006416 -10747991.469750404 0 -10747991.469750404 -19469796.01612854 0 0 0 0 1620273.4957691131 3190348.570449532 0 3190348.570449532 -1954095.1515273936 0 0 0 0 -38206360.0593853 33076734.305137634 0 33076734.305137634 4462070.9396972656 0 0 0 0 59454970.758478165 106707088.17942047 0 106707088.17942047 -23449008.825763702 0 0 0 0 3422888.2093856623 1843609.7219262205 0 1843609.7219262205 -18122421.818652775 0 0 0 0 12635325.296086788 -20243.359848022461 0 -20243.359848022461 -2612066.7977294922 0 0 0 0 1680026.5655536044 1080754.6986684431 0 1080754.6986684431 -9780441.90456485 0 0 0 0 12556077.692889214 187113.96942901611 0 187113.96942901611 -3018078.1444702148 0 0 0 0 1826829.6733829919 -4397785.2866158895 0 -4397785.2866158895 -15233496.271018192 0 0 0 0 79031.664100100636 -20323.01856955816 0 -20323.01856955816 -8475489.8700363562 0 0 0 0 1964282.3859276711 4439874.6024219962 0 4439874.6024219962 -4916544.6399091333 0 0 0 0 -12112951.356174469 -16186794.556945801 0 -16186794.556945801 2663346.9261169434 0 0 0 0 1198152.0879620942 -1560815.3158974778 0 -1560815.3158974778 -2756804.8477243111 0 0 0 0 21955829.949422598 -10326151.599089622 0 -10326151.599089622 -23640987.663108826 0 0 0 0 18496572.074924469 -14498776.588096619 0 -14498776.588096619 -15277505.438911438 0 0 0 0 7207595.6938252449 3430354.3211936951 0 3430354.3211936951 -31866391.260543823 0 0 0 0 36019194.389648438 4987028.7054347992 0 4987028.7054347992 -21037290.675170898 0 0 0 0 22549746.819993973 -11058394.061418533 0 -11058394.061418533 -39376628.828315735 0 0 0 0 20859394.416676521 30997695.781265259 0 30997695.781265259 -29371493.498417854 0 0 0 0 5291617.5804012585 1745031.1284244899 0 1745031.1284244899 -26734286.009560324 0 0 0 0 -44964154.963626862 62883670.284908295 0 62883670.284908295 -27900805.469959497 0 0 0 0 48324651.139984131 67187090.980334282 0 67187090.980334282 -42271495.830579758 0 0 0 0 8565002.9597330093 -17836755.385482311 0 -17836755.385482311 -21701679.03903389 0 0 0 0 -9491058.0806045532 -5550481.2048344612 0 -5550481.2048344612 3240049.1426057816 0 0 0 0 -46937193.938826561 -90063038.97066021 0 -90063038.97066021 -87393852.289776802 0 0 0 0 -113771412.1688652 -16756632.477205753 0 -16756632.477205753 -9147599.5022699833 0 0 0 0 -1466486.5189436749 31960.083060426638 0 31960.083060426638 959931.3581494235 0 0 0 0 -17666154.133323669 4752700.4433040619 0 4752700.4433040619 -4649223.912254937 0 0 0 0 -119950631.26755953 3672900.0024720728 0 3672900.0024720728 1519137.9775462151 0 0 0 0 -13575058.938568115 -41406319.583035946 0 -41406319.583035946 -24780911.700182915 0 0 0 0 -14685800.60080719 -36982725.198609591 0 -36982725.198609591 -24118115.713843532 0 0 0 0 34846410.053432465 -49583125.436972141 0 -49583125.436972141 -137083646.72887325 0 0 0 0 -78018979.285149574 -94684093.375100911 0 -94684093.375100911 -64398169.195045471 0 0 0 0 35418630.654297829 26200901.018478394 0 26200901.018478394 -29418579.698562622 0 0 0 0 5171085.7476302525 -1416120.100829063 0 -1416120.100829063 -24919357.203889087 0 0 0 0 65335728.550275803 8315258.3979444504 0 8315258.3979444504 -72158800.354863167 0 0 0 0 -3868025.1869735718 -35686485.205335498 0 -35686485.205335498 -34049600.653444529 0 0 0 0 -9464851.6331748962 -45815841.160450935 0 -45815841.160450935 -43570064.956347466 0 0 0 0 27417976.601529598 11094977.508880615 0 11094977.508880615 -250009.02573394775 0 0 0 0 4556314.5309975473 -6062715.6473314101 0 -6062715.6473314101 -24370029.961930007 0 0 0 0 25742293.11314106 10246810.566867828 0 10246810.566867828 574530.11618041992 0 0 0 0 -892234.28289031982 -31437490.36026901 0 -31437490.36026901 -31776479.675658226 0 0 0 0 26885013.46791935 9197408.5103569031 0 9197408.5103569031 1531937.5942611694 0 0 0 0 42677945.512579978 -2048183.0549507141 0 -2048183.0549507141 -61566766.293907166 0 0 0 0 24425246.008221149 24298312.05087471 0 24298312.05087471 -29873861.162094116 0 0 0 0 2214466.3317844337 3677794.8984911419 0 3677794.8984911419 -16022844.507930107 0 0 0 0 21939567.864948273 11862097.443897247 0 11862097.443897247 2479298.3489236832 0 0 0 0 1065197.3767403839 3304251.0458773095 0 3304251.0458773095 -1381250.0184121653 0 0 0 0 -25646470.18013382 -82819124.809189081 0 -82819124.809189081 -61374001.302830219 0 0 0 0 -90158457.409081459 -60942126.960154563 0 -60942126.960154563 -14404812.947245598 0 0 0 0 -15330431.925523758 -66652615.669036388 0 -66652615.669036388 -78133091.409828186 0 0 0 0 -125691131.32574844 -127895082.63137698 0 -127895082.63137698 -98588596.427890778 0 0 0 0 41958948.368909836 -68240820.309058905 0 -68240820.309058905 -115728721.3726151 0 0 0 0 39904535.904245377 -43892165.661605358 0 -43892165.661605358 -63039287.81586647 0 0 0 0 -11186889.089130402 -24875981.612614155 0 -24875981.612614155 -56039094.984186172 0 0 0 0 13366563.284474373 -39268085.64072299 0 -39268085.64072299 -44311689.06604147 0 0 0 0 34221310.391357422 -42254721.905196428 0 -42254721.905196428 -131385081.86873519 0 0 0 0 10062956.997900009 -29489797.966017485 0 -29489797.966017485 -348472.84511518478 0 0 0 0 -3113969.7504280303 8043.1601366093382 0 8043.1601366093382 1661799.9682460004 0 0 0 0 9075609.7203197479 -45955920.788537502 0 -45955920.788537502 7242680.7307196856 0 0 0 0 2490530.7598819733 -19436436.675381064 0 -19436436.675381064 36326749.826307178 0 0 0 0 -28412047.568361282 -54312872.737365961 0 -54312872.737365961 6973115.2188248634 0 0 0 0 -29683591.872631073 -24976067.327992916 0 -24976067.327992916 44000664.87549305 0 0 0 0 -27097209.111304522 -70726568.738634586 0 -70726568.738634586 -12899989.449622154 0 0 0 0 -34296374.208782196 -25902268.706045389 0 -25902268.706045389 47784927.069076061 0 0 0 0 -11495599.262008131 6874247.8381793499 0 6874247.8381793499 72715764.206579924 0 0 0 0 -835035.15194388619 2018565.0436437442 0 2018565.0436437442 -3690112.5570069449 0 0 0 0 -4314899.9030413628 -1205526.0685924292 0 -1205526.0685924292 -8695126.0514271259 0 0 0 0 882583.13962459564 -2103568.023006916 0 -2103568.023006916 -11524300.224521518 0 0 0 0 -6520351.2632369995 2113483.6414358877 0 2113483.6414358877 -8538129.1081732102 0 0 0 0 -4974968.5926070213 -1576093.1198014915 0 -1576093.1198014915 -9672889.3348315954 0 0 0 0 -10505846.623890877 -2048882.2058726475 0 -2048882.2058726475 -7274403.0496434122 0 0 0 0 -9890464.1855545044 -4183668.9248528481 0 -4183668.9248528481 -8972914.7976607084 0 0 0 0 -4417395.6800460815 -2902868.6807219982 0 -2902868.6807219982 -22250973.050382614 0 0 0 0 -127173.85660769232 78264.479501721915 0 78264.479501721915 -16683.271883558831 0 0 0 0 -8921346.648771286 -16911337.624002166 0 -16911337.624002166 37074164.196621418 0 0 0 0 -4434281.057663721 129644.0870168386 0 129644.0870168386 1954584.6084416767 0 0 0 0 -8093503.2600250244 4085754.6202976853 0 4085754.6202976853 -819735.00916464627 0 0 0 0 -15984640.400882721 1555361.9154818207 0 1555361.9154818207 -114887.01536366343 0 0 0 0 -10082479.729687691 293358.31573295593 0 293358.31573295593 5208734.3659110069 0 0 0 0 -14235596.674823761 3229440.3879401684 0 3229440.3879401684 3493626.7482705116 0 0 0 0 -7604054.5229091644 1433503.9558801651 0 1433503.9558801651 368024.93910008669 0 0 0 0 -5716776.2397651672 643496.55264616013 0 643496.55264616013 -305790.21495866776 0 0 0 0 -7005970.7773799896 103258.86010885239 0 103258.86010885239 -296225.92867542058 0 0 0 0 -5720123.5304145813 2125416.2388496399 0 2125416.2388496399 466928.11632394791 0 0 0 0 -6887899.2600269178 -1188687.3595817464 0 -1188687.3595817464 -1012778.3743943674 0 0 0 0 -2909115.0075702667 -4165302.3888082504 0 -4165302.3888082504 -5988111.600079298 0 0 0 0 -28021706.124267578 27367794.222036362 0 27367794.222036362 -28501007.327738762 0 0 0 0 -10608933.336486816 -14714675.85484314 0 -14714675.85484314 -17685410.593289375 0 0 0 0 -10599827.221631847 -1591452.1924968066 0 -1591452.1924968066 -4594400.2083501089 0 0 0 0 -1532661.053319063 -986646.45572416671 0 -986646.45572416671 -70847.936614079867 0 0 0 0 -16208007.649971008 23978603.515162468 0 23978603.515162468 -73991123.929958344 0 0 0 0 -8862531.0265779495 13727135.669054031 0 13727135.669054031 -84371828.492318153 0 0 0 0 -12743761.813551545 4973258.9138960838 0 4973258.9138960838 -20558446.223775864 0 0 0 0 -9407235.7638876438 41995194.520944118 0 41995194.520944118 -83064368.314666748 0 0 0 0 -37079213.339013577 3005551.2894077301 0 3005551.2894077301 -5124146.5911130905 0 0 0 0 -5057944.9607051099 -1553057.0734294951 0 -1553057.0734294951 -1331287.7693220633 0 0 0 0 -354752.45600473206 -440668.23921229178 0 -440668.23921229178 -653481.47903303709 0 0 0 0 -28228807.854516387 -59842434.060192108 0 -59842434.060192108 -197193676.18077946 0 0 0 0 -4740764.3008396998 -1005263.4755722336 0 -1005263.4755722336 880381.14132006746 0 0 0 0 -1968038.5484752655 92256.351104080677 0 92256.351104080677 -6853010.4227521494 0 0 0 0 -1813544.0995861292 -1072612.4292715457 0 -1072612.4292715457 -6061733.9502779655 0 0 0 0 1768412.2822840498 -2429053.1263276138 0 -2429053.1263276138 -2341245.9541828707 0 0 0 0 -3243076.5102176666 1514511.7695185319 0 1514511.7695185319 -8436472.4292948768 0 0 0 0 -4511218.6414299011 -2814076.6282470375 0 -2814076.6282470375 -5121770.6686546803 0 0 0 0 -3561590.1901152795 -513964.38442356791 0 -513964.38442356791 -5237271.0261887787 0 0 0 0 -3951448.1165313721 -3437686.3112595081 0 -3437686.3112595081 -6423868.9684767723 0 0 0 0 -7754411.1698493958 -621204.24148702621 0 -621204.24148702621 -6593788.9439662099 0 0 0 0 -6133006.7864723206 -2368275.1615862846 0 -2368275.1615862846 -8137766.5053938627 0 0 0 0 -6479342.9004530907 -3932045.5518436432 0 -3932045.5518436432 -5533547.953702569 0 0 0 0 -2809353.9695606232 -2466281.1590027809 0 -2466281.1590027809 -5280942.9900844395 0 0 0 0 -3704463.505633831 -4885300.4074827433 0 -4885300.4074827433 1843952.1426825523 0 0 0 0 -5319660.177942276 -1023503.4421234131 0 -1023503.4421234131 -2225809.036616087 0 0 0 0 -5425874.7708940506 18307562.581993103 0 18307562.581993103 -10145035.715202451 0 0 0 0 -4481061.7381805861 955482.41256445646 0 955482.41256445646 -12304816.639059626 0 0 0 0 -2497150.9354990721 9944873.30046314 0 9944873.30046314 -12290863.647232056 0 0 0 0 -5735175.1267738342 14712135.746099472 0 14712135.746099472 -14362626.07772398 0 0 0 0 -3522134.699048996 17763885.051246643 0 17763885.051246643 -13906118.79169929 0 0 0 0 1853096.333782196 -731803.94035148621 0 -731803.94035148621 -5389230.4279327393 0 0 0 0 -11854990.499710083 -21019942.713809967 0 -21019942.713809967 -37244347.283249676 0 0 0 0 -12275901.967346046 -8898596.8889490049 0 -8898596.8889490049 -16802575.174075451 0 0 0 0 24130001.08695507 14771978.662395477 0 14771978.662395477 -3503443.5926513672 0 0 0 0 -2038595.7527885437 -30955850.628131449 0 -30955850.628131449 -19807007.353320122 0 0 0 0 -6571498.7834224701 -33884996.579608798 0 -33884996.579608798 -13684459.666297436 0 0 0 0 -14922363.243286133 -36914051.583946109 0 -36914051.583946109 -21951079.497598886 0 0 0 0 -11205461.532817069 -6256655.9615805279 0 -6256655.9615805279 -15165286.025325321 0 0 0 0 -7533917.7640712261 11376495.597049713 0 11376495.597049713 -17034171.053804398 0 0 0 0 -14384924.835559845 7568597.5488796234 0 7568597.5488796234 11085093.183167458 0 0 0 0 -12452134.730941234 -2917788.3123021568 0 -2917788.3123021568 -7368640.1759678833 0 0 0 0 -30106952.298376083 -19611014.634459496 0 -19611014.634459496 14867623.382353306 0 0 0 0 -26472225.969398499 -14057203.795892715 0 -14057203.795892715 1102083.0466322899 0 0 0 0 -14715150.912246704 -13770879.133224726 0 -13770879.133224726 6711637.9276229143 0 0 0 0 -47560398.757748067 -34568747.496994793 0 -34568747.496994793 -6224089.7597404718 0 0 0 0 -48224261.543326735 -3169522.085995906 0 -3169522.085995906 4035402.6174735725 0 0 0 0 -9074166.8519363403 -6693925.7724475861 0 -6693925.7724475861 4260874.2335973978 0 0 0 0 -18496596.240376949 -5317744.4987845421 0 -5317744.4987845421 -41020968.347503662 0 0 0 0 -2719095.6095426679 17760913.864365399 0 17760913.864365399 -31738919.489107132 0 0 0 0 12780492.824330807 -9492198.8923397064 0 -9492198.8923397064 -79479860.6822052 0 0 0 0 1775929.935303688 -5532078.4744272232 0 -5532078.4744272232 -80643646.374549389 0 0 0 0 -28393581.161269188 -22328555.602998734 0 -22328555.602998734 -67313954.843459606 0 0 0 0 8450148.8125634193 -16587882.99955368 0 -16587882.99955368 -117165791.30712891 0 0 0 0 -27771970.166796684 -14631813.45285511 0 -14631813.45285511 -65784334.126935482 0 0 0 0 -58477576.124243259 -56340699.994856358 0 -56340699.994856358 -122385286.98888969 0 0 0 0 -21235027.749213219 2120821.4705619812 0 2120821.4705619812 -23204541.505290985 0 0 0 0 -14639881.953359842 21392291.944117785 0 21392291.944117785 -26980041.879283905 0 0 0 0 -14677138.61282444 14686468.030687332 0 14686468.030687332 -11528066.168475628 0 0 0 0 -26699553.573246002 11698180.187757015 0 11698180.187757015 -33943100.336278915 0 0 0 0 -38908688.173025012 15287524.150826454 0 15287524.150826454 -31390832.556180954 0 0 0 0 -22633600.426511765 14208949.866294861 0 14208949.866294861 -53750038.141643524 0 0 0 0 -86661367.445487022 4417902.7472896576 0 4417902.7472896576 -54464164.227660418 0 0 0 0 -17765965.49638319 4002672.4351549149 0 4002672.4351549149 -51962016.324944496 0 0 0 0 -5744736.7810497284 16978291.485082626 0 16978291.485082626 -59655500.916041851 0 0 0 0 -3267788.3493452072 6922818.017373085 0 6922818.017373085 -51182731.063162804 0 0 0 0 -4806415.5916481018 21484512.661022186 0 21484512.661022186 -39175944.361428261 0 0 0 0 -2052215.7994267941 20803076.070073366 0 20803076.070073366 -40471028.627174377 0 0 0 0 -2082024.8938903809 24019344.784404755 0 24019344.784404755 -38675468.59191227 0 0 0 0 -15590715.098798752 27297503.90199852 0 27297503.90199852 -41064336.573251724 0 0 0 0 -6615421.154214859 16605841.985788345 0 16605841.985788345 -29301039.715333939 0 0 0 0 -8128482.8931546211 21536782.739766121 0 21536782.739766121 -26064231.262722015 0 0 0 0 -4104474.8292694092 17963509.990346909 0 17963509.990346909 -28096340.358753204 0 0 0 0 -38300219.194283485 -22105843.751199245 0 -22105843.751199245 -8865802.5352134705 0 0 0 0 -36026638.161271572 -13732999.342098236 0 -13732999.342098236 13521661.037218094 0 0 0 0 -39491213.329567909 -23792769.005754471 0 -23792769.005754471 -10135177.8702178 0 0 0 0 -5860989.1044716835 -13786319.282763481 0 -13786319.282763481 -69148686.951494217 0 0 0 0 -10394994.141283035 10955196.949198246 0 10955196.949198246 -49422864.763010025 0 0 0 0 -21490497.949035406 21695002.037494659 0 21695002.037494659 -110859835.88327599 0 0 0 0 -66348592.475453377 -68146253.606705666 0 -68146253.606705666 -78400248.69781971 0 0 0 0 -31919776.088652372 -28387408.214926243 0 -28387408.214926243 -10099092.150137901 0 0 0 0 -36627265.85275197 -19757168.354780674 0 -19757168.354780674 -21092148.623901367 0 0 0 0 1641524.1981639862 3844688.1990141869 0 3844688.1990141869 7555813.8523597717 0 0 0 0 15652.754469903826 -228289.08375908178 0 -228289.08375908178 -214513.94116961211 0 0 0 0 -6402058.9546027184 9550239.62038517 0 9550239.62038517 -7462145.9634926319 0 0 0 0 -68576164.100170776 -14679400.880152702 0 -14679400.880152702 7153685.3482551575 0 0 0 0 -240437.55602217047 -49213.113747478463 0 -49213.113747478463 96468.107625759207 0 0 0 0 -347923.61546897888 23552810.423942566 0 23552810.423942566 -165987858.05148411 0 0 0 0 288010.07033550739 30928303.980504751 0 30928303.980504751 -80963206.668605804 0 0 0 0 13034328.451980233 282106.0603967905 0 282106.0603967905 -77819223.634473801 0 0 0 0 909092.01873207092 7081285.8377189636 0 7081285.8377189636 -29466508.12861824 0 0 0 0 14762654.408951283 10799712.093812466 0 10799712.093812466 -80466250.774194717 0 0 0 0 -488142.92039060453 -176914.06763066258 0 -176914.06763066258 -106616.96557561308 0 0 0 0 29644584.891973019 6776876.0065803528 0 6776876.0065803528 -50313042.536092758 0 0 0 0 13140225.047168255 -14207245.335079193 0 -14207245.335079193 -30500065.102683723 0 0 0 0 -14280778.414041162 8743851.6426455975 0 8743851.6426455975 6567693.5223369598 0 0 0 0 -12605330.659069777 24456196.45455122 0 24456196.45455122 -8509232.1931819916 0 0 0 0 54544.838047419093 -198461.99132909486 0 -198461.99132909486 -424167.15300679021 0 0 0 0 23155761.446877003 8796743.379281044 0 8796743.379281044 -5119890.4816894531 0 0 0 0 -38619893.681919575 -26706132.089225769 0 -26706132.089225769 -2312982.9151601791 0 0 0 0 1623212.6715478897 -5960849.9214353561 0 -5960849.9214353561 -5946639.0748164654 0 0 0 0 -40730929.71229589 -39714596.836684704 0 -39714596.836684704 -29022096.293276787 0 0 0 0 -82557771.412572384 8884791.5563111305 0 8884791.5563111305 -12279372.757668972 0 0 0 0 -97670992.074771777 -67955025.869624764 0 -67955025.869624764 -71385765.058835983 0 0 0 0 -82746543.669944525 -66419626.503210545 0 -66419626.503210545 -76991170.707522869 0 0 0 0 -79251369.368473098 -85458257.225041509 0 -85458257.225041509 -129530465.14557838 0 0 0 0 -17004140.595572472 -23371140.543539762 0 -23371140.543539762 -150429628.30101776 0 0 0 0 -58494437.201972246 -22754053.620734453 0 -22754053.620734453 -88055958.210803986 0 0 0 0 -58314028.56254673 -17753465.923075676 0 -17753465.923075676 -127671047.14297867 0 0 0 0 -40959372.357784748 498540.26757049561 0 498540.26757049561 -62405929.680519104 0 0 0 0 -15578700.191581726 4291428.1555938721 0 4291428.1555938721 -111420386.04384613 0 0 0 0 102566.07424211502 23799051.96906662 0 23799051.96906662 -92386420.997236252 0 0 0 0 2661454.4419019222 16383660.462441206 0 16383660.462441206 -70937050.59610939 0 0 0 0 8688954.3832836151 19728350.744355202 0 19728350.744355202 -69081066.513868332 0 0 0 0 1515512.8312768936 4001704.8181095123 0 4001704.8181095123 -50517319.803501129 0 0 0 0 -2014200.442368269 15499823.034421921 0 15499823.034421921 -12881102.211175919 0 0 0 0 -9124783.4975800514 -6642761.9435396194 0 -6642761.9435396194 -43792690.977550507 0 0 0 0 -100805130.84286976 -29285928.427376747 0 -29285928.427376747 -24604098.950755119 0 0 0 0 -8677533.2908873558 8201549.6804561615 0 8201549.6804561615 -61887010.656545639 0 0 0 0 -180660251.24713635 -54302698.505791664 0 -54302698.505791664 22028590.496356964 0 0 0 0 -16878412.835524201 16666865.411315441 0 16666865.411315441 -2111156.9132556915 0 0 0 0 8442210.2699394226 -42533059.451155663 0 -42533059.451155663 -1591010.7875306606 0 0 0 0 -525692.00925810705 -193451.93264574138 0 -193451.93264574138 -15072.613670613617 0 0 0 0 -1543536.5443409681 -13393613.917019606 0 -13393613.917019606 11199633.379232407 0 0 0 0 -47054681.525730848 -10577024.458189011 0 -10577024.458189011 12645873.405683517 0 0 0 0 -13368943.692504644 -18730513.6897645 0 -18730513.6897645 -53264595.501857758 0 0 0 0 -268110.43631588062 -89585.709647063632 0 -89585.709647063632 22765.584743784741 0 0 0 0 -50096909.118082285 -134965434.39516211 0 -134965434.39516211 -133382290.50183868 0 0 0 0 -134065043.37708396 -136535258.29824889 0 -136535258.29824889 -104303707.95200729 0 0 0 0 -101184534.73142242 -93364572.248226166 0 -93364572.248226166 -51353635.955954552 0 0 0 0 -101850710.39584456 -83661095.523766726 0 -83661095.523766726 -40163322.958686829 0 0 0 0 -101699398.48839474 -68682396.47774601 0 -68682396.47774601 -64974501.125491619 0 0 0 0 -50949608.876107097 -1296614.8236625195 0 -1296614.8236625195 -3495572.347196579 0 0 0 0 -158314.24023687304 -56922.679612189764 0 -56922.679612189764 108769.96921645291 0 0 0 0 -35251200.22036922 -21910741.968758821 0 -21910741.968758821 -11948720.650161743 0 0 0 0 -162531857.50605702 4021175.0857462883 0 4021175.0857462883 113914910.18639374 0 0 0 0 -183810728.97539234 39939360.303910255 0 39939360.303910255 91613081.95891571 0 0 0 0 -204097041.17923951 -82463442.312542439 0 -82463442.312542439 -5340377.5450917333 0 0 0 0 -140188623.00101733 -129017636.88651276 0 -129017636.88651276 -87144624.878059387 0 0 0 0 30077508.440840125 -8729382.2427539825 0 -8729382.2427539825 -15938890.676049232 0 0 0 0 30311659.226666152 -10671937.797167301 0 -10671937.797167301 -27161409.388353348 0 0 0 0 -9511289.4885849953 51091974.31774807 0 51091974.31774807 -38246695.712569594 0 0 0 0 78599075.265389681 31415748.982813835 0 31415748.982813835 -43960264.337850571 0 0 0 0 40994530.665369868 17541581.159506798 0 17541581.159506798 -6125238.3375339508 0 0 0 0 18533143.286025822 -15144141.25189352 0 -15144141.25189352 -19502872.275367737 0 0 0 0 1961078.1693796376 -2472635.0623202156 0 -2472635.0623202156 -15898019.329280317 0 0 0 0 61210503.316943198 -51218442.154289007 0 -51218442.154289007 4189361.7831783295 0 0 0 0 -1030405.6746620084 6044377.4287063647 0 6044377.4287063647 -4028508.3180039204 0 0 0 0 1943197.5067790761 -3567416.7229624987 0 -3567416.7229624987 -3718622.994314597 0 0 0 0 -153039.99106276035 1306757.4448238015 0 1306757.4448238015 -750744.89745330811 0 0 0 0 107745952.50220323 -38655434.097147942 0 -38655434.097147942 -7799419.654466629 0 0 0 0 -904577.94325940567 1578297.9547898136 0 1578297.9547898136 -5551556.8346964307 0 0 0 0 -6183584.0820436478 2144433.8463497162 0 2144433.8463497162 -11781419.062831879 0 0 0 0 146803928.64861071 407497564.86470127 0 407497564.86470127 158669242.9189682 0 0 0 0 257039493.5288794 31754127.585416794 0 31754127.585416794 -7768833.6714720726 0 0 0 0 148092096.85999036 226958341.80274391 0 226958341.80274391 196852596.8845787 0 0 0 0 271315753.21557641 -53036645.182392359 0 -53036645.182392359 19984838.522319794 0 0 0 0 -369209890.25597858 46576328.949811935 0 46576328.949811935 401601127.36587811 0 0 0 0 94001984.8984963 14489378.786564827 0 14489378.786564827 -12269779.575379372 0 0 0 0 6959904.5015548468 -318637380.47769547 0 -318637380.47769547 -917731764.124331 0 0 0 0 -484995773.60007024 341180984.49129963 0 341180984.49129963 -167725989.25067806 0 0 0 0 322338816.51481938 -44520735.670274734 0 -44520735.670274734 -173470402.73090243 0 0 0 0 11147572.409245491 -4682293.4389576912 0 -4682293.4389576912 -14760041.05737114 0 0 0 0 1411045.0336838372 2070921.0283261449 0 2070921.0283261449 -14240343.548597058 0 0 0 0 -241949611.44951391 -135635416.68267918 0 -135635416.68267918 7292466.6967391968 0 0 0 0 -604545251.06694674 -276078840.30177498 0 -276078840.30177498 142780320.98961067 0 0 0 0 -1876882.417637029 -130766.32765285997 0 -130766.32765285997 427803.27829288552 0 0 0 0 -127669197.11290765 -294202143.00363779 0 -294202143.00363779 -669899625.88350201 0 0 0 0 -54644467.794274092 -86226934.203444004 0 -86226934.203444004 -137293189.32189798 0 0 0 0 -6760017.5240373611 -10571906.243076861 0 -10571906.243076861 -28710984.567971289 0 0 0 0 -6789098.355702877 -9502440.8790469766 0 -9502440.8790469766 -740958.66245397925 0 0 0 0 -201028730.44458061 -116434739.32333562 0 -116434739.32333562 17748623.801252604 0 0 0 0 -209856318.78695679 -224113716.79714942 0 -224113716.79714942 -16824366.864048243 0 0 0 0 -195383261.73191983 -157682578.51054436 0 -157682578.51054436 73177165.344258308 0 0 0 0 -257577636.49512291 -157927189.83885384 0 -157927189.83885384 100238029.20380306 0 0 0 0 -405589059.02556372 111349946.33059692 0 111349946.33059692 17152001.499464989 0 0 0 0 -607898405.24385047 -264862995.40982676 0 -264862995.40982676 82762468.326122284 0 0 0 0 50939790.131792173 -316369166.56437159 0 -316369166.56437159 -134355135.29005075 0 0 0 0 -253317818.66182324 -139393543.41161907 0 -139393543.41161907 180863286.9279623 0 0 0 0 12790965.581355095 1729973.7338113785 0 1729973.7338113785 -12107724.765880585 0 0 0 0 213527204.46842808 -122260079.00170732 0 -122260079.00170732 54709162.715644836 0 0 0 0 4686076.987039566 3966644.9108552933 0 3966644.9108552933 -10179477.062221527 0 0 0 0 293560.14494845155 1222941.6580138756 0 1222941.6580138756 -10435969.316559644 0 0 0 0 11645663.949308395 3831167.2771024704 0 3831167.2771024704 -14767896.031318665 0 0 0 0 8850638.4977169037 12997081.807085991 0 12997081.807085991 -8320982.5680613518 0 0 0 0 4579659.7429676056 9680113.4255857468 0 9680113.4255857468 -12582157.237609863 0 0 0 0 7323283.6335735321 4976888.7973842621 0 4976888.7973842621 -5002595.6475200653 0 0 0 0 -611163076.5930779 -80545331.725708306 0 -80545331.725708306 22990496.560631633 0 0 0 0 -272905427.19982636 -280565206.15820646 0 -280565206.15820646 133781298.87823558 0 0 0 0 -125949201.8640275 -97234797.455772638 0 -97234797.455772638 -60502908.786287785 0 0 0 0 1114459.3503161399 -397665.65575632523 0 -397665.65575632523 -1264680.0791372955 0 0 0 0 -211233272.49916744 -217400575.51211095 0 -217400575.51211095 -22903996.851774454 0 0 0 0 -308091.38979856286 992181.84246849176 0 992181.84246849176 -861065.81326057075 0 0 0 0 -373620642.31314158 -52828765.870551914 0 -52828765.870551914 -224242185.4085632 0 0 0 0 -209387617.79101849 -342224368.84680766 0 -342224368.84680766 -202112269.9792192 0 0 0 0 -478793176.21630055 -310007718.34775132 0 -310007718.34775132 -30856842.660787761 0 0 0 0 -4767108.1194602847 -8017928.2611857504 0 -8017928.2611857504 -183816584.38327682 0 0 0 0 -1281684.8132343213 3467853.9994897977 0 3467853.9994897977 -6450076.3327563386 0 0 0 0 -331796139.41497397 -186079339.78583509 0 -186079339.78583509 -139801438.47656143 0 0 0 0 738514.32449577248 137504.79889843101 0 137504.79889843101 -1240279.2738116519 0 0 0 0 -89851.57057094574 -83441613.068744183 0 -83441613.068744183 -198254880.89834118 0 0 0 0 -105924284.49378538 -130132426.23273277 0 -130132426.23273277 -170732658.04734403 0 0 0 0 -253108980.02136609 130622453.68725373 0 130622453.68725373 -40327106.923094273 0 0 0 0 -56228348.041974545 -280405953.06033075 0 -280405953.06033075 -67529079.42825219 0 0 0 0 7194089.7642083168 15291664.111051351 0 15291664.111051351 -10971839.595067024 0 0 0 0 250130.34229040146 -10136061.001584327 0 -10136061.001584327 -18475205.899459898 0 0 0 0 2142041.743596077 -4466857.4063406792 0 -4466857.4063406792 -8309885.6474623531 0 0 0 0 51836530.618227482 73883152.496367395 0 73883152.496367395 -111547888.52889478 0 0 0 0 -143034740.0826807 -92870738.12350142 0 -92870738.12350142 26619597.710665107 0 0 0 0 2111797.9768540496 -1031826.7471812963 0 -1031826.7471812963 -2472588.3542511822 0 0 0 0 -54762365.162829399 -139069975.27275974 0 -139069975.27275974 -90387369.769950479 0 0 0 0 32619912.180747986 23366734.545151711 0 23366734.545151711 -51785499.016461372 0 0 0 0 41126216.409543037 21666934.573766708 0 21666934.573766708 -52940670.625318527 0 0 0 0 37393231.672628403 9443766.9929409027 0 9443766.9929409027 -38551003.229793549 0 0 0 0 41436685.939002752 2726213.0389533043 0 2726213.0389533043 -24335651.50954628 0 0 0 0 46223424.621024609 9299325.3104343414 0 9299325.3104343414 -40160295.689336777 0 0 0 0 47259444.500455856 10336974.779222965 0 10336974.779222965 -48822807.292047501 0 0 0 0 45022420.221101403 -18691224.402031422 0 -18691224.402031422 -10006576.214182854 0 0 0 0 40424501.243434906 -5621034.2790675163 0 -5621034.2790675163 -33992708.040962219 0 0 0 0 49476539.384774685 -19350392.968201637 0 -19350392.968201637 -56528897.508008957 0 0 0 0 60031468.56791687 -40009362.477786064 0 -40009362.477786064 -17585923.945665598 0 0 0 0 57436910.55111599 -3761487.2297468185 0 -3761487.2297468185 -41427206.810404778 0 0 0 0 55633943.621420681 11337694.955443561 0 11337694.955443561 -89502439.91469574 0 0 0 0 87031869.56558609 -32311949.532675743 0 -32311949.532675743 -114458660.21854305 0 0 0 0 81493249.053546429 -32010855.099328041 0 -32010855.099328041 -86518280.414432526 0 0 0 0 165957999.17898941 53813972.402159929 0 53813972.402159929 -213123924.30469322 0 0 0 0 -39481214.282366753 123307606.27309227 0 123307606.27309227 -125414866.65611506 0 0 0 0 -669405.66206572764 1805614.3508349899 0 1805614.3508349899 -3667340.0202960684 0 0 0 0 -97452574.700047493 37216392.850644588 0 37216392.850644588 -3018773.8615465164 0 0 0 0 -102441360.37129354 -237062123.23827112 0 -237062123.23827112 -232901880.13908476 0 0 0 0 28344733.219609976 -188789218.20958334 0 -188789218.20958334 -260216178.61739349 0 0 0 0 -10462755.321996689 2046200.8128080368 0 2046200.8128080368 -4268242.2832259238 0 0 0 0 9472971.8841313124 8587375.3657674193 0 8587375.3657674193 -14514461.865564346 0 0 0 0 -24931659.859642982 46214327.676929474 0 46214327.676929474 -34228397.705885887 0 0 0 0 41007595.966113582 44916045.477290839 0 44916045.477290839 -49278889.106050491 0 0 0 0 -31695859.353340983 13153108.142977118 0 13153108.142977118 -3290198.0323257446 0 0 0 0 8533523.4720954895 18773123.891942978 0 18773123.891942978 -19703494.978517532 0 0 0 0 -1045718.3808774948 18635620.996564865 0 18635620.996564865 -19405808.016191483 0 0 0 0 -5784842.9628887177 11801682.908901215 0 11801682.908901215 -14628429.299007416 0 0 0 0 -1246846.1069908142 4646264.4771213531 0 4646264.4771213531 -10037237.814277649 0 0 0 0 -7469908.5064115524 10296563.678035736 0 10296563.678035736 -12863597.880741119 0 0 0 0 4709011.070356369 5479863.246843338 0 5479863.246843338 -24529131.318460464 0 0 0 0 -8285692.927675724 19909422.388963699 0 19909422.388963699 -31382182.912540436 0 0 0 0 -8020826.2701950073 12975480.477775574 0 12975480.477775574 -23880419.90835762 0 0 0 0 -27457437.099151611 -6473729.4943418503 0 -6473729.4943418503 -23862068.125357151 0 0 0 0 64871004.494826317 16140803.481538773 0 16140803.481538773 -38750613.814782619 0 0 0 0 26122326.051221132 -8576863.3151526451 0 -8576863.3151526451 -24682352.83514595 0 0 0 0 47073224.053598404 7533137.2296905518 0 7533137.2296905518 -41400363.434883118 0 0 0 0 34911098.472403944 18316499.371357143 0 18316499.371357143 -22291978.427400589 0 0 0 0 35188236.594596863 21615724.763654709 0 21615724.763654709 -29745326.250061035 0 0 0 0 49631020.744244576 19108096.879781723 0 19108096.879781723 -32335672.818713188 0 0 0 0 58266712.455610275 33169612.970211983 0 33169612.970211983 -24274543.607596397 0 0 0 0 76099668.616109371 -31078604.311828613 0 -31078604.311828613 -141906963.16124249 0 0 0 0 -209100.17257578764 -444969.55090596946 0 -444969.55090596946 -252473.81445988687 0 0 0 0 130465.90361643978 -344286.52636649134 0 -344286.52636649134 -1957104.4156400203 0 0 0 0 62567772.939966202 12726151.392744064 0 12726151.392744064 -91073321.324464798 0 0 0 0 26412845.702873707 30883832.223409653 0 30883832.223409653 -4841273.5896997452 0 0 0 0 67553970.412855178 72393032.402994871 0 72393032.402994871 47810149.99064064 0 0 0 0 75626217.293766439 3326982.4353708029 0 3326982.4353708029 -13846763.871025085 0 0 0 0 15407376.063401699 36924099.800817966 0 36924099.800817966 42991547.524015427 0 0 0 0 55480158.607375503 4642017.6664886475 0 4642017.6664886475 -1671284.459192276 0 0 0 0 18193943.824407578 32425184.06949234 0 32425184.06949234 19473259.661859512 0 0 0 0 22513104.324202061 21758378.750951767 0 21758378.750951767 12945241.645172119 0 0 0 0 18590459.405381203 20631092.67827034 0 20631092.67827034 23400882.534160614 0 0 0 0 24650648.443571091 25408809.852313042 0 25408809.852313042 3280369.213218689 0 0 0 0 128731570.24738503 9928943.9152793884 0 9928943.9152793884 -205494239.59325409 0 0 0 0 190784.95556481392 -345800.69991297647 0 -345800.69991297647 -499755.34803156555 0 0 0 0 -23035568.879955292 40468862.078625679 0 40468862.078625679 -34929258.373380661 0 0 0 0 20339689.278124809 27623284.69549942 0 27623284.69549942 2557884.7932500839 0 0 0 0 38593268.46934247 16536211.20230484 0 16536211.20230484 2110114.493598938 0 0 0 0 -15441993.221746445 3056006.5233983994 0 3056006.5233983994 1403952.5872917175 0 0 0 0 1346979.7152262023 753048.01135547971 0 753048.01135547971 -5071517.5574176153 0 0 0 0 6214357.4698243141 -448586.79729318619 0 -448586.79729318619 -15657437.511558533 0 0 0 0 1579924.4565639496 5929586.1626434326 0 5929586.1626434326 -10386981.015504837 0 0 0 0 658170.79954051971 -3002120.2302980423 0 -3002120.2302980423 -16126477.061743736 0 0 0 0 1060653.7734012604 -586876.23935222626 0 -586876.23935222626 -50426780.706828117 0 0 0 0 -94841.501983841881 -636463.11510201637 0 -636463.11510201637 -1571143.1529192007 0 0 0 0 22861620.435531378 21557800.349342704 0 21557800.349342704 423637.65528297424 0 0 0 0 13574778.085020065 8223150.7702693939 0 8223150.7702693939 -16720396.965634346 0 0 0 0 9265090.7646532059 5097530.1837511063 0 5097530.1837511063 -16327325.108535767 0 0 0 0 8881509.9263725281 4017005.841588974 0 4017005.841588974 -20381000.780243874 0 0 0 0 2387742.7842712402 825560.78219985962 0 825560.78219985962 -18253220.003911972 0 0 0 0 9291319.5968284607 4943990.7581675053 0 4943990.7581675053 -15916645.367008209 0 0 0 0 5631499.8750944138 872968.46512508392 0 872968.46512508392 -21600336.568376541 0 0 0 0 6942859.1892476082 -58992.269969940186 0 -58992.269969940186 -24918890.889770508 0 0 0 0 1862499.8613054024 798296.63680807967 0 798296.63680807967 -5009389.5301445015 0 0 0 0 3452743.5384726524 -3216996.6830406189 0 -3216996.6830406189 -22299273.898222923 0 0 0 0 -4447800.9510118961 5918450.9642510414 0 5918450.9642510414 -12727395.017000198 0 0 0 0 14244702.767384529 11641529.704766273 0 11641529.704766273 -11392313.775823116 0 0 0 0 8367319.2252306938 -1106695.1722717285 0 -1106695.1722717285 -12918236.367569923 0 0 0 0 4378675.4108171463 1288060.9104623795 0 1288060.9104623795 -14108294.165670395 0 0 0 0 4475858.576631546 -61967819.546163559 0 -61967819.546163559 54902436.744048119 0 0 0 0 -41092594.401012182 165479283.1238184 0 165479283.1238184 26483197.786956787 0 0 0 0 164118401.75140762 -88597339.999613285 0 -88597339.999613285 -174660537.92618561 0 0 0 0 39738897.437770844 -77289597.971712112 0 -77289597.971712112 5751262.7803277969 0 0 0 0 678315.0332041427 119342.82798771467 0 119342.82798771467 -1380925.4883671659 0 0 0 0 25107270.37671423 34391574.558119774 0 34391574.558119774 -5587969.9361810684 0 0 0 0 99130863.540500641 30112370.365222931 0 30112370.365222931 -33787301.913265228 0 0 0 0 30956013.845293522 7409873.7392911911 0 7409873.7392911911 -38915025.624174595 0 0 0 0 135263805.10754585 -47007157.080885887 0 -47007157.080885887 -73681873.98620224 0 0 0 0 5869339.518684864 -59119948.447965622 0 -59119948.447965622 -56109711.673200607 0 0 0 0 1520513.7481799126 -23307361.656890869 0 -23307361.656890869 -26851938.968444824 0 0 0 0 57644396.110993862 -23592031.873474121 0 -23592031.873474121 -38551729.855302811 0 0 0 0 16505043.735644579 -2071483.0376462936 0 -2071483.0376462936 -24471077.194919586 0 0 0 0 27620988.502869368 7038502.7538051605 0 7038502.7538051605 -22646955.11838913 0 0 0 0 14544342.311651945 -1766250.8754272461 0 -1766250.8754272461 -20415249.784629822 0 0 0 0 14893031.609700203 -3222179.2722110748 0 -3222179.2722110748 -21950436.689207077 0 0 0 0 -11705258.712357283 -9963833.3254384995 0 -9963833.3254384995 -16297629.791775703 0 0 0 0 10746259.905389309 -14265746.466675043 0 -14265746.466675043 -19728661.11888504 0 0 0 0 3970079.2023115158 -5957335.3842964172 0 -5957335.3842964172 -22870079.139858246 0 0 0 0 3829902.2931873798 -6454922.827454567 0 -6454922.827454567 -17912217.289840698 0 0 0 0 13533556.420329571 -3826378.1466464996 0 -3826378.1466464996 -20416647.887525558 0 0 0 0 -2859953.7988532186 -6161232.7307124138 0 -6161232.7307124138 -12643692.74017334 0 0 0 0 11461022.657328606 -623510.9309425354 0 -623510.9309425354 -17757196.921587527 0 0 0 0 69731408.523004532 10765533.108722687 0 10765533.108722687 -44236921.93844986 0 0 0 0 -2162746.4064154625 -14730341.391916275 0 -14730341.391916275 -21760806.198171377 0 0 0 0 3833947.5083729154 1022148.7836697055 0 1022148.7836697055 -12811295.076042663 0 0 0 0 22789178.704765797 -30249452.101074219 0 -30249452.101074219 45411932.385271072 0 0 0 0 8054734.9763453007 -12158948.05040741 0 -12158948.05040741 -42124906.514347076 0 0 0 0 18621848.552470684 5624121.6280288696 0 5624121.6280288696 -12238142.319324493 0 0 0 0 24836097.398767292 -33068960.460462093 0 -33068960.460462093 -48169309.211006165 0 0 0 0 30255579.149812222 20503751.845182419 0 20503751.845182419 -48111988.634397507 0 0 0 0 49367345.305452585 40596800.478219986 0 40596800.478219986 23914956.739375114 0 0 0 0 30298806.209705591 21491848.693683624 0 21491848.693683624 -25637977.347225189 0 0 0 0 37038336.013935804 13270606.241250992 0 13270606.241250992 -35891397.459106445 0 0 0 0 14239671.592509747 -6858808.1396331787 0 -6858808.1396331787 -10057893.118532181 0 0 0 0 21888725.207780838 2833205.5528125763 0 2833205.5528125763 -14193740.006860733 0 0 0 0 13354984.70591259 -2475099.1100225449 0 -2475099.1100225449 -14952099.668292999 0 0 0 0 28307022.293857098 771775.40518951416 0 771775.40518951416 -19812773.116916656 0 0 0 0 22660917.06816864 -4895411.8779335022 0 -4895411.8779335022 -19995473.176837921 0 0 0 0 31251827.602493882 -5435713.7392187119 0 -5435713.7392187119 -21277196.804904938 0 0 0 0 1613729.7208607378 -485401.91090069094 0 -485401.91090069094 -17657224.812480874 0 0 0 0 70137106.591220737 -34611886.073817998 0 -34611886.073817998 7145273.0072498322 0 0 0 0 -114285.1747328795 -64465.800488312729 0 -64465.800488312729 55010.150298464112 0 0 0 0 68339614.127712309 -56063336.535770893 0 -56063336.535770893 -41313396.646916389 0 0 0 0 13910143.119735479 -15102317.095201969 0 -15102317.095201969 -54421832.223176241 0 0 0 0 18571514.656679153 945850.86755847931 0 945850.86755847931 -20148747.854217052 0 0 0 0 18608700.841479778 -568417.18834018707 0 -568417.18834018707 -15751831.045001864 0 0 0 0 19828489.388401031 -1182908.2943058014 0 -1182908.2943058014 -20070480.685404301 0 0 0 0 15049493.534699678 -3951529.0100660324 0 -3951529.0100660324 -19247777.986179352 0 0 0 0 23265836.809319973 -6641925.5598621368 0 -6641925.5598621368 -15916334.286529541 0 0 0 0 33265575.546969414 -10043278.063345671 0 -10043278.063345671 -17780699.227949142 0 0 0 0 1538746.64009129 -1044322.5274555797 0 -1044322.5274555797 -16957802.742176905 0 0 0 0 18302345.684396505 -352772.20614862442 0 -352772.20614862442 -15854897.88901329 0 0 0 0 24559197.056469083 1191055.9935512543 0 1191055.9935512543 -19105125.814934731 0 0 0 0 -225620.39984806464 -109465.63383268961 0 -109465.63383268961 117747.47806783114 0 0 0 0 295959.24879854918 13592241.532361984 0 13592241.532361984 -13810503.584892273 0 0 0 0 -41083216.090463877 30210612.079154968 0 30210612.079154968 -675084.7107667923 0 0 0 0 -2723795.4435375035 -17885406.446044981 0 -17885406.446044981 12381055.648469925 0 0 0 0 24055592.340980291 -3985691.3318948746 0 -3985691.3318948746 955406.18113708496 0 0 0 0 -32675295.565274715 13162404.968751907 0 13162404.968751907 19340185.040119648 0 0 0 0 -44669392.371364832 -9578683.4400968552 0 -9578683.4400968552 -37001456.706797123 0 0 0 0 -48186420.049663186 -7446234.9966745377 0 -7446234.9966745377 -37477289.072591782 0 0 0 0 -27712066.09282279 22722284.973544121 0 22722284.973544121 -415251.32826828957 0 0 0 0 -29260725.77839613 34315871.873116016 0 34315871.873116016 -17171584.940979004 0 0 0 0 -34502955.086405635 17941483.689659595 0 17941483.689659595 -23478429.973892212 0 0 0 0 -21534825.011025429 29619826.249985695 0 29619826.249985695 -24898948.342045307 0 0 0 0 17263236.770308495 16920519.936835289 0 16920519.936835289 -25327035.660075188 0 0 0 0 -52439966.343206406 44459140.661011696 0 44459140.661011696 -19596645.895998001 0 0 0 0 -53650482.722687483 72488847.832055092 0 72488847.832055092 -77365478.698041916 0 0 0 0 -86480979.337338448 -52602811.107082367 0 -52602811.107082367 -87560580.780919194 0 0 0 0 5552033.1621161699 30693666.163555622 0 30693666.163555622 -55234004.319410324 0 0 0 0 -8000216.6177698374 22328899.729082108 0 22328899.729082108 -2911229.5816392899 0 0 0 0 12322041.716139197 -18200574.103554249 0 -18200574.103554249 -58248373.055595398 0 0 0 0 4420691.1405658126 14676641.773071289 0 14676641.773071289 -22450242.744281769 0 0 0 0 -36915244.866146564 -25269065.484723091 0 -25269065.484723091 -56589316.444681168 0 0 0 0 -23159241.696317196 14743387.135492325 0 14743387.135492325 -11927223.096679688 0 0 0 0 -41733910.358952701 29065657.172086239 0 29065657.172086239 -34200587.830320358 0 0 0 0 -58590265.236886978 24272434.684179306 0 24272434.684179306 -10705607.701037526 0 0 0 0 -63685569.400743365 -52389386.047562599 0 -52389386.047562599 -116032465.09577179 0 0 0 0 -156704848.68199134 18584586.75834465 0 18584586.75834465 -35077822.22191 0 0 0 0 -14453043.823089838 27770427.436820984 0 27770427.436820984 -137981660.72297001 0 0 0 0 -15372080.08622551 20520249.047372818 0 20520249.047372818 -54593075.13066864 0 0 0 0 -17144465.138641357 -5324015.4027996063 0 -5324015.4027996063 -68889822.098788261 0 0 0 0 -8234362.0522682667 -21360984.377684116 0 -21360984.377684116 -73038900.808498383 0 0 0 0 2570512.4944648743 -4470080.1661739349 0 -4470080.1661739349 -46946669.885863304 0 0 0 0 -451189.63966941833 26766190.139835358 0 26766190.139835358 -67180518.590124846 0 0 0 0 11066808.099310517 14668386.808254719 0 14668386.808254719 -57105148.387634277 0 0 0 0 -2434871.372497797 37191569.203586578 0 37191569.203586578 -40132012.990931511 0 0 0 0 11056877.643993378 23966689.854581833 0 23966689.854581833 -32245105.830764771 0 0 0 0 -32812282.958348989 43448849.925819397 0 43448849.925819397 -26639657.302042961 0 0 0 0 -2925414.0020561218 33735309.953573704 0 33735309.953573704 -63857058.774181366 0 0 0 0 -2335.3200588680193 885448.1303943065 0 885448.1303943065 -488361.2923362283 0 0 0 0 -105788840.07312858 -41852516.740625381 0 -41852516.740625381 -24956468.357139587 0 0 0 0 -63234694.780882001 58930774.459487915 0 58930774.459487915 -58985123.180620193 0 0 0 0 152297.50212227902 118535.42257041018 0 118535.42257041018 -554625.5403300412 0 0 0 0 -40321334.977104545 23786318.728203773 0 23786318.728203773 -6591746.9012336731 0 0 0 0 -31880102.016735554 30214122.937307358 0 30214122.937307358 77022174.806461334 0 0 0 0 22167327.346677959 -84827798.526472092 0 -84827798.526472092 -190319726.59727097 0 0 0 0 6049541.0024837255 831408.02309799194 0 831408.02309799194 -6627693.2836685181 0 0 0 0 1028142.3584877822 -230997.40790093318 0 -230997.40790093318 -4352524.6561385617 0 0 0 0 6777618.694362402 14737560.777475357 0 14737560.777475357 -17184723.289274216 0 0 0 0 2566606.3237687685 3224921.7673802534 0 3224921.7673802534 -4208973.9012446841 0 0 0 0 -5037208.0862934589 22969056.530529499 0 22969056.530529499 -18479225.260400772 0 0 0 0 -18505725.3026793 11150614.000979424 0 11150614.000979424 -6270542.755666852 0 0 0 0 930575.38926320011 2682448.8275690461 0 2682448.8275690461 -1976330.1375152562 0 0 0 0 -7129815.7415366173 26996660.468252182 0 26996660.468252182 -19386104.632117271 0 0 0 0 -660167.88947239658 -341727.62869467679 0 -341727.62869467679 -45264.394818712026 0 0 0 0 46247056.019969761 -58296392.401290894 0 -58296392.401290894 4429080.0106878281 0 0 0 0 10815106.92146647 -47548134.894860744 0 -47548134.894860744 44066319.904842377 0 0 0 0 3138021.0426802635 35154187.155802727 0 35154187.155802727 -1691614.3998031616 0 0 0 0 33516040.213093638 -19024609.046260834 0 -19024609.046260834 -118059541.4134388 0 0 0 0 -74030960.190207958 -67056703.988401413 0 -67056703.988401413 64811007.473398209 0 0 0 0 -327955.2793379185 -137812.75824472075 0 -137812.75824472075 15009.487897682004 0 0 0 0 37835007.664962023 -3788993.0004303455 0 -3788993.0004303455 -82969460.939903259 0 0 0 0 18951225.714902461 33591387.75995636 0 33591387.75995636 -83154202.242170334 0 0 0 0 1713909.765414834 -16053353.085167885 0 -16053353.085167885 -34290880.097080231 0 0 0 0 29497620.174413323 3609532.0542163849 0 3609532.0542163849 -72939453.534210205 0 0 0 0 1586432.8730332647 -21719495.079009861 0 -21719495.079009861 -22611282.892421722 0 0 0 0 -24934677.186561346 -84722098.86869812 0 -84722098.86869812 -98716217.300723553 0 0 0 0 -33434710.16969943 -18792495.87770462 0 -18792495.87770462 -6404688.0120544434 0 0 0 0 -8413132.2422399819 -4473249.54509902 0 -4473249.54509902 -4370915.1260509491 0 0 0 0 -4330081.953225106 5013247.5031516552 0 5013247.5031516552 91654.922439575195 0 0 0 0 -6889203.0120280385 -1346343.1727361679 0 -1346343.1727361679 -4586821.9037590027 0 0 0 0 -4457928.2506679296 2808738.8838787079 0 2808738.8838787079 -21995320.15302515 0 0 0 0 4611503.5087608099 -2731617.6382117271 0 -2731617.6382117271 -4876529.2302234173 0 0 0 0 -180630.73586897948 -2909505.5459448919 0 -2909505.5459448919 -5782407.2195734736 0 0 0 0 3984983.9797834158 -1559790.1017208099 0 -1559790.1017208099 -6076440.443239212 0 0 0 0 1867530.9325504899 2345798.3683620989 0 2345798.3683620989 -7018065.5979242325 0 0 0 0 2078363.2722753435 610856.25778359175 0 610856.25778359175 -2124194.2710189819 0 0 0 0 1241792.6757338734 499145.88973160327 0 499145.88973160327 -5458590.1534139216 0 0 0 0 40458611.801197886 16318488.183700562 0 16318488.183700562 -2538927.1024894714 0 0 0 0 -135921982.73470843 -60174878.141985893 0 -60174878.141985893 103584720.96791077 0 0 0 0 -13078439.027946949 35289429.560152054 0 35289429.560152054 43663119.715447426 0 0 0 0 -2173080.5792801976 4643986.5938119888 0 4643986.5938119888 -2275221.0883045197 0 0 0 0 1235718.8416457176 -161885.57810974121 0 -161885.57810974121 -4284889.2998816669 0 0 0 0 -623294.19582653046 -1127388.1838254929 0 -1127388.1838254929 -4265636.6178279743 0 0 0 0 878424.5076251924 -3901562.0413278341 0 -3901562.0413278341 -1342342.3318347931 0 0 0 0 -5406110.0341892242 -3482845.1842341423 0 -3482845.1842341423 -4377739.3374836445 0 0 0 0 3250756.8366765976 -2089252.0156264305 0 -2089252.0156264305 -4664454.5357365608 0 0 0 0 310566.47043925663 -732777.82627575076 0 -732777.82627575076 -5237025.8318595085 0 0 0 0 2945491.27135849 -2582092.415763855 0 -2582092.415763855 -7500928.1172789335 0 0 0 0 7669671.2596149445 -1465815.5852603912 0 -1465815.5852603912 -3313098.1682343483 0 0 0 0 4412393.3467450142 -5382235.6443843842 0 -5382235.6443843842 -5955921.7312223911 0 0 0 0 2815481.3906612396 -3388946.8649954796 0 -3388946.8649954796 -1840576.5637478828 0 0 0 0 617730.12497204891 -291701.70554826007 0 -291701.70554826007 -5567698.1967866318 0 0 0 0 -39720.834464731975 -3562332.3266569925 0 -3562332.3266569925 -2082112.5003494639 0 0 0 0 4369741.279791832 -3722648.1717525721 0 -3722648.1717525721 -2376681.2728643417 0 0 0 0 3348581.9871985242 -6996066.6780758426 0 -6996066.6780758426 -4376238.7603845596 0 0 0 0 -3406098.0974168777 -16236189.560435295 0 -16236189.560435295 4954996.1865329742 0 0 0 0 7559388.9146575928 -4006297.1259851456 0 -4006297.1259851456 -6795080.3939356804 0 0 0 0 -17103651.566316128 -18231528.22116518 0 -18231528.22116518 -2459428.9169645309 0 0 0 0 12634264.608667493 -9337856.2211711407 0 -9337856.2211711407 -6347712.7846660614 0 0 0 0 -13332278.27013731 -7760048.4876420498 0 -7760048.4876420498 3812851.7224416733 0 0 0 0 2899931.3232369423 -15471061.827273369 0 -15471061.827273369 -25746678.425615311 0 0 0 0 431762.19607044139 -824260.75733305572 0 -824260.75733305572 -545123.74019546015 0 0 0 0 -9947194.6509178877 -8983963.642870903 0 -8983963.642870903 -8586834.3663883209 0 0 0 0 1284474.6271681786 -6880596.3709249496 0 -6880596.3709249496 -10817617.036240101 0 0 0 0 -7372436.5571820736 -2126428.4309134483 0 -2126428.4309134483 -8058973.6698322296 0 0 0 0 -7417372.3529706001 -11125598.846800327 0 -11125598.846800327 -6497320.9830369949 0 0 0 0 -11979529.321980476 -21546326.222197533 0 -21546326.222197533 -25019635.002467155 0 0 0 0 -3765576.6331411954 -6257917.9910875829 0 -6257917.9910875829 -8276654.6213061437 0 0 0 0 3093877.4544315338 -2139644.1127071381 0 -2139644.1127071381 2632023.7280926704 0 0 0 0 3742973.0221662521 7783466.1218841076 0 7783466.1218841076 -14417780.065000534 0 0 0 0 7732549.1831531525 -11683490.668966293 0 -11683490.668966293 -34638539.088237762 0 0 0 0 -856125.64837303758 -6684411.3724906975 0 -6684411.3724906975 -14366780.143438283 0 0 0 0 3628892.1511106491 -17616331.139092445 0 -17616331.139092445 -12031881.181804657 0 0 0 0 4916387.7760720253 -13790584.307003975 0 -13790584.307003975 -34062410.708587646 0 0 0 0 13198308.327298641 -21142615.421125412 0 -21142615.421125412 -45027466.472438812 0 0 0 0 7091538.2161253132 -1842196.6832456589 0 -1842196.6832456589 -18813957.596650057 0 0 0 0 11148781.440960407 -16619643.481398106 0 -16619643.481398106 -33525318.334339142 0 0 0 0 9902686.2608141899 -12360226.45376873 0 -12360226.45376873 -36802116.335067749 0 0 0 0 20390371.490713596 -8961789.1345472336 0 -8961789.1345472336 -16628807.943950653 0 0 0 0 77357412.086802602 16467389.581244469 0 16467389.581244469 -41485849.672649384 0 0 0 0 3391340.4703850015 2297438.2560855229 0 2297438.2560855229 -19221867.629263233 0 0 0 0 18756822.932790756 -5772474.081193924 0 -5772474.081193924 -18013065.31769228 0 0 0 0 64569076.183940604 2042599.5314666927 0 2042599.5314666927 -41379195.959087372 0 0 0 0 63443575.212729305 26934700.664855242 0 26934700.664855242 -42069753.846786499 0 0 0 0 34070907.71651268 21244505.843074799 0 21244505.843074799 -39445452.08870697 0 0 0 0 19999130.332489491 30024501.887573242 0 30024501.887573242 -38086656.697235107 0 0 0 0 12227455.841930509 19515910.997923851 0 19515910.997923851 -37074727.72782135 0 0 0 0 37703011.918541431 24801167.625917435 0 24801167.625917435 -44427029.685050964 0 0 0 0 50696084.136680052 -3053939.501478076 0 -3053939.501478076 -27607818.726963043 0 0 0 0 34564656.301954508 16614233.927061081 0 16614233.927061081 -33415621.490753174 0 0 0 0 47693244.184481144 21586152.504001617 0 21586152.504001617 -41554396.638084412 0 0 0 0 27808351.068267822 20182374.404689789 0 20182374.404689789 -33720217.529254913 0 0 0 0 42270804.520483017 11652319.902048111 0 11652319.902048111 -35241825.159900665 0 0 0 0 3689497.7037010193 -5189888.3671221733 0 -5189888.3671221733 -5932985.3371024132 0 0 0 0 20998568.011971474 8112177.3909416199 0 8112177.3909416199 -25125130.961650848 0 0 0 0 1492550.7353760879 -2193259.1146396687 0 -2193259.1146396687 -16768554.952730116 0 0 0 0 21650034.557542562 12693204.909467697 0 12693204.909467697 -31242861.639808655 0 0 0 0 6645833.5306652654 10511290.547467753 0 10511290.547467753 -25465760.87919426 0 0 0 0 10539912.180232286 29050421.012452126 0 29050421.012452126 -31275378.613842487 0 0 0 0 11402245.734782934 20008141.852378845 0 20008141.852378845 -28090801.261789322 0 0 0 0 2990437.2837028503 -4141905.666680336 0 -4141905.666680336 -5451859.4318752289 0 0 0 0 -10175197.943519592 -2441139.7250976562 0 -2441139.7250976562 -37724452.005411148 0 0 0 0 321360.13243053743 -4018576.1685867324 0 -4018576.1685867324 -3315284.9267224241 0 0 0 0 27655198.20177269 3528924.6304206848 0 3528924.6304206848 -8055275.8836975098 0 0 0 0 1986748.2517511176 665022.00725863711 0 665022.00725863711 -16812280.644237123 0 0 0 0 1089282.3142939759 -418201.73867987562 0 -418201.73867987562 -2551321.2412945856 0 0 0 0 2364343.1371450424 19979264.412536621 0 19979264.412536621 -513750.84177398682 0 0 0 0 6881070.9524575127 -3723626.2821079297 0 -3723626.2821079297 -18352396.00821 0 0 0 0 5487230.8436126709 -812526.75144672394 0 -812526.75144672394 -4176792.7361602783 0 0 0 0 4148969.2613581689 -956156.17939314339 0 -956156.17939314339 -13015242.440707153 0 0 0 0 28308672.046170592 76947967.442189217 0 76947967.442189217 -58399580.92855835 0 0 0 0 -151425662.72939873 -8205758.583067894 0 -8205758.583067894 -43363857.495252609 0 0 0 0 -15829680.454587936 24332004.856562138 0 24332004.856562138 -96857179.621833801 0 0 0 0 43136791.981719017 -43207843.912345886 0 -43207843.912345886 -36011988.401483774 0 0 0 0 38612.844473919424 -130735.7908814 0 -130735.7908814 -222105.69235977158 0 0 0 0 -164069101.75572085 36230763.067825794 0 36230763.067825794 7580973.7553710938 0 0 0 0 -6240951.5391503572 -26043588.973911285 0 -26043588.973911285 -62768317.101121902 0 0 0 0 -75854246.522845268 109968373.95080185 0 109968373.95080185 -20246177.28670454 0 0 0 0 -22117109.48644352 65027803.745442867 0 65027803.745442867 -51380293.314761162 0 0 0 0 62777.146147736232 -187779.16632817755 0 -187779.16632817755 -462243.64683010802 0 0 0 0 -26536833.178440094 35698184.620100498 0 35698184.620100498 4920092.5666925907 0 0 0 0 14378511.608441174 4104953.9476838112 0 4104953.9476838112 -21292235.403676033 0 0 0 0 -57672104.796718836 -45047436.992729187 0 -45047436.992729187 -23007874.813670397 0 0 0 0 -77097736.796363354 -88265793.312357426 0 -88265793.312357426 -55986337.729095459 0 0 0 0 -216770559.73156834 -122937605.72058964 0 -122937605.72058964 -61645550.048612118 0 0 0 0 -245224293.44972563 24068516.568068504 0 24068516.568068504 -70630638.170716286 0 0 0 0 -96809493.831923485 -80431912.192724228 0 -80431912.192724228 -30230568.591433406 0 0 0 0 -77139172.923258066 -49913362.551642418 0 -49913362.551642418 -20044541.30718708 0 0 0 0 12947292.15321064 4304496.4461045265 0 4304496.4461045265 -46491203.249214172 0 0 0 0 -345711.41637523775 -140112.31513810856 0 -140112.31513810856 15673.88526268024 0 0 0 0 -120741037.57557373 -30222219.349869847 0 -30222219.349869847 83836885.175384521 0 0 0 0 -96584681.540461302 -128528640.95954394 0 -128528640.95954394 -99251496.227194786 0 0 0 0 -138537621.91905355 -121492503.91576624 0 -121492503.91576624 -47926320.227649212 0 0 0 0 -53970475.240534782 -33308544.373482943 0 -33308544.373482943 -98084871.521907806 0 0 0 0 -153401948.12717843 -92357147.986563683 0 -92357147.986563683 -69160175.491280317 0 0 0 0 -144843577.39760518 -120945432.21316385 0 -120945432.21316385 -61900314.259967804 0 0 0 0 -3915822.2918484211 -81070218.775847912 0 -81070218.775847912 -168709565.74348879 0 0 0 0 -139557716.48915988 -142135344.14972508 0 -142135344.14972508 -85044010.16885376 0 0 0 0 -89602358.022861719 -41712593.27437973 0 -41712593.27437973 -106976343.90043004 0 0 0 0 -83779352.730375051 -57127731.499874115 0 -57127731.499874115 -71364630.851640701 0 0 0 0 -3196965.9423658848 -3451305.933175087 0 -3451305.933175087 -80227685.728485346 0 0 0 0 2595600.396584034 -31491774.37126112 0 -31491774.37126112 16002443.544085503 0 0 0 0 -17250095.700424671 14251789.855308056 0 14251789.855308056 -24408617.454193115 0 0 0 0 15534666.236632228 -51676347.708666801 0 -51676347.708666801 57838615.195858955 0 0 0 0 -685678.75608758535 -341836.36900261091 0 -341836.36900261091 -36541.43114236556 0 0 0 0 20594353.984957516 -58192410.130378723 0 -58192410.130378723 -68865616.508392334 0 0 0 0 -7605675.6703205109 31477702.707982063 0 31477702.707982063 -26117780.295436859 0 0 0 0 12497547.527629852 5215921.4810390472 0 5215921.4810390472 -91900991.4591465 0 0 0 0 -179368.71942135022 -452787.52320960257 0 -452787.52320960257 -390540.17076168396 0 0 0 0 -21273717.696699381 25325969.062682152 0 25325969.062682152 -22119842.68135643 0 0 0 0 -398821.43770337105 -7387321.8016138077 0 -7387321.8016138077 -3798175.2460041046 0 0 0 0 7776083.227321744 -2934658.4562482834 0 -2934658.4562482834 -7316093.2932662964 0 0 0 0 -324274.23721921991 -1779914.109541914 0 -1779914.109541914 -1534476.6043015365 0 0 0 0 -4374694.344950676 -6987021.4742269516 0 -6987021.4742269516 -4818524.2284126282 0 0 0 0 -1194512.3964032948 -354341.68476420781 0 -354341.68476420781 1363649.6862907112 0 0 0 0 -11237767.315514624 -2282157.421564579 0 -2282157.421564579 3716339.2166118622 0 0 0 0 -22177686.786752462 -36186423.679398775 0 -36186423.679398775 -58994491.584299088 0 0 0 0 -11654923.248575211 -4232788.8982810974 0 -4232788.8982810974 -5850809.7409534454 0 0 0 0 -9238038.193520546 -12113473.924406052 0 -12113473.924406052 -27410922.436486244 0 0 0 0 -9776361.0361046791 -5161208.6572399139 0 -5161208.6572399139 2243591.0232162476 0 0 0 0 -16750257.490317583 -3959447.7456183434 0 -3959447.7456183434 2718928.5155105591 0 0 0 0 -16563940.038382769 -5052453.1203374863 0 -5052453.1203374863 7966275.8917999268 0 0 0 0 -11873094.022232652 -7619540.4247853756 0 -7619540.4247853756 -20262982.498579025 0 0 0 0 -16170456.392812967 84395.92405128479 0 84395.92405128479 -19527673.015835524 0 0 0 0 -4641354.4378156662 5073748.3718395233 0 5073748.3718395233 -57386055.588445663 0 0 0 0 -42439536.711250782 -12691688.054029465 0 -12691688.054029465 -52298783.367557526 0 0 0 0 10448935.111341476 11080506.540708303 0 11080506.540708303 -58276209.863889694 0 0 0 0 -10087855.448893309 7974925.1623106003 0 7974925.1623106003 -55314329.133832932 0 0 0 0 -31320309.206058979 -736659.49179458618 0 -736659.49179458618 -26080280.462323189 0 0 0 0 -23806197.42942524 -26334308.175369501 0 -26334308.175369501 -87873460.604780197 0 0 0 0 -109610392.52049261 -150566278.97317016 0 -150566278.97317016 -143072445.26388931 0 0 0 0 -214755.8286115558 -620968.11001832213 0 -620968.11001832213 -430582.18960976414 0 0 0 0 61897881.711199999 29077168.302103043 0 29077168.302103043 -106034177.60262108 0 0 0 0 -703326243.74365997 -77203845.827042699 0 -77203845.827042699 -35335265.197406769 0 0 0 0 15443665.008563042 -61557867.21541214 0 -61557867.21541214 -188988447.49469233 0 0 0 0 7434728.2094086409 -28482069.455970764 0 -28482069.455970764 -690442.28985214233 0 0 0 0 -29727725.944077373 -1707941.7921032906 0 -1707941.7921032906 4192719.3573703766 0 0 0 0 42695944.760440111 -11495575.240603447 0 -11495575.240603447 -5065676.168648243 0 0 0 0 -452973.66395354772 -1659617.9606251079 0 -1659617.9606251079 -1430913.2982773203 0 0 0 0 -688258056.2688067 154150000.6865108 0 154150000.6865108 85819193.976638794 0 0 0 0 -159270929.54239273 146204496.84357071 0 146204496.84357071 -172126552.07619095 0 0 0 0 -246167363.91826773 24937257.819252014 0 24937257.819252014 -106580090.46709538 0 0 0 0 -391833390.62477732 -69053278.398862839 0 -69053278.398862839 -21471758.637686729 0 0 0 0 -117858843.504076 4028064.9070034027 0 4028064.9070034027 -40485454.739807129 0 0 0 0 -163471272.98103905 -191173266.62011528 0 -191173266.62011528 121248005.31357384 0 0 0 0 -132629659.58180058 2983763.7041945457 0 2983763.7041945457 189434445.41679192 0 0 0 0 56069455.66045332 -64723549.977252007 0 -64723549.977252007 -14264983.781433225 0 0 0 0 -201045740.75854635 -118911304.5477457 0 -118911304.5477457 -60321625.318597794 0 0 0 0 -47521842.876530647 -12013762.560573578 0 -12013762.560573578 -18286829.880215645 0 0 0 0 -13833887.631746292 -40689198.943194389 0 -40689198.943194389 -82387049.238916397 0 0 0 0 80275894.073708534 49315972.406545639 0 49315972.406545639 -116657358.79255676 0 0 0 0 -22304031.994031906 -10741887.315660715 0 -10741887.315660715 -177569450.84111404 0 0 0 0 -205722847.46523905 -97978382.757720947 0 -97978382.757720947 -229825764.40551758 0 0 0 0 -138273179.88444757 36289273.237223625 0 36289273.237223625 -100551797.66692734 0 0 0 0 -183632686.89199853 57819101.983907223 0 57819101.983907223 -143054519.05657768 0 0 0 0 -24596897.340180397 49918896.122368813 0 49918896.122368813 -120423723.46311569 0 0 0 0 -28909693.500545502 -30777203.331683159 0 -30777203.331683159 -124916395.20954514 0 0 0 0 -4006606.3979988005 -355438.9637802653 0 -355438.9637802653 -785268.43725649966 0 0 0 0 36525876.836145878 -75708389.26565361 0 -75708389.26565361 69223208.429897308 0 0 0 0 2537152.5178852081 35704123.421699524 0 35704123.421699524 -78756513.939993858 0 0 0 0 59095949.365791321 -21207791.006160736 0 -21207791.006160736 -20696581.420310974 0 0 0 0 89795973.32736969 -73772241.066120148 0 -73772241.066120148 -67489615.084553003 0 0 0 0 41212341.941120148 84140805.918567657 0 84140805.918567657 -140864293.49281693 0 0 0 0 -374504677.61148262 119074639.46125984 0 119074639.46125984 99180590.585388184 0 0 0 0 -696574529.68439233 -99230941.840927124 0 -99230941.840927124 -19048699.565552711 0 0 0 0 -616737680.05596066 -41046002.501239777 0 -41046002.501239777 34218975.987548828 0 0 0 0 -326051036.02488279 161117294.47958755 0 161117294.47958755 7886192.619120121 0 0 0 0 -239357907.39218807 19099300.26803875 0 19099300.26803875 -43713124.410491943 0 0 0 0 -109858902.26044464 64041474.305431366 0 64041474.305431366 -74009065.009159088 0 0 0 0 -258671139.40939713 30564993.394138336 0 30564993.394138336 -5678499.9821014404 0 0 0 0 -91976348.864413261 41580183.441402435 0 41580183.441402435 -38404075.05696106 0 0 0 0 -258209245.38526729 -30333059.043701321 0 -30333059.043701321 -19632206.287055969 0 0 0 0 -451738656.69491816 23966228.190155029 0 23966228.190155029 33392285.008071899 0 0 0 0 -211995431.62820077 4012142.7798805237 0 4012142.7798805237 21862923.181177139 0 0 0 0 -346181876.20660162 -27786402.11497879 0 -27786402.11497879 19836175.152950287 0 0 0 0 -195340038.70114008 -32844029.270308495 0 -32844029.270308495 -8476820.7929077148 0 0 0 0 -112674746.13049603 -15919743.183917999 0 -15919743.183917999 -25376064.998764038 0 0 0 0 -23287082.569894791 -11922711.115684509 0 -11922711.115684509 -30554900.688455582 0 0 0 0 -70310415.697108746 -9869422.9488887787 0 -9869422.9488887787 -42851021.119033813 0 0 0 0 12101221.896958351 38863848.438978195 0 38863848.438978195 -38964285.582290649 0 0 0 0 51395992.941362381 -20262371.256195068 0 -20262371.256195068 -18578121.324958801 0 0 0 0 52410517.769423485 -24928988.862117767 0 -24928988.862117767 -51099327.908294678 0 0 0 0 55837667.455724716 -27256603.586004257 0 -27256603.586004257 -14286427.06578064 0 0 0 0 54084800.723936081 17072109.695404053 0 17072109.695404053 -2903755.4168243408 0 0 0 0 53136198.397777557 11622991.126041412 0 11622991.126041412 -34165852.908111572 0 0 0 0 46471673.607435226 25211892.387371063 0 25211892.387371063 -5546833.3278236389 0 0 0 0 32967660.98951149 40676533.82024765 0 40676533.82024765 -23192299.754899979 0 0 0 0 35185108.978748322 9752391.6893348694 0 9752391.6893348694 -42235194.432753563 0 0 0 0 23597042.527371734 -29445322.368210196 0 -29445322.368210196 -49905260.949848175 0 0 0 0 22421747.452840805 -47255793.777126312 0 -47255793.777126312 -2147260.4922904968 0 0 0 0 11608091.987247467 -4503297.3296203613 0 -4503297.3296203613 -32554930.884381294 0 0 0 0 21847761.696045876 6630214.4955596924 0 6630214.4955596924 -69647214.407447815 0 0 0 0 585481.24004409579 734647.86788635142 0 734647.86788635142 -1047706.4839273711 0 0 0 0 -56996547.73688221 -37592863.125793457 0 -37592863.125793457 -91483544.79538095 0 0 0 0 -212019120.82422185 -100948808.67590714 0 -100948808.67590714 304121891.98703384 0 0 0 0 -235389052.6765039 -7682586.4684391022 0 -7682586.4684391022 -26684849.197658539 0 0 0 0 -107073610.36884832 -30916714.95316124 0 -30916714.95316124 11821529.462028503 0 0 0 0 157003.52337873681 664799.45945148449 0 664799.45945148449 -949281.41614319221 0 0 0 0 -173589250.69677019 -74709081.293569565 0 -74709081.293569565 -28279421.590072632 0 0 0 0 -104474465.74907446 9777237.3820381165 0 9777237.3820381165 74782644.246086121 0 0 0 0 -307367240.14094603 -97125645.77191925 0 -97125645.77191925 21626944.936416626 0 0 0 0 -291467256.85207772 52814329.035898209 0 52814329.035898209 -24299267.001976967 0 0 0 0 -349327156.43997788 -81078187.364784241 0 -81078187.364784241 35244945.95362854 0 0 0 0 21283865.798389614 -12854833.157211542 0 -12854833.157211542 -5282531.7807922363 0 0 0 0 -653879191.81453574 -9333482.839810133 0 -9333482.839810133 133484673.62444687 0 0 0 0 -454184.3453534295 -2712151.6915747654 0 -2712151.6915747654 -3104076.2210525908 0 0 0 0 -358389157.30219126 -249764031.16621971 0 -249764031.16621971 146014238.7239399 0 0 0 0 1373237.6332509518 -9413481.6373987198 0 -9413481.6373987198 1485013.9685745239 0 0 0 0 5628452.1614875793 -16385258.38007164 0 -16385258.38007164 1629445.2728376389 0 0 0 0 566092.96131157875 -12919407.126694679 0 -12919407.126694679 1874140.9897270203 0 0 0 0 9154419.3747494221 -4197888.1651802063 0 -4197888.1651802063 -2776554.3672142029 0 0 0 0 312993.59712648392 -7429171.3689689636 0 -7429171.3689689636 -1792161.8464536667 0 0 0 0 322505.5254714489 -5996953.485522747 0 -5996953.485522747 -8283709.5671005249 0 0 0 0 1822302.8117876053 -9769521.194978714 0 -9769521.194978714 -6928821.3028202057 0 0 0 0 -1178372149.1603642 961144074.78505135 0 961144074.78505135 -275397389.17349148 0 0 0 0 -2355134.4642321481 -1890316.5386126703 0 -1890316.5386126703 2572017.6905715885 0 0 0 0 2301452.4130759239 -9655180.3894119263 0 -9655180.3894119263 -9503224.9510574341 0 0 0 0 -329642787.6595974 -101789071.12759018 0 -101789071.12759018 -22988682.106529236 0 0 0 0 -198548.10214736732 -3931984.7181372419 0 -3931984.7181372419 -5521308.3750515431 0 0 0 0 -320331919.02432179 -97678035.303646088 0 -97678035.303646088 -26379149.143814087 0 0 0 0 -395711113.98757303 -102744849.96051788 0 -102744849.96051788 5303624.3988800049 0 0 0 0 -389518393.35647392 -128522128.9397049 0 -128522128.9397049 -58491005.288047791 0 0 0 0 -351289053.98476577 -162115616.1143446 0 -162115616.1143446 -126741440.3414917 0 0 0 0 153833260.82849693 -212490955.22942734 0 -212490955.22942734 -321849562.37093353 0 0 0 0 -334837.17316672177 -554824.84058651049 0 -554824.84058651049 141736.1534893848 0 0 0 0 -9041922.4632892609 -15057778.904418945 0 -15057778.904418945 -26992452.408195496 0 0 0 0 -214315665.93816185 -55586157.001060486 0 -55586157.001060486 36022325.053863525 0 0 0 0 -600561349.29917431 -166017361.5069809 0 -166017361.5069809 -9375250.1345367432 0 0 0 0 -26131.592345859623 -265620.57173350919 0 -265620.57173350919 -1545986.4404012561 0 0 0 0 -466377004.07172585 -247899863.07983017 0 -247899863.07983017 -114124712.74120331 0 0 0 0 -776632023.9418571 -229467366.2159462 0 -229467366.2159462 -15240253.971088409 0 0 0 0 88241.300045827636 990232.41011987417 0 990232.41011987417 -2518823.3044058327 0 0 0 0 -375896819.41098213 397105369.37326813 0 397105369.37326813 -228195170.20960617 0 0 0 0 80675090.101225853 -940747907.75077438 0 -940747907.75077438 -31033445.925106049 0 0 0 0 -421845935.56310523 146349009.53265834 0 146349009.53265834 -56563983.205490112 0 0 0 0 1601055925.7679291 -1186778692.0268326 0 -1186778692.0268326 -120853193.49743414 0 0 0 0 181542697.2217989 33388445.666564941 0 33388445.666564941 -208570767.09828949 0 0 0 0 97632343.165758133 402499877.8730793 0 402499877.8730793 -809252121.6924324 0 0 0 0 -105300815.56128883 255663870.47634697 0 255663870.47634697 -202213782.95193291 0 0 0 0 40203406.999185562 169701092.01623154 0 169701092.01623154 -316736372.69169998 0 0 0 0 67030908.222624063 68464241.190812111 0 68464241.190812111 -94953664.232681274 0 0 0 0 -829587.15290689468 212991213.51644135 0 212991213.51644135 -206569913.51208115 0 0 0 0 12102732.290718079 126548664.32366943 0 126548664.32366943 3545132.8106781244 0 0 0 0 135496343.80844039 -70884879.324633598 0 -70884879.324633598 -178431.58776473999 0 0 0 0 73640986.673839569 33906638.951652527 0 33906638.951652527 -166302632.91070557 0 0 0 0 123751493.15517855 -95657236.116184235 0 -95657236.116184235 -78512177.369707108 0 0 0 0 127074049.64855406 -63995510.906440735 0 -63995510.906440735 39927616.209621429 0 0 0 0 255060265.53832912 -415144157.84487152 0 -415144157.84487152 69672104.193279266 0 0 0 0 108008874.75846338 -35349259.391139984 0 -35349259.391139984 -272484141.77315521 0 0 0 0 422129166.10680389 -123491411.75511932 0 -123491411.75511932 -632836411.04590321 0 0 0 0 -8947558.9592580795 -10417621.428384781 0 -10417621.428384781 -543890.60031509399 0 0 0 0 -7328625.5229846239 -12791719.105313301 0 -12791719.105313301 -1113814.2137813568 0 0 0 0 -2729682.5719608907 -3046864.0198832154 0 -3046864.0198832154 3698505.7706850898 0 0 0 0 -1856817.0931315422 -13613309.700428009 0 -13613309.700428009 2553107.1470746994 0 0 0 0 -8871574.4074460268 -12161941.59736681 0 -12161941.59736681 3942704.9883575439 0 0 0 0 -10400757.622420907 -8840037.5093288422 0 -8840037.5093288422 -454442.73073387146 0 0 0 0 -1283615.5752091408 -9872951.6999511719 0 -9872951.6999511719 -1145692.5332298279 0 0 0 0 -6825815.8098134995 -4365924.8898735046 0 -4365924.8898735046 2447008.901843071 0 0 0 0 -8424694.1940199733 -1802597.4538383484 0 -1802597.4538383484 3794697.2366867065 0 0 0 0 -15027720.558753142 -5870701.5333435535 0 -5870701.5333435535 19682167.441246033 0 0 0 0 5603098.2508709431 -89535349.512493134 0 -89535349.512493134 227831840.50826931 0 0 0 0 18450402.523327984 -16870974.094717026 0 -16870974.094717026 -23793425.969150543 0 0 0 0 -846961.34879636765 -5824348.4070568085 0 -5824348.4070568085 -4255086.4484844208 0 0 0 0 75392.085799723543 -1841176.1188964518 0 -1841176.1188964518 -6863103.1554052923 0 0 0 0 -626489.15462726541 -4132344.169876134 0 -4132344.169876134 2651376.4738517161 0 0 0 0 2069057.5218703747 -4358296.1845903397 0 -4358296.1845903397 -3705815.0700469017 0 0 0 0 -572869.38238427206 -998174.39908566233 0 -998174.39908566233 -4349022.9690987375 0 0 0 0 1551328.516276598 -5022316.946844101 0 -5022316.946844101 -5828930.1810445786 0 0 0 0 1877894.1417894363 -3460902.9992246628 0 -3460902.9992246628 -3430547.7898483276 0 0 0 0 1240271.2969824672 -2270330.3763370514 0 -2270330.3763370514 -1636506.6659889221 0 0 0 0 3760494.148788482 -1471177.1662857533 0 -1471177.1662857533 -10857643.5701828 0 0 0 0 3434272.6052986383 -3628734.669349432 0 -3628734.669349432 -8446617.4444465637 0 0 0 0 -176644.95853840414 -969799.35607971717 0 -969799.35607971717 -5091487.0450666156 0 0 0 0 1815625.6755212545 -1867999.0418548584 0 -1867999.0418548584 -7392834.565612793 0 0 0 0 -307492.04134464264 195784.38590812683 0 195784.38590812683 -8403957.7363109589 0 0 0 0 509424.75822257996 797432.81081199646 0 797432.81081199646 -10442165.84113121 0 0 0 0 2612295.6617836952 -713642.81160736084 0 -713642.81160736084 -9390014.5958251953 0 0 0 0 -473786.21894892462 631568.77444055676 0 631568.77444055676 -3584041.2601743266 0 0 0 0 177317587.21009731 -55957866.659851074 0 -55957866.659851074 -46891682.746437073 0 0 0 0 -926184.84154641628 1079708.3491916656 0 1079708.3491916656 -8912981.8168182373 0 0 0 0 -20116850.199381351 -36632241.009451389 0 -36632241.009451389 -14331784.906822205 0 0 0 0 -121129080.71339345 38406666.03875351 0 38406666.03875351 2710414.1379566193 0 0 0 0 24909267.726477861 -9791236.920249939 0 -9791236.920249939 -41841431.853961945 0 0 0 0 281391.06290278002 -698368.79572191089 0 -698368.79572191089 -1535709.3333701696 0 0 0 0 25113026.59172225 -7184697.7141532898 0 -7184697.7141532898 -19600379.753509521 0 0 0 0 -68424.332584274933 -373926.88842734694 0 -373926.88842734694 -1099212.8459758488 0 0 0 0 -448289.36951398849 -28888699.30512619 0 -28888699.30512619 -3605091.2104949951 0 0 0 0 -13764684.01107049 -10303571.518372536 0 -10303571.518372536 -17890527.916671753 0 0 0 0 1266742.0738326802 -2732464.1247506263 0 -2732464.1247506263 -3024663.8575333692 0 0 0 0 -9245008.6920428276 -7297478.5831985474 0 -7297478.5831985474 -7378112.2141647339 0 0 0 0 -15630754.722415768 -38768819.60406363 0 -38768819.60406363 -104863918.83375168 0 0 0 0 -5070295.3398615122 12474712.194793701 0 12474712.194793701 -43150205.030845642 0 0 0 0 1811333.2466688156 -9213564.9556312561 0 -9213564.9556312561 -47254408.853102207 0 0 0 0 -13258046.832402185 -18702854.399712563 0 -18702854.399712563 -20812898.325553894 0 0 0 0 36212773.399914384 29526028.345371246 0 29526028.345371246 -21103770.442430973 0 0 0 0 82127666.206532478 -3751645.7060832977 0 -3751645.7060832977 -108100432.80445099 0 0 0 0 17297343.707004905 49466933.638641357 0 49466933.638641357 -146366692.65893364 0 0 0 0 2881.9650192810223 -766611.3343079444 0 -766611.3343079444 -427677.54487720691 0 0 0 0 2011717.8527871966 -266357709.55534935 0 -266357709.55534935 -187158620.92533493 0 0 0 0 70665519.034997821 66283011.831596375 0 66283011.831596375 -141093898.82001495 0 0 0 0 115249928.20251313 267902976.02412653 0 267902976.02412653 -635193980.4987793 0 0 0 0 -102180743.57301685 201325658.60882568 0 201325658.60882568 -214348786.32012939 0 0 0 0 -87382888.558702648 222612865.30565381 0 222612865.30565381 -500666323.86731339 0 0 0 0 -11010909.536310673 22899007.74373436 0 22899007.74373436 -39961497.940016747 0 0 0 0 124899.50158026628 429100.26516587473 0 429100.26516587473 -774828.31560782902 0 0 0 0 -7792838.4767793417 10155170.518310547 0 10155170.518310547 -44379977.05670166 0 0 0 0 20573282.839777462 23093732.332125425 0 23093732.332125425 -642141708.82792091 0 0 0 0 429269361.27737504 18921479.428589821 0 18921479.428589821 -2206850277.695673 0 0 0 0 -132754831.96217731 430056771.01533413 0 430056771.01533413 -993248721.08941269 0 0 0 0 374026315.10789227 -168635490.96691418 0 -168635490.96691418 -1567395889.2458 0 0 0 0 33384913.566184044 -32347945.910865784 0 -32347945.910865784 -421359351.23559856 0 0 0 0 342133.41586639552 -192226.87906030379 0 -192226.87906030379 -773313.36250184011 0 0 0 0 -42019274.15643084 14605489.856497765 0 14605489.856497765 131787776.33627701 0 0 0 0 -3837775.4470245838 -141681798.42165375 0 -141681798.42165375 -106035729.55015564 0 0 0 0 10785023.289270878 104387618.79745483 0 104387618.79745483 -213041086.26881409 0 0 0 0 -54160545.400604248 -89334047.348339081 0 -89334047.348339081 167272825.89908409 0 0 0 0 1843195.9929002007 -218277.56555094942 0 -218277.56555094942 -2165621.8037217441 0 0 0 0 338354668.87582237 -357114266.26360083 0 -357114266.26360083 -2199853551.0302849 0 0 0 0 -586543691.08539414 -449462924.05015945 0 -449462924.05015945 -345471083.60632896 0 0 0 0 1713137.416663273 -615767.64561650367 0 -615767.64561650367 -2131512.3839338049 0 0 0 0 -512972345.08521599 715770574.73653507 0 715770574.73653507 -968276931.57099915 0 0 0 0 2809369.2822955493 -1459033.4690262191 0 -1459033.4690262191 -5223311.5596583607 0 0 0 0 3067747.7897504568 -2056993.7763104439 0 -2056993.7763104439 9114498.6901512146 0 0 0 0 14632628.083166122 39641770.734218597 0 39641770.734218597 22780478.456377029 0 0 0 0 782614.21606563567 -901391.61741349264 0 -901391.61741349264 190866.40497351252 0 0 0 0 214346588.74477589 -73068636.348252773 0 -73068636.348252773 -158772850.1842041 0 0 0 0 -351459108.46252441 -10330488.861595154 0 -10330488.861595154 -34353317.181575775 0 0 0 0 -308458395.05667996 269825595.39974594 0 269825595.39974594 -217900872.28817225 0 0 0 0 17963363.731096745 10556812.170999527 0 10556812.170999527 -448146931.44498444 0 0 0 0 15036855.253749847 254119484.2028656 0 254119484.2028656 -280411485.47102737 0 0 0 0 -36461169.308321953 233598021.318295 0 233598021.318295 -141299711.63858032 0 0 0 0 -294948.83301301626 514290.88395114965 0 514290.88395114965 -1110152.9110293407 0 0 0 0 -197628576.15385908 -164361794.4177618 0 -164361794.4177618 -22264982.284072876 0 0 0 0 -25512210.145422459 205784757.9568882 0 205784757.9568882 -195316929.67272186 0 0 0 0 -107003725.24331056 193416339.6445542 0 193416339.6445542 -81351977.848381042 0 0 0 0 7979128.3027169704 -6814995.5380244255 0 -6814995.5380244255 -8606432.0114173889 0 0 0 0 349043.02259846742 33325.805360543542 0 33325.805360543542 -110469.93817774579 0 0 0 0 24247711.969517231 206933854.35027695 0 206933854.35027695 -232343990.54893684 0 0 0 0 24682480.90785861 226763011.3844099 0 226763011.3844099 -203044125.06025696 0 0 0 0 -130720777.43347359 137490632.39383125 0 137490632.39383125 -153057278.68909836 0 0 0 0 -58569286.726531982 -62718043.425821304 0 -62718043.425821304 37937606.084095955 0 0 0 0 56423143.827648163 -617322.5391702652 0 -617322.5391702652 -28373994.964775085 0 0 0 0 300083573.94489014 98226876.921491623 0 98226876.921491623 -248284421.69220734 0 0 0 0 -117001090.11083734 -420515356.34182739 0 -420515356.34182739 -426726403.31632996 0 0 0 0 -548446769.71739519 504077668.92649078 0 504077668.92649078 -402454850.3323009 0 0 0 0 700262.42909055925 2846429.4440674055 0 2846429.4440674055 -6912897.3184032217 0 0 0 0 3501298.7967796475 -449994.61438081879 0 -449994.61438081879 -5646038.1678050533 0 0 0 0 347226.98726177216 -16884381.306406021 0 -16884381.306406021 3936932.0403022766 0 0 0 0 -2677668.8127288818 4783382.9011306763 0 4783382.9011306763 2688180.6515464783 0 0 0 0 -233993789.6123893 -43264045.938404083 0 -43264045.938404083 118142372.37716484 0 0 0 0 -4848569.6037239432 341496235.74442291 0 341496235.74442291 -673325406.59461212 0 0 0 0 208070982.35641775 -18703020.764160156 0 -18703020.764160156 -1034962069.8617477 0 0 0 0 297137186.16319346 341933766.61402893 0 341933766.61402893 -2202190062.7071676 0 0 0 0 56763815.220329396 -836994377.78803062 0 -836994377.78803062 -2268788509.4367409 0 0 0 0 213471630.01888397 25714972.358185768 0 25714972.358185768 -670185075.53320694 0 0 0 0 1065494.30166511 75917.119868492708 0 75917.119868492708 -5076556.0909091718 0 0 0 0 47145640.151113786 -50259133.217596054 0 -50259133.217596054 -656120560.79944229 0 0 0 0 -19688120.542911261 54149314.209798813 0 54149314.209798813 49896995.147542953 0 0 0 0 431378684.5431816 15434918.544136047 0 15434918.544136047 -81683572.08291626 0 0 0 0 -389995570.9685353 201434176.94840431 0 201434176.94840431 216205362.37211227 0 0 0 0 362827697.86854148 -132143035.57459641 0 -132143035.57459641 -375699699.82070541 0 0 0 0 -454346924.60560721 1023468347.3350258 0 1023468347.3350258 -764581465.66802979 0 0 0 0 88195.90464184017 344005.64405731484 0 344005.64405731484 -1990111.1691389233 0 0 0 0 -243654520.95300785 1332194020.9989758 0 1332194020.9989758 -1179208335.9850235 0 0 0 0 58817640.36927931 780466571.85254669 0 780466571.85254669 -2259533874.8481474 0 0 0 0 -80887013.322146624 301123446.82893562 0 301123446.82893562 -1255284236.3386974 0 0 0 0 -206121211.2117936 545246804.61874962 0 545246804.61874962 -1380965258.1406441 0 0 0 0 -285406349.10558951 -73579603.438304901 0 -73579603.438304901 -109715981.35720825 0 0 0 0 -366168896.19514984 -200704153.76215363 0 -200704153.76215363 146744239.81040955 0 0 0 0 155136806.03393114 -267483113.53710175 0 -267483113.53710175 198804930.01871872 0 0 0 0 607835.30731597147 430599.49950416759 0 430599.49950416759 -1409544.7337951362 0 0 0 0 38561891.329992712 -485574076.93218231 0 -485574076.93218231 -207613772.41550446 0 0 0 0 -460682833.59574986 -357812041.44356918 0 -357812041.44356918 35938238.452262878 0 0 0 0 139624136.81529391 -12323828.37768364 0 -12323828.37768364 -275924090.22280502 0 0 0 0 -1582590.0244806893 320144.24110157974 0 320144.24110157974 -102481.7666811212 0 0 0 0 -17719994.157780036 -450476617.25270891 0 -450476617.25270891 -959351675.61292648 0 0 0 0 -27951749.058142483 -317299572.14761353 0 -317299572.14761353 -81097718.973892212 0 0 0 0 -124830384.99765182 -186453665.27202797 0 -186453665.27202797 -254069403.57055664 0 0 0 0 -4882866.4955720901 6173976.2267699242 0 6173976.2267699242 -9912888.9869611859 0 0 0 0 -214293.64210319519 -1925895.5980317593 0 -1925895.5980317593 -13119875.946452498 0 0 0 0 3827562.9007434845 -3479624.0223395824 0 -3479624.0223395824 -2184034.9256157875 0 0 0 0 -8232728.2408591509 8319357.5981014967 0 8319357.5981014967 -23553978.461410046 0 0 0 0 -3385195.1617672443 -512648.21125364304 0 -512648.21125364304 -30187593.083698034 0 0 0 0 -12210130.737224579 30423450.602832675 0 30423450.602832675 -31492443.579803593 0 0 0 0 39473978.197860718 42899345.977957487 0 42899345.977957487 -63703434.743186116 0 0 0 0 5543624.4057731628 -989501.93263924122 0 -989501.93263924122 -17692695.585469723 0 0 0 0 -11285351.528913975 16249608.645282745 0 16249608.645282745 -1840405.281680584 0 0 0 0 2806244.4624658599 -1762454.4110262771 0 -1762454.4110262771 -7108610.9373420924 0 0 0 0 -12682283.50230217 -7661533.3610343933 0 -7661533.3610343933 -3382901.9561042786 0 0 0 0 42973905.54315424 -27060692.118979663 0 -27060692.118979663 -168043064.19092137 0 0 0 0 19208299.956216335 75730735.904971927 0 75730735.904971927 -41462172.764914341 0 0 0 0 -3729268.9608016014 -9280917.4379796982 0 -9280917.4379796982 -7288523.3810482025 0 0 0 0 296983.74225602532 -775758.60195811489 0 -775758.60195811489 -8028563.3285873737 0 0 0 0 12715954.4459396 -2704412.5051275194 0 -2704412.5051275194 -32069866.426898956 0 0 0 0 -8451263.1365339756 -888271.97681856155 0 -888271.97681856155 -1053088.479133606 0 0 0 0 -344867.67663642252 -1119563.281091515 0 -1119563.281091515 -257946.81291676126 0 0 0 0 -8125364.543794632 -5598693.5225963593 0 -5598693.5225963593 -478820.18069458008 0 0 0 0 -10448249.897194862 -1086191.7628555298 0 -1086191.7628555298 -8694825.4286079407 0 0 0 0 -5174694.4478244781 -8404907.8850479126 0 -8404907.8850479126 -18107263.987760544 0 0 0 0 -5397180.8424653411 -5547307.1791938543 0 -5547307.1791938543 -7357140.3295326233 0 0 0 0 372678.89351678616 -358959.88197312306 0 -358959.88197312306 -2790637.910522352 0 0 0 0 10273034.885653019 5624996.214992404 0 5624996.214992404 -10697366.462095737 0 0 0 0 -27589292.636030674 -18744078.517966032 0 -18744078.517966032 -14990541.44090271 0 0 0 0 -157462886.95596123 -20094150.685384512 0 -20094150.685384512 54361938.039208889 0 0 0 0 5408.7902364024194 103763.68235648214 0 103763.68235648214 -88103.684652240016 0 0 0 0 62367.952256355784 -244959.96032519848 0 -244959.96032519848 -3809715.4176388658 0 0 0 0 1319005.1670657396 -4402561.0578730106 0 -4402561.0578730106 -679685.0572385788 0 0 0 0 11085059.818240881 -4154100.7252566814 0 -4154100.7252566814 -6717059.8609685898 0 0 0 0 -39833605.512319565 -31289713.11451149 0 -31289713.11451149 1461870.4276037216 0 0 0 0 854934.28411548177 -1768950.7296030924 0 -1768950.7296030924 -1254136.8578815132 0 0 0 0 26143692.711222172 -55416101.27427268 0 -55416101.27427268 -17674582.968038559 0 0 0 0 -12271381.474593163 -12863235.783116341 0 -12863235.783116341 -10071669.35628891 0 0 0 0 28524651.671763957 1066192.8734943643 0 1066192.8734943643 -20015755.87697506 0 0 0 0 2806540.2446051743 -1716854.2879629268 0 -1716854.2879629268 -8796466.3909246009 0 0 0 0 -13607786.307647228 -9299039.5795497894 0 -9299039.5795497894 -7294995.2869110107 0 0 0 0 -9019515.5979373455 663679.75410032272 0 663679.75410032272 -1476545.0048856735 0 0 0 0 -10827768.598348141 4718305.2581727505 0 4718305.2581727505 -10407172.755540848 0 0 0 0 -2400722.2850829363 -7294840.5423647165 0 -7294840.5423647165 -16301034.479314804 0 0 0 0 -4473810.4491071701 -8969954.9153718948 0 -8969954.9153718948 -14912285.878400803 0 0 0 0 2716122.4003565311 -11215183.251752853 0 -11215183.251752853 -7020733.6672344208 0 0 0 0 -1951092.2209272385 -5293420.360994339 0 -5293420.360994339 -13832073.69039917 0 0 0 0 -5318443.8140778542 -6530142.7439517975 0 -6530142.7439517975 -9797601.4100689888 0 0 0 0 7814834.3910884857 -2129794.6336143017 0 -2129794.6336143017 -12922216.77922821 0 0 0 0 76151.389213019051 -1342569.1332522212 0 -1342569.1332522212 -5169171.8824748695 0 0 0 0 4119997.6669435501 752731.29204368591 0 752731.29204368591 -8639779.5171632767 0 0 0 0 5424685.3096961975 -150806.31398582458 0 -150806.31398582458 -9944798.9418449402 0 0 0 0 -391817.46760368347 -19720990.281972885 0 -19720990.281972885 3446058.38975811 0 0 0 0 533322.17847598065 83043.493098993786 0 83043.493098993786 -871212.54829820432 0 0 0 0 -1107994.1918447018 1336255.7463204861 0 1336255.7463204861 -7238822.851981163 0 0 0 0 4865833.383140564 -2450125.0399045944 0 -2450125.0399045944 -5196021.3558275104 0 0 0 0 8540808.3424296379 -4567246.4315958023 0 -4567246.4315958023 -7987818.5677938461 0 0 0 0 3195745.312046051 -5469006.2032165527 0 -5469006.2032165527 -10643765.368356705 0 0 0 0 3351111.123857975 -3548117.3754065037 0 -3548117.3754065037 -5943515.3246421814 0 0 0 0 5220151.673535347 -214273.97763228416 0 -214273.97763228416 -3151278.7548980713 0 0 0 0 911712.58196496964 1443581.4227509499 0 1443581.4227509499 -4725114.9417619705 0 0 0 0 -1555949.9951057434 1456358.9540481567 0 1456358.9540481567 -2723521.6827596426 0 0 0 0 -4126047.4334816933 2022945.7918514013 0 2022945.7918514013 -8046139.1534957886 0 0 0 0 -7513255.4219708443 -1319613.3967154026 0 -1319613.3967154026 -3561547.2324590683 0 0 0 0 -508874.62939572334 1600843.2402697802 0 1600843.2402697802 -10439036.817305088 0 0 0 0 1690274.1746668816 -2600218.6964588165 0 -2600218.6964588165 -11656123.736397684 0 0 0 0 348898.04309221118 -682822.56011569849 0 -682822.56011569849 -4490084.207669667 0 0 0 0 -3466157.4900510311 2571326.2142696381 0 2571326.2142696381 -858598.68192243576 0 0 0 0 44877.512309294427 -216148.84093265794 0 -216148.84093265794 -1118770.3719448005 0 0 0 0 936770.58401012421 -2686858.3936858177 0 -2686858.3936858177 -8878441.209651947 0 0 0 0 -808104.05848506093 -1901242.7855334282 0 -1901242.7855334282 -4189578.433795929 0 0 0 0 -459272.99926355365 -672409.78169108275 0 -672409.78169108275 -4716559.8346549105 0 0 0 0 1820763.5490252972 6384226.127866745 0 6384226.127866745 -3166460.9860830307 0 0 0 0 -1060002.897356987 -12955100.211269379 0 -12955100.211269379 -6512007.7973194122 0 0 0 0 422311.98917723901 638311.70153986942 0 638311.70153986942 -5208670.6630841456 0 0 0 0 2828680.0722594261 3229512.4454689026 0 3229512.4454689026 -9867776.6659359932 0 0 0 0 -3645255.9232707024 6080374.0892772675 0 6080374.0892772675 32160318.521487713 0 0 0 0 3648405.4997491837 8667209.3567123413 0 8667209.3567123413 11274722.202965736 0 0 0 0 6062528.3260755539 -1763156.7757153511 0 -1763156.7757153511 -7182158.1892347336 0 0 0 0 -4583741.3556499481 -1109310.333343029 0 -1109310.333343029 2976999.4504468441 0 0 0 0 6464852.9835700989 5584749.231364727 0 5584749.231364727 43914.981534004211 0 0 0 0 7164686.0690822601 7547078.6385884285 0 7547078.6385884285 11502619.072588921 0 0 0 0 175374.68540501705 623318.61566833255 0 623318.61566833255 -183411.44379802095 0 0 0 0 -3252946.2526754141 -4474119.3305845261 0 -4474119.3305845261 -2606828.7093296051 0 0 0 0 -2962774.7004961967 732754.87315559387 0 732754.87315559387 -3445611.9242191315 0 0 0 0 -657593.830296278 -1635418.040760994 0 -1635418.040760994 -1013206.5112533569 0 0 0 0 -5075641.2652455568 -1368982.3850677013 0 -1368982.3850677013 212151.89453697205 0 0 0 0 -783890.11237454228 1448981.5371988788 0 1448981.5371988788 -16683590.984609604 0 0 0 0 26694.162810195819 -246087.34107107995 0 -246087.34107107995 -516562.85968574323 0 0 0 0 523351.06269538403 -2077566.7214107513 0 -2077566.7214107513 -1671722.0851230621 0 0 0 0 -181873.25310451293 -844235.29486882035 0 -844235.29486882035 -3495213.6844517393 0 0 0 0 -34332.384624361992 294864.14458560944 0 294864.14458560944 -1099177.1871541739 0 0 0 0 -3934298.031036377 -5004127.8565292358 0 -5004127.8565292358 -4929874.3418273926 0 0 0 0 769875.63636732101 -47572.495361328125 0 -47572.495361328125 -2263260.3972396851 0 0 0 0 1251707.5866326794 89060.319967573974 0 89060.319967573974 -4559716.9726070417 0 0 0 0 -990170.55395509303 -2340765.4917173451 0 -2340765.4917173451 -2679819.8633006075 0 0 0 0 1947490.1047363281 -1562888.6466217041 0 -1562888.6466217041 -3263745.4507675171 0 0 0 0 -420629.7294385368 748042.42300749547 0 748042.42300749547 -4242903.232070094 0 0 0 0 1844421.2463571108 -1081793.3842006444 0 -1081793.3842006444 -12003061.310397107 0 0 0 0 191809023.29596424 -19381575.979854107 0 -19381575.979854107 -10660255.556400776 0 0 0 0 50100.813422514475 1101032.8439132781 0 1101032.8439132781 -7352186.2333941637 0 0 0 0 250488.87140917778 -132322441.33301377 0 -132322441.33301377 -4330989.9797926545 0 0 0 0 -150733206.32641029 87187020.983286381 0 87187020.983286381 31053071.681780815 0 0 0 0 14362355.549351215 66963362.625722408 0 66963362.625722408 -109140653.1648387 0 0 0 0 72458543.406140804 -1080229.7520096302 0 -1080229.7520096302 -98378096.59403801 0 0 0 0 12800466.236485481 -37181400.448822021 0 -37181400.448822021 18062904.860961355 0 0 0 0 -1161480.3100590557 32296555.274534866 0 32296555.274534866 15281395.986820698 0 0 0 0 -228838.39173920185 -253297.58290068008 0 -253297.58290068008 49718.278888004832 0 0 0 0 1697483.5531096458 -16034764.205778122 0 -16034764.205778122 -2650218.0707206726 0 0 0 0 570567.15134233143 -3607286.8846758986 0 -3607286.8846758986 -11521127.27600204 0 0 0 0 228925.46118843555 -9014636.0745220184 0 -9014636.0745220184 -7077136.0921669006 0 0 0 0 2041757.3030605316 -6400051.5641059875 0 -6400051.5641059875 -3989938.3254909515 0 0 0 0 303311.09377026558 -12818674.611763 0 -12818674.611763 -19636226.208808899 0 0 0 0 2424877.2207779884 4821212.8534333706 0 4821212.8534333706 -36455929.90602982 0 0 0 0 7096769.3867115974 3833091.7686485052 0 3833091.7686485052 -54201977.259404182 0 0 0 0 -2006898.1354598999 -5576499.9919941425 0 -5576499.9919941425 -15100432.995317459 0 0 0 0 -4060419.0637121201 -327407.02042466402 0 -327407.02042466402 -7314366.7654647827 0 0 0 0 11032261.067790031 -3864034.0481417179 0 -3864034.0481417179 -34839474.39995718 0 0 0 0 -9585250.7227673531 16038808.226843834 0 16038808.226843834 -40713010.883455992 0 0 0 0 15385235.027863979 -3459012.9125182629 0 -3459012.9125182629 -48443752.800010681 0 0 0 0 7761924.1131162643 -11378708.046845198 0 -11378708.046845198 -4620085.6578054428 0 0 0 0 27076491.574127197 -39179916.503062487 0 -39179916.503062487 25179677.830232799 0 0 0 0 3251742.1333861351 3484031.2976255417 0 3484031.2976255417 -42882134.601106167 0 0 0 0 -58890.1287583831 -602491.10201530205 0 -602491.10201530205 -688965.17068342259 0 0 0 0 -2670378.3034951687 -7351680.95307374 0 -7351680.95307374 -35560781.450573385 0 0 0 0 -4541990.8312115669 -14656625.467443585 0 -14656625.467443585 -50824431.411454499 0 0 0 0 -423647.90900519281 -1845373.7741001593 0 -1845373.7741001593 -3199817.1687368779 0 0 0 0 3461222.4501383305 -10520048.140446186 0 -10520048.140446186 6064178.5646492466 0 0 0 0 -1142022.4577263782 -808633.00685017393 0 -808633.00685017393 660668.2242316762 0 0 0 0 -5920365.8769254684 -880666.68667125702 0 -880666.68667125702 5764397.9412379265 0 0 0 0 6178746.7855331376 -801429.20252355933 0 -801429.20252355933 -13399672.676399231 0 0 0 0 788310.04813355661 -2391501.2300280575 0 -2391501.2300280575 -10366114.963651553 0 0 0 0 1935632.0174064636 2742565.032793045 0 2742565.032793045 -15377116.51581955 0 0 0 0 1637582.7272228003 -2172491.8901977539 0 -2172491.8901977539 -3935537.836016655 0 0 0 0 1319547.7549571991 -1068618.0241208076 0 -1068618.0241208076 -4221875.0709519386 0 0 0 0 504179.29230174772 148813.7786399934 0 148813.7786399934 -3381331.6785496054 0 0 0 0 226077.26937677653 -4790240.2706173398 0 -4790240.2706173398 -2772705.7702421383 0 0 0 0 665257.21226918697 -4157832.823633194 0 -4157832.823633194 -20991459.394592285 0 0 0 0 7133623.1529643536 -8522341.2686109543 0 -8522341.2686109543 -23977849.158653259 0 0 0 0 399290.68230048893 -3179597.3301537391 0 -3179597.3301537391 -10572911.224268969 0 0 0 0 11210735.426873922 -12266789.167030334 0 -12266789.167030334 -10605751.199790955 0 0 0 0 10846098.062476158 -4054388.0772132874 0 -4054388.0772132874 -18658182.257015228 0 0 0 0 5791069.8075819016 274265.5784778595 0 274265.5784778595 -16084767.632052422 0 0 0 0 6231438.6418813094 1203599.305755645 0 1203599.305755645 -19832752.999740601 0 0 0 0 3412486.5545558929 5333172.9936332703 0 5333172.9936332703 -15489749.57358551 0 0 0 0 911861.87389564514 10449479.47753334 0 10449479.47753334 -24849818.073432684 0 0 0 0 6811729.706402421 1604753.9533305168 0 1604753.9533305168 -23836968.025268555 0 0 0 0 -13526062.843711734 19079755.470891953 0 19079755.470891953 -25212355.851528168 0 0 0 0 2137786.7851355076 5541425.1446743011 0 5541425.1446743011 -25393694.273969412 0 0 0 0 2664532.3355475664 3944979.0076532364 0 3944979.0076532364 -34503582.172710419 0 0 0 0 -2606385.3061885834 6874862.8118000031 0 6874862.8118000031 -12000267.313587189 0 0 0 0 -6026953.2531957626 8530489.3517942429 0 8530489.3517942429 -12543752.025161743 0 0 0 0 -764700.47939109802 8811818.8670101166 0 8811818.8670101166 -13153788.306301117 0 0 0 0 3295852.0490601063 5262211.7509183884 0 5262211.7509183884 -15009196.026908875 0 0 0 0 4688985.6931853294 4484539.6895885468 0 4484539.6895885468 -14925770.377994537 0 0 0 0 1860343.1767730713 6611703.0371665955 0 6611703.0371665955 -15882904.567977905 0 0 0 0 2620430.9038500786 4331478.733089447 0 4331478.733089447 -11972537.389099121 0 0 0 0 -401750.76954805851 7399032.383849144 0 7399032.383849144 -11723881.932098389 0 0 0 0 4631057.7722167969 4058368.9851913452 0 4058368.9851913452 -10725457.997894287 0 0 0 0 -2946736.2676639557 7977538.0918769836 0 7977538.0918769836 -10937840.558158875 0 0 0 0 562644.56713581085 5866738.8955683708 0 5866738.8955683708 -11263048.152126312 0 0 0 0 -1818013.0512979031 1144215.579668045 0 1144215.579668045 -446004.98571777344 0 0 0 0 -378718858.07001305 709537351.87659073 0 709537351.87659073 -1333679019.2281113 0 0 0 0 -1320197.7756491145 1124750.9196962677 0 1124750.9196962677 -3582416.2594587938 0 0 0 0 -3696971.7287398065 -2674174.4393261271 0 -2674174.4393261271 -1909532.5456903121 0 0 0 0 -248502922.64543897 835831839.44437063 0 835831839.44437063 -2294383917.8210354 0 0 0 0 294428.44082113134 1545697.3496765266 0 1545697.3496765266 -1835586.6070715878 0 0 0 0 -1170475.906276226 -367712.23579025269 0 -367712.23579025269 -5737632.1680476665 0 0 0 0 -44593.04190297646 -11514.496461028699 0 -11514.496461028699 -4401867.153326516 0 0 0 0 -2564240.4032783508 -2375106.451792717 0 -2375106.451792717 -7584541.5703010559 0 0 0 0 229451.62112951279 618089.92320775986 0 618089.92320775986 -10899171.673820496 0 0 0 0 -71042.783972662641 14327.19931354234 0 14327.19931354234 20569.829606266692 0 0 0 0 -696937.1970449402 831400.00633437675 0 831400.00633437675 -6841463.1885768324 0 0 0 0 642571.88816022873 -342562.94784832001 0 -342562.94784832001 -2250232.9685611725 0 0 0 0 3967519.0173325539 6401759.7364268303 0 6401759.7364268303 -9778793.1332244873 0 0 0 0 57214.365174482809 206343.23228480108 0 206343.23228480108 -677568.71864258405 0 0 0 0 -1122735.9430058002 -1322858.87703228 0 -1322858.87703228 -6947084.9114837646 0 0 0 0 -24615086.716892265 -276298169.41666126 0 -276298169.41666126 -2205048668.7189903 0 0 0 0 -878736.15511137655 -904448.15159174846 0 -904448.15159174846 -4045068.9722887161 0 0 0 0 38166686.743117794 -152008169.91817093 0 -152008169.91817093 -2186394183.2215486 0 0 0 0 -1059491.5627493858 -1266629.2214970589 0 -1266629.2214970589 -7037408.935344696 0 0 0 0 -1904956.2108619716 267250.25891389605 0 267250.25891389605 -6977310.1464791186 0 0 0 0 42410832.556374013 -147979846.52730608 0 -147979846.52730608 -2203207836.1460657 0 0 0 0 -786983.42548092466 -370158.15638827672 0 -370158.15638827672 -3582742.7296408098 0 0 0 0 -2320150.5723401308 -1505785.9522686005 0 -1505785.9522686005 -6451881.3226289749 0 0 0 0 -1128220.4891732931 -1492734.6510493457 0 -1492734.6510493457 -7216914.2211704254 0 0 0 0 -46837313.682427153 309798109.01758385 0 309798109.01758385 -2063951485.7725196 0 0 0 0 -697717.32103610039 -958581.45829677582 0 -958581.45829677582 -7496233.8849525452 0 0 0 0 -2110490.4187292517 -615110.11730332649 0 -615110.11730332649 488960.15160722099 0 0 0 0 52349642.008896515 -7776882.8385982513 0 -7776882.8385982513 -2187038923.8965535 0 0 0 0 -565109.91366124153 -1558102.8708314896 0 -1558102.8708314896 -7385139.8845834732 0 0 0 0 -11567762.117563412 -5945733.6157662272 0 -5945733.6157662272 -6011072.2930574417 0 0 0 0 -2938182.4628432393 -4788135.5324192047 0 -4788135.5324192047 -8184038.650384903 0 0 0 0 -6804.6472335324215 -529508.88488077419 0 -529508.88488077419 -4053564.7758906428 0 0 0 0 -433617353.23880684 -941861958.92622066 0 -941861958.92622066 -2204686562.5364504 0 0 0 0 -1433244.9971499224 -1771838.6712380273 0 -1771838.6712380273 -4512541.5318032773 0 0 0 0 -2298489.7009613696 -941168.15712544881 0 -941168.15712544881 -2123717.822048746 0 0 0 0 -808657.76060032845 -1918197.9361696243 0 -1918197.9361696243 -6868157.859998703 0 0 0 0 -1196726.2197877548 -1263475.1424571034 0 -1263475.1424571034 -3030862.5557795535 0 0 0 0 222919.36523866653 -705827.28402376175 0 -705827.28402376175 -2768145.5224437714 0 0 0 0 -258919618.17286253 89519449.508935571 0 89519449.508935571 232766727.79862761 0 0 0 0 -1075128.6485139211 -1141136.4185475535 0 -1141136.4185475535 -6008540.2957123034 0 0 0 0 -1967381.6545650815 -3116197.4997596759 0 -3116197.4997596759 -5777100.3195116166 0 0 0 0 -1650831.2413780689 -1069132.9805970192 0 -1069132.9805970192 -3048796.2316966057 0 0 0 0 -2017615.3223907948 -2998970.3932163715 0 -2998970.3932163715 -6886854.9591884613 0 0 0 0 -696411.97666883469 -1440378.9674797058 0 -1440378.9674797058 -8126694.0634326935 0 0 0 0 -274375.94137825945 -1168264.9108579247 0 -1168264.9108579247 -6104901.867805942 0 0 0 0 -2319319.6867409945 -717524.16083645821 0 -717524.16083645821 -7785675.1330928802 0 0 0 0 386460.5245347023 -460216.81586551666 0 -460216.81586551666 -4204875.9744232893 0 0 0 0 64905879.341475487 23198745.805347562 0 23198745.805347562 -4772693.974673897 0 0 0 0 46015828.942555428 -149736174.29472268 0 -149736174.29472268 43616943.148798585 0 0 0 0 -899234.50110811589 -1576245.3853271508 0 -1576245.3853271508 -2574971.1245938288 0 0 0 0 13236.73245072295 -1015119.4566991355 0 -1015119.4566991355 -1277625.8532401689 0 0 0 0 -72977986.89364174 364593224.44303119 0 364593224.44303119 -373760839.62187719 0 0 0 0 -43023152.293911934 -129768965.53685731 0 -129768965.53685731 -35234574.274564505 0 0 0 0 96037845.708106995 -39791768.692371905 0 -39791768.692371905 16132112.333343387 0 0 0 0 133320068.90959454 -30575245.763899446 0 -30575245.763899446 -172669800.20409465 0 0 0 0 -41762862.989841461 -108464482.242993 0 -108464482.242993 7678371.495573163 0 0 0 0 68398.024840996019 -65761.031952947145 0 -65761.031952947145 -835614.03624909464 0 0 0 0 23851187.6856637 53435590.152983785 0 53435590.152983785 -204794599.94491458 0 0 0 0 -76910859.688897133 43913597.730124354 0 43913597.730124354 -9580263.6425466537 0 0 0 0 27050128.771304101 -1871227.4420811608 0 -1871227.4420811608 -12972826.326764345 0 0 0 0 30837409.096637726 15358802.169972301 0 15358802.169972301 -6864115.0569815636 0 0 0 0 66901694.656367779 -33598405.759353161 0 -33598405.759353161 -3585055.6909081936 0 0 0 0 101917.50181245804 891262.7127199173 0 891262.7127199173 -12609099.04658699 0 0 0 0 -13060666.082348824 -11675614.245494843 0 -11675614.245494843 -19761328.824964523 0 0 0 0 -12658947.407347977 -7148975.9659637809 0 -7148975.9659637809 -14541558.856754303 0 0 0 0 -19369429.779961348 -35256975.823647536 0 -35256975.823647536 -9509398.569297716 0 0 0 0 -197348910.15471697 -111415757.36708252 0 -111415757.36708252 194363492.62281242 0 0 0 0 14972024.045152664 15390344.915496647 0 15390344.915496647 -36386627.279020429 0 0 0 0 -2225224.9900853615 -583651.80600170372 0 -583651.80600170372 563475.47950306861 0 0 0 0 -7987276.7077598572 -3228616.7267580032 0 -3228616.7267580032 -9028516.0734038353 0 0 0 0 2406997.3753823508 -1700347.9940538513 0 -1700347.9940538513 -5491985.7042888645 0 0 0 0 127083882.77407455 -262099505.34654617 0 -262099505.34654617 140415953.81447506 0 0 0 0 82987.151956668589 -1070710.3275427148 0 -1070710.3275427148 -7531300.6676198132 0 0 0 0 -5518867.8903722763 -6159036.9344377518 0 -6159036.9344377518 -17386543.369020462 0 0 0 0 -12801845.184959412 -11223636.324314117 0 -11223636.324314117 -21825892.863983154 0 0 0 0 257157.51289125904 -366668.05065073085 0 -366668.05065073085 -875551.28318433184 0 0 0 0 -50485161.009172559 -48638594.027095519 0 -48638594.027095519 4677420.765144825 0 0 0 0 272299.10198153974 -2205003.8823057688 0 -2205003.8823057688 -9546732.6046056021 0 0 0 0 121482721.20149994 98385620.361992121 0 98385620.361992121 32907145.587830245 0 0 0 0 -9760159.6307473183 -4977524.1137247086 0 -4977524.1137247086 -15575511.868624687 0 0 0 0 -6363877.7666282654 -4568468.9948949814 0 -4568468.9948949814 -20924023.223186493 0 0 0 0 -6803594.076489687 -170076.07004421949 0 -170076.07004421949 -15195651.517866135 0 0 0 0 23427.472697459161 949029.11193940043 0 949029.11193940043 -5857361.1006493568 0 0 0 0 -1370728.2640055716 -2413207.8520354331 0 -2413207.8520354331 -3072175.5316827297 0 0 0 0 -349045676.90186948 -906537748.00931764 0 -906537748.00931764 -1670106081.3367078 0 0 0 0 -801868.52617788315 119280.02766942978 0 119280.02766942978 -3003722.6527480669 0 0 0 0 489217.65741661628 -156034.87487743507 0 -156034.87487743507 -4551239.695839297 0 0 0 0 -12832.253985643387 -849000.28859639168 0 -849000.28859639168 -5876802.8316730261 0 0 0 0 -928374051.26689363 -1052596276.4738946 0 -1052596276.4738946 -1198040921.6807203 0 0 0 0 -2532999.0957192108 -2186530.0390864871 0 -2186530.0390864871 -2273987.8203148474 0 0 0 0 -977454.09207773209 328996.39292407036 0 328996.39292407036 -4243676.7046937943 0 0 0 0 294556.77043771744 -459657.03113508224 0 -459657.03113508224 -3966044.2240341902 0 0 0 0 -178711.01472187042 -1778944.2708911896 0 -1778944.2708911896 -3043284.0994921625 0 0 0 0 -508735779.09619796 -1226264253.2631931 0 -1226264253.2631931 -2686012504.2437425 0 0 0 0 2215.1741934336023 -65058.120803345228 0 -65058.120803345228 -302775.09573392221 0 0 0 0 -616381370.57982147 -893303929.51791406 0 -893303929.51791406 -1969777739.325829 0 0 0 0 -133992543.1775182 -714181773.69684637 0 -714181773.69684637 -2033294554.4639912 0 0 0 0 -247768819.29772002 -867895193.26516593 0 -867895193.26516593 -2204753040.2592921 0 0 0 0 -353604424.84004235 -869038404.54359508 0 -869038404.54359508 -1970206792.6851497 0 0 0 0 -123247118.75210461 -630814483.83722568 0 -630814483.83722568 -1775662102.2246306 0 0 0 0 114998478.7482271 -363975916.06360412 0 -363975916.06360412 -1886263747.9854245 0 0 0 0 68950907.899857461 -576374941.42974281 0 -576374941.42974281 -2204624948.272624 0 0 0 0 -219658267.24407279 -478277387.81686163 0 -478277387.81686163 -1347016410.8594055 0 0 0 0 -323992987.7428143 -656596767.00077534 0 -656596767.00077534 -1387532160.5711737 0 0 0 0 -348623153.69781578 -746398536.05825877 0 -746398536.05825877 -1520310403.6626911 0 0 0 0 -367164404.95574582 -739765950.43806076 0 -739765950.43806076 -1485633298.9980288 0 0 0 0 -331322228.88716763 -669165524.46752214 0 -669165524.46752214 -1355714963.3272295 0 0 0 0 116928.1897301123 348885.95887732488 0 348885.95887732488 -4132447.4237955143 0 0 0 0 -235244093.50331575 -580595099.18906724 0 -580595099.18906724 -1716866481.4988132 0 0 0 0 554905809.15533328 329426541.0603056 0 329426541.0603056 -1200783395.1957026 0 0 0 0 217013660.53097856 -103353548.52355111 0 -103353548.52355111 -1420009358.6384029 0 0 0 0 463169685.19500864 -104662611.63609409 0 -104662611.63609409 -2204278729.554605 0 0 0 0 32750661.449498296 -335504850.61145926 0 -335504850.61145926 -1485096461.5061204 0 0 0 0 379959813.52423406 -220868171.43675733 0 -220868171.43675733 -1337898817.9423122 0 0 0 0 424547032.44222629 309150523.99786758 0 309150523.99786758 26602398.794064984 0 0 0 0 219071347.2700631 -1206302353.1458879 0 -1206302353.1458879 58576401.083276749 0 0 0 0 185519568.61212862 -9765347.1824066639 0 -9765347.1824066639 -801335453.76075363 0 0 0 0 -129828261.2840029 -872023031.51341343 0 -872023031.51341343 -349658300.15721369 0 0 0 0 -139969023.95554966 -761342913.22619784 0 -761342913.22619784 -1347570293.4599867 0 0 0 0 222642.40049645878 -215962.94352192618 0 -215962.94352192618 -1009426.5139632807 0 0 0 0 490244400.10727525 -666733063.22366047 0 -666733063.22366047 -530633680.13941956 0 0 0 0 83417571.572616756 -437451201.8689537 0 -437451201.8689537 60523840.308233261 0 0 0 0 183384519.53044564 -398230300.33760118 0 -398230300.33760118 -733788753.01245117 0 0 0 0 -414241640.32569098 152870421.0669136 0 152870421.0669136 -438921088.06262016 0 0 0 0 -216485969.71634626 637102984.82704926 0 637102984.82704926 -1382067547.6852579 0 0 0 0 -78614487.307927132 -128848191.87831116 0 -128848191.87831116 -1378207631.2931886 0 0 0 0 12867.841094347765 -596909.58448902098 0 -596909.58448902098 -1334012.9385655993 0 0 0 0 5664639.4932601452 -4137799.9166898727 0 -4137799.9166898727 -23352044.692222595 0 0 0 0 -1527039.706261477 -1439977.0940723997 0 -1439977.0940723997 -881581.04863741121 0 0 0 0 -8704121.7040076256 -7081838.1494913101 0 -7081838.1494913101 -14262180.632665932 0 0 0 0 -342397453.71383762 -645763156.55041313 0 -645763156.55041313 -1330856434.8989058 0 0 0 0 258364.16652723681 -666129.6412035781 0 -666129.6412035781 -2857783.8400863949 0 0 0 0 -335957406.77329427 -643091962.39536333 0 -643091962.39536333 -1359505676.5205851 0 0 0 0 -311713535.37554741 -424397591.13458347 0 -424397591.13458347 -967312538.04408264 0 0 0 0 1864175.6661733389 -25346734.13041687 0 -25346734.13041687 9889473.4199447632 0 0 0 0 -10048175.959147453 -40185689.671322823 0 -40185689.671322823 3875381.8374547958 0 0 0 0 -16477820.394030333 -66311902.80339241 0 -66311902.80339241 312012590.12703991 0 0 0 0 164867894.97647381 -106914217.3775425 0 -106914217.3775425 -248737697.8584528 0 0 0 0 137091728.4429884 -66862614.404569626 0 -66862614.404569626 -74800215.454107285 0 0 0 0 36346177.563042641 -1520555.5080738068 0 -1520555.5080738068 -14653792.423798084 0 0 0 0 57829966.208586693 -52778537.875039101 0 -52778537.875039101 -8764728.838080883 0 0 0 0 4224001.106921196 -41494242.278790474 0 -41494242.278790474 -10433222.303470612 0 0 0 0 37658860.821444035 -19963049.926845551 0 -19963049.926845551 -14662329.743679613 0 0 0 0 -8950630.4731302261 -12186513.860424042 0 -12186513.860424042 1579417.2042798996 0 0 0 0 532004.51693701744 12437846.326107979 0 12437846.326107979 -11516908.846902847 0 0 0 0 53456349.224763155 30351565.863508224 0 30351565.863508224 -6732004.4960956573 0 0 0 0 -939802.67205905914 -5736551.1936168671 0 -5736551.1936168671 -10542456.844696045 0 0 0 0 -6330345.1159543991 -8603383.0063095093 0 -8603383.0063095093 -5647431.0220756531 0 0 0 0 -1101823.04180336 -299846.82149028778 0 -299846.82149028778 -5643106.4617195129 0 0 0 0 1054304.5946538732 -1601864.4420084935 0 -1601864.4420084935 -2868800.161429977 0 0 0 0 -66497.886582551524 -143868.21724707959 0 -143868.21724707959 -4063756.4456303967 0 0 0 0 -7058956.5761127472 -7388971.1580963135 0 -7388971.1580963135 -2437535.8066253662 0 0 0 0 -7386578.7922878265 -10626389.173891068 0 -10626389.173891068 -11786864.858329773 0 0 0 0 -6092972.9828753471 -938549.23579978943 0 -938549.23579978943 2637701.8812561035 0 0 0 0 99614.944139650601 -457798.51399636455 0 -457798.51399636455 -82770.793060505763 0 0 0 0 286474504.68860829 236584114.9144032 0 236584114.9144032 -69732753.053714752 0 0 0 0 -4128902.1468830109 1261802.6405944824 0 1261802.6405944824 -7957839.7827043533 0 0 0 0 134756.81770619866 -387408.70269919746 0 -387408.70269919746 -2981672.0650377236 0 0 0 0 136412841.64626271 217220747.98092842 0 217220747.98092842 48595995.779972076 0 0 0 0 242672542.3609246 -2453400.8836984634 0 -2453400.8836984634 -77272084.361488342 0 0 0 0 101690917.15567446 -11879248.539892197 0 -11879248.539892197 60203140.855760932 0 0 0 0 134617285.67655066 21394490.856921196 0 21394490.856921196 -204451823.7064209 0 0 0 0 19752306.91993764 -111074768.23549318 0 -111074768.23549318 -317473182.9702282 0 0 0 0 22053249.345298886 99724173.13576889 0 99724173.13576889 -331370513.95526719 0 0 0 0 41592735.798874229 -37870943.378879547 0 -37870943.378879547 -147883005.62620735 0 0 0 0 -243977157.23020434 86025975.296486855 0 86025975.296486855 -106972496.98638344 0 0 0 0 29891767.37411499 35068825.832637787 0 35068825.832637787 -90727246.307973862 0 0 0 0 168172217.66904026 126643238.22763324 0 126643238.22763324 -183614215.01288986 0 0 0 0 -141349319.9688797 -33900982.784135818 0 -33900982.784135818 -513105188.82687819 0 0 0 0 -492458144.49777669 -408374658.01031822 0 -408374658.01031822 -488040347.56368256 0 0 0 0 -185985500.02613282 -118284273.6966095 0 -118284273.6966095 -320081518.72869873 0 0 0 0 -192282299.55339301 -190628772.70464122 0 -190628772.70464122 -423228206.30568314 0 0 0 0 -244942703.53021431 25247698.576667786 0 25247698.576667786 -255451680.60170937 0 0 0 0 -175873717.81690991 26351207.856963158 0 26351207.856963158 93238524.676584244 0 0 0 0 -292964343.19707108 -44837881.546010971 0 -44837881.546010971 -65305656.625804901 0 0 0 0 -104192593.25745285 -18986047.557267189 0 -18986047.557267189 -75075247.248378754 0 0 0 0 55322963.510443568 169904447.41145992 0 169904447.41145992 -40681945.090808868 0 0 0 0 65274470.802008331 37079546.632279396 0 37079546.632279396 -149017513.97899914 0 0 0 0 55614206.207459927 64936067.002658844 0 64936067.002658844 68873851.825422287 0 0 0 0 -139863465.95584625 61959151.439684391 0 61959151.439684391 98065104.602191925 0 0 0 0 92451678.273283899 21018877.447479248 0 21018877.447479248 108990771.13559723 0 0 0 0 200411751.71463382 229753696.50331497 0 229753696.50331497 300913000.63465118 0 0 0 0 255548468.42041212 38563589.150938392 0 38563589.150938392 13444697.02910614 0 0 0 0 203900.64348415329 79562.973930955864 0 79562.973930955864 -11661.508937524632 0 0 0 0 -51273.277647033305 -3308019.398197812 0 -3308019.398197812 -897191.79958094656 0 0 0 0 -2695445.9274603128 -4379902.3570013046 0 -4379902.3570013046 -8211851.4161567688 0 0 0 0 152482694.31915903 32069857.415822029 0 32069857.415822029 8705841.6348285675 0 0 0 0 -373067.21311569214 69316767.811910629 0 69316767.811910629 173405958.11310387 0 0 0 0 -32747388.012227297 117637613.93093109 0 117637613.93093109 122060110.35296345 0 0 0 0 106350522.47667634 125151504.91146755 0 125151504.91146755 90087345.20153141 0 0 0 0 -98521151.869123399 5330465.4486985207 0 5330465.4486985207 86021309.720623016 0 0 0 0 -32806267.500778675 52711055.804790497 0 52711055.804790497 97579260.298394203 0 0 0 0 -86745240.596359849 -3789837.5586099625 0 -3789837.5586099625 78125592.46868515 0 0 0 0 -2039522.3208899498 2090384.375483036 0 2090384.375483036 33169152.870441437 0 0 0 0 -4816963.4438378811 -2352477.4126377106 0 -2352477.4126377106 78141529.313555121 0 0 0 0 -1515840.0678225458 -5619391.6779527664 0 -5619391.6779527664 -5569777.2647285461 0 0 0 0 802713.105101255 -5999872.8767787442 0 -5999872.8767787442 -1041375.0719301086 0 0 0 0 17081096.274860263 27456948.33058548 0 27456948.33058548 48257082.717867851 0 0 0 0 -6376456.8983128071 -11635055.551211357 0 -11635055.551211357 -4129072.6769447327 0 0 0 0 -1944249.6512833834 -9086403.3100509644 0 -9086403.3100509644 -4812056.5737228394 0 0 0 0 3960812.9669526815 39055240.221705437 0 39055240.221705437 43107059.751346588 0 0 0 0 -3633555.875330925 -5277705.0156612396 0 -5277705.0156612396 -4472837.2279281616 0 0 0 0 -10498793.639110088 -10311166.276055336 0 -10311166.276055336 -1738870.9315338135 0 0 0 0 -7841365.1079577208 -5767525.0338478088 0 -5767525.0338478088 -4170920.7211685181 0 0 0 0 -10373606.217493534 -10826624.650484085 0 -10826624.650484085 -580340.49182891846 0 0 0 0 -10769205.435825825 -15773145.534358978 0 -15773145.534358978 666288.33207499981 0 0 0 0 -17775669.776057243 -9371579.7430458069 0 -9371579.7430458069 -758191.30868911743 0 0 0 0 -10889669.140521049 -11926343.470973969 0 -11926343.470973969 -1237223.1999969482 0 0 0 0 -8869121.7150275707 -11712304.538324356 0 -11712304.538324356 -2430835.075428009 0 0 0 0 -8959388.3836855888 -10656633.277868271 0 -10656633.277868271 -2060657.3767623901 0 0 0 0 -8091529.2690956593 -12526892.214580536 0 -12526892.214580536 -5283310.4138183594 0 0 0 0 -11300766.714907646 -14822275.946105957 0 -14822275.946105957 -2052776.1336975098 0 0 0 0 -4984207.0135421753 -15361475.376731873 0 -15361475.376731873 -2842100.9301757812 0 0 0 0 -6240678.6605958939 -18620138.504346848 0 -18620138.504346848 797567.01403045654 0 0 0 0 -6297303.2235183716 -9278131.2871170044 0 -9278131.2871170044 -6781334.6118087769 0 0 0 0 9099315.1574335098 -10706783.21676445 0 -10706783.21676445 -25934260.727409363 0 0 0 0 -5097551.2894763947 -1500101.6992073059 0 -1500101.6992073059 -17654377.103250504 0 0 0 0 7955216.3486337662 -20536289.615439653 0 -20536289.615439653 -11425178.161354065 0 0 0 0 -161247.89671516418 -21661980.818965912 0 -21661980.818965912 -1943797.7265205383 0 0 0 0 -1443862.3791465759 -10666902.558624268 0 -10666902.558624268 -16224431.010671616 0 0 0 0 -4969435.1728880405 -15790603.499638557 0 -15790603.499638557 -8055761.5986328125 0 0 0 0 -4697247.1589412689 -11060063.229644775 0 -11060063.229644775 -10391083.30739212 0 0 0 0 -843701.66566085815 -14498353.981216431 0 -14498353.981216431 -7793318.1573371887 0 0 0 0 -5005898.6568527222 -7429860.1333732605 0 -7429860.1333732605 -11726582.01763773 0 0 0 0 -4218913.0738329887 -9302895.7496261597 0 -9302895.7496261597 -8355433.802154541 0 0 0 0 -12793407.428863525 -4700829.5842170715 0 -4700829.5842170715 -9857096.6329689026 0 0 0 0 -3326197.4058170319 -9277161.5373878479 0 -9277161.5373878479 -11248428.180198669 0 0 0 0 -5788117.1592235565 -6580802.9508190155 0 -6580802.9508190155 -7901145.3947601318 0 0 0 0 -7673516.1620607376 -9697110.3307876587 0 -9697110.3307876587 -8198166.0957679749 0 0 0 0 -5025203.4918603897 -9465166.9698047638 0 -9465166.9698047638 -7735975.3497009277 0 0 0 0 784243.65066311578 -635689.57555556064 0 -635689.57555556064 -1322205.7862671707 0 0 0 0 -3770691.019667387 -9096021.1773433685 0 -9096021.1773433685 -5225859.0359587669 0 0 0 0 -4944099.1593914032 -10056585.28228569 0 -10056585.28228569 -7118719.1376495361 0 0 0 0 -4580877.3746786118 -11938968.850761414 0 -11938968.850761414 -5215176.4558343887 0 0 0 0 -5883068.6769695282 -7050389.8858375549 0 -7050389.8858375549 -7634270.8170633316 0 0 0 0 2719296.434899807 21127893.655060768 0 21127893.655060768 -15363118.357807159 0 0 0 0 166419.41427652561 -84067.955673987046 0 -84067.955673987046 -1245386.0430524182 0 0 0 0 -2084070.3862528801 -6579112.4250831604 0 -6579112.4250831604 -5063626.3699178696 0 0 0 0 17369171.274568081 14593670.119140625 0 14593670.119140625 2875576.2929573059 0 0 0 0 688960.06070990465 693111.04110278934 0 693111.04110278934 -1803230.7185683623 0 0 0 0 21835434.538041353 -3518033.4199905396 0 -3518033.4199905396 -16574362.238098145 0 0 0 0 64869566.965254784 -114920774.5402627 0 -114920774.5402627 61203741.149531841 0 0 0 0 2258924.6110207844 468096.25086137466 0 468096.25086137466 -6831323.8715546019 0 0 0 0 -452948.94045241224 -6422015.3369218996 0 -6422015.3369218996 -13339390.325838968 0 0 0 0 -15154393.911339164 -20160057.159107208 0 -20160057.159107208 47662514.673406601 0 0 0 0 11077856.361771941 -34833577.289740086 0 -34833577.289740086 55742777.646054268 0 0 0 0 -74893587.579641461 -19553513.643105507 0 -19553513.643105507 65109007.462110519 0 0 0 0 -49856877.933495283 -53708176.718445301 0 -53708176.718445301 83742140.811227798 0 0 0 0 -64307126.027668238 -93722610.99797821 0 -93722610.99797821 91355918.460353374 0 0 0 0 77452263.063627243 -2984507.6637568474 0 -2984507.6637568474 -94072312.921760559 0 0 0 0 -102997325.65011668 -4852902.865858078 0 -4852902.865858078 -135826551.19697046 0 0 0 0 -138442579.82788321 -113255909.97083092 0 -113255909.97083092 -56655024.215362549 0 0 0 0 10717965.604017496 104575473.10138798 0 104575473.10138798 -355189708.68605351 0 0 0 0 -29582538.665002495 -150354204.25698972 0 -150354204.25698972 -295695633.83319855 0 0 0 0 -166916665.54404175 -5273392.3061466217 0 -5273392.3061466217 -438620014.12906075 0 0 0 0 62484269.748532772 209952496.32147694 0 209952496.32147694 -150422439.16558814 0 0 0 0 77496241.434700489 -15018657.415892601 0 -15018657.415892601 -52941647.320487976 0 0 0 0 -57114.925010140258 -4652838.4506258499 0 -4652838.4506258499 -14047127.581648618 0 0 0 0 169917358.00553611 -192579111.72016788 0 -192579111.72016788 -48720316.792976379 0 0 0 0 -23017506.656371057 63636785.512290955 0 63636785.512290955 -78998272.948619843 0 0 0 0 -124943.35994717409 94185.711711468175 0 94185.711711468175 -210997.40524635836 0 0 0 0 9621760.7335531712 -24578181.542377472 0 -24578181.542377472 -110723517.46862793 0 0 0 0 7362748.9781708717 3965908.950548172 0 3965908.950548172 -5193052.0245056152 0 0 0 0 -3798149.648144722 -55317928.648292542 0 -55317928.648292542 3537890.7562193871 0 0 0 0 -9685038.1836484671 -16397974.191091061 0 -16397974.191091061 -1104338.4402618408 0 0 0 0 7864587.8511223793 -8233908.9662094116 0 -8233908.9662094116 16021738.976982117 0 0 0 0 47873443.886173248 -47575260.759403229 0 -47575260.759403229 -8096424.3299636841 0 0 0 0 322185.65214073705 -199108.39697876107 0 -199108.39697876107 -667859.04097730014 0 0 0 0 115734853.41178361 160801877.47860432 0 160801877.47860432 -354707218.22103882 0 0 0 0 -4055924.4945588112 -3481207.0124607086 0 -3481207.0124607086 -15322667.205474854 0 0 0 0 347687.92990900838 -3658082.5042955442 0 -3658082.5042955442 -13164687.242470397 0 0 0 0 115991965.23914006 262813198.17415714 0 262813198.17415714 -478634602.42590332 0 0 0 0 108435968.50776976 284103346.51312017 0 284103346.51312017 -509460997.12683105 0 0 0 0 -38996937.247055411 188039158.10880661 0 188039158.10880661 -232298490.80160141 0 0 0 0 -384363015.34517694 573329019.86603928 0 573329019.86603928 -303197935.7681818 0 0 0 0 -39987012.630903438 303972890.69538593 0 303972890.69538593 -684294024.27223969 0 0 0 0 -4844071.0506011844 387316712.80791759 0 387316712.80791759 -553397726.77401733 0 0 0 0 -279578133.6931197 364501387.46059799 0 364501387.46059799 -595013094.0449276 0 0 0 0 127150498.98542714 278899540.05760336 0 278899540.05760336 -565424687.33938599 0 0 0 0 93901505.430937648 328182766.78856468 0 328182766.78856468 -536108561.1130867 0 0 0 0 55619813.605836749 306037069.08727646 0 306037069.08727646 -444169299.16396523 0 0 0 0 120258860.81772709 310880479.22080421 0 310880479.22080421 -661621445.98770332 0 0 0 0 -60721777.293447554 346542394.89708519 0 346542394.89708519 -573732453.47520447 0 0 0 0 -92066311.566814184 288053385.30693817 0 288053385.30693817 -673872186.57160187 0 0 0 0 -2203701.8108668849 -4568128.6603338597 0 -4568128.6603338597 -6681440.0796920815 0 0 0 0 -270222470.06365603 389393702.36637497 0 389393702.36637497 -682091491.53535843 0 0 0 0 -234946171.70926097 303177444.6894474 0 303177444.6894474 -630934098.22912979 0 0 0 0 -208758915.89897743 354501825.43484497 0 354501825.43484497 -771000029.86403656 0 0 0 0 -105573885.00937182 284999201.55238676 0 284999201.55238676 -844416260.35872078 0 0 0 0 -283647292.11575115 352440193.23751593 0 352440193.23751593 -775434409.74884605 0 0 0 0 -396176599.70804048 677476125.31586266 0 677476125.31586266 -826188289.84016418 0 0 0 0 -730645942.18461657 875134112.49633026 0 875134112.49633026 -905812627.87984991 0 0 0 0 -498437.14912465389 -653291.75256549357 0 -653291.75256549357 484284.99499890953 0 0 0 0 -239577124.69480115 340859655.08954048 0 340859655.08954048 -939795811.13672638 0 0 0 0 -281394769.49645901 413435078.58144283 0 413435078.58144283 -619545704.49132442 0 0 0 0 10804079.861262441 58829374.703577995 0 58829374.703577995 -930009314.0840416 0 0 0 0 101510915.60765803 133657278.94217682 0 133657278.94217682 -381560629.56282997 0 0 0 0 103739577.55997765 125734325.88284206 0 125734325.88284206 -594264101.52096558 0 0 0 0 124685481.95871627 311444490.32228088 0 311444490.32228088 -586723265.8267045 0 0 0 0 116205340.11898732 298756664.29111862 0 298756664.29111862 -497755183.87914658 0 0 0 0 123359687.11451328 301113274.76673603 0 301113274.76673603 -531755634.2610321 0 0 0 0 118870291.39015245 285499358.81417656 0 285499358.81417656 -515008819.02660751 0 0 0 0 184654287.6600889 156351760.66115665 0 156351760.66115665 -461344182.06626135 0 0 0 0 -82344133.842242837 207569953.08879137 0 207569953.08879137 -464224301.91282082 0 0 0 0 452888007.94006383 -130719155.66331452 0 -130719155.66331452 -912087406.86704445 0 0 0 0 363334.60911212384 -1157501.0633570426 0 -1157501.0633570426 -3041149.094742063 0 0 0 0 195671382.91574824 326461331.40800571 0 326461331.40800571 -493832074.80107498 0 0 0 0 -304266525.64961123 762610998.71514797 0 762610998.71514797 -1041971922.9955057 0 0 0 0 268997.67727607343 -529281.15033912519 0 -529281.15033912519 -1683633.8033027593 0 0 0 0 -147265402.3560403 880392178.36031008 0 880392178.36031008 -2601702327.7665176 0 0 0 0 578354276.29133928 359729716.1926924 0 359729716.1926924 -2204883905.6076326 0 0 0 0 -4530976.3789393157 95218249.195462227 0 95218249.195462227 -1425781953.9024315 0 0 0 0 -15324672.305366665 1920280.0179252625 0 1920280.0179252625 -995917510.16006184 0 0 0 0 -193077419.73911279 362130266.65847015 0 362130266.65847015 -1150853083.4507732 0 0 0 0 -175791817.22881961 300072178.22875977 0 300072178.22875977 -759037013.39504623 0 0 0 0 -70462783.405354619 248210358.38305855 0 248210358.38305855 -743614962.21752548 0 0 0 0 -193242052.64064497 277663229.31720161 0 277663229.31720161 -751279627.40055084 0 0 0 0 47519575.124321818 117275845.5909481 0 117275845.5909481 -769502725.74253845 0 0 0 0 19345188.724967748 107448357.09603786 0 107448357.09603786 -21881406.37137413 0 0 0 0 -77914181.643827647 198904026.98404694 0 198904026.98404694 -562364705.9164598 0 0 0 0 -38008261.034157455 27134058.078842163 0 27134058.078842163 -544583306.72690582 0 0 0 0 311804153.78606266 -525616795.79562449 0 -525616795.79562449 -1339610053.1779404 0 0 0 0 269888176.05427134 -672641091.69277191 0 -672641091.69277191 -243797641.68582988 0 0 0 0 -480285050.13964689 -128564803.70624924 0 -128564803.70624924 -2205608452.5826979 0 0 0 0 327685873.04455131 -70272966.740732193 0 -70272966.740732193 -2210664243.0545077 0 0 0 0 242869452.50093561 9011233.20154953 0 9011233.20154953 -1399606348.5794029 0 0 0 0 201025333.33469048 374605091.27163792 0 374605091.27163792 -2205009138.2339134 0 0 0 0 -248605357.30643886 426460251.90057945 0 426460251.90057945 -832800845.51691628 0 0 0 0 -167780605.55920547 290865324.36270332 0 290865324.36270332 -1002552098.7342539 0 0 0 0 -749737.73536430066 -4087194.5002851179 0 -4087194.5002851179 -7120451.8343057577 0 0 0 0 -233992663.03687036 620316205.48611879 0 620316205.48611879 -1219811626.766571 0 0 0 0 -460420318.74282479 1092185764.4602728 0 1092185764.4602728 -2201182768.9224253 0 0 0 0 -887995.77264480502 -2837282.7687721797 0 -2837282.7687721797 -289927.65712459572 0 0 0 0 -218746075.32802472 -59992480.394668579 0 -59992480.394668579 29886641.052322388 0 0 0 0 -2856923.2494147439 -2189416.8424500916 0 -2189416.8424500916 -828986.7989324443 0 0 0 0 371213700.5094102 -387573516.20008278 0 -387573516.20008278 -2201507710.3013268 0 0 0 0 -159150711.42886877 -186003684.26161003 0 -186003684.26161003 -819708798.45410919 0 0 0 0 -3336022.3543914929 -1130201431.9336929 0 -1130201431.9336929 -1009648411.7733994 0 0 0 0 171834.96353057533 -933484.62328996905 0 -933484.62328996905 30472.637141425163 0 0 0 0 135337534.99502879 145286790.39544678 0 145286790.39544678 -509306073.95699692 0 0 0 0 141379275.28691769 10825023.634283066 0 10825023.634283066 -83153070.401756287 0 0 0 0 729874.16947868827 -3801081.5340280794 0 -3801081.5340280794 -1397420.5040439852 0 0 0 0 -20142448.099047363 18214052.715909004 0 18214052.715909004 -23018457.385372162 0 0 0 0 799710.90086360602 -1290452.7337926812 0 -1290452.7337926812 -4369357.3764947811 0 0 0 0 836304.34509241581 -4700821.1381931305 0 -4700821.1381931305 310286.95512771606 0 0 0 0 324578.77639949322 -5099645.1812362671 0 -5099645.1812362671 885019.27786254883 0 0 0 0 -1537909.1701310575 -2223002.9423513412 0 -2223002.9423513412 1193010.424621582 0 0 0 0 888371.28671465546 -2213951.8542463821 0 -2213951.8542463821 -1799741.691060178 0 0 0 0 29581.356290653348 -999697.04822349548 0 -999697.04822349548 307075.73167037964 0 0 0 0 317977.66650426388 -1175714.2504425049 0 -1175714.2504425049 77202.404914855957 0 0 0 0 5196502.6259653568 -2622329.42760849 0 -2622329.42760849 4829511.9117898941 0 0 0 0 83395.933151841164 -834151.08469104767 0 -834151.08469104767 6581668.5610618591 0 0 0 0 -424409.95560990868 -525704.50566256233 0 -525704.50566256233 828994.40985122323 0 0 0 0 -26072286.493554354 -28761729.111244202 0 -28761729.111244202 12868518.657073975 0 0 0 0 6395793.2980407327 -23219535.380915642 0 -23219535.380915642 7604510.5852584839 0 0 0 0 -38562767.642047405 9366820.7852611542 0 9366820.7852611542 12805713.178806305 0 0 0 0 -8803248.5598027706 -25344480.020013809 0 -25344480.020013809 27158423.509162903 0 0 0 0 10797190.824308395 -7008413.9836921692 0 -7008413.9836921692 -2015479.5529251099 0 0 0 0 1590221.2578035593 -6524100.6973199844 0 -6524100.6973199844 4519047.3113822937 0 0 0 0 -8986408.4376583099 -6843143.8913078308 0 -6843143.8913078308 21090424.394683838 0 0 0 0 -1757074.3706567895 -1987429.8429862075 0 -1987429.8429862075 3169319.369385995 0 0 0 0 159689847.08750629 113986948.86780167 0 113986948.86780167 -1557516564.3684158 0 0 0 0 -67975968.855888367 122604737.68052673 0 122604737.68052673 -743048295.44742966 0 0 0 0 57543394.893881261 -283165342.6532917 0 -283165342.6532917 -1218650820.1340637 0 0 0 0 460542.95668285171 -3753.0528443064541 0 -3753.0528443064541 -915512.78670693957 0 0 0 0 307808827.45904607 -656112094.39318275 0 -656112094.39318275 -1644244483.0145416 0 0 0 0 370463945.92279971 -296734645.60882378 0 -296734645.60882378 -1937834046.3921738 0 0 0 0 530060141.37247181 -889038128.48256874 0 -889038128.48256874 -2201122692.6546478 0 0 0 0 88320833.815872937 -539832322.95027924 0 -539832322.95027924 -801846812.63677216 0 0 0 0 80176349.370390549 -616854710.42987061 0 -616854710.42987061 -1156369750.3760796 0 0 0 0 98303704.992661327 -112279165.76854086 0 -112279165.76854086 -939386682.44156647 0 0 0 0 10251898.895753443 -334465856.25484467 0 -334465856.25484467 -722086738.77269363 0 0 0 0 -37278420.200110346 -84991543.937244415 0 -84991543.937244415 -292252001.01228714 0 0 0 0 -160677161.70216787 76549932.345219612 0 76549932.345219612 -65537158.296096802 0 0 0 0 -416836852.20855522 -489651940.68454742 0 -489651940.68454742 -557761490.2699337 0 0 0 0 -702417787.20710266 -1411912159.2445526 0 -1411912159.2445526 -1201864661.0909805 0 0 0 0 -847790418.90919542 -582717246.68866038 0 -582717246.68866038 283597238.95502853 0 0 0 0 -1315275.9686414083 -664478.43408230506 0 -664478.43408230506 -344216.08277743869 0 0 0 0 -4217942.3037798051 622823174.36990738 0 622823174.36990738 -2204684856.7011786 0 0 0 0 30990446.343290664 419885093.40222549 0 419885093.40222549 -1037808163.5770721 0 0 0 0 141729458.51084328 -107049607.36677551 0 -107049607.36677551 69003046.255825043 0 0 0 0 149240187.67336035 -59357582.867528915 0 -59357582.867528915 -175739439.89657974 0 0 0 0 -5699737.2244889736 139387843.08846283 0 139387843.08846283 -154670462.92385125 0 0 0 0 109108885.64256728 7108385.5822296143 0 7108385.5822296143 -7503666.1402893066 0 0 0 0 45606646.287792206 45462256.180397034 0 45462256.180397034 46504898.134483337 0 0 0 0 -1281969.7551729679 86147991.077606201 0 86147991.077606201 11214443.013480186 0 0 0 0 330495.74842710968 369206.6050033886 0 369206.6050033886 59417.007228527218 0 0 0 0 -64250041.454809308 44537595.308076859 0 44537595.308076859 329545467.45846939 0 0 0 0 8572154.5086317062 37546434.182817459 0 37546434.182817459 102031295.86565399 0 0 0 0 -16048937.764963513 9506922.7026165724 0 9506922.7026165724 -42583678.637741089 0 0 0 0 -8009293.0643866062 143976899.09741592 0 143976899.09741592 -34198422.05569458 0 0 0 0 -110279328.86623228 17417144.015331268 0 17417144.015331268 -89303410.778877258 0 0 0 0 -2260865.8883691877 -35327599.799087524 0 -35327599.799087524 -338508959.92236328 0 0 0 0 -98308190.26874125 81516138.3074646 0 81516138.3074646 -327084133.17203331 0 0 0 0 33660323.390759915 -218709390.97724628 0 -218709390.97724628 -57570970.290786743 0 0 0 0 -22764386.82891959 95738240.883651733 0 95738240.883651733 -128010831.06668854 0 0 0 0 36532012.945159465 118456159.46030045 0 118456159.46030045 67404445.672492981 0 0 0 0 16906089.849576116 105608893.58944702 0 105608893.58944702 11437391.116530418 0 0 0 0 172750.00928187004 -88716.683185769245 0 -88716.683185769245 -70363.141320262104 0 0 0 0 -80790686.175574273 -319605975.82170272 0 -319605975.82170272 70999794.778038025 0 0 0 0 -91914904.544641495 -48690718.681335449 0 -48690718.681335449 128580771.56190491 0 0 0 0 -5825371.1433204412 -30308988.842067719 0 -30308988.842067719 11026023.255378723 0 0 0 0 -44214560.740155935 250064311.72452927 0 250064311.72452927 128842868.06658936 0 0 0 0 -36239846.246286631 19714262.644756317 0 19714262.644756317 -60905755.821586609 0 0 0 0 -205805057.47429538 131823077.74308395 0 131823077.74308395 -77982904.56627655 0 0 0 0 22000436.676183164 -60141274.454057693 0 -60141274.454057693 -656182410.20187378 0 0 0 0 -13968482.879098572 4700040.376047492 0 4700040.376047492 -20831628.1873703 0 0 0 0 -15006775.373688757 16025568.919448853 0 16025568.919448853 -31217543.600463867 0 0 0 0 -105099961.54474704 -28570226.499130964 0 -28570226.499130964 -9493164.1626586914 0 0 0 0 -83853542.574822471 74734217.419392109 0 74734217.419392109 32225366.815994263 0 0 0 0 13093730.616253316 27664919.09261322 0 27664919.09261322 -19094205.677078247 0 0 0 0 123180594.04145147 54946483.827905655 0 54946483.827905655 -37038717.176498413 0 0 0 0 15974329.780164063 36096680.992938995 0 36096680.992938995 -22585704.545736313 0 0 0 0 34166798.58665055 6021819.0134277344 0 6021819.0134277344 -32939997.780651093 0 0 0 0 12200583.819506332 -7455.6554889678955 0 -7455.6554889678955 -5949928.657875061 0 0 0 0 89566908.537582517 -52969789.779598236 0 -52969789.779598236 25685916.303703308 0 0 0 0 23434580.392279878 -5626949.9463500977 0 -5626949.9463500977 -7795572.6680755615 0 0 0 0 18588226.380711645 -12425617.215080261 0 -12425617.215080261 6031628.9086456299 0 0 0 0 1422934.7996914301 659433.018104041 0 659433.018104041 -347321.83841891959 0 0 0 0 437393.1038293856 -505694.75557446945 0 -505694.75557446945 -656093.79620631784 0 0 0 0 19036174.995843917 -4932980.8520088196 0 -4932980.8520088196 -2417713.1105537415 0 0 0 0 19494223.169994891 -7030824.0563793182 0 -7030824.0563793182 -8934301.874710083 0 0 0 0 2941580.8446689844 27807746.134248734 0 27807746.134248734 -18022190.796090126 0 0 0 0 144402.61617209038 -180188.70540045202 0 -180188.70540045202 -241413.53028029203 0 0 0 0 -35903615.256710798 -54852000.878522873 0 -54852000.878522873 -65357701.08789444 0 0 0 0 10686132.757437797 -17426652.338178635 0 -17426652.338178635 -48102054.978872299 0 0 0 0 6025597.6827724045 -33087943.75469017 0 -33087943.75469017 -95082483.042076111 0 0 0 0 17042140.044279054 22438589.195299149 0 22438589.195299149 -35886069.3021698 0 0 0 0 22024692.682328314 21749470.698572159 0 21749470.698572159 -83597568.442756653 0 0 0 0 14491953.597900704 14151120.488674641 0 14151120.488674641 -32923331.157852173 0 0 0 0 16943151.081619442 6158010.5277500153 0 6158010.5277500153 -72836108.537567139 0 0 0 0 5375684.0139075518 -1632265.0572052002 0 -1632265.0572052002 -43392803.168746948 0 0 0 0 3200309.0723310709 -3596917.9506378174 0 -3596917.9506378174 -44883717.704814911 0 0 0 0 1036387.7594739199 1370474.3291282654 0 1370474.3291282654 -43167596.224533081 0 0 0 0 -4391680.1647087932 -844835.48620414734 0 -844835.48620414734 -25264691.19360733 0 0 0 0 -25139780.49281387 -5568998.5886769295 0 -5568998.5886769295 5329059.6971206665 0 0 0 0 -336986.34845429903 81218.900844540447 0 81218.900844540447 148023.47838778421 0 0 0 0 9895863.4561839104 -17198156.812320709 0 -17198156.812320709 -132084061.75297928 0 0 0 0 25477337.172127724 -18279830.911869049 0 -18279830.911869049 -151066079.71406937 0 0 0 0 -43077308.577584267 -45798405.296178818 0 -45798405.296178818 -56259056.484741211 0 0 0 0 -42056620.491745591 314405.02706241608 0 314405.02706241608 -2851594.3956222534 0 0 0 0 -49610086.502040863 -49378263.937122345 0 -49378263.937122345 -26471866.303920746 0 0 0 0 -17110306.060862064 -21138457.854415894 0 -21138457.854415894 12406179.275165558 0 0 0 0 -17019701.205383778 3025611.954044342 0 3025611.954044342 5704777.2519016266 0 0 0 0 1209870.9817724228 4794495.3398952484 0 4794495.3398952484 -6175027.3290557861 0 0 0 0 3541322.4313716292 -381882.70657920837 0 -381882.70657920837 169728.04039478302 0 0 0 0 -550123.10488074156 -203225.64579410478 0 -203225.64579410478 73903.91762871854 0 0 0 0 1363011.0577608347 -2792035.7826728821 0 -2792035.7826728821 338056.24161529541 0 0 0 0 -8373436.6236538887 -16905850.912733078 0 -16905850.912733078 -19864910.472629547 0 0 0 0 -2177988.1840609014 -8860886.3940596581 0 -8860886.3940596581 -25995065.020187378 0 0 0 0 1166957.4353947639 -26709111.749542236 0 -26709111.749542236 -70371279.705293655 0 0 0 0 5830095.1129270494 -12592807.820418358 0 -12592807.820418358 -77029090.67288208 0 0 0 0 11955103.41803354 1970854.764667511 0 1970854.764667511 -37250102.259317398 0 0 0 0 12744185.385426998 -8065911.4938468933 0 -8065911.4938468933 -97015505.60833168 0 0 0 0 -18648644.92177844 11628396.070926666 0 11628396.070926666 13510178.895353317 0 0 0 0 -5594546.1061528921 -9895513.2459564209 0 -9895513.2459564209 -29600384.409711838 0 0 0 0 -10105187.867544889 -8559037.5159225464 0 -8559037.5159225464 -29866511.669219971 0 0 0 0 -34288137.125927448 -58455574.423660278 0 -58455574.423660278 -78001622.187274933 0 0 0 0 857232.7572183609 -16527726.922481537 0 -16527726.922481537 -30399804.06407547 0 0 0 0 31510543.999182224 -53380844.182659149 0 -53380844.182659149 -31119968.657661438 0 0 0 0 10785546.26836729 23589205.199386597 0 23589205.199386597 -8542982.3616628647 0 0 0 0 -63201989.468936801 -7700281.5216732025 0 -7700281.5216732025 -17228646.69694519 0 0 0 0 15890725.614100933 11550676.271001816 0 11550676.271001816 -10603281.892662048 0 0 0 0 312674.83211867744 297071.35879409127 0 297071.35879409127 -1195472.6776879425 0 0 0 0 -31970759.318672419 38552549.099838257 0 38552549.099838257 8947203.092300415 0 0 0 0 129287.68683353206 50101.039664714597 0 50101.039664714597 -241368.02970118821 0 0 0 0 -3042977.8411631584 -22092119.063854218 0 -22092119.063854218 -38983937.82094574 0 0 0 0 -1897078.8544166088 51035777.632793427 0 51035777.632793427 7745631.2287750244 0 0 0 0 4967413.356205225 -10892033.07233429 0 -10892033.07233429 -44348104.442601204 0 0 0 0 14570157.963570118 1594282.8501358032 0 1594282.8501358032 -31266495.393047333 0 0 0 0 -11705353.173994452 -4603697.699962616 0 -4603697.699962616 6922650.8299026489 0 0 0 0 113324.81606379943 389402.60341658443 0 389402.60341658443 -546960.77836190595 0 0 0 0 -563172.2512447983 107180.30348014832 0 107180.30348014832 -18560811.701385498 0 0 0 0 4923021.5122146606 4722203.9555988312 0 4722203.9555988312 -18478240.242741585 0 0 0 0 -140923.56303578615 -409548.3241508007 0 -409548.3241508007 -11588657.160560608 0 0 0 0 1496655.0015154481 3747296.6978969574 0 3747296.6978969574 -17785480.012313366 0 0 0 0 -162959.84064723179 236338.56999149173 0 236338.56999149173 60156.74473396875 0 0 0 0 -371066.87137239426 -1125964.5057210922 0 -1125964.5057210922 -7707023.029384613 0 0 0 0 1501924.2913889885 -4333810.5588188171 0 -4333810.5588188171 2592210.7798280716 0 0 0 0 -2907111.896841526 -7397867.6532058716 0 -7397867.6532058716 955032.07415771484 0 0 0 0 -2364.0736089986749 17332.825583409518 0 17332.825583409518 -4102.4213204775006 0 0 0 0 27410276.492649794 16532746.48141098 0 16532746.48141098 -95049976.728561401 0 0 0 0 25285236.047521591 29794588.27652359 0 29794588.27652359 -28784882.658111572 0 0 0 0 25883043.917303443 16746862.867580414 0 16746862.867580414 10134726.43566227 0 0 0 0 324160.72104556218 98201.982028778642 0 98201.982028778642 -519181.31785723567 0 0 0 0 -51850297.349564075 -40958224.00805378 0 -40958224.00805378 -9797555.4981765747 0 0 0 0 -16605974.864451885 -47427330.870819092 0 -47427330.870819092 -113900504.34966278 0 0 0 0 -37946261.274569511 22399474.142101288 0 22399474.142101288 28496561.364131927 0 0 0 0 -5384450.3762392998 -11347174.346866608 0 -11347174.346866608 -19231228.521278381 0 0 0 0 2413449.940958783 -4343038.7364802361 0 -4343038.7364802361 -38613743.022476196 0 0 0 0 9466641.8856532574 5972660.6548843384 0 5972660.6548843384 -23538055.253025055 0 0 0 0 1110019.5007678866 -1397477.474811554 0 -1397477.474811554 -38557171.413917542 0 0 0 0 -634765.22609549761 -4463963.747127533 0 -4463963.747127533 -41947986.548019409 0 0 0 0 2928183.847392261 -11717967.206633091 0 -11717967.206633091 -29746710.794311523 0 0 0 0 -6516.5874969345459 179321.51323487796 0 179321.51323487796 -80702.960622023325 0 0 0 0 50012.522868275642 4881702.3954105377 0 4881702.3954105377 -27213415.493106842 0 0 0 0 1910579.8046234995 2041897.1547412872 0 2041897.1547412872 -33237050.035697937 0 0 0 0 -1874512.0008577406 -820069.01088905334 0 -820069.01088905334 -24045038.044178009 0 0 0 0 9057.8124751494033 346742.35951877758 0 346742.35951877758 -249234.93207348278 0 0 0 0 -32206302.14478948 -153241.44097518921 0 -153241.44097518921 2758712.4408721924 0 0 0 0 2228746.1924156547 1574796.4972724915 0 1574796.4972724915 -25731220.087671518 0 0 0 0 -199649.4807497485 227660.05306168273 0 227660.05306168273 131288.89537836611 0 0 0 0 -1118904.9222987238 572097.63078212738 0 572097.63078212738 -13340623.474071503 0 0 0 0 -7165158.7479522228 -639988.71319389343 0 -639988.71319389343 4866994.0944576263 0 0 0 0 3368522.6469449401 1461928.1589927673 0 1461928.1589927673 -8477799.6253433228 0 0 0 0 397720.44036585093 4346038.9046134949 0 4346038.9046134949 -6215190.6761932373 0 0 0 0 471669.83031932265 5700346.5928459167 0 5700346.5928459167 -21931875.920749664 0 0 0 0 -1720531.4372748435 2695971.1853218079 0 2695971.1853218079 -24634661.454998016 0 0 0 0 -115340.07026396343 127771.2385375537 0 127771.2385375537 88630.602377131581 0 0 0 0 -3099963.2807486951 3616893.5898313522 0 3616893.5898313522 -608609.24168777466 0 0 0 0 -399539.57678818703 7409041.4178695679 0 7409041.4178695679 3618957.8355007172 0 0 0 0 -2144845.1824663877 -3240603.0022583008 0 -3240603.0022583008 481958.54220962524 0 0 0 0 12467519.345499873 1244440.5671424866 0 1244440.5671424866 -22269845.049953461 0 0 0 0 -1762320.3505213857 -42302.839199066162 0 -42302.839199066162 -7651419.5733337402 0 0 0 0 9111456.8479056358 1558785.3166046143 0 1558785.3166046143 -7703700.5347976685 0 0 0 0 1718147.3894470846 -6841546.418888092 0 -6841546.418888092 -21911250.669460297 0 0 0 0 -409417.31530584954 1903461.2658367157 0 1903461.2658367157 -12987833.15145874 0 0 0 0 104790.61212546786 305371.05763261206 0 305371.05763261206 -107436.54981089337 0 0 0 0 -8664183.5634104908 -1210890.8333930969 0 -1210890.8333930969 -18175421.693264008 0 0 0 0 -8225310.2760426104 -23383685.922264099 0 -23383685.922264099 -35885633.931324005 0 0 0 0 -5359304.3890885115 -1596563.0615119934 0 -1596563.0615119934 -9451305.7919425964 0 0 0 0 46276.84931925495 171504.7923551444 0 171504.7923551444 -60676.64159292914 0 0 0 0 3147008.5379434526 1752986.8185653687 0 1752986.8185653687 -33888160.321006775 0 0 0 0 -12944480.085921764 12717807.042182922 0 12717807.042182922 -8483421.3095248099 0 0 0 0 9630696.9273020029 26890875.191509247 0 26890875.191509247 -72791673.552085876 0 0 0 0 -19410822.361267447 3636042.9818916321 0 3636042.9818916321 -10889992.535125732 0 0 0 0 -26079598.214717388 -36981097.036693573 0 -36981097.036693573 -65252140.596855164 0 0 0 0 -24056664.090111971 -34728710.45236969 0 -34728710.45236969 -51186768.981502533 0 0 0 0 -6661206.7811887562 -24999708.830024719 0 -24999708.830024719 -60931092.745422363 0 0 0 0 -19065346.980605468 -31179735.043656826 0 -31179735.043656826 -48781336.353900909 0 0 0 0 -7636741.1184530258 -27500944.816238403 0 -27500944.816238403 -54680142.410667419 0 0 0 0 -23863729.109559618 -18848328.197159767 0 -18848328.197159767 -48185048.818748474 0 0 0 0 5631855.208361268 -16131292.877857208 0 -16131292.877857208 -49186573.200401306 0 0 0 0 -2003292.5961972475 -9246607.904668808 0 -9246607.904668808 -40125650.771659851 0 0 0 0 -18520295.04790768 -17624683.221450806 0 -17624683.221450806 -34868041.946105957 0 0 0 0 -6610778.7133667469 -22175559.096172333 0 -22175559.096172333 -79175895.550960541 0 0 0 0 -5938334.6259829998 -9757679.2244796753 0 -9757679.2244796753 -48943574.465875626 0 0 0 0 1299143.5906479359 -21749160.595155716 0 -21749160.595155716 -29130332.161979675 0 0 0 0 -390665.1652161628 -586273.21921634674 0 -586273.21921634674 -27518576.56817627 0 0 0 0 2186878.4840893745 -31330452.158210754 0 -31330452.158210754 -61999468.302146912 0 0 0 0 2039662.5928697586 -31588241.368524551 0 -31588241.368524551 -62386817.238670349 0 0 0 0 2636954.1281812191 -26898467.791622162 0 -26898467.791622162 -32962755.847528458 0 0 0 0 -9501163.3075113297 -18290109.250593185 0 -18290109.250593185 -37462841.983390808 0 0 0 0 -36309282.549686253 -55458282.805388927 0 -55458282.805388927 -45962252.130912781 0 0 0 0 10446731.433754921 -56499347.823204041 0 -56499347.823204041 -80068926.944853783 0 0 0 0 7268527.0139417648 -44840174.926055908 0 -44840174.926055908 -43568248.259893417 0 0 0 0 -13448915.125880957 -11900869.576393127 0 -11900869.576393127 -23474681.70507431 0 0 0 0 703587.37024831772 -37186162.332248688 0 -37186162.332248688 -52843324.492900848 0 0 0 0 30239015.459996462 -37505545.913642883 0 -37505545.913642883 -54142027.483428955 0 0 0 0 163294.73217711155 57664.06275774911 0 57664.06275774911 -422487.86122033373 0 0 0 0 7653719.0038305521 362268.15969467163 0 362268.15969467163 1224220.5394210815 0 0 0 0 -9569383.5377492607 -24243665.615767479 0 -24243665.615767479 -40274516.802757263 0 0 0 0 -11665740.66972208 -22370750.121772766 0 -22370750.121772766 -41125710.594039917 0 0 0 0 3323063.4054467678 -40008456.920677185 0 -40008456.920677185 -70579073.186172485 0 0 0 0 5754126.1397557259 -3486605.6135520935 0 -3486605.6135520935 -2605554.6696815491 0 0 0 0 7090495.0846135616 20293729.659721375 0 20293729.659721375 -10484392.737043381 0 0 0 0 -5428098.1094138622 -5177969.7568778992 0 -5177969.7568778992 2919550.2206726074 0 0 0 0 100169.68043774401 13090.969047043473 0 13090.969047043473 -193974.71536179632 0 0 0 0 -37604764.57535696 -68551989.21118927 0 -68551989.21118927 -107707890.26755524 0 0 0 0 -18005762.822015882 -17914848.588108063 0 -17914848.588108063 -113965301.7459774 0 0 0 0 -21293785.272968769 -20495871.881839752 0 -20495871.881839752 -67394772.280426025 0 0 0 0 -42826544.415450811 -16175344.077430725 0 -16175344.077430725 -60625298.135803223 0 0 0 0 -1203227.6023352146 -28150154.444915771 0 -28150154.444915771 -64584469.731214523 0 0 0 0 -37371846.094371751 -42611869.227655828 0 -42611869.227655828 -56649060.053863525 0 0 0 0 -2303741.1103188992 -34075636.602287292 0 -34075636.602287292 -95769579.3931427 0 0 0 0 -2322357.2179127932 -24111072.917562962 0 -24111072.917562962 -67705040.224464417 0 0 0 0 1440322.4349506795 -11274082.407171726 0 -11274082.407171726 -54823584.476196289 0 0 0 0 -22474694.3013165 -18985350.763053894 0 -18985350.763053894 -50655445.816699982 0 0 0 0 -15606258.109053731 -27986616.809211731 0 -27986616.809211731 -61674743.474704981 0 0 0 0 7295460.3813757896 -19893657.224657059 0 -19893657.224657059 -51555220.219262123 0 0 0 0 12998731.537653208 3277033.5234222412 0 3277033.5234222412 -35296258.025699615 0 0 0 0 6600502.2326880693 -13580810.770774841 0 -13580810.770774841 -54180694.452831268 0 0 0 0 5468325.5956061035 -4329032.2469319105 0 -4329032.2469319105 -31611413.38577652 0 0 0 0 7599199.5220401287 -6705243.4729766846 0 -6705243.4729766846 -39426304.279830933 0 0 0 0 5476447.4358522892 -4161436.8095970154 0 -4161436.8095970154 -31623741.335464478 0 0 0 0 2157447.363658905 -12749846.430429459 0 -12749846.430429459 -32174651.21497345 0 0 0 0 -880597.39310646057 -12084355.336961746 0 -12084355.336961746 -25239713.588226318 0 0 0 0 13243653.21515888 -10710239.360164165 0 -10710239.360164165 -55828662.558109283 0 0 0 0 11089439.103080034 -3101745.7235088348 0 -3101745.7235088348 -33572989.346946716 0 0 0 0 7139383.9622163773 -6511945.827009201 0 -6511945.827009201 -36491438.316427231 0 0 0 0 5314772.4404361248 -637076.29067611694 0 -637076.29067611694 -16478200.344711304 0 0 0 0 11484609.08144784 -3221018.011007309 0 -3221018.011007309 -33538833.689308167 0 0 0 0 7446512.3320670128 -4087246.0453033447 0 -4087246.0453033447 -19917715.026771545 0 0 0 0 -645005.78294409392 -80096.26490534842 0 -80096.26490534842 -50188.147428409196 0 0 0 0 -25997636.04537487 -24084264.224339485 0 -24084264.224339485 5704290.514667511 0 0 0 0 -250099.21833323734 22319.086161784828 0 22319.086161784828 2948.8448323579505 0 0 0 0 47821776.510528803 2088204.6850566864 0 2088204.6850566864 -56297193.00302887 0 0 0 0 12869647.527070999 -15772863.132368088 0 -15772863.132368088 -30027892.508125305 0 0 0 0 -5632146.4190411568 22374900.286895752 0 22374900.286895752 -79586297.226039886 0 0 0 0 -10897998.019101858 4768140.2694282532 0 4768140.2694282532 -40062092.600769043 0 0 0 0 18198945.56837225 6328594.2808017731 0 6328594.2808017731 -35516401.494361877 0 0 0 0 -231312513.45376587 -3566024.8435211182 0 -3566024.8435211182 -30031625.589050293 0 0 0 0 -973650.57645827625 -216229.47644100711 0 -216229.47644100711 -99659.263840217143 0 0 0 0 68065366.167387962 -34259499.625152588 0 -34259499.625152588 -26329360.700760841 0 0 0 0 17159823.007346265 -33223247.334526122 0 -33223247.334526122 -114124385.68098831 0 0 0 0 -73951293.851708174 -63684624.173650742 0 -63684624.173650742 -50620444.475227356 0 0 0 0 398400.68569060054 200687.19241516269 0 200687.19241516269 -335434.41909811273 0 0 0 0 -1234964.572760582 -12678180.518793106 0 -12678180.518793106 -23270009.913208008 0 0 0 0 -12946177.181507587 -26682176.287359238 0 -26682176.287359238 -36887757.501819611 0 0 0 0 1291657.5202660344 1058408.7745612487 0 1058408.7745612487 -777303.48486752063 0 0 0 0 -19068398.035980701 -14957969.012329102 0 -14957969.012329102 -17321919.711929321 0 0 0 0 -12328222.316200256 -17628079.087589622 0 -17628079.087589622 -16799514.737426758 0 0 0 0 -4422405.5047719479 -7366394.1494979858 0 -7366394.1494979858 49283259.301441193 0 0 0 0 1377180.5343565941 -10811776.147039413 0 -10811776.147039413 -529510.13140106201 0 0 0 0 46677560.057756007 -8853402.6551835537 0 -8853402.6551835537 -53469020.463111877 0 0 0 0 -35888031.311088562 -125390869.27434921 0 -125390869.27434921 -108251952.13866615 0 0 0 0 77345227.96036005 2101647.2738876343 0 2101647.2738876343 -221984000.27200317 0 0 0 0 -24423955.727692604 38497766.005525589 0 38497766.005525589 -58644131.214122772 0 0 0 0 -1661034.2665874064 -39558462.299608111 0 -39558462.299608111 -22243867.142877579 0 0 0 0 -36810435.771368027 -25877053.701482773 0 -25877053.701482773 -4209373.3808517456 0 0 0 0 -10235846.272587776 32095293.249560356 0 32095293.249560356 31672257.907541335 0 0 0 0 15516707.809012353 174973031.31426859 0 174973031.31426859 108798832.70659637 0 0 0 0 2725362.8855933342 3314125.6846312229 0 3314125.6846312229 -11196769.967409322 0 0 0 0 184833937.54622269 -24306980.778651953 0 -24306980.778651953 -224314170.68245697 0 0 0 0 -280310679.95461655 28576232.018997192 0 28576232.018997192 176239373.92796516 0 0 0 0 -11734200.791471267 -12933688.033755653 0 -12933688.033755653 -927397.67454719543 0 0 0 0 171010227.39014816 150496825.27609253 0 150496825.27609253 -26061469.496368408 0 0 0 0 12517484.172535896 20341934.478034973 0 20341934.478034973 26155190.182062149 0 0 0 0 3114753.1583407507 2632703.8897683816 0 2632703.8897683816 -11589827.19446215 0 0 0 0 47685613.141640663 -43069773.190814972 0 -43069773.190814972 -74724700.703193665 0 0 0 0 -55978389.552713394 -87507074.987205505 0 -87507074.987205505 -68915893.075481415 0 0 0 0 -64393364.005189419 -64324726.562982559 0 -64324726.562982559 -87509124.020523071 0 0 0 0 -76756262.896733284 -94381749.526295662 0 -94381749.526295662 -56652120.149589539 0 0 0 0 -11295916.608016014 -33486711.153114319 0 -33486711.153114319 -99652565.47817421 0 0 0 0 -93493695.169911861 -64666964.62563324 0 -64666964.62563324 -50138482.471862793 0 0 0 0 15963876.791242599 -9234009.1160812378 0 -9234009.1160812378 -93216119.394956589 0 0 0 0 34401931.498721123 -41051377.383852005 0 -41051377.383852005 -42299307.361778259 0 0 0 0 130101578.89665794 135297023.51599503 0 135297023.51599503 -187089303.18040466 0 0 0 0 8310667.6014165878 268239387.27513123 0 268239387.27513123 -66681778.094818115 0 0 0 0 223200384.30542517 100829863.95702744 0 100829863.95702744 -108130794.6375885 0 0 0 0 189025914.5326643 -13223136.576530457 0 -13223136.576530457 -81887798.667282104 0 0 0 0 -352986765.36150932 -44362603.887863159 0 -44362603.887863159 7923722.310333252 0 0 0 0 -590379.2166236192 -95859.821183582768 0 -95859.821183582768 -40154.253391338512 0 0 0 0 -74239625.133433104 -81348586.157375336 0 -81348586.157375336 -115729507.23713684 0 0 0 0 -110945404.15033293 -120567180.4329071 0 -120567180.4329071 -91375035.590690613 0 0 0 0 -305948708.83766365 73802902.917190552 0 73802902.917190552 36878743.843154907 0 0 0 0 51468.480245496146 -355612.55089941528 0 -355612.55089941528 -796736.36571629345 0 0 0 0 -103321934.98167706 -102807274.02589417 0 -102807274.02589417 -55382120.719783783 0 0 0 0 -8413034.6071362495 26614843.956863403 0 26614843.956863403 -22605588.192469835 0 0 0 0 29001657.689257145 35471816.967788696 0 35471816.967788696 -66133802.639846802 0 0 0 0 -86641507.975215912 43459805.378555298 0 43459805.378555298 -23059922.583991766 0 0 0 0 9544191.6608023643 144408324.38707352 0 144408324.38707352 -100891116.9434967 0 0 0 0 96769719.08365345 23359326.350852966 0 23359326.350852966 -69404670.258117676 0 0 0 0 -5159682.9269266129 9231666.9838447571 0 9231666.9838447571 -18487945.316574097 0 0 0 0 5108908.8585739136 10388559.882080078 0 10388559.882080078 -28802649.819328308 0 0 0 0 -1436227.0429756641 23757538.09561348 0 23757538.09561348 -30187980.589653015 0 0 0 0 6519213.7503103018 8104162.7628908157 0 8104162.7628908157 -25731171.092712402 0 0 0 0 -3860143.0513243675 -1483088.8417282104 0 -1483088.8417282104 -6660279.1745014191 0 0 0 0 -29550633.696743727 10765449.478366852 0 10765449.478366852 -10318396.496154785 0 0 0 0 294287.51677187858 -1232353.8484865846 0 -1232353.8484865846 -2530907.6376445554 0 0 0 0 -2183360.8389839055 -3691941.8337507155 0 -3691941.8337507155 -2471799.3799112886 0 0 0 0 -3202652.9266802669 -4378158.1315345764 0 -4378158.1315345764 -1165629.5382146835 0 0 0 0 -1263914.0928895473 -5929010.8502492905 0 -5929010.8502492905 -447550.53927612305 0 0 0 0 -20151.2907025069 -5964090.2091135979 0 -5964090.2091135979 -7903912.5489578247 0 0 0 0 -1120292.0239915848 -8924739.2611999512 0 -8924739.2611999512 -5572923.6026916504 0 0 0 0 -2982758.2326993113 -4986144.6403097147 0 -4986144.6403097147 -3232214.0578726679 0 0 0 0 149498.04554986954 -11729158.207427979 0 -11729158.207427979 -5068818.0729260445 0 0 0 0 15842671.966450214 -15350235.418006897 0 -15350235.418006897 -21857580.802642822 0 0 0 0 -564263.32862329483 -13418516.239341736 0 -13418516.239341736 -450240.86402893066 0 0 0 0 5649862.7879314423 992509.02386474609 0 992509.02386474609 -23556234.071838379 0 0 0 0 4350585.8258395195 3670052.725479126 0 3670052.725479126 -28487572.842571259 0 0 0 0 -432.48387145996094 -311528.43454360962 0 -311528.43454360962 -3765381.3904495239 0 0 0 0 -18391834.476650238 -77651962.91865921 0 -77651962.91865921 -82024099.735115051 0 0 0 0 21286667.628927231 -30943031.2897892 0 -30943031.2897892 -34745585.73078537 0 0 0 0 -94773794.621812344 -30013693.109643936 0 -30013693.109643936 7374450.025302887 0 0 0 0 -936463.4614234285 -186002.76196911186 0 -186002.76196911186 920692.4846150279 0 0 0 0 -394817.21241061343 -4477306.6570089813 0 -4477306.6570089813 706210.90982022509 0 0 0 0 -15668142.650083542 -17985438.916093826 0 -17985438.916093826 -8815888.7166938782 0 0 0 0 -25050065.129825592 -24747570.031179428 0 -24747570.031179428 -3555838.0032653809 0 0 0 0 -6587014.5338773727 -33075269.289455414 0 -33075269.289455414 -33901671.460396767 0 0 0 0 -1122316.8448309898 -12311066.870075226 0 -12311066.870075226 -3614365.7306799367 0 0 0 0 -7109484.7568683624 -22126102.11662674 0 -22126102.11662674 -7808690.6049966812 0 0 0 0 862500.25730719173 -7118644.4114044132 0 -7118644.4114044132 -413823.75800927728 0 0 0 0 -1360070.5383568406 -8466630.9672136307 0 -8466630.9672136307 -6531047.4898681641 0 0 0 0 2350301.6127688885 -2934477.4788908958 0 -2934477.4788908958 -9814236.9471931458 0 0 0 0 -8508327.3536175042 -9201366.0108547211 0 -9201366.0108547211 -11169538.230308533 0 0 0 0 -34054127.178668976 7523958.6143569946 0 7523958.6143569946 -14513356.846679688 0 0 0 0 4775530.1007671356 -11247926.274707794 0 -11247926.274707794 -28756631.430454254 0 0 0 0 921735.35556345177 379462.82861133013 0 379462.82861133013 -1798266.1604733011 0 0 0 0 -7067384.080280304 1749532.8084278107 0 1749532.8084278107 -20221073.184066772 0 0 0 0 -2880197.6978673935 -5405460.9120597839 0 -5405460.9120597839 -15231455.238845825 0 0 0 0 -3780311.3836988211 -298621.74240016937 0 -298621.74240016937 -19328744.368049622 0 0 0 0 -12428595.119196892 -884709.90133666992 0 -884709.90133666992 -17224064.200344086 0 0 0 0 4523210.2113437653 -10980516.194192886 0 -10980516.194192886 -5928595.5587501526 0 0 0 0 264061.37195408111 -99357.979999674484 0 -99357.979999674484 -608164.09588966612 0 0 0 0 -4479614.8985147476 -9092829.9154262543 0 -9092829.9154262543 -22732073.487758636 0 0 0 0 2763814.5270807482 -2205580.4498851299 0 -2205580.4498851299 -10737399.327577222 0 0 0 0 6562152.1577806473 -2056281.2866520882 0 -2056281.2866520882 -13406205.883388519 0 0 0 0 -539299.93112562597 -35135.717680931091 0 -35135.717680931091 -10803515.883270264 0 0 0 0 -69239.653464317322 -6358206.9525241852 0 -6358206.9525241852 -17488154.019264221 0 0 0 0 14482.202192977071 -1095960.2766723633 0 -1095960.2766723633 -2349187.1941299438 0 0 0 0 96706.618602561983 -1997406.8947211476 0 -1997406.8947211476 -5099685.0734886453 0 0 0 0 1379261.0566283464 -1166889.8252410889 0 -1166889.8252410889 -2463545.8811340332 0 0 0 0 1183667.4850157816 -3129465.8993124091 0 -3129465.8993124091 -5632935.1066973563 0 0 0 0 -1672451.3940653801 -7510572.6070632935 0 -7510572.6070632935 -9941393.6989822388 0 0 0 0 -492336.14346847194 -3236534.5460432814 0 -3236534.5460432814 -4008215.2221124358 0 0 0 0 614531.26024239929 -1094403.739657837 0 -1094403.739657837 -1158726.204173699 0 0 0 0 20081205.96129179 -11160250.792171478 0 -11160250.792171478 -11880491.711730957 0 0 0 0 -3327618.7495191097 -1613685.6708717346 0 -1613685.6708717346 -4298805.8151473999 0 0 0 0 -1652855.7352981567 -6854730.0090255737 0 -6854730.0090255737 -7439969.6713256836 0 0 0 0 -1845892.8289794922 -10950929.710876465 0 -10950929.710876465 -16545986.333709717 0 0 0 0 -4050216.5152098238 -5562778.8696594238 0 -5562778.8696594238 -9421605.0803260803 0 0 0 0 -2323515.3992008418 -10180476.450561523 0 -10180476.450561523 -14356553.138137817 0 0 0 0 -5472725.7773880959 -3815244.584022522 0 -3815244.584022522 -22701125.792888641 0 0 0 0 -49644.229767737736 -117583.98625496496 0 -117583.98625496496 -909868.67055342312 0 0 0 0 994214.93555133312 -273862.00289602764 0 -273862.00289602764 -4181346.023321094 0 0 0 0 4878364.3555526733 -7651916.4761238098 0 -7651916.4761238098 -37797235.398059845 0 0 0 0 -7531954.1391284466 -5341203.3890075684 0 -5341203.3890075684 -3763290.720035553 0 0 0 0 -12826899.913998242 -6562194.7248198986 0 -6562194.7248198986 -12586041.630653381 0 0 0 0 -7313375.7354816794 -10520068.209327698 0 -10520068.209327698 -12945196.785842896 0 0 0 0 44784586.470335126 -44777505.688947678 0 -44777505.688947678 -18435349.109527588 0 0 0 0 -8985861.2648963928 3453577.2369689941 0 3453577.2369689941 -16099325.506607056 0 0 0 0 141704.79913465411 -328934.14440257475 0 -328934.14440257475 -463718.88257562323 0 0 0 0 -485558.0518510564 -3647052.8602591641 0 -3647052.8602591641 -4688008.6823652023 0 0 0 0 178645.22138787591 -138830.30142169818 0 -138830.30142169818 -3100669.5031078001 0 0 0 0 212197.85273969173 364686.03256416321 0 364686.03256416321 -4504465.8420333862 0 0 0 0 2592648.3160611582 -3844144.4038102287 0 -3844144.4038102287 -7141480.5335605927 0 0 0 0 695189.67088923755 -2457702.0270366734 0 -2457702.0270366734 -5697488.9793390352 0 0 0 0 645091.20532098413 -1133299.7892665863 0 -1133299.7892665863 -3424278.3354415894 0 0 0 0 -2129357.0542354584 -8285711.540309906 0 -8285711.540309906 -17261847.592628479 0 0 0 0 401810.83162295818 -763665.61234283447 0 -763665.61234283447 -3720469.0399856567 0 0 0 0 205718.49782033302 -510033.92517383024 0 -510033.92517383024 -1640714.30357874 0 0 0 0 384511.19763308764 -779389.52857923508 0 -779389.52857923508 -3267147.7637557983 0 0 0 0 199100.50686454773 -540775.96832275391 0 -540775.96832275391 -4358452.3943157196 0 0 0 0 639440.1555120945 -690417.46620941162 0 -690417.46620941162 -729089.78486633301 0 0 0 0 -91331.888459205627 -510281.81610107422 0 -510281.81610107422 -4355628.2705764771 0 0 0 0 -16277.98726189509 -676487.10297495127 0 -676487.10297495127 -3112257.8793640137 0 0 0 0 -1068676.695662766 -4620657.1563952975 0 -4620657.1563952975 -5742428.7667958345 0 0 0 0 57549.270847579814 -460506.69273751788 0 -460506.69273751788 -6115835.7455822853 0 0 0 0 -21187.071322951932 -23606.444204453379 0 -23606.444204453379 62106.029676737264 0 0 0 0 -4517378.2292521 -50905276.894153595 0 -50905276.894153595 -31142993.913000107 0 0 0 0 507436.43006617913 -2262813.0982276611 0 -2262813.0982276611 -4149376.0901312456 0 0 0 0 737957.75360971689 -529718.4631023407 0 -529718.4631023407 -1372305.6500396729 0 0 0 0 -83911980.391070366 11642979.583129883 0 11642979.583129883 70167036.9246521 0 0 0 0 157904176.15457916 92761220.628395081 0 92761220.628395081 40342292.547866821 0 0 0 0 28566.97667142516 -75107.4321049992 0 -75107.4321049992 -261399.06040803157 0 0 0 0 -2154626.9071989059 -9696441.8539733887 0 -9696441.8539733887 629030.39694976807 0 0 0 0 -564500.31597470643 -3232586.5620462392 0 -3232586.5620462392 -3363456.9811279997 0 0 0 0 -941310.14551968488 -812536.7626931835 0 -812536.7626931835 1383625.1725695543 0 0 0 0 7735887.4519922733 -14467451.832290649 0 -14467451.832290649 -31301398.517356873 0 0 0 0 -9574049.4215831757 -33914919.552856445 0 -33914919.552856445 -41072443.680183411 0 0 0 0 3491854.1191358566 -22947509.055618286 0 -22947509.055618286 -32175835.971374512 0 0 0 0 -51865457.575579643 -48231808.728897095 0 -48231808.728897095 -22561728.60131073 0 0 0 0 415811.40014314651 -2481600.9774894714 0 -2481600.9774894714 -1721143.0527381897 0 0 0 0 3624009.8976475 -494546.42907333374 0 -494546.42907333374 7670552.3211288452 0 0 0 0 -660013.71014308929 -2741103.5813751221 0 -2741103.5813751221 921498.20358276367 0 0 0 0 296973.25664880511 -1051677.5015868098 0 -1051677.5015868098 -7480344.8825634737 0 0 0 0 -3242930.7305134675 -2871809.1031936258 0 -2871809.1031936258 799342.31017520279 0 0 0 0 -2790966.0274248123 -159173 0 -159173 -1667938.1073684692 0 0 0 0 -136112.16113305092 -2662072.0048494339 0 -2662072.0048494339 -1373888.8739547729 0 0 0 0 -787621.25932415028 -3528365.4270883538 0 -3528365.4270883538 -7486727.2071456136 0 0 0 0 627508.74650681927 -141961.28335193731 0 -141961.28335193731 -2657542.7255889727 0 0 0 0 917473.25614435598 -2301422.7397262519 0 -2301422.7397262519 -2996590.8208298944 0 0 0 0 8658188.522867918 7988453.5605239868 0 7988453.5605239868 2427047.4745254517 0 0 0 0 -13932573.475570917 -13558174.748661041 0 -13558174.748661041 37330797.956676483 0 0 0 0 2853717.4149696827 -684854.43956565857 0 -684854.43956565857 -12375475.86239624 0 0 0 0 6414264.9034404755 -40295360.200065613 0 -40295360.200065613 4307406.2041015625 0 0 0 0 22242789.393669605 -33246412.115158081 0 -33246412.115158081 -35245276.25994873 0 0 0 0 16876419.403446198 581947.42222595215 0 581947.42222595215 -58589306.675960541 0 0 0 0 3863796.3066558838 -6993350.3298416138 0 -6993350.3298416138 -7277443.0098590851 0 0 0 0 -15988974.832526207 -9127780.4831542969 0 -9127780.4831542969 -27039596.675483704 0 0 0 0 -9198914.5264153481 21036291.904205322 0 21036291.904205322 -36846984.054626465 0 0 0 0 -1964422.2391695976 -15131745.009559631 0 -15131745.009559631 -20398952.045654297 0 0 0 0 6376274.7242984772 -2177967.0831871033 0 -2177967.0831871033 -25228000.363250732 0 0 0 0 4686042.8702483177 -10014771.586738586 0 -10014771.586738586 -30131711.39641571 0 0 0 0 -9903886.4749126434 -13819811.327968597 0 -13819811.327968597 -30813096.662939072 0 0 0 0 -3859496.559265852 -11734278.120138168 0 -11734278.120138168 -38324420.731468201 0 0 0 0 -15454184.261137009 -12070065.085590363 0 -12070065.085590363 -38333119.305538654 0 0 0 0 -7981492.3622331619 9865452.0662631989 0 9865452.0662631989 -16324117.634620667 0 0 0 0 -26241834.377606869 -6950134.8985290527 0 -6950134.8985290527 -40031421.461261749 0 0 0 0 -32850744.690609455 -13887650.799299002 0 -13887650.799299002 -31932993.278373718 0 0 0 0 5490207.8620028496 10670085.424308777 0 10670085.424308777 -167407415.29179382 0 0 0 0 -14013391.838971615 13661713.95672226 0 13661713.95672226 -87963825.061462402 0 0 0 0 -15847774.411036253 -21840016.569972992 0 -21840016.569972992 -67303388.949615479 0 0 0 0 -11184430.878267765 2674295.2612104416 0 2674295.2612104416 -60880825.325843811 0 0 0 0 -1229685.7595770359 -619071.21569824219 0 -619071.21569824219 -65494129.090522766 0 0 0 0 -2764916.5129048824 -13843597.74196434 0 -13843597.74196434 -60848111.435516357 0 0 0 0 133482.73939275742 4691410.8451766968 0 4691410.8451766968 -51477682.526727676 0 0 0 0 5092470.8072589636 -6255512.2240018845 0 -6255512.2240018845 -48708640.270065308 0 0 0 0 19165227.540038586 -7275712.0038108826 0 -7275712.0038108826 -53066290.35477829 0 0 0 0 18806683.886843681 6004036.0815200806 0 6004036.0815200806 -49221550.997764587 0 0 0 0 8103487.4989538193 3974170.9002685547 0 3974170.9002685547 -49581263.127296448 0 0 0 0 6693364.5252025723 7982724.1609287262 0 7982724.1609287262 -33943184.001014709 0 0 0 0 11584541.02431488 -1018590.3759727478 0 -1018590.3759727478 -45037879.556869507 0 0 0 0 -5041739.9195606485 -18948066.407627821 0 -18948066.407627821 -41997819.629730225 0 0 0 0 16366541.23303318 -8905316.7053604126 0 -8905316.7053604126 -43240412.318731308 0 0 0 0 -5508141.5592069626 180197.50994873047 0 180197.50994873047 -28611146.147201538 0 0 0 0 6234270.8884103298 -1389167.390045166 0 -1389167.390045166 -35523556.403182983 0 0 0 0 8634514.7808208466 -2685961.3541927338 0 -2685961.3541927338 -36112907.042633057 0 0 0 0 -3588442.5731425285 -27774640.762767792 0 -27774640.762767792 -15930042.990509033 0 0 0 0 -32047901.736211777 -14066261.102272034 0 -14066261.102272034 49935.126871109009 0 0 0 0 75424706.561980724 -6164284.0080909729 0 -6164284.0080909729 -48870670.575042725 0 0 0 0 13209092.562087536 -17428327.923923492 0 -17428327.923923492 3978100.4505805969 0 0 0 0 -853832.00218118331 -1007780.6186097292 0 -1007780.6186097292 844220.92754206434 0 0 0 0 40149191.760244608 55321539.316034317 0 55321539.316034317 14473376.768341064 0 0 0 0 -12256262.087911129 2718714.9653625488 0 2718714.9653625488 -27400281.531341553 0 0 0 0 -14894328.310868263 -13101189.235809326 0 -13101189.235809326 1254432.9370956421 0 0 0 0 -16769547.004815102 -24554557.807411194 0 -24554557.807411194 -32037207.221385956 0 0 0 0 -4989472.9327833652 -19641122.026565552 0 -19641122.026565552 -33006143.577507019 0 0 0 0 -4497119.9676139355 -7485252.8539390564 0 -7485252.8539390564 -36603895.847335815 0 0 0 0 -2810840.3061542511 -8856450.0679740906 0 -8856450.0679740906 -42871026.729530334 0 0 0 0 4993538.3822860718 2223472.0117092133 0 2223472.0117092133 -27575660.697517395 0 0 0 0 62978.69755081887 20015081.971946716 0 20015081.971946716 -40174777.623340607 0 0 0 0 22005517.688272402 6298011.4253616333 0 6298011.4253616333 -117805975.02442932 0 0 0 0 -10620.902555842265 -278532.42005053023 0 -278532.42005053023 -523800.96849630773 0 0 0 0 54382295.681844443 63144350.204662323 0 63144350.204662323 -42480615.349767685 0 0 0 0 -169574717.46600413 -79774204.227184296 0 -79774204.227184296 31701570.44203949 0 0 0 0 -34972919.364139676 -7834862.7070217133 0 -7834862.7070217133 -32857192.224998474 0 0 0 0 13585954.371758081 -2890563.0913505554 0 -2890563.0913505554 7592691.9209842682 0 0 0 0 109116009.75207061 23631060.36298275 0 23631060.36298275 -51603523.151153564 0 0 0 0 -6366401.6467856169 -23948704.160766602 0 -23948704.160766602 -11595401.804865837 0 0 0 0 -46294.725445372649 -871587.77385993116 0 -871587.77385993116 -1545607.1942375079 0 0 0 0 -47110760.680118814 -42588337.244519711 0 -42588337.244519711 -4596933.7993621826 0 0 0 0 74486886.12655133 -28221018.430328369 0 -28221018.430328369 -35029330.688308716 0 0 0 0 31861.334132813648 -2670378.107940339 0 -2670378.107940339 -2740080.3521907479 0 0 0 0 9049116.8979819417 -12334067.277275085 0 -12334067.277275085 -16660816.96295166 0 0 0 0 22443004.82065022 -22689457.967941284 0 -22689457.967941284 -12472467.499404907 0 0 0 0 18580511.628278412 -45235674.675239563 0 -45235674.675239563 1055836.4763641357 0 0 0 0 -29838028.978314526 -111178753.6725235 0 -111178753.6725235 -131978161.50914001 0 0 0 0 -2568200.7929576673 -16505961.405437469 0 -16505961.405437469 -32219114.500579834 0 0 0 0 11662401.089071438 11908139.679922581 0 11908139.679922581 -87331064.094947815 0 0 0 0 -173285478.28735179 -122199068.51698494 0 -122199068.51698494 -46710269.643062592 0 0 0 0 -624259.93013049581 -130431332.29600334 0 -130431332.29600334 -973236373.07616425 0 0 0 0 -164863186.94244024 -16722510.64316678 0 -16722510.64316678 -66250138.025848389 0 0 0 0 279413485.1280874 -656234915.22970963 0 -656234915.22970963 -2199401589.4524059 0 0 0 0 114208011.30286288 -99133036.56035614 0 -99133036.56035614 -806720496.89044571 0 0 0 0 -828553277.28738117 -1239144338.8283577 0 -1239144338.8283577 -1039934485.018528 0 0 0 0 -320916173.67324829 460689351.23354483 0 460689351.23354483 -504380720.2564621 0 0 0 0 -30619.406868769711 -575184.88087945292 0 -575184.88087945292 -2690075.2129562721 0 0 0 0 -106454801.68607676 -157175118.35309219 0 -157175118.35309219 -407570896.44199371 0 0 0 0 374606.54751893366 221893.89233088261 0 221893.89233088261 -6062037.4205953702 0 0 0 0 72277881.379319847 -57567863.094360352 0 -57567863.094360352 44267583.696243286 0 0 0 0 6373606.6210804582 6978379.0592269897 0 6978379.0592269897 -14545610.070195243 0 0 0 0 16733411.676742345 43799282.991352081 0 43799282.991352081 -560268881.65713501 0 0 0 0 -126688793.83468223 -17382770.848022461 0 -17382770.848022461 196237198.24255371 0 0 0 0 204521.03446523868 -198678.10631787777 0 -198678.10631787777 -1118416.0351999539 0 0 0 0 20830784.689914379 -39899747.420186996 0 -39899747.420186996 39081336.969985962 0 0 0 0 16741430.966332257 -78996963.154388428 0 -78996963.154388428 -71907593.771770477 0 0 0 0 1569984.7812399864 -5277880.8551940918 0 -5277880.8551940918 -1423663.4614562988 0 0 0 0 -38378.012142486754 -1739859.8982311413 0 -1739859.8982311413 -7271555.6107286308 0 0 0 0 46701563.302546501 34112490.460472107 0 34112490.460472107 23646406.0859375 0 0 0 0 -328663698.55854988 -12382864.204971313 0 -12382864.204971313 50528694.073554993 0 0 0 0 1169484.5937729091 -4117709.4247402418 0 -4117709.4247402418 -2016057.45390527 0 0 0 0 84069545.902326584 -144842893.31010818 0 -144842893.31010818 -85012794.167892456 0 0 0 0 84715769.596882224 -41013593.896558762 0 -41013593.896558762 -59283739.372268677 0 0 0 0 219564888.27119589 65135713.264038086 0 65135713.264038086 13804348.341644287 0 0 0 0 302693.02393395751 -215834.8983760085 0 -215834.8983760085 -530535.6440112479 0 0 0 0 4657480.6572465897 120731187.89416122 0 120731187.89416122 -67317823.439527512 0 0 0 0 21488927.680592418 -35704582.004217148 0 -35704582.004217148 -46559340.880691528 0 0 0 0 -187101.83041224562 909927.8324208986 0 909927.8324208986 -6953380.50756035 0 0 0 0 39405346.751972198 -9427892.603477478 0 -9427892.603477478 -16630695.614362039 0 0 0 0 6282300.0198972821 6511552.8315010071 0 6511552.8315010071 124623638.06411743 0 0 0 0 -73012307.739498556 -167526371.85779953 0 -167526371.85779953 21586847.263092041 0 0 0 0 -210274664.14090741 -30661576.123363495 0 -30661576.123363495 150558275.95865059 0 0 0 0 119710568.35074067 46355111.811382294 0 46355111.811382294 -33726721.963813782 0 0 0 0 -1628409.0709045483 1264970.6424831748 0 1264970.6424831748 -4099589.762071725 0 0 0 0 73035927.898834839 224842681.69687462 0 224842681.69687462 -548181879.78265381 0 0 0 0 25748169.104950584 -674592515.27269363 0 -674592515.27269363 -2203089721.9010468 0 0 0 0 129247240.24620911 -114639488.78979874 0 -114639488.78979874 -508999307.37231588 0 0 0 0 235567514.3135024 251903653.66233826 0 251903653.66233826 -2200509586.6970367 0 0 0 0 -77198293.071007118 758864703.55880356 0 758864703.55880356 -1463645061.574955 0 0 0 0 475892217.39061123 343274375.293293 0 343274375.293293 -2200341716.4905014 0 0 0 0 -574504213.72063923 452757066.28343201 0 452757066.28343201 -28486211.810428619 0 0 0 0 -1143620.2527553276 195955.36005399749 0 195955.36005399749 -2020572.1085829809 0 0 0 0 54312952.263095617 -83289977.554431915 0 -83289977.554431915 -274920500.73970413 0 0 0 0 8512922.3639974594 377927273.05965424 0 377927273.05965424 -740568697.10127258 0 0 0 0 -223273068.25770074 -87940553.431191444 0 -87940553.431191444 -11324272.831420898 0 0 0 0 -137320745.72861159 149590689.28786373 0 149590689.28786373 -52879446.722824097 0 0 0 0 -27847698.747864604 -51863524.208444595 0 -51863524.208444595 57463892.286132812 0 0 0 0 27947573.954690695 -12866691.419380188 0 -12866691.419380188 8474318.5291900635 0 0 0 0 11117599.262934923 -5809085.8156356812 0 -5809085.8156356812 -43400.942202448845 0 0 0 0 -71738.816834234865 -4916898.7716994099 0 -4916898.7716994099 -1427292.6717921314 0 0 0 0 42035298.507378638 -9265633.2170934677 0 -9265633.2170934677 -33506901.359725952 0 0 0 0 19155965.182597786 -80629508.651935577 0 -80629508.651935577 -62964966.380599976 0 0 0 0 -946695.70921520004 -4665994.6084104031 0 -4665994.6084104031 -1422399.3400895335 0 0 0 0 -284019303.96822357 100213709.01940918 0 100213709.01940918 -44284961.985801697 0 0 0 0 -30343173.165639877 -88518165.782989502 0 -88518165.782989502 -38746898.64025116 0 0 0 0 -99859195.648933649 20113599.35773468 0 20113599.35773468 113168378.77906799 0 0 0 0 23980781.111200795 16712570.738648035 0 16712570.738648035 29904456.710838318 0 0 0 0 -143049.36322863633 120232.25773227401 0 120232.25773227401 -258756.73354105651 0 0 0 0 -43008976.327797174 20506713.031768799 0 20506713.031768799 4857082.3857269287 0 0 0 0 -498.08130542314029 -482557.83694992634 0 -482557.83694992634 -786320.35492109507 0 0 0 0 -14352504.545962811 -7122119.1396903992 0 -7122119.1396903992 29231168.667022705 0 0 0 0 -6455102.2684363127 -179390178.45990562 0 -179390178.45990562 -14889837.758575439 0 0 0 0 -18998052.872315407 46650416.339782715 0 46650416.339782715 -22491945.492706299 0 0 0 0 -15936346.929744482 47702099.644790649 0 47702099.644790649 -70042805.816223145 0 0 0 0 34582525.166765362 52837018.115817785 0 52837018.115817785 -14041711.813148499 0 0 0 0 173245.24200127053 131131.34881311655 0 131131.34881311655 -1389257.1158942729 0 0 0 0 37446751.111175299 22687896.486061096 0 22687896.486061096 -16647472.76550293 0 0 0 0 11073665.860324502 2384060.4630775452 0 2384060.4630775452 -34143115.343597412 0 0 0 0 -44292246.779998183 -24067613.820008278 0 -24067613.820008278 -21596626.687423706 0 0 0 0 35567797.171580076 -8946357.001247406 0 -8946357.001247406 -34098006.256614685 0 0 0 0 -110046.38605597167 -266745.51235443167 0 -266745.51235443167 -246297.82630257308 0 0 0 0 -122809631.06146109 -71044165.126491547 0 -71044165.126491547 16110032.425567627 0 0 0 0 -24787877.546803474 -32256897.510074615 0 -32256897.510074615 87928.923446655273 0 0 0 0 -9146210.1683185101 -61021028.694984436 0 -61021028.694984436 -45735740.442070007 0 0 0 0 -6017182.1591221094 -20334424.904392242 0 -20334424.904392242 1513236.6802706718 0 0 0 0 527384.05455780029 -2674977.3356742859 0 -2674977.3356742859 -33546104.564812183 0 0 0 0 21479128.607762933 -27941480.342227936 0 -27941480.342227936 -18596639.531112671 0 0 0 0 -8571.4687828305177 -494347.86043553799 0 -494347.86043553799 -978049.7543380931 0 0 0 0 1082663.7442216198 -1142052.2068212703 0 -1142052.2068212703 -1124494.0843844116 0 0 0 0 62233663.349888802 14426684.14012146 0 14426684.14012146 -11541584.726743698 0 0 0 0 19968764.421872556 -65238258.646827698 0 -65238258.646827698 -49609136.140281677 0 0 0 0 2690125.0599839985 -5187728.2495269775 0 -5187728.2495269775 -2393087.9655151367 0 0 0 0 13570239.916754484 -17437444.293172836 0 -17437444.293172836 18913627.774147034 0 0 0 0 42026202.16966188 -31859703.915115356 0 -31859703.915115356 -16032514.219573975 0 0 0 0 707804.74200761539 103626.00274904072 0 103626.00274904072 -3536510.4453668296 0 0 0 0 43636547.892925501 112205984.40474796 0 112205984.40474796 -22764181.906448364 0 0 0 0 11189611.749269485 -27354599.506019592 0 -27354599.506019592 -2052994.5213470459 0 0 0 0 1145688.2037056696 -1438603.5894918889 0 -1438603.5894918889 -7694018.4730752185 0 0 0 0 62653048.911156416 -11761779.772117615 0 -11761779.772117615 -4459600.8444366455 0 0 0 0 -74182999.858059883 -76100476.307010651 0 -76100476.307010651 -89738794.744216919 0 0 0 0 5713438.7872076035 -3426272.5875015259 0 -3426272.5875015259 -23714310.508537292 0 0 0 0 -309958829.77206278 208606944.01594162 0 208606944.01594162 26655007.077301025 0 0 0 0 9469484.8174147606 16225639.258872986 0 16225639.258872986 -125032626.92750549 0 0 0 0 7132982.6406321526 3853873.4841156006 0 3853873.4841156006 -63828457.299263 0 0 0 0 19295901.810998917 -38064187.553657532 0 -38064187.553657532 -11561495.483764648 0 0 0 0 12829918.712313652 24436565.922790527 0 24436565.922790527 8680724.2510223389 0 0 0 0 -27877229.26071167 -36637423.435058594 0 -36637423.435058594 -53466547.700256348 0 0 0 0 2450958.7497000694 -7693211.9547271729 0 -7693211.9547271729 -13247440.528530121 0 0 0 0 1128481.3489069333 -1093528.3898277618 0 -1093528.3898277618 -3743901.4379217364 0 0 0 0 7366225.1658979654 19226176.388507843 0 19226176.388507843 -22551525.382553101 0 0 0 0 -32340723.935556769 -46810458.679603577 0 -46810458.679603577 -30060195.794509888 0 0 0 0 612192.97762274742 -4578256.0326461792 0 -4578256.0326461792 -13934470.753253937 0 0 0 0 -19944555.169428825 -7095395.6040344238 0 -7095395.6040344238 -19324882.231903076 0 0 0 0 -34262604.094555616 -25384407.035598755 0 -25384407.035598755 -9281965.0538787842 0 0 0 0 12690648.581710994 -15610658.119949341 0 -15610658.119949341 -38463088.12387085 0 0 0 0 9731266.2933063507 -19734314.044616699 0 -19734314.044616699 -15956616.094619751 0 0 0 0 69289631.279575825 4654925.9106292725 0 4654925.9106292725 -21034049.257937431 0 0 0 0 80730290.59732151 20308285.268779755 0 20308285.268779755 -26305882.864776611 0 0 0 0 49297076.75567925 19290774.771274567 0 19290774.771274567 -24741247.4243927 0 0 0 0 70835303.308569431 29947174.423858643 0 29947174.423858643 20443627.482208252 0 0 0 0 73475724.873428822 1853111.9843673706 0 1853111.9843673706 -8403196.1066207886 0 0 0 0 74636123.279019356 3487948.611076355 0 3487948.611076355 -31646434.436294556 0 0 0 0 58245817.670554638 -1418887.7271194458 0 -1418887.7271194458 -28161696.820554733 0 0 0 0 58381598.702341557 8488289.2418365479 0 8488289.2418365479 -3384381.1137542725 0 0 0 0 66182944.612388611 1731728.6243209839 0 1731728.6243209839 -25843990.048996925 0 0 0 0 34787280.866339207 -41098524.703666687 0 -41098524.703666687 8996566.8240661621 0 0 0 0 -4653594.2994447947 -19921946.470237732 0 -19921946.470237732 12557379.298660278 0 0 0 0 666365.1657358479 -279802.19349150732 0 -279802.19349150732 -1409778.7565152049 0 0 0 0 74098116.42579937 -7072888.8225708008 0 -7072888.8225708008 -21332135.923866272 0 0 0 0 77284880.684095383 -29417894.520767212 0 -29417894.520767212 16772249.353713989 0 0 0 0 -3818119.8001644611 -5780814.9517707825 0 -5780814.9517707825 527942.08043670654 0 0 0 0 -4818659.5025711674 -2806769.1608448029 0 -2806769.1608448029 -4445173.6192779541 0 0 0 0 -2078306.6489048004 726507.49987792969 0 726507.49987792969 18171289.610962868 0 0 0 0 1938394.3191864491 -8025950.5559310913 0 -8025950.5559310913 -5635967.2111282349 0 0 0 0 395557.28223099234 362469.54347931501 0 362469.54347931501 -366430.93885754049 0 0 0 0 -16669556.80472815 44413938.368153572 0 44413938.368153572 37402637.438835144 0 0 0 0 68130687.929746628 27313658.734470367 0 27313658.734470367 5745544.5402183533 0 0 0 0 50523761.747425795 45415467.978965759 0 45415467.978965759 62259598.253936768 0 0 0 0 716832.16483032703 5873385.4322357178 0 5873385.4322357178 -829521.68133544922 0 0 0 0 53366445.036098719 6027951.8701915741 0 6027951.8701915741 -11675345.502235413 0 0 0 0 5968001.089097023 60747.452136993408 0 60747.452136993408 3144119.8891410828 0 0 0 0 27372127.763360977 3390278.374080658 0 3390278.374080658 -2414022.2703323364 0 0 0 0 168397.42673622776 -2374703.768645531 0 -2374703.768645531 -7755780.5400969349 0 0 0 0 1732491.1523181819 1596842.1344103767 0 1596842.1344103767 -1699949.8714490384 0 0 0 0 6616779.2630958557 1115681.5509567261 0 1115681.5509567261 3600075.6095275879 0 0 0 0 17972683.94110322 4985627.8062744141 0 4985627.8062744141 -17405988.471870422 0 0 0 0 3391519.7752454281 -6520288.4973373413 0 -6520288.4973373413 -10811673.065414429 0 0 0 0 -4451937.5552845001 -649241.62528991699 0 -649241.62528991699 -2720395.1779785156 0 0 0 0 11108.210874923971 -179718.58090021461 0 -179718.58090021461 -624263.00653710961 0 0 0 0 -29022355.676929474 -28217381.930923462 0 -28217381.930923462 -25592917.279464722 0 0 0 0 -34733906.000115395 -15494357.014205933 0 -15494357.014205933 -12017839.031158447 0 0 0 0 -16421653.677112579 -13308436.430328369 0 -13308436.430328369 -13856106.239562988 0 0 0 0 -32400654.62363863 -17938336.780387878 0 -17938336.780387878 -9696540.3521728516 0 0 0 0 -34556319.749160767 8833628.5328979492 0 8833628.5328979492 -35149819.632049561 0 0 0 0 -37516089.596017301 -11389016.676592827 0 -11389016.676592827 -1024112.5179138184 0 0 0 0 -11804202.068117142 -6685611.20753479 0 -6685611.20753479 -27659148.417114258 0 0 0 0 789362.72311932535 -1320260.7981993789 0 -1320260.7981993789 -3799882.5907285511 0 0 0 0 -8717322.6366920471 -12207958.04649353 0 -12207958.04649353 -18566700.420532227 0 0 0 0 3357356.756870985 -49680.322685241699 0 -49680.322685241699 -997878.47937011719 0 0 0 0 605822.24623489368 -2952904.2576607615 0 -2952904.2576607615 -8338621.677511882 0 0 0 0 -14051360.177528143 699274.60087966919 0 699274.60087966919 -5603380.3724365234 0 0 0 0 1169807.8840790479 -2162364.1682027094 0 -2162364.1682027094 -6425771.3579848185 0 0 0 0 1514196.0183285582 714619.89738680236 0 714619.89738680236 -3639996.9831811227 0 0 0 0 422517.37482720625 -1735727.4135672189 0 -1735727.4135672189 -1087629.1616949812 0 0 0 0 9155737.8810921609 -7258194.1597614288 0 -7258194.1597614288 -888871.54992675781 0 0 0 0 352600.04923248291 5208206.4139881134 0 5208206.4139881134 2994532.5119171143 0 0 0 0 -49942215.810506821 23081583.029602051 0 23081583.029602051 -24304811.44821167 0 0 0 0 -59932252.280638218 8499825.3432312012 0 8499825.3432312012 -6748517.1583251953 0 0 0 0 -2336.9924659729004 -2287765.9490356445 0 -2287765.9490356445 -9770086.7919616699 0 0 0 0 2831977.9293632507 -6590987.8561401367 0 -6590987.8561401367 -5900092.5556945801 0 0 0 0 313409.82634358341 -642993.87131771445 0 -642993.87131771445 -3483657.6429988928 0 0 0 0 -2506869.8455228806 -4098912.6801452637 0 -4098912.6801452637 -5060293.0493164062 0 0 0 0 14754677.187833786 2679330.9718170166 0 2679330.9718170166 -2016855.1344642639 0 0 0 0 4572193.2693142891 5252912.4801664352 0 5252912.4801664352 2239852.2792053223 0 0 0 0 7193355.4613161087 -1550909.178237915 0 -1550909.178237915 -7265947.1052894592 0 0 0 0 -5725991.6788029671 9234962.4876041412 0 9234962.4876041412 -1714088.0835113525 0 0 0 0 -17158.601627472322 58500.756132041104 0 58500.756132041104 94283.609935376793 0 0 0 0 -8817448.5831952095 -6151974.5262451172 0 -6151974.5262451172 -14058898.614181519 0 0 0 0 -10689160.067047074 -12389884.695883274 0 -12389884.695883274 41851383.814918518 0 0 0 0 -10165142.095686302 -16425923.832799911 0 -16425923.832799911 4936547.8598480225 0 0 0 0 -2185573.38383919 -3100988.4644088745 0 -3100988.4644088745 -5458975.4218273163 0 0 0 0 -615560.85862052173 -1281187.4490188193 0 -1281187.4490188193 -559196.9618280381 0 0 0 0 4636261.5773636103 -5772927.4585113525 0 -5772927.4585113525 -729903.1908659935 0 0 0 0 3904925.9178701192 -23457646.742156982 0 -23457646.742156982 -1261289.4833068848 0 0 0 0 5314791.9143908024 1174522.1564369202 0 1174522.1564369202 51785698.552642822 0 0 0 0 377273.01769043494 -388325.80002151919 0 -388325.80002151919 -2806904.5095669106 0 0 0 0 18556620.353798568 -19166763.257516861 0 -19166763.257516861 -6387922.1805038452 0 0 0 0 -96768980.042680502 13438534.534404755 0 13438534.534404755 10763397.195785522 0 0 0 0 23380241.502730012 -8614854.8298549652 0 -8614854.8298549652 -7424436.9900588989 0 0 0 0 470167.72535406251 -266313.52692650165 0 -266313.52692650165 -2523479.024919413 0 0 0 0 5238404.5560615659 3197112.5902514458 0 3197112.5902514458 5086192.7920303345 0 0 0 0 -52662573.88707304 -81652409.533737183 0 -81652409.533737183 -75901760.842399597 0 0 0 0 179570628.82665038 41033852.585968018 0 41033852.585968018 -145059279.96131706 0 0 0 0 154109850.32046095 43843835.757347107 0 43843835.757347107 -94428163.143035889 0 0 0 0 77095975.624557972 -28983327.627944946 0 -28983327.627944946 -161550634.87051773 0 0 0 0 25143613.368782043 -6725876.5566329956 0 -6725876.5566329956 -11124245.13369751 0 0 0 0 34528321.633051634 -18963229.763916016 0 -18963229.763916016 -10750949.189224243 0 0 0 0 92514550.436289668 2605675.2659606934 0 2605675.2659606934 -10984440.829803467 0 0 0 0 -112555585.03490865 -33295366.458799362 0 -33295366.458799362 8458608.8222045898 0 0 0 0 -39541659.335730553 -45367740.323348999 0 -45367740.323348999 3282606.7130393982 0 0 0 0 -45603434.437389374 -600766.80149078369 0 -600766.80149078369 8776108.0429992676 0 0 0 0 -41355245.236231327 -17326978.792167664 0 -17326978.792167664 9192383.4294419289 0 0 0 0 -22621683.075782061 -4942669.5530700684 0 -4942669.5530700684 47514.025115966797 0 0 0 0 28384125.495712757 -14481270.386146545 0 -14481270.386146545 983677.98210144043 0 0 0 0 35898778.947064221 -33421927.20941925 0 -33421927.20941925 40249647.520599365 0 0 0 0 -13990469.057210445 -27672026.391586304 0 -27672026.391586304 13428570.404136658 0 0 0 0 40836330.184564948 -28232603.181322098 0 -28232603.181322098 -5395589.164855957 0 0 0 0 -10528660.791022778 -15577571.96383667 0 -15577571.96383667 -2173839.7024459839 0 0 0 0 53528285.458545893 -957401.20045280457 0 -957401.20045280457 -10728164.119445801 0 0 0 0 61513957.092172384 -18993039.029159546 0 -18993039.029159546 -11701155.475357056 0 0 0 0 28108076.756590366 1251079.7983093262 0 1251079.7983093262 -14035337.582873344 0 0 0 0 18351845.309916377 -24920642.885852814 0 -24920642.885852814 -14045675.723571777 0 0 0 0 -30188225.042517662 -14290828.005477905 0 -14290828.005477905 -6152087.1666374207 0 0 0 0 -15380113.533928394 -25171690.797973633 0 -25171690.797973633 -3028193.6672973633 0 0 0 0 25852394.408229619 38133632.52884388 0 38133632.52884388 -13376636.548873901 0 0 0 0 1297444.4958862895 -493764.82243692689 0 -493764.82243692689 -9232520.8111186363 0 0 0 0 162854293.43450785 25107625.303638458 0 25107625.303638458 -33825317.123542786 0 0 0 0 108734618.03081346 51557219.647857666 0 51557219.647857666 -13706526.619659424 0 0 0 0 130566196.4691422 -1713938.7336502075 0 -1713938.7336502075 -32361283.178436279 0 0 0 0 83526380.420429826 26402843.810562134 0 26402843.810562134 -21760370.760258198 0 0 0 0 107624563.77303827 -12949368.012886047 0 -12949368.012886047 -16806940.35785675 0 0 0 0 130649041.02883592 -47123387.078186035 0 -47123387.078186035 27546902.081924438 0 0 0 0 71057078.192881107 -13069086.976295471 0 -13069086.976295471 -7799802.4186096191 0 0 0 0 561009.84135511471 -2916188.0540285609 0 -2916188.0540285609 -3089407.1574021056 0 0 0 0 -3925435.5697593689 -37043548.082275391 0 -37043548.082275391 -16069971.824104428 0 0 0 0 1167376.8639687931 521422.1770947203 0 521422.1770947203 -9878810.6375542916 0 0 0 0 183247920.03436434 113677600.64813232 0 113677600.64813232 -69906202.943878174 0 0 0 0 136709042.16044676 97842187.101828575 0 97842187.101828575 24565607.437362671 0 0 0 0 76921605.8866539 8019194.4452209473 0 8019194.4452209473 89680371.625 0 0 0 0 9217299.6491428614 -2012219.4373550415 0 -2012219.4373550415 -10226180.791381836 0 0 0 0 23686670.473342873 195107154.06396759 0 195107154.06396759 -83402874.022796631 0 0 0 0 200229874.13899878 98793659.442382812 0 98793659.442382812 -70177440.281570435 0 0 0 0 -1867557.0248300484 -2164500.7091969997 0 -2164500.7091969997 -4411717.3158877445 0 0 0 0 -5018067.1271882057 -3563109.2715377808 0 -3563109.2715377808 -2748224.5616068989 0 0 0 0 -18049351.73457253 35128165.653564453 0 35128165.653564453 -109655381.79597473 0 0 0 0 -80638.827149527875 -272392.90466868412 0 -272392.90466868412 -532930.44726454839 0 0 0 0 -169610893.4254334 91985894.163162231 0 91985894.163162231 542959148.11650085 0 0 0 0 171191641.36754131 80837235.527229309 0 80837235.527229309 -93941656.280639648 0 0 0 0 174451103.73547637 48306304.487251282 0 48306304.487251282 230458795.75366211 0 0 0 0 44945.728514481278 -59799.903133282438 0 -59799.903133282438 -260973.31349516625 0 0 0 0 84950563.880121708 -400228073.76545715 0 -400228073.76545715 1379119873.6457329 0 0 0 0 224596071.47024918 195224567.47869492 0 195224567.47869492 -532498086.60456848 0 0 0 0 48267.699806866724 -1717794.6620998792 0 -1717794.6620998792 -6972842.7425771356 0 0 0 0 104654.0089790225 -302160.0463809967 0 -302160.0463809967 -2279281.4575538635 0 0 0 0 298613055.3107239 -39663777.744445801 0 -39663777.744445801 -140686855.05165863 0 0 0 0 126061426.73736084 21218388.283969879 0 21218388.283969879 -160329782.2426796 0 0 0 0 -4742526.429197669 1193307.0019493103 0 1193307.0019493103 485081.67581939697 0 0 0 0 97808575.997084737 56281384.387752533 0 56281384.387752533 -16665848.322395325 0 0 0 0 -513405.63644755504 -2900422.4077406456 0 -2900422.4077406456 902493.75312540308 0 0 0 0 -7218482.3090754747 -3351629.1470870972 0 -3351629.1470870972 -76336.145538330078 0 0 0 0 161373941.65909278 -113936873.11388397 0 -113936873.11388397 -555389389.82310486 0 0 0 0 -1286982.5035414249 -17359989.311065674 0 -17359989.311065674 13889596.71937561 0 0 0 0 -171201.69893787376 -850900.7445592056 0 -850900.7445592056 266327.83626458794 0 0 0 0 -165002.42161570143 -195147.47263610177 0 -195147.47263610177 -2653468.2275665216 0 0 0 0 -497779055.16179234 -811219058.32751656 0 -811219058.32751656 -1393014383.6988831 0 0 0 0 -467473176.43348444 -662597241.14820862 0 -662597241.14820862 -740764946.03952026 0 0 0 0 -14564447.394462198 -158330029.40641785 0 -158330029.40641785 -1032566524.896759 0 0 0 0 94904526.325874582 -83488508.900878906 0 -83488508.900878906 -2206483126.2435684 0 0 0 0 -87267197.23621729 -502788624.35827923 0 -502788624.35827923 -2398289136.3242035 0 0 0 0 -1224762490.737417 1027809525.8924103 0 1027809525.8924103 -3103880141.2759705 0 0 0 0 588231399.78718388 -53126064.979137421 0 -53126064.979137421 -1274758266.6851311 0 0 0 0 730380285.40567815 76213478.664859772 0 76213478.664859772 -2220467889.2494926 0 0 0 0 313425326.62633365 217896554.0748291 0 217896554.0748291 -1731674560.4487 0 0 0 0 330928633.61222267 152592208.2368927 0 152592208.2368927 -1569725141.4734726 0 0 0 0 -28667734.018647693 624317272.74145126 0 624317272.74145126 -2204555922.554152 0 0 0 0 -826187145.46308148 -24738401.979603767 0 -24738401.979603767 -2489784761.5102768 0 0 0 0 -62431.033191746625 444551.74431149079 0 444551.74431149079 -817044.67616668716 0 0 0 0 -203421876.77023071 968092530.55483055 0 968092530.55483055 -1271798942.8960495 0 0 0 0 -214125251.90155727 -106588566.29196358 0 -106588566.29196358 133871152.68613052 0 0 0 0 -357381087.052481 627891969.49403572 0 627891969.49403572 -710568042.35758972 0 0 0 0 254972948.5601458 430330241.86346817 0 430330241.86346817 -1763731944.0634141 0 0 0 0 258145584.84381545 374174524.00384891 0 374174524.00384891 -1575047311.427475 0 0 0 0 -311580381.65771735 224246679.67592621 0 224246679.67592621 -71948342.412799835 0 0 0 0 -105346299.74028957 -113914623.4469986 0 -113914623.4469986 -10825867.138381004 0 0 0 0 185552934.35520786 -142265782.75228882 0 -142265782.75228882 -61419849.329826355 0 0 0 0 39532185.304194927 -115861590.08334732 0 -115861590.08334732 -65878434.939495087 0 0 0 0 60379.740913853057 423141.3132942376 0 423141.3132942376 -2041759.9939276576 0 0 0 0 -51697421.217748284 -55770573.124368668 0 -55770573.124368668 -69023686.538497925 0 0 0 0 91885910.38492617 -20555816.367908716 0 -20555816.367908716 -2342878.3162460327 0 0 0 0 -9311166.5030269623 1986151.6522903442 0 1986151.6522903442 6824816.1505584717 0 0 0 0 15100989.77654545 -98658578.097110748 0 -98658578.097110748 -30188754.678478241 0 0 0 0 -66841863.975508749 -14929697.283950806 0 -14929697.283950806 66616337.964309692 0 0 0 0 -121953.31357301783 -225177.35836712457 0 -225177.35836712457 -359503.45391631871 0 0 0 0 155271.10169456829 -410916.46935858019 0 -410916.46935858019 -1257593.1037108153 0 0 0 0 14395665.550127983 118025656.59722137 0 118025656.59722137 112886446.98779297 0 0 0 0 40254053.618234396 34626013.784545898 0 34626013.784545898 44102724.750915527 0 0 0 0 -9377117.6223611832 209780.2136631012 0 209780.2136631012 -12660424.915302277 0 0 0 0 -41845062.669442713 33758383.968732834 0 33758383.968732834 70791819.137573242 0 0 0 0 -90421118.002902746 58599600.553337097 0 58599600.553337097 104521048.34545898 0 0 0 0 -92911939.785963297 18224414.680282593 0 18224414.680282593 212004731.69926453 0 0 0 0 32623194.95586586 -80643247.160945892 0 -80643247.160945892 137758254.84693909 0 0 0 0 -20347950.654822826 48146744.029670715 0 48146744.029670715 -110871618.707901 0 0 0 0 -63099714.930597782 -27166928.697990417 0 -27166928.697990417 -14347594.519958496 0 0 0 0 -29935.388424351113 -61968.818731598556 0 -61968.818731598556 -375904.14490897395 0 0 0 0 -2983406.6550526619 -6507066.1489067078 0 -6507066.1489067078 -30706637.081336975 0 0 0 0 60370732.52402544 29839216.048326492 0 29839216.048326492 23517060.9945755 0 0 0 0 1891737.3587703705 5885503.3867645264 0 5885503.3867645264 -20901178.50038147 0 0 0 0 -1650684.955283165 1241740.2769165039 0 1241740.2769165039 -18966321.814254761 0 0 0 0 6692437.1425123215 -1514342.5887012482 0 -1514342.5887012482 -32653092.143844604 0 0 0 0 10803322.974049807 3356389.8575687408 0 3356389.8575687408 -30974165.655838013 0 0 0 0 -21167315.127661705 -24301290.093185425 0 -24301290.093185425 23439651.036598206 0 0 0 0 97631214.945285022 137744712.41678762 0 137744712.41678762 -228883718.91156769 0 0 0 0 131475.90878109081 35495.735151932575 0 35495.735151932575 -1480006.2824115157 0 0 0 0 133873255.79027843 -107948065.51609039 0 -107948065.51609039 -97729419.057632446 0 0 0 0 -40494143.908403844 95431622.790448189 0 95431622.790448189 -158130578.42079926 0 0 0 0 -178819896.60576844 90724184.842220306 0 90724184.842220306 -87480127.13420105 0 0 0 0 130694891.01431227 -59608452.22662735 0 -59608452.22662735 -228572693.84384155 0 0 0 0 -4594847.4786388874 57194885.748573303 0 57194885.748573303 -302946045.7166481 0 0 0 0 -1743961.6165650338 -128883651.87442684 0 -128883651.87442684 -587739690.64837646 0 0 0 0 21629458.365973115 295818314.71356201 0 295818314.71356201 -715877935.74079132 0 0 0 0 14966358.032798052 -41134942.576385498 0 -41134942.576385498 -458586173.16123962 0 0 0 0 316673203.57953465 128774866.34223557 0 128774866.34223557 -1464401527.658637 0 0 0 0 138378861.26872444 -36739198.734672546 0 -36739198.734672546 -989112723.54293823 0 0 0 0 257642141.87913632 174517730.51818466 0 174517730.51818466 -1078234639.6362648 0 0 0 0 126068093.80984592 21168257.834541321 0 21168257.834541321 -655717130.97043419 0 0 0 0 -40126241.579587221 -254451277.94802094 0 -254451277.94802094 -365712840.84009933 0 0 0 0 361095200.65047503 -175994615.79776764 0 -175994615.79776764 -1806997170.9562531 0 0 0 0 92086402.307345629 -405083373.4278717 0 -405083373.4278717 -1325421528.8803101 0 0 0 0 -152201658.34190944 -691860847.98820972 0 -691860847.98820972 -1331105814.6533508 0 0 0 0 -12217411.264936924 -173588721.27421951 0 -173588721.27421951 -1424512413.2062206 0 0 0 0 204547372.43029958 132574999.00222588 0 132574999.00222588 -1863525453.151226 0 0 0 0 329983.60314266209 -44208.990733977407 0 -44208.990733977407 -907189.54923725617 0 0 0 0 591347618.10431278 198108483.10502625 0 198108483.10502625 -2204835657.6484513 0 0 0 0 25667835.747020576 -132520488.97073364 0 -132520488.97073364 -2205281943.4822121 0 0 0 0 -409884345.92273092 -67237491.465690613 0 -67237491.465690613 -1992635919.745822 0 0 0 0 11577061.938805681 -144238458.40498924 0 -144238458.40498924 -2214012676.216835 0 0 0 0 780926.66546937812 -117185.58986032009 0 -117185.58986032009 -1668051.4710833593 0 0 0 0 -13398099.70537011 -141706713.29652596 0 -141706713.29652596 -2204699686.7914886 0 0 0 0 153064.41260549653 24248.623751472682 0 24248.623751472682 -866791.12735912576 0 0 0 0 -145804445.75530183 -701793646.60201502 0 -701793646.60201502 -1764667947.5198822 0 0 0 0 30779.439356173229 107052.6616607355 0 107052.6616607355 -922363.75756770745 0 0 0 0 -271390340.9628315 -270729147.78315735 0 -270729147.78315735 -2112832455.5516129 0 0 0 0 471034625.72766829 -101009681.87775421 0 -101009681.87775421 -2525513874.0417786 0 0 0 0 260431367.14751244 70672161.648071289 0 70672161.648071289 -213930898.41020203 0 0 0 0 43103486.509905636 363091031.00034142 0 363091031.00034142 -682968916.36559296 0 0 0 0 7736334.3001871109 -152005893.13884354 0 -152005893.13884354 -380440794.68457031 0 0 0 0 -10246825.41896778 -216131301.0549311 0 -216131301.0549311 -2125364012.2532043 0 0 0 0 53798844.893235445 -222692416.82327652 0 -222692416.82327652 -1946902063.6904984 0 0 0 0 116616548.1469698 233342250.51148605 0 233342250.51148605 -1486739444.2808533 0 0 0 0 -39500476.172032833 82254421.947681427 0 82254421.947681427 -1283811375.7562943 0 0 0 0 59132441.762479782 139145200.46573257 0 139145200.46573257 -1292974098.9391632 0 0 0 0 -76072851.745529652 222924962.76526642 0 222924962.76526642 -551107209.43961334 0 0 0 0 -116380304.93935394 91117274.442394257 0 91117274.442394257 -557646061.37564063 0 0 0 0 -225131903.84694654 101971437.73068237 0 101971437.73068237 180503062.62289429 0 0 0 0 -55523594.589464903 -185302319.10817719 0 -185302319.10817719 146056100.92178965 0 0 0 0 -34518981.570044875 -12599710.931667328 0 -12599710.931667328 129423816.0163269 0 0 0 0 69628277.83142662 84605711.974601746 0 84605711.974601746 58511577.192333221 0 0 0 0 28789742.942956448 -53391332.141880035 0 -53391332.141880035 78053503.191188812 0 0 0 0 115798.43794177182 61675.160427614581 0 61675.160427614581 -1871179.4994655363 0 0 0 0 152778586.81726158 -94708072.802751541 0 -94708072.802751541 47198636.212043762 0 0 0 0 134943733.85059738 58012330.491668701 0 58012330.491668701 -47407094.4818573 0 0 0 0 92921356.29606998 413505.55909252167 0 413505.55909252167 24120496.865348816 0 0 0 0 -137909063.95243049 11962959.590642929 0 11962959.590642929 69066391.751663208 0 0 0 0 -7084873.6211613417 -14258678.976242065 0 -14258678.976242065 140035692.39623833 0 0 0 0 208258.38616138534 -266681.71269517578 0 -266681.71269517578 27601.348626833409 0 0 0 0 -7245430.3817373067 -9539359.188831687 0 -9539359.188831687 6685050.9585342407 0 0 0 0 -23320869.588138342 -9411094.3641700745 0 -9411094.3641700745 -13443976.376338959 0 0 0 0 -22118993.873555422 -3349275.4696483612 0 -3349275.4696483612 -1906695.5850353241 0 0 0 0 141384.6095414827 -30168.619298340753 0 -30168.619298340753 -1862872.7430133671 0 0 0 0 400932.02395817591 -418037.96475645341 0 -418037.96475645341 -168111.66159438342 0 0 0 0 6168604.8736659288 -7322796.2756061554 0 -7322796.2756061554 3816588.7076950073 0 0 0 0 50068698.737190425 23927768.103631973 0 23927768.103631973 8993192.7543334961 0 0 0 0 47773166.99732399 19418881.561565399 0 19418881.561565399 20162247.528743744 0 0 0 0 15209737.72741127 33638788.974876404 0 33638788.974876404 25227384.99290657 0 0 0 0 48687434.34169054 27274644.275791168 0 27274644.275791168 8483761.8730010986 0 0 0 0 -339869.69427176425 -323596.82661079243 0 -323596.82661079243 -1069229.4604208618 0 0 0 0 10203790.281004906 1553207.1552886963 0 1553207.1552886963 1512579.96068573 0 0 0 0 -6340439.351462841 -7262909.6913490295 0 -7262909.6913490295 -5572804.0480651855 0 0 0 0 -3758393.9652500153 -4261865.3733901978 0 -4261865.3733901978 -7218530.6709899902 0 0 0 0 -1581284.4371476173 9148425.1225223541 0 9148425.1225223541 15961274.945053101 0 0 0 0 994403.43580613937 -277980.06957546342 0 -277980.06957546342 -1498822.2361560985 0 0 0 0 21614066.038406134 12832486.57365799 0 12832486.57365799 -4855357.6627616882 0 0 0 0 11658640.93453598 12181924.878189087 0 12181924.878189087 -32057.439208030701 0 0 0 0 20642918.988337219 19751439.170733929 0 19751439.170733929 10969558.776802063 0 0 0 0 11922276.743481755 13029280.375231743 0 13029280.375231743 5152778.5205535889 0 0 0 0 44721421.708087444 19430922.855829239 0 19430922.855829239 8315475.2049179077 0 0 0 0 29402726.817781925 29695853.596904755 0 29695853.596904755 10940537.108407974 0 0 0 0 27094687.319101334 20272610.205738068 0 20272610.205738068 6823089.7862129211 0 0 0 0 -307752.79658746719 -2691503.4266662598 0 -2691503.4266662598 -32012376.954856873 0 0 0 0 146779.40583156492 187390.98579460569 0 187390.98579460569 -1048231.4431828037 0 0 0 0 35842969.404860497 23791945.923675537 0 23791945.923675537 5890813.3892917633 0 0 0 0 34935746.783000708 26031869.561134338 0 26031869.561134338 11337448.270623207 0 0 0 0 28329524.826969028 37234578.32646656 0 37234578.32646656 30727963.232540131 0 0 0 0 26681985.469005108 17870337.903316498 0 17870337.903316498 16868752.407562256 0 0 0 0 27718511.829746667 22778075.28177774 0 22778075.28177774 5446740.4158782959 0 0 0 0 -16827172.995084286 -27414007.286281586 0 -27414007.286281586 -36639323.105613708 0 0 0 0 52460149.678204536 45222227.170024872 0 45222227.170024872 24965446.584121704 0 0 0 0 98967.710084180697 164918.3744237721 0 164918.3744237721 -625287.67005781457 0 0 0 0 -14048795.408356488 -31409706.778237343 0 -31409706.778237343 -38127978.752853394 0 0 0 0 -12889626.793521166 -25481988.892637253 0 -25481988.892637253 -27381723.578052521 0 0 0 0 -15203743.813977003 -19391318.717952728 0 -19391318.717952728 -41503130.978198051 0 0 0 0 -3141529.5965185463 -9397603.052236557 0 -9397603.052236557 -39190966.042556763 0 0 0 0 -3707484.7758686543 -7786143.328578949 0 -7786143.328578949 -37704540.684745789 0 0 0 0 6581279.0277158022 -8083522.7890205383 0 -8083522.7890205383 -42051643.608577728 0 0 0 0 -13662218.462578773 -12617160.281246185 0 -12617160.281246185 -15012246.58340168 0 0 0 0 -9469136.9964234829 -9859065.268447876 0 -9859065.268447876 -38445618.991020203 0 0 0 0 -20332003.7045753 -26236084.261621475 0 -26236084.261621475 -39523246.626235962 0 0 0 0 -21627.982523374551 -61245.233303241432 0 -61245.233303241432 -37710.111321270466 0 0 0 0 20229535.90482688 -8990397.5733642578 0 -8990397.5733642578 -44775729.599061966 0 0 0 0 3577553.238619864 -9756237.6067972183 0 -9756237.6067972183 -42594884.571983337 0 0 0 0 7276311.0751819611 -14629281.015029907 0 -14629281.015029907 -40591488.371268749 0 0 0 0 -10500590.157136917 -27368755.897922516 0 -27368755.897922516 -38365369.879225969 0 0 0 0 332557.86141473055 -27601474.224246025 0 -27601474.224246025 -48691230.291801453 0 0 0 0 -26811373.625735283 -27822577.865789413 0 -27822577.865789413 -35648400.59349823 0 0 0 0 -37159504.153045654 -39310388.252025604 0 -39310388.252025604 -45295837.603141785 0 0 0 0 -15421545.792793989 -34041984.439155579 0 -34041984.439155579 -47116197.20287323 0 0 0 0 -22007083.290771961 -31385255.327339172 0 -31385255.327339172 -46493748.419994354 0 0 0 0 -5071810.1421866417 -28937799.488826752 0 -28937799.488826752 -58280507.387878418 0 0 0 0 -22032366.046355031 -29011864.0895513 0 -29011864.0895513 -64051105.683235168 0 0 0 0 -33224579.645400524 -28949011.773197174 0 -28949011.773197174 -47728963.78521347 0 0 0 0 -39471231.559655309 -8607145.4096035957 0 -8607145.4096035957 -64350812.008750916 0 0 0 0 -25169230.381713867 -20285789.598258972 0 -20285789.598258972 -57721840.190605164 0 0 0 0 -5482414.2712612152 -26557726.79782486 0 -26557726.79782486 -44653442.773891449 0 0 0 0 11579043.215385675 -11065945.326320648 0 -11065945.326320648 -50459875.126237869 0 0 0 0 -633365.55216187239 -33089777.89017868 0 -33089777.89017868 -57068209.792678833 0 0 0 0 5308626.9585829973 -1104572.6514616013 0 -1104572.6514616013 -23340670.243019104 0 0 0 0 -72118.213745978937 -526007.84487653128 0 -526007.84487653128 -106297.92552365735 0 0 0 0 -69222743.959023952 -38693150.937179148 0 -38693150.937179148 -9403816.0704574585 0 0 0 0 7928850.08220613 3248243.6098136902 0 3248243.6098136902 -31389064.121522903 0 0 0 0 -2608615.9940202236 -6113082.5708751678 0 -6113082.5708751678 959105.1919670105 0 0 0 0 -4147249.9763009548 -2946505.7590446472 0 -2946505.7590446472 34253.319845199585 0 0 0 0 25164518.953972101 -24639319.322303772 0 -24639319.322303772 3701113.7260718346 0 0 0 0 -1410032.2900435925 -9022397.8459625244 0 -9022397.8459625244 6601800.3673796654 0 0 0 0 15953875.885600209 -21164658.893098831 0 -21164658.893098831 -31202780.479782104 0 0 0 0 18692961.757301301 -1917869.9867444038 0 -1917869.9867444038 -28787677.825935364 0 0 0 0 52543900.07413137 -6043961.402589798 0 -6043961.402589798 -30840219.753288269 0 0 0 0 26284062.884972453 23197390.784946442 0 23197390.784946442 12517796.813228607 0 0 0 0 19017575.486876011 -16439716.896080017 0 -16439716.896080017 24772676.447418213 0 0 0 0 71307952.297465444 -2205108.0804958344 0 -2205108.0804958344 -57348287.81275177 0 0 0 0 38713564.804504991 31834384.808700562 0 31834384.808700562 5655535.9457092285 0 0 0 0 207948.79416883318 -269232.52338633873 0 -269232.52338633873 -749758.29235725105 0 0 0 0 9991007.8137662411 -4238440.8568916321 0 -4238440.8568916321 -11852364.165184021 0 0 0 0 3413002.937214613 -2808518.6693382263 0 -2808518.6693382263 -7836641.833152771 0 0 0 0 1555035.1455082893 -35341037.349042892 0 -35341037.349042892 -24505248.612468719 0 0 0 0 49723498.789588928 43478497.469451904 0 43478497.469451904 16833915.480712891 0 0 0 0 62504647.164432764 35957319.590084076 0 35957319.590084076 14576157.247962952 0 0 0 0 8721763.7127456665 1701944.8908195496 0 1701944.8908195496 -5535263.0867614746 0 0 0 0 228431.18673789914 -104509.14382302947 0 -104509.14382302947 -278533.51713420078 0 0 0 0 68151388.704694748 31686626.422121048 0 31686626.422121048 -6011679.1192092896 0 0 0 0 22011959.683257103 -3996515.9751243591 0 -3996515.9751243591 -22843104.281242371 0 0 0 0 76478.047843726585 194055.27663030103 0 194055.27663030103 -65650.251650198363 0 0 0 0 4144680.681764245 -9994069.2854099274 0 -9994069.2854099274 -8570720.0858535767 0 0 0 0 30952916.744937181 267387.31168746948 0 267387.31168746948 -31702200.297538757 0 0 0 0 384482.25774634676 -165465.92012914363 0 -165465.92012914363 -502969.54020799696 0 0 0 0 40193514.106675625 5160620.7112178802 0 5160620.7112178802 -25336772.938751221 0 0 0 0 34792947.242401361 -10804148.22718811 0 -10804148.22718811 -6454180.9352474213 0 0 0 0 13866143.989572525 6475117.4096069336 0 6475117.4096069336 -3572486.2580566406 0 0 0 0 29063987.032861829 2095041.7498474121 0 2095041.7498474121 -19652725.715877533 0 0 0 0 9495075.2820885181 -13727551.854507446 0 -13727551.854507446 -23529538.1820755 0 0 0 0 14955982.91765964 -14724207.732793808 0 -14724207.732793808 -44101347.5704422 0 0 0 0 -4836391.9543938637 9565694.7790145874 0 9565694.7790145874 -18757045.895401001 0 0 0 0 -25657018.655105352 -16504435.098608017 0 -16504435.098608017 2790024.5393218994 0 0 0 0 -10174957.150436401 -22994158.373176575 0 -22994158.373176575 -8920236.9443206787 0 0 0 0 -4300735.1696429253 -20996209.669448853 0 -20996209.669448853 -3944950.7595176697 0 0 0 0 5443898.754585743 -8162464.072303772 0 -8162464.072303772 11180054.730172157 0 0 0 0 15866694.9622159 -4893804.5389080048 0 -4893804.5389080048 -21273244.058319092 0 0 0 0 35982979.492723703 12634722.141921997 0 12634722.141921997 -13943887.14553833 0 0 0 0 14246580.622906685 -682218.65298461914 0 -682218.65298461914 -12912967.153182983 0 0 0 0 35113893.648538113 -6828407.0186309814 0 -6828407.0186309814 -19075666.444824219 0 0 0 0 21007700.909125805 830637.11751556396 0 830637.11751556396 -12073287.766387939 0 0 0 0 14279942.335823536 -7075604.8665237427 0 -7075604.8665237427 -14530341.476890564 0 0 0 0 10882109.277145386 -4106993.1188392639 0 -4106993.1188392639 -12508879.944824219 0 0 0 0 -7181770.7685728073 -6934785.4469451904 0 -6934785.4469451904 -9661417.4703063965 0 0 0 0 -7276924.7423877716 -6569518.394859314 0 -6569518.394859314 -6762167.8530807495 0 0 0 0 -7354583.4843273163 -14492357.578773499 0 -14492357.578773499 -13602493.553466797 0 0 0 0 1207608.5317573547 -7955018.0060272217 0 -7955018.0060272217 -11783951.302993774 0 0 0 0 2737106.1681046486 -10357779.274494171 0 -10357779.274494171 -14311380.491455078 0 0 0 0 -550672.2287068367 -17537734.501628876 0 -17537734.501628876 -21437769.845428467 0 0 0 0 -22439838.031727389 17326253.55230087 0 17326253.55230087 -2611793.6229400635 0 0 0 0 -32811003.139327049 -6560706.7105712891 0 -6560706.7105712891 -10403303.884765625 0 0 0 0 9248.8883346384064 876287.72730972327 0 876287.72730972327 -15317.582141656429 0 0 0 0 -30856748.558481216 -10866702.333374023 0 -10866702.333374023 -13334551.338897705 0 0 0 0 995932.05614605523 4151671.8340334874 0 4151671.8340334874 -1416187.5409981571 0 0 0 0 -33165106.381635666 -2719670.1126098633 0 -2719670.1126098633 -3757241.2859191895 0 0 0 0 152901.96578320395 89947.424760726281 0 89947.424760726281 -227430.51477153599 0 0 0 0 2293219.8638162445 -675147.85635564616 0 -675147.85635564616 -4542658.2628993616 0 0 0 0 5077211.4623825364 84180.626291692257 0 84180.626291692257 -3795504.0533294678 0 0 0 0 6485331.3504524231 -1217235.9117279053 0 -1217235.9117279053 -8617975.9383921623 0 0 0 0 -10462007.265491962 -4614022.4483757019 0 -4614022.4483757019 -5478749.1781158447 0 0 0 0 1625964.8807612392 -4852858.3436992131 0 -4852858.3436992131 -7925415.5604340248 0 0 0 0 -4562727.147963047 -918711.61417770386 0 -918711.61417770386 -8478082.32421875 0 0 0 0 4317375.6055884361 -5412299.0811767578 0 -5412299.0811767578 -10266429.116729736 0 0 0 0 11184653.418319225 -3835484.9446487427 0 -3835484.9446487427 -10953035.467422485 0 0 0 0 4602808.396094799 -6558460.6012020111 0 -6558460.6012020111 -10395864.25730896 0 0 0 0 11214715.169608116 -3741801.3189582825 0 -3741801.3189582825 -11600366.109542847 0 0 0 0 11032218.596203804 -3721061.0453910828 0 -3721061.0453910828 -11602561.649377823 0 0 0 0 11000742.941866875 -3332772.3396186829 0 -3332772.3396186829 -11915920.401145935 0 0 0 0 11573185.543236256 -3822080.6086597443 0 -3822080.6086597443 -11672060.516448975 0 0 0 0 -21120096.414454274 -17478636.376849592 0 -17478636.376849592 8201431.0795974731 0 0 0 0 -229186.97118259064 -2638952.7202078109 0 -2638952.7202078109 -343871.58632501215 0 0 0 0 763456.90686914476 -890347.05041067302 0 -890347.05041067302 -2788339.1244280357 0 0 0 0 1444387.8442767253 -5859499.2628251016 0 -5859499.2628251016 -5297153.8183403015 0 0 0 0 -962111.27943142341 -4726937.2111807913 0 -4726937.2111807913 -12819809.968775228 0 0 0 0 5013376.3404240608 -12358404.49477005 0 -12358404.49477005 7343379.0409526825 0 0 0 0 -1520719.5043873787 -27186140.258197784 0 -27186140.258197784 7897807.5733947754 0 0 0 0 -4570864.5001191497 -25350729.487800598 0 -25350729.487800598 2246915.693939209 0 0 0 0 -4380614.4451974928 -1972579.2412109375 0 -1972579.2412109375 -10169376.376861572 0 0 0 0 21824067.895640612 -27750045.413383484 0 -27750045.413383484 -47715019.087524414 0 0 0 0 -102511710.42882794 -67542606.717437744 0 -67542606.717437744 -3395291.188369751 0 0 0 0 27236224.691833973 24156141.760406494 0 24156141.760406494 -1755111.2907867432 0 0 0 0 77312104.643742323 9248450.4998855591 0 9248450.4998855591 -31192368.551696777 0 0 0 0 33134164.689419985 -100557677.92602158 0 -100557677.92602158 -61732820.654708862 0 0 0 0 25784155.391602278 -12426460.868915558 0 -12426460.868915558 -15261171.602676392 0 0 0 0 15150207.056103706 -23107521.412193298 0 -23107521.412193298 3779034.8863220215 0 0 0 0 10731330.591015339 317837.69627761841 0 317837.69627761841 -14845844.937759399 0 0 0 0 4710221.3160018921 -1953469.2988777161 0 -1953469.2988777161 -3303171.4248657227 0 0 0 0 8035591.9199719429 -12923447.585472107 0 -12923447.585472107 -11958203.242519379 0 0 0 0 631488.1957269354 -716343.54299639072 0 -716343.54299639072 -961351.58015561476 0 0 0 0 8841611.7714915276 -1346319.0255050659 0 -1346319.0255050659 -17099902.234552383 0 0 0 0 1846520.6989024743 282856.00740480982 0 282856.00740480982 -9414110.4980145395 0 0 0 0 643416.47079111647 -640362.26002752595 0 -640362.26002752595 -10302832.349318508 0 0 0 0 2944488.495038271 285368.701171875 0 285368.701171875 -3054714.7567825317 0 0 0 0 2287716.2067948394 1099761.5875890553 0 1099761.5875890553 -10662873.77019275 0 0 0 0 625730.07230091095 13693136.160858154 0 13693136.160858154 -1381223.1462554932 0 0 0 0 1955203.2956209183 8362186.2828121185 0 8362186.2828121185 -8603503.0281829834 0 0 0 0 -1084011.0158948898 11660703.253196716 0 11660703.253196716 -2175632.0371017456 0 0 0 0 33158721.154604316 39634299.931857109 0 39634299.931857109 30187736.332633972 0 0 0 0 -930835.64678478241 1905341.462348938 0 1905341.462348938 -23759430.3934021 0 0 0 0 1198820.9141837358 23066310.943505287 0 23066310.943505287 6581274.8655090332 0 0 0 0 -825810.33785295486 5258095.614692688 0 5258095.614692688 8427559.2333374023 0 0 0 0 -1136915.3449611664 3591435.5191650391 0 3591435.5191650391 13687891.450122833 0 0 0 0 25140704.412101746 15357082.726696014 0 15357082.726696014 -6536508.1767349243 0 0 0 0 1074712.1169763536 1737868.4523679763 0 1737868.4523679763 -14285894.357905958 0 0 0 0 1117982.1735015004 -743205.76138579473 0 -743205.76138579473 -3530282.8940053023 0 0 0 0 144315419.47216988 62829542.781097412 0 62829542.781097412 9977495.2173690796 0 0 0 0 158862465.84736753 -77298157.329620361 0 -77298157.329620361 -11622491.701667786 0 0 0 0 258218902.71043748 -64176473.797206879 0 -64176473.797206879 -57775513.437728882 0 0 0 0 176573057.77162457 221522331.08750153 0 221522331.08750153 -71468588.528656006 0 0 0 0 80936483.900660992 146936692.53742981 0 146936692.53742981 -8322704.3847427368 0 0 0 0 285450075.23754704 9873765.7064323425 0 9873765.7064323425 -141682208.70124817 0 0 0 0 87870326.336506844 -170964249.27827072 0 -170964249.27827072 -37226589.807010651 0 0 0 0 6006532.316734314 -38669281.5366745 0 -38669281.5366745 8628133.0904655457 0 0 0 0 -5671401.4848070145 -32273123.183540344 0 -32273123.183540344 5444317.0589027405 0 0 0 0 -10144853.414805055 -20732397.480231285 0 -20732397.480231285 21714918.636734009 0 0 0 0 6842866.531419754 28087602.684059143 0 28087602.684059143 69942442.515975952 0 0 0 0 -25924790.561132908 -36977841.333503723 0 -36977841.333503723 116133853.38819885 0 0 0 0 -190819572.50866702 -165201511.3554306 0 -165201511.3554306 -242883717.07262421 0 0 0 0 -48448668.68869523 -14307248.735433578 0 -14307248.735433578 -84401925.32144165 0 0 0 0 -101936256.33365609 -91292415.337631226 0 -91292415.337631226 -33176458.022212982 0 0 0 0 -81165496.559181839 125867971.52424622 0 125867971.52424622 9008001.0211772919 0 0 0 0 -9161024.0622421056 285368491.84087563 0 285368491.84087563 -173237006.17236328 0 0 0 0 -371708793.71115208 68828010.079338074 0 68828010.079338074 -804933.28755950928 0 0 0 0 -344597146.59162307 -33383612.586431503 0 -33383612.586431503 56032009.113372803 0 0 0 0 59834779.275659397 -147482776.19509125 0 -147482776.19509125 -442418302.25411606 0 0 0 0 76825486.83211562 -16068058.605422974 0 -16068058.605422974 71280538.545310974 0 0 0 0 209437579.13925171 -148718413.26605225 0 -148718413.26605225 -182238978.25032043 0 0 0 0 -250416.18274457351 -492855.6262326315 0 -492855.6262326315 -771982.65435512364 0 0 0 0 -146162219.17235523 155568761.31429291 0 155568761.31429291 -99281933.821502686 0 0 0 0 -20689160.198081553 24672240.019386292 0 24672240.019386292 -310312093.23721313 0 0 0 0 -74914695.888684988 53220075.22908783 0 53220075.22908783 44094699.53442955 0 0 0 0 -1884415.0999039412 -93496863.440185547 0 -93496863.440185547 -12747948.777774811 0 0 0 0 -13420526.713286579 60938762.06186676 0 60938762.06186676 40892885.707214355 0 0 0 0 -63447.367873695315 -1445007.0409495777 0 -1445007.0409495777 -13272.784312792122 0 0 0 0 294431882.7562685 -86186697.84431839 0 -86186697.84431839 -75472325.893913269 0 0 0 0 -68805911.714285284 -160813931.46738815 0 -160813931.46738815 131282408.6111908 0 0 0 0 -13683719.948981993 43476988.650146484 0 43476988.650146484 -37722870.096084595 0 0 0 0 65851215.55991292 -55918549.51367569 0 -55918549.51367569 9676887.1695251465 0 0 0 0 101073239.63195843 13973937.861881256 0 13973937.861881256 19517678.978225708 0 0 0 0 -215794.56409747529 -5005489.8254249003 0 -5005489.8254249003 -72856.315324261785 0 0 0 0 125347988.6776365 -35021862.335155487 0 -35021862.335155487 -17017312.564910889 0 0 0 0 9926464.6110708714 -16695052.406093597 0 -16695052.406093597 7158027.1543121338 0 0 0 0 -100966896.16318738 16115259.688659668 0 16115259.688659668 27560501.330795288 0 0 0 0 -593931.56852176669 -1479816.3445431534 0 -1479816.3445431534 -2411523.2763754278 0 0 0 0 29436611.359083116 -34829343.20224762 0 -34829343.20224762 -236821007.77017212 0 0 0 0 17405295.924492598 -11766700.638687134 0 -11766700.638687134 -28268252.435401917 0 0 0 0 -9011955.0461378098 -37514985.769630432 0 -37514985.769630432 -8125336.7424621582 0 0 0 0 17425065.11730051 -15916702.258781433 0 -15916702.258781433 824395.97236633301 0 0 0 0 21583781.736208439 -38535442.423439026 0 -38535442.423439026 4150048.6165752411 0 0 0 0 9673134.3106498122 10713472.069838524 0 10713472.069838524 -10639452.736320496 0 0 0 0 62718872.969981164 -18427774.522686005 0 -18427774.522686005 3800884.8579101562 0 0 0 0 34453602.886851788 -26432301.204395294 0 -26432301.204395294 -10858678.770027161 0 0 0 0 25410495.873440012 -31334545.946044922 0 -31334545.946044922 44853483.337257385 0 0 0 0 801784.3995136848 963184.17727820575 0 963184.17727820575 -2028498.9043131322 0 0 0 0 19263982.365891933 11006266.98151207 0 11006266.98151207 -16435953.920692444 0 0 0 0 71394276.373197526 -51690887.733847618 0 -51690887.733847618 7285765.0898284912 0 0 0 0 66996045.447588801 -24577374.771326065 0 -24577374.771326065 10895038.025291443 0 0 0 0 46703740.057652116 -46301969.437667847 0 -46301969.437667847 -2190783.0329475403 0 0 0 0 -762124.61589292088 -4185144.3115238594 0 -4185144.3115238594 -12858589.228016082 0 0 0 0 29891723.323323727 -36832603.79854393 0 -36832603.79854393 -494427.67487335205 0 0 0 0 -3276277.7372503281 -27010551.846996307 0 -27010551.846996307 4039869.1636896133 0 0 0 0 -490082.94339942932 -21587246.38952446 0 -21587246.38952446 -8094188.8317718506 0 0 0 0 -11489059.663623571 -2121296.38904953 0 -2121296.38904953 -5540006.2255139351 0 0 0 0 87239267.218182802 -47863687.161449432 0 -47863687.161449432 -34539083.943000793 0 0 0 0 47697730.207401752 -9795509.5546455383 0 -9795509.5546455383 -38012520.856193542 0 0 0 0 475030.78991899779 -3792664.7997574536 0 -3792664.7997574536 -12259584.343016047 0 0 0 0 92840891.573107719 77222114.552894592 0 77222114.552894592 -119437321.39547729 0 0 0 0 -3374722.2777862549 -2195727.7664299011 0 -2195727.7664299011 68930752.349914551 0 0 0 0 -13264410.999205351 -28352412.966444016 0 -28352412.966444016 -17784498.89339447 0 0 0 0 -22659726.9083848 -1943985.8566627502 0 -1943985.8566627502 -70400449.234161377 0 0 0 0 -14033444.175953388 -27166655.626052856 0 -27166655.626052856 -115818351.10046577 0 0 0 0 4471838.1162740886 18470532.297987938 0 18470532.297987938 -105334939.68744659 0 0 0 0 -34348756.222892761 -55855434.169132233 0 -55855434.169132233 -93810256.990585327 0 0 0 0 66287.650208265521 66742.567812418565 0 66742.567812418565 -242648.94858422503 0 0 0 0 58300037.433069706 71662735.712825775 0 71662735.712825775 64442063.866119385 0 0 0 0 38918243.826757431 62349134.117313385 0 62349134.117313385 42883483.375492096 0 0 0 0 110678833.47945833 34924003.103054523 0 34924003.103054523 -21105350.381942749 0 0 0 0 94735904.596651554 56779368.937206268 0 56779368.937206268 32176364.908615112 0 0 0 0 286528.02981708123 -2293179.1909605246 0 -2293179.1909605246 -10044936.52336349 0 0 0 0 64481236.035755157 10829181.856521606 0 10829181.856521606 19127587.783588886 0 0 0 0 29518497.838203292 -11689014.405727863 0 -11689014.405727863 -18184225.198936462 0 0 0 0 6259178.4440056682 -10984751.863147736 0 -10984751.863147736 812303.09443306923 0 0 0 0 5413176.0346572995 -15072934.678235054 0 -15072934.678235054 -13862972.712371826 0 0 0 0 40525111.170292377 -31504114.501125336 0 -31504114.501125336 -35432059.575775146 0 0 0 0 81221762.624311447 -17804442.591411591 0 -17804442.591411591 -27077862.058937073 0 0 0 0 16931179.50124073 -10149895.151809692 0 -10149895.151809692 -26955455.606277466 0 0 0 0 11914103.382002383 11419610.289604187 0 11419610.289604187 -63356780.145339966 0 0 0 0 65554690.652145386 -76887814.105571747 0 -76887814.105571747 24120219.72726059 0 0 0 0 -18128860.87908183 39495901.500907898 0 39495901.500907898 -41663003.920959473 0 0 0 0 -469507.91640897421 73802.717716883868 0 73802.717716883868 102877.4839451015 0 0 0 0 -13027583.682377353 12998622.285057068 0 12998622.285057068 -6262797.4803161621 0 0 0 0 21399818.723643214 -18120875.106174469 0 -18120875.106174469 -22009513.469894409 0 0 0 0 16461846.218141437 -7524025.2999076843 0 -7524025.2999076843 -1557176.5961494446 0 0 0 0 58541512.325158507 -19621016.655475616 0 -19621016.655475616 -18798092.935455322 0 0 0 0 1324441.2176825763 -3510338.8336741291 0 -3510338.8336741291 -6415515.7090185955 0 0 0 0 6085215.4422454834 1821282.6477470398 0 1821282.6477470398 -14668661.901168823 0 0 0 0 24878625.241047859 -2493674.2485580444 0 -2493674.2485580444 -25941599.177833557 0 0 0 0 40903625.551270485 29319718.471099854 0 29319718.471099854 -9204995.990436554 0 0 0 0 1328747.2726859653 613829.44189576618 0 613829.44189576618 -4407609.7371990383 0 0 0 0 8296963.1235489845 -2761132.861907959 0 -2761132.861907959 20341735.438821554 0 0 0 0 10655707.231761843 -7826241.692522049 0 -7826241.692522049 -867437.24642944336 0 0 0 0 6951327.5273312926 -3940118.2382621765 0 -3940118.2382621765 -2299048.7781224251 0 0 0 0 -5094452.7473014593 -4340047.6196632385 0 -4340047.6196632385 10812063.291358948 0 0 0 0 -4646219.5680565014 1749534.3501942158 0 1749534.3501942158 18339922.054801941 0 0 0 0 302895.02374786464 -205263.34340960905 0 -205263.34340960905 -725160.27603786439 0 0 0 0 -36764585.741540134 -22443683.32510376 0 -22443683.32510376 15655639.45565033 0 0 0 0 -11458993.476732299 -6457814.0782651901 0 -6457814.0782651901 24077550.804267883 0 0 0 0 13580788.957105994 -26928192.658290863 0 -26928192.658290863 2378960.7018737793 0 0 0 0 -15456235.163160563 -15443061.645103455 0 -15443061.645103455 10526520.652223587 0 0 0 0 26753248.509988517 -48135003.718093872 0 -48135003.718093872 1709741.5077438354 0 0 0 0 -15372215.974177897 -20689811.365810394 0 -20689811.365810394 8799020.6959342957 0 0 0 0 -11344145.61240688 -14545811.558756828 0 -14545811.558756828 -24196291.613845825 0 0 0 0 -92757748.492809176 -15358205.175270081 0 -15358205.175270081 -21190434.848445892 0 0 0 0 7012401.7891051769 21194911.599921227 0 21194911.599921227 28057176.641929626 0 0 0 0 -3638081.3118042946 -20746798.919100761 0 -20746798.919100761 -136999844.60552216 0 0 0 0 -37887459.393544018 -38941544.203117371 0 -38941544.203117371 -79924995.442947388 0 0 0 0 -64284448.059732437 -31283810.175453186 0 -31283810.175453186 18057942.621337891 0 0 0 0 1001617.055345878 -3598936.4841976166 0 -3598936.4841976166 21200700.814575195 0 0 0 0 63364487.771754116 -11506742.727912903 0 -11506742.727912903 -13178406.209579468 0 0 0 0 341620.47480377287 -1770614.1984405238 0 -1770614.1984405238 -1856468.2750846595 0 0 0 0 -3405.910669109202 -2474428.2648341507 0 -2474428.2648341507 -5922061.7415111661 0 0 0 0 -12213956.803722858 -9576950.1055259705 0 -9576950.1055259705 12744156.966049194 0 0 0 0 -44947527.738494873 4375334.5945415497 0 4375334.5945415497 11458824.279678345 0 0 0 0 -669849.12984212721 -2297553.0753188189 0 -2297553.0753188189 -4002041.6401205063 0 0 0 0 13157549.105669737 -7400431.4313964844 0 -7400431.4313964844 22354340.479457855 0 0 0 0 41164074.437362373 -69414370.782337189 0 -69414370.782337189 -18503910.510696411 0 0 0 0 -13557595.310953557 -30335121.682495117 0 -30335121.682495117 66773677.35748291 0 0 0 0 -15747752.904341877 228629166.4017868 0 228629166.4017868 -108861523.34937668 0 0 0 0 91850499.200733572 45769681.090614319 0 45769681.090614319 -379391956.60723877 0 0 0 0 -23480905.236093685 27836151.297750473 0 27836151.297750473 -111795905.70440674 0 0 0 0 -42271889.632464558 -61632875.305100441 0 -61632875.305100441 -162185627.87666321 0 0 0 0 -80068.642029323251 -215057.33900256548 0 -215057.33900256548 -434129.96563987434 0 0 0 0 18992260.690438688 -14711684.027076721 0 -14711684.027076721 -218816647.18251371 0 0 0 0 3525129.4561847448 59598.014221191406 0 59598.014221191406 -217555367.47674561 0 0 0 0 39349722.034109265 -34723877.093414307 0 -34723877.093414307 -253325933.83880615 0 0 0 0 20202812.573843241 866408.02074432373 0 866408.02074432373 103548491.64885712 0 0 0 0 8780540.0483417511 50261652.448879242 0 50261652.448879242 -610958.21326446533 0 0 0 0 56671519.511901498 28342609.402256012 0 28342609.402256012 8666589.9140930176 0 0 0 0 -381880.25085361861 58336.29405105859 0 58336.29405105859 -58007.307290874422 0 0 0 0 -48613084.960984945 84751042.336425781 0 84751042.336425781 150582417.01784515 0 0 0 0 -14700779.850500166 110017728.23178101 0 110017728.23178101 44274456.229736328 0 0 0 0 -39067828.107784986 105052147.71104431 0 105052147.71104431 117398693.47175598 0 0 0 0 -73290299.853742063 108083068.32006836 0 108083068.32006836 52199260.481864929 0 0 0 0 5904544.2302383184 42646688.132904053 0 42646688.132904053 -72673697.185813904 0 0 0 0 5971311.269940719 45140180.377324224 0 45140180.377324224 3865373.8501586914 0 0 0 0 -14479536.805811763 66744680.476564407 0 66744680.476564407 -100795816.12792969 0 0 0 0 43380597.658901349 24447004.920724869 0 24447004.920724869 -17325334.097366333 0 0 0 0 42256213.180363297 7056008.1756362915 0 7056008.1756362915 -84394367.026863098 0 0 0 0 24203549.169236422 -16409692.313995361 0 -16409692.313995361 -32150694.477851868 0 0 0 0 25099779.034918785 -12920388.00075531 0 -12920388.00075531 -44894547.588459015 0 0 0 0 7810130.5444463491 -20527203.812129974 0 -20527203.812129974 -61838563.637046814 0 0 0 0 12791917.6603899 -31338131.106010437 0 -31338131.106010437 -51664545.633914948 0 0 0 0 -23441864.998008013 -80289681.779840469 0 -80289681.779840469 -168490527.20187378 0 0 0 0 8789767.3187494278 5286451.3686485291 0 5286451.3686485291 -4796481.5379047394 0 0 0 0 19109672.037645206 13199783.070564032 0 13199783.070564032 -678512.07949066162 0 0 0 0 28887747.57522893 3307099.8611831665 0 3307099.8611831665 -12646047.765884399 0 0 0 0 18667389.065974236 7026164.3463058472 0 7026164.3463058472 -11693237.817230225 0 0 0 0 9360390.3258550167 18014072.364200592 0 18014072.364200592 30454310.869033813 0 0 0 0 35426691.626407146 27657081.813135147 0 27657081.813135147 -925751.98947143555 0 0 0 0 29764177.137085676 18590316.928344727 0 18590316.928344727 7928030.5445709229 0 0 0 0 4767742.0486725569 7119657.2431411743 0 7119657.2431411743 8216961.4082717896 0 0 0 0 20009018.915089369 -14144946.086421967 0 -14144946.086421967 -6911339.026473999 0 0 0 0 -834462.06383276184 221403.18056004494 0 221403.18056004494 -204013.13601928018 0 0 0 0 23022764.385275841 38054595.837051392 0 38054595.837051392 39994746.954200745 0 0 0 0 -7377626.6443009377 49497272.586914062 0 49497272.586914062 -132675813.53316498 0 0 0 0 -107003212.01826108 1505775.2147979736 0 1505775.2147979736 -38949961.015907288 0 0 0 0 65371145.112100571 83477247.411247253 0 83477247.411247253 -95086446.350234985 0 0 0 0 51156065.860622138 54819741.539722443 0 54819741.539722443 -132271452.48593903 0 0 0 0 16454655.421464264 93867725.352859497 0 93867725.352859497 -175353289.9994812 0 0 0 0 -38173233.6658687 64588031.466814041 0 64588031.466814041 -74671739.421989441 0 0 0 0 29583090.421650887 -76331657.45980835 0 -76331657.45980835 -286145776.95806885 0 0 0 0 -207303.88076685538 145737.39933601022 0 145737.39933601022 -139520.47326560691 0 0 0 0 -4442413.6798865795 7552798.0376243591 0 7552798.0376243591 21161182.311195374 0 0 0 0 8370550.9663791433 55619824.497119904 0 55619824.497119904 -142764030.18157196 0 0 0 0 18821501.625654995 -32472930.700340271 0 -32472930.700340271 -187678330.18555641 0 0 0 0 2899555.9585185051 -3022385.6615524292 0 -3022385.6615524292 -6616631.4096908569 0 0 0 0 -563441.38985982421 456820.424190633 0 456820.424190633 -394195.51988471672 0 0 0 0 -1055728.4847011566 15681894.850618362 0 15681894.850618362 7316775.4473266602 0 0 0 0 -7423621.3999814987 -3914309.3802947998 0 -3914309.3802947998 -4156115.7502670288 0 0 0 0 437880.08217120171 -7272130.7788314819 0 -7272130.7788314819 2517200.0232887268 0 0 0 0 9365678.6323158145 2380189.8604106903 0 2380189.8604106903 -16035081.41859436 0 0 0 0 2116348.794570446 1606527.0979995728 0 1606527.0979995728 -14724226.981231689 0 0 0 0 -872381.28962426377 453842.84757390246 0 453842.84757390246 -511138.01905917935 0 0 0 0 6118095.066059351 6731657.7561759949 0 6731657.7561759949 3101839.7261543274 0 0 0 0 -27578.465587213257 45872.189570239512 0 45872.189570239512 1245.1384038850665 0 0 0 0 646626.9575214386 -1830026.8966140747 0 -1830026.8966140747 -4893582.2393798828 0 0 0 0 -11047.89399765589 1071937.3713122271 0 1071937.3713122271 -2128571.1167620718 0 0 0 0 6333631.4031195156 -1296360.4685192108 0 -1296360.4685192108 -2944026.2551116943 0 0 0 0 2204194.9457004555 -4690309.5964431763 0 -4690309.5964431763 -5081587.8819863796 0 0 0 0 9609799.6874103546 5926563.4964981079 0 5926563.4964981079 -1191322.2695922852 0 0 0 0 2995270.5051074028 4571286.1160006523 0 4571286.1160006523 1614858.9973983765 0 0 0 0 -316890.22280281875 2031562.5256347656 0 2031562.5256347656 -5164957.9333496094 0 0 0 0 -1586357.9393732238 2494373.9685325623 0 2494373.9685325623 -4275151.2555236816 0 0 0 0 -293014.75062273256 2890134.8967208862 0 2890134.8967208862 -6657134.5429077148 0 0 0 0 31915.145970198049 -67936.846821842715 0 -67936.846821842715 60321.912446811795 0 0 0 0 -824309.21447378583 -1228542.8462600708 0 -1228542.8462600708 -217072.62835693359 0 0 0 0 -2423652.310209977 4838207.242149353 0 4838207.242149353 -8016896.0838546753 0 0 0 0 1796099.1597683784 -679271.13931274414 0 -679271.13931274414 -499726.14078521729 0 0 0 0 1190057.5117251154 -246514.72639930248 0 -246514.72639930248 -1100215.1535320431 0 0 0 0 3656829.8385062218 -998130.54072570801 0 -998130.54072570801 -4764301.632183075 0 0 0 0 411686.00743588805 214315.9807434082 0 214315.9807434082 -14733.889251708984 0 0 0 0 6036251.6324901581 -1113651.068069458 0 -1113651.068069458 -6561784.0639343262 0 0 0 0 6914564.7449865341 2013195.2930297852 0 2013195.2930297852 -2973643.9355392456 0 0 0 0 823852.44728660583 -710660.46357727051 0 -710660.46357727051 -3712622.1771221161 0 0 0 0 265485.02568057523 470810.0550555978 0 470810.0550555978 -1070829.8924424723 0 0 0 0 -470971.17816344113 712831.23821258545 0 712831.23821258545 -1808139.7247848511 0 0 0 0 -1232664.4574971199 2100389.2118206024 0 2100389.2118206024 18337.870788574219 0 0 0 0 699.62682127282824 1225284.6424560547 0 1225284.6424560547 -3124448.050491333 0 0 0 0 -1363502.1430591017 1898868.8502731323 0 1898868.8502731323 -1170228.7789611816 0 0 0 0 -853427.08916994999 918369.62636566162 0 918369.62636566162 -2271104.1402740479 0 0 0 0 68500.802640983442 -153395.76540457457 0 -153395.76540457457 139404.39689476043 0 0 0 0 -336259.44173665222 1576505.441365242 0 1576505.441365242 -2247983.4213562012 0 0 0 0 382451.21042969922 116759.52047169209 0 116759.52047169209 -1066248.9574509151 0 0 0 0 586.88081119772164 115335.31362915039 0 115335.31362915039 -644991.74328613281 0 0 0 0 -169609.23540183157 607052.32374572754 0 607052.32374572754 -1140843.744468689 0 0 0 0 -437709.35312383209 464797.67457124218 0 464797.67457124218 -407144.13930799812 0 0 0 0 -40975612.341358803 -20588753.520057678 0 -20588753.520057678 43378.881138801575 0 0 0 0 -637809.94854955585 826387.82529254258 0 826387.82529254258 -769896.91116866842 0 0 0 0 2351019.9675915241 4488134.2194061279 0 4488134.2194061279 334499.71623706818 0 0 0 0 8971520.1590476036 959346.70785522461 0 959346.70785522461 -6078237.7602825165 0 0 0 0 8109185.9871559143 3221662.6785583496 0 3221662.6785583496 -4013586.9590835571 0 0 0 0 -4071.6427764693153 16442005.540446281 0 16442005.540446281 -79957161.74118042 0 0 0 0 -10615788.47718991 25750952.194989204 0 25750952.194989204 32262573.907306671 0 0 0 0 9231.3836913308041 85630.024440124631 0 85630.024440124631 -282660.09776759893 0 0 0 0 37878445.872980893 -36849398.342990875 0 -36849398.342990875 -187024384.34710693 0 0 0 0 -46445647.927347526 64815828.887518883 0 64815828.887518883 -193767810.64815521 0 0 0 0 -42923528.709117472 -30172520.902713776 0 -30172520.902713776 5703544.5757217407 0 0 0 0 18208.563217357441 157486.38346152939 0 157486.38346152939 -603181.73727823049 0 0 0 0 7452977.2021249533 51580077.939907074 0 51580077.939907074 -1357261.8605382442 0 0 0 0 46229616.112566672 110039752.08486748 0 110039752.08486748 83172271.585464478 0 0 0 0 82601129.259357378 -35592010.373794198 0 -35592010.373794198 -225100687.76847839 0 0 0 0 85463810.118273437 113424311.14485168 0 113424311.14485168 24549074.346353531 0 0 0 0 -102330604.43591179 -5223734.0420837402 0 -5223734.0420837402 96677720.880496502 0 0 0 0 -6246897.8928900603 -62479274.030555725 0 -62479274.030555725 -105233365.62653351 0 0 0 0 7428225.3001861852 7377183.4546823502 0 7377183.4546823502 -10349819.746162415 0 0 0 0 23181785.051905442 14868119.681059837 0 14868119.681059837 -56342791.837463379 0 0 0 0 1154032.0882325838 -34353260.077074051 0 -34353260.077074051 -34275394.386283875 0 0 0 0 8791836.3814993761 19045.973175048828 0 19045.973175048828 -6437931.277923584 0 0 0 0 56757.245229254826 -161524.76622025529 0 -161524.76622025529 -64497.608357660472 0 0 0 0 -3994120.9728934653 -2645139.361076355 0 -2645139.361076355 -4235069.2067718506 0 0 0 0 -2755304.4561697654 2469701.5818405151 0 2469701.5818405151 -11118729.45475769 0 0 0 0 6075489.5905280486 -4211483.6999664307 0 -4211483.6999664307 -8286363.9918518066 0 0 0 0 1797681.5596357509 -5751598.2922668457 0 -5751598.2922668457 -7948338.2747497559 0 0 0 0 2992852.9921768866 1816461.2241821289 0 1816461.2241821289 537653.98489379883 0 0 0 0 414362.49768798053 -1824382.1415100098 0 -1824382.1415100098 -3452950.1734962463 0 0 0 0 1568088.9392965548 243634.72066497803 0 243634.72066497803 -3984264.920715332 0 0 0 0 -1967436.4804014526 -114109.53536987305 0 -114109.53536987305 -801637.47320556641 0 0 0 0 -1697543.3427035222 -267539.88220214844 0 -267539.88220214844 -3688991.4793395996 0 0 0 0 -3558182.4028084902 -499023.15601348877 0 -499023.15601348877 -658709.24320983887 0 0 0 0 -2620722.3920297022 -2497583.8476409912 0 -2497583.8476409912 -4797557.7313842773 0 0 0 0 -3530154.2418904784 -1742084.4836730957 0 -1742084.4836730957 -2392130.7549591064 0 0 0 0 -3558.1825187011918 -1419047.8310127258 0 -1419047.8310127258 -16331976.996429443 0 0 0 0 285174.05024031829 4699985.1568984985 0 4699985.1568984985 -4476568.2597141266 0 0 0 0 1922470.4399182769 2089466.1154670715 0 2089466.1154670715 -35489858.377243042 0 0 0 0 -1161552.1496213032 -672823.90501785278 0 -672823.90501785278 -13731069.845870972 0 0 0 0 -1489891.2371230824 4344375.0644073486 0 4344375.0644073486 -34875951.809693456 0 0 0 0 10330430.198639657 24053286.461265564 0 24053286.461265564 -26983578.805656433 0 0 0 0 -221782.55961634591 6261694.8118438721 0 6261694.8118438721 -34878971.159240723 0 0 0 0 -8477380.7367503345 2869627.4912414551 0 2869627.4912414551 -8834178.7958078384 0 0 0 0 -29811102.604210727 18358605.905174255 0 18358605.905174255 10402022.954650879 0 0 0 0 -33174820.654628009 -39737604.960781097 0 -39737604.960781097 -40062266.084335327 0 0 0 0 77862.817758932841 -69420.164920422249 0 -69420.164920422249 -113019.67951115966 0 0 0 0 -19450855.87123033 -30751787.598701477 0 -30751787.598701477 -23175590.548828125 0 0 0 0 -6889709.3284629211 -16328404.797302246 0 -16328404.797302246 -16924268.360458374 0 0 0 0 -16181266.972367872 -8601602.5227584839 0 -8601602.5227584839 2324488.7738800049 0 0 0 0 -21859189.967540104 -20121103.196894646 0 -20121103.196894646 -9819969.6265258789 0 0 0 0 1035128.0915410183 -31087821.032176971 0 -31087821.032176971 -55395689.979812622 0 0 0 0 -2469859.5119917169 -22568719.536865234 0 -22568719.536865234 -28244511.392486572 0 0 0 0 -8720904.2939048726 -18756395.18522644 0 -18756395.18522644 -16535186.275268555 0 0 0 0 7652972.3383671269 -16764283.790100098 0 -16764283.790100098 -38749319.969043732 0 0 0 0 7687662.5085684136 -17252664.806663513 0 -17252664.806663513 -34986905.773674011 0 0 0 0 2069340.0377128795 -9519623.5328979492 0 -9519623.5328979492 -15655079.176330566 0 0 0 0 -89100.009169280529 -9706459.7649993896 0 -9706459.7649993896 -11182470.52986145 0 0 0 0 253216.49371572584 -13950662.985321045 0 -13950662.985321045 -24447954.305526733 0 0 0 0 -2789913.965820686 -8322588.2256317139 0 -8322588.2256317139 -11786385.218017578 0 0 0 0 -578965.93246952444 -3672447.1576309204 0 -3672447.1576309204 -5132506.9401931763 0 0 0 0 -605421.93783022463 -3679735.7330093384 0 -3679735.7330093384 -6012020.4319458008 0 0 0 0 323897.34327448905 -7693441.532623291 0 -7693441.532623291 -16067002.149463654 0 0 0 0 15399337.934252137 5302955.4167900085 0 5302955.4167900085 -9772407.8565673828 0 0 0 0 -6389694.384163592 -34510701.296127319 0 -34510701.296127319 6350240.5485639572 0 0 0 0 284686.60036802181 -304942.98803352052 0 -304942.98803352052 -280664.76051431894 0 0 0 0 10690467.229703054 -1567819.6361503601 0 -1567819.6361503601 -7101205.5602416992 0 0 0 0 50833.155933026224 2869476.1410064697 0 2869476.1410064697 -3429021.0260925293 0 0 0 0 6672577.069090426 2277238.8825798035 0 2277238.8825798035 1290578.4368362427 0 0 0 0 695127.4682876037 -1005738.8737715827 0 -1005738.8737715827 -480732.15374530107 0 0 0 0 -3373265.9519074 -7868165.0838279724 0 -7868165.0838279724 5654725.880065918 0 0 0 0 1459342.3851801353 -3656887.0047302246 0 -3656887.0047302246 2351272.9010009766 0 0 0 0 1074523.3189258389 1997044.2037353516 0 1997044.2037353516 3600220.9307289124 0 0 0 0 1466044.4255444724 -3137546.0970344543 0 -3137546.0970344543 -6177204.4293670654 0 0 0 0 2402096.4606788531 -4296296.5868110657 0 -4296296.5868110657 -5505879.5151367188 0 0 0 0 2753375.4024561457 1583377.2671966553 0 1583377.2671966553 -1125094.7880020142 0 0 0 0 1430253.9567727 -1661339.1284563877 0 -1661339.1284563877 -808359.63204297412 0 0 0 0 5214120.3618001938 1624174.214012146 0 1624174.214012146 -10715233.655464172 0 0 0 0 -19351.125053178519 -67925.862693786621 0 -67925.862693786621 6371049.5719223022 0 0 0 0 4383667.8997009303 -988526.59314346313 0 -988526.59314346313 -3115156.4563598633 0 0 0 0 1153945.8360082475 -633738.36119042337 0 -633738.36119042337 -1361102.1300623082 0 0 0 0 491134.06815530424 -526117.47505531274 0 -526117.47505531274 -1412143.869027622 0 0 0 0 2458536.8491399288 824749.52053833008 0 824749.52053833008 3280551.7347412109 0 0 0 0 1608231.0483487239 -1018874.9411102943 0 -1018874.9411102943 -1832136.277426213 0 0 0 0 982605.70349624753 -256253.2438583374 0 -256253.2438583374 -1669378.1162109375 0 0 0 0 1222574.4048779309 -1208421.2704022899 0 -1208421.2704022899 -1334061.2197394893 0 0 0 0 1171042.5735811219 -327376.69774606451 0 -327376.69774606451 -1371340.1187262535 0 0 0 0 900876.76408743858 -42079.325202941895 0 -42079.325202941895 -1303097.4443206787 0 0 0 0 1557495.7299988912 -208068.83812256157 0 -208068.83812256157 -2585848.4871157142 0 0 0 0 549362.80128541589 581596.67259407043 0 581596.67259407043 -1032393.6132354736 0 0 0 0 560905.87187707424 770884.01139831543 0 770884.01139831543 -2641777.4355406761 0 0 0 0 -5870.7677404550341 266026.44118924811 0 266026.44118924811 -1782728.9780249691 0 0 0 0 305348.68190573016 -67786.705596923828 0 -67786.705596923828 -2771429.2721607685 0 0 0 0 48595.949095829885 -306625.89636230469 0 -306625.89636230469 -2265070.8756103516 0 0 0 0 206480.30401192547 -636961.42086931318 0 -636961.42086931318 -231938.04577555507 0 0 0 0 381114.25624149642 -53674.421515505761 0 -53674.421515505761 -742865.4390341416 0 0 0 0 1998526.0614252687 -2221801.5238647461 0 -2221801.5238647461 -1068080.9306716919 0 0 0 0 175935.26409760752 99431.797409057617 0 99431.797409057617 -2239229.702609539 0 0 0 0 341200.07750004914 -258330.3666229248 0 -258330.3666229248 -2207571.2155761719 0 0 0 0 -1047823.0820594151 -2141499.665977478 0 -2141499.665977478 -108285.1423034668 0 0 0 0 -613752.91756064817 -1271276.1913108826 0 -1271276.1913108826 1352794.1152191162 0 0 0 0 270.06108729276264 -347704.67706680298 0 -347704.67706680298 -2130614.7376861572 0 0 0 0 921445.94594986946 -1143705.8378982544 0 -1143705.8378982544 -2999157.0403213501 0 0 0 0 936683.71371152578 634959.34107208252 0 634959.34107208252 -1592906.4803848267 0 0 0 0 89712.939944585029 -25009.01111715287 0 -25009.01111715287 -202142.3272607848 0 0 0 0 -1954070.6424359083 -558226.32797241211 0 -558226.32797241211 -656524.39810085297 0 0 0 0 -3132.8041645989406 142268.42018824816 0 142268.42018824816 -1458776.3379956377 0 0 0 0 440111.81719932007 -149404.13874435425 0 -149404.13874435425 -2994902.0575714111 0 0 0 0 41157.408411907847 -112352.37730407715 0 -112352.37730407715 -2271447.6972045898 0 0 0 0 -25687.283433257602 1499295.8749237061 0 1499295.8749237061 -1470065.0406992435 0 0 0 0 267.07461950611241 1570156.9843711853 0 1570156.9843711853 -1663241.5867767334 0 0 0 0 794881.99882589234 1036000.6627464294 0 1036000.6627464294 -2351672.650428772 0 0 0 0 -158441.22327544563 1134274.486289978 0 1134274.486289978 -2018706.2017059326 0 0 0 0 781099.89236881491 1553139.8319091797 0 1553139.8319091797 -1848516.5524787903 0 0 0 0 699869.60540896188 1033190.0059285164 0 1033190.0059285164 -2246329.883972168 0 0 0 0 73935.558652740438 1746114.9232292175 0 1746114.9232292175 -1674770.5093536377 0 0 0 0 2097973.8922694158 1128264.7631587982 0 1128264.7631587982 -2243783.1201629639 0 0 0 0 1169847.1337548147 2326298.9951953888 0 2326298.9951953888 -1571688.4023590088 0 0 0 0 -642.97857805259991 1622577.1602401733 0 1622577.1602401733 -1605105.6925354004 0 0 0 0 79301.677268158644 1618620.9180717468 0 1618620.9180717468 -1633654.2331314087 0 0 0 0 -169167.78601386445 840465.96712493896 0 840465.96712493896 -3104849.6350479126 0 0 0 0 1174037.9077801472 3088599.6745681763 0 3088599.6745681763 -892528.97966766357 0 0 0 0 -418793.58819345897 1580401.4393196106 0 1580401.4393196106 -1219164.4888401031 0 0 0 0 590443.0258673951 1026444.486541748 0 1026444.486541748 -9094015.0367794037 0 0 0 0 -374569.22549733147 247709.28385734558 0 247709.28385734558 -2697772.402557373 0 0 0 0 65.002256099141164 1494325.9039648944 0 1494325.9039648944 -3668647.3905334473 0 0 0 0 164625.02277037734 244473.48212432861 0 244473.48212432861 -6346809.1622452736 0 0 0 0 9427292.0174306631 6570757.3089542389 0 6570757.3089542389 -3177611.110168457 0 0 0 0 4330954.8562809229 1501716.9866371155 0 1501716.9866371155 -3403180.8614273071 0 0 0 0 19166.291111259121 1141925.6938875669 0 1141925.6938875669 -2530487.5146517009 0 0 0 0 13631994.417142391 6995550.4637298584 0 6995550.4637298584 -3787941.8296890259 0 0 0 0 6375146.7803344168 5777876.092666626 0 5777876.092666626 -5514123.5423485041 0 0 0 0 8048236.5637276173 6812273.6064376831 0 6812273.6064376831 616662.4942855835 0 0 0 0 11031323.643010616 -1254586.3625869751 0 -1254586.3625869751 -4210589.5023841858 0 0 0 0 3335775.2303209603 2971563.722738266 0 2971563.722738266 -5824292.2719573975 0 0 0 0 3209981.5338273048 -6845553.1995239258 0 -6845553.1995239258 -16504871.171737671 0 0 0 0 26649303.241055727 10781025.8111763 0 10781025.8111763 -10210547.45085907 0 0 0 0 3904977.3267140938 2343647.1376800537 0 2343647.1376800537 -2662626.3295669556 0 0 0 0 166166.34277484252 1086934.739177091 0 1086934.739177091 -2932257.4397193417 0 0 0 0 -3813283.1077851057 13014693.219688416 0 13014693.219688416 2191191.2941741943 0 0 0 0 4185588.5905034542 605793.18494033813 0 605793.18494033813 -3570781.8016666174 0 0 0 0 613855.85546587885 -1007165.2886782959 0 -1007165.2886782959 -356001.4565249458 0 0 0 0 16461873.66778183 -14035116.275535583 0 -14035116.275535583 -13014965.716903687 0 0 0 0 53743.036875724792 -3280708.7086219788 0 -3280708.7086219788 1732032.3014290333 0 0 0 0 532587.38754107221 689769.86624662764 0 689769.86624662764 -3348539.3354865536 0 0 0 0 1010154.8170426051 -11367.794529359788 0 -11367.794529359788 -1858081.7199094109 0 0 0 0 4427953.6293308139 -845754.9001994133 0 -845754.9001994133 -11244571.433891296 0 0 0 0 1713446.1147460938 -6345436.5434036255 0 -6345436.5434036255 -16668430.257255554 0 0 0 0 84923.090615897789 -58522.094273131341 0 -58522.094273131341 -342655.73120556772 0 0 0 0 -2563919.0780448914 -2025187.2486953735 0 -2025187.2486953735 -4566629.2530212402 0 0 0 0 1968913.3176870346 9717981.934463501 0 9717981.934463501 -2791770.5494995117 0 0 0 0 239350.98145595193 3807492.6474170685 0 3807492.6474170685 -12508837.035972595 0 0 0 0 -1446545.9311908484 3834885.7860794067 0 3834885.7860794067 -12108127.208488464 0 0 0 0 -1952170.7027301788 -716407.43803787231 0 -716407.43803787231 -15242875.362686157 0 0 0 0 -923048.96808332205 -13256170.678438187 0 -13256170.678438187 -23519775.752578735 0 0 0 0 4112384.6723715067 -2311767.1481869221 0 -2311767.1481869221 -22831339.294120789 0 0 0 0 -3938734.4154794216 2640814.3619384766 0 2640814.3619384766 -7857480.380645752 0 0 0 0 6310473.6347773075 961146.95895767212 0 961146.95895767212 -7620833.2887659073 0 0 0 0 -4942531.4799561799 -5699732.1227362156 0 -5699732.1227362156 -3901980.1673049927 0 0 0 0 3950130.4905350208 -8376615.2976455688 0 -8376615.2976455688 -4556862.4032382965 0 0 0 0 11819728.864246726 -8162807.2098703384 0 -8162807.2098703384 -20074357.363616943 0 0 0 0 2854363.0285714865 -10351239.950969696 0 -10351239.950969696 -7787465.1903076172 0 0 0 0 15202920.822693229 1641880.1639842987 0 1641880.1639842987 -7583767.2452697754 0 0 0 0 1075136.643843174 -4556747.6398735046 0 -4556747.6398735046 -9314849.9300003052 0 0 0 0 -12617597.850999594 -24006089.138267517 0 -24006089.138267517 10952782.90123558 0 0 0 0 -2835036.0190058947 -39754136.242076874 0 -39754136.242076874 14748391.285102844 0 0 0 0 -8842975.1687420607 -76586171.063316345 0 -76586171.063316345 -57391478.624718666 0 0 0 0 -82939.777963399887 -35686657.807975769 0 -35686657.807975769 -26285946.818325043 0 0 0 0 2822068.7283960753 -20365039.610637121 0 -20365039.610637121 -1578815.0711517334 0 0 0 0 -6389536.1035932302 2861887.4367179871 0 2861887.4367179871 8609897.2872076035 0 0 0 0 -8360007.5285040736 -20329952.433948517 0 -20329952.433948517 12262583.671478271 0 0 0 0 16312599.462424278 37207153.432357788 0 37207153.432357788 50702360.614494324 0 0 0 0 -37437595.105870396 -21566371.007167816 0 -21566371.007167816 87197744.598846436 0 0 0 0 -7202589.4000014067 4817153.6586799622 0 4817153.6586799622 12324548.677467346 0 0 0 0 22550564.88076663 12232531.779716492 0 12232531.779716492 -8068585.7290725708 0 0 0 0 4374784.0158223212 5491874.789390564 0 5491874.789390564 -9189037.9742507935 0 0 0 0 -2012404.4619668722 -1519599.3184661865 0 -1519599.3184661865 -1033034.5035705566 0 0 0 0 -1209424.7979261875 501385.92005157471 0 501385.92005157471 -19285376.146945953 0 0 0 0 1771709.9945412874 8827307.3441238403 0 8827307.3441238403 -11240987.557159424 0 0 0 0 4513643.1119649261 848898.34144306183 0 848898.34144306183 -18174093.351608276 0 0 0 0 -4237448.1387198269 3081715.5636940002 0 3081715.5636940002 -18453724.178695679 0 0 0 0 2881597.1898408309 -7090512.5271110535 0 -7090512.5271110535 -5850573.650390625 0 0 0 0 -3272331.4502144456 -12150002.234451294 0 -12150002.234451294 -12041543.016189575 0 0 0 0 -664162.68526907265 -7242257.8728256226 0 -7242257.8728256226 -5826307.2185668945 0 0 0 0 -9435002.2707117498 -5667832.6544342041 0 -5667832.6544342041 -2649486.9405603409 0 0 0 0 3550164.2362356037 -6806094.7295646667 0 -6806094.7295646667 -2753670.6948242188 0 0 0 0 -1848863.0433385167 -3563264.1350240707 0 -3563264.1350240707 -12020414.290008545 0 0 0 0 -5209782.0835582316 -5457847.9381580353 0 -5457847.9381580353 9923842.4610290527 0 0 0 0 511327.72287185298 -1888219.0245588124 0 -1888219.0245588124 -1167914.729243652 0 0 0 0 4122129.8648957014 4334035.9780788422 0 4334035.9780788422 -28731329.070648193 0 0 0 0 965858.14078099048 -1809283.9795946479 0 -1809283.9795946479 -787590.06723980396 0 0 0 0 -363355.67685222626 4279985.9585266113 0 4279985.9585266113 1379503.7847137451 0 0 0 0 2506901.8272533417 1160214.3414001465 0 1160214.3414001465 -18735982.74344635 0 0 0 0 -4603967.5305801928 -2989127.0163345337 0 -2989127.0163345337 13249723.43181324 0 0 0 0 4349175.0473822355 2108631.5333213806 0 2108631.5333213806 80073.692230224609 0 0 0 0 -2854788.6815890372 -677765.4069519043 0 -677765.4069519043 123658.78708064556 0 0 0 0 2706151.859574005 1917927.1521911621 0 1917927.1521911621 -11776986.416702271 0 0 0 0 -4585383.5952182412 -2964484.5237350464 0 -2964484.5237350464 -1258867.3642425537 0 0 0 0 429024.54300898314 -455679.84882354736 0 -455679.84882354736 -13554096.705535889 0 0 0 0 -7909223.3273725808 -647848.84190368652 0 -647848.84190368652 -13558525.544403076 0 0 0 0 1513693.0992070427 2108288.8138380051 0 2108288.8138380051 -28417158.896484375 0 0 0 0 941765.55246358924 -2786457.0032095909 0 -2786457.0032095909 -25763657.018936157 0 0 0 0 -6330929.5991841853 3606560.3333511353 0 3606560.3333511353 -28628658.60993576 0 0 0 0 -359523.59000597894 -4286859.304069519 0 -4286859.304069519 -13992766.788608551 0 0 0 0 1770835.1855775192 -3217805.6946716309 0 -3217805.6946716309 -19912271.885803223 0 0 0 0 3970093.2008354068 -4236567.4965667725 0 -4236567.4965667725 -28657039.790510178 0 0 0 0 3195364.7063886523 -11288067.207679749 0 -11288067.207679749 -25972234.524673462 0 0 0 0 11257258.111714754 -13740556.454273224 0 -13740556.454273224 -47375546.529457092 0 0 0 0 6654751.7709200829 -7868837.6634063721 0 -7868837.6634063721 -30174650.421913147 0 0 0 0 6946627.1993629895 -7597658.288898468 0 -7597658.288898468 -42020633.372009277 0 0 0 0 11750551.17818445 -11707684.121757507 0 -11707684.121757507 -41495031.959142685 0 0 0 0 2646720.2312074006 -6148426.0547714233 0 -6148426.0547714233 -44619803.204528809 0 0 0 0 3279449.3539279103 -171953.28594207764 0 -171953.28594207764 -47854059.963562012 0 0 0 0 9547070.6226064116 -6682898.0520248413 0 -6682898.0520248413 -52623505.481781006 0 0 0 0 3011919.0175963994 -9540255.6016945839 0 -9540255.6016945839 -69482346.444091797 0 0 0 0 -26746929.797444969 3912618.9770584106 0 3912618.9770584106 -18397762.042930603 0 0 0 0 6005037.9271834493 -542392.27806091309 0 -542392.27806091309 -90570652.374816895 0 0 0 0 -12475558.3417705 19991028.181526184 0 19991028.181526184 -69711400.715583801 0 0 0 0 -13270467.148608148 11287406.780067444 0 11287406.780067444 -39302845.170654297 0 0 0 0 -1701936.292640686 -8581723.3138275146 0 -8581723.3138275146 -15696636.146835327 0 0 0 0 10014456.623985946 45349490.750053406 0 45349490.750053406 5498978.2072944641 0 0 0 0 -3418227.0442728698 -9455022.1170005798 0 -9455022.1170005798 -22460205.247909546 0 0 0 0 -2120971.069741711 -5334280.87059021 0 -5334280.87059021 -13521531.715087891 0 0 0 0 -17060427.81615448 -6922806.7513046265 0 -6922806.7513046265 -12641396.359138489 0 0 0 0 -7293078.0783872306 4278212.4315185547 0 4278212.4315185547 -26015279.950668335 0 0 0 0 -4935187.4695148133 -1291167.9861679077 0 -1291167.9861679077 -31071309.047988892 0 0 0 0 2623155.7648687363 -2854778.9501609802 0 -2854778.9501609802 -6843459.9628143311 0 0 0 0 1197212.5199368745 -3350648.9227294922 0 -3350648.9227294922 -6324301.6341400146 0 0 0 0 2048517.5733223632 -8773693.7849407196 0 -8773693.7849407196 -15534424.436775208 0 0 0 0 6211271.3007337153 -4625827.4588012695 0 -4625827.4588012695 -11423040.547299385 0 0 0 0 4916485.7411964461 3838570.6299800873 0 3838570.6299800873 -1929667.8431015015 0 0 0 0 -25566.75943428457 -44687.44855158776 0 -44687.44855158776 -330115.5098185204 0 0 0 0 11902049.493555829 606591.60369110107 0 606591.60369110107 -16075253.490103006 0 0 0 0 1150440.6387995034 -993261.94593048096 0 -993261.94593048096 -7369871.9402828217 0 0 0 0 10918.230408121577 -181849.43753903359 0 -181849.43753903359 -633678.34249765053 0 0 0 0 769652.02764213271 -962356.70061206818 0 -962356.70061206818 -3054828.2496795654 0 0 0 0 -37486548.813097745 -34296844.49622345 0 -34296844.49622345 -87097700.394838333 0 0 0 0 -160799771.66989493 -134136214.44418335 0 -134136214.44418335 -111779169.56663513 0 0 0 0 -124862864.53254426 -137337447.61958694 0 -137337447.61958694 -207862911.48162842 0 0 0 0 -219397056.68330365 -182525827.70827484 0 -182525827.70827484 -151737310.70504761 0 0 0 0 -41795.650716043318 -148722.72780008893 0 -148722.72780008893 -213545.97839696705 0 0 0 0 52824491.923568249 -47459599.102516174 0 -47459599.102516174 46408563.156471252 0 0 0 0 -199152.26043866752 49250.851614460349 0 49250.851614460349 -35320.887937430292 0 0 0 0 -57504778.851000898 -206918072.19504404 0 -206918072.19504404 303270986.26506805 0 0 0 0 43694343.074402213 -31914597.401885986 0 -31914597.401885986 20266863.714492798 0 0 0 0 -494474.58545462578 -1715669.2217272227 0 -1715669.2217272227 -1086845.4656100422 0 0 0 0 -18601566.334892988 -126190469.77450943 0 -126190469.77450943 -109563889.75335693 0 0 0 0 -2883984.4658401012 -141656753.52393341 0 -141656753.52393341 -396500335.34040833 0 0 0 0 -55123.756803393364 -2501108.5260925293 0 -2501108.5260925293 -4549816.6319274902 0 0 0 0 -209232.45059612393 -2610218.0060806274 0 -2610218.0060806274 -4512695.0652770996 0 0 0 0 64611.863896720111 -2724307.379447937 0 -2724307.379447937 -4805186.8027191162 0 0 0 0 442637.11152416468 -2430552.4150848389 0 -2430552.4150848389 -4667876.0014343262 0 0 0 0 -1048331.6845023102 -4503667.1233427394 0 -4503667.1233427394 -1421478.2277736515 0 0 0 0 -167180.29443901777 -3947243.7765731812 0 -3947243.7765731812 -4328804.4323768616 0 0 0 0 -1895709.1968336329 -5909489.9306335449 0 -5909489.9306335449 -6291457.4748535156 0 0 0 0 54974999.454321146 19274952.469394684 0 19274952.469394684 -9524009.9754486084 0 0 0 0 -72697127.203909278 -74545851.476051331 0 -74545851.476051331 -84747690.375793457 0 0 0 0 -187661889.08558846 -190253251.43598938 0 -190253251.43598938 -150894616.46859741 0 0 0 0 -47013110.197663307 4527787.1934967041 0 4527787.1934967041 -86397827.199882507 0 0 0 0 -13680593.538835526 96741791.10256958 0 96741791.10256958 -19740378.828285217 0 0 0 0 -260669691.01827931 -38422416.60320282 0 -38422416.60320282 146494654.91346741 0 0 0 0 33363524.982552409 483454.18456268311 0 483454.18456268311 -63642974.044281006 0 0 0 0 -55516126.73672092 15549360.462356567 0 15549360.462356567 53456877.546630859 0 0 0 0 -39473018.495696723 -23168379.955438614 0 -23168379.955438614 -37070536.980163574 0 0 0 0 -1217872.3702822416 -303121.23657475039 0 -303121.23657475039 1955495.2254833989 0 0 0 0 771499.1854544282 -26269966.864841461 0 -26269966.864841461 69410760.831161499 0 0 0 0 -10325591.94546628 -4407513.9083328247 0 -4407513.9083328247 36549997.701156616 0 0 0 0 -2003137.8589257451 -5959628.1472068727 0 -5959628.1472068727 -786889.58330079541 0 0 0 0 304703.45318968961 -3080976.0519736223 0 -3080976.0519736223 -6813419.9342251867 0 0 0 0 13599.695763885975 -5736765.4409103394 0 -5736765.4409103394 3439047.0464642048 0 0 0 0 -400600.56290648517 -2439863.3929554559 0 -2439863.3929554559 -4306314.9635258308 0 0 0 0 3743361.9495124817 -5299598.5578536987 0 -5299598.5578536987 -21993981.237608671 0 0 0 0 494447.41923969239 -6060218.9099349976 0 -6060218.9099349976 -8965512.3106765747 0 0 0 0 -1962105.233491682 -8082303.5279010627 0 -8082303.5279010627 -2863349.3302416578 0 0 0 0 998796.63343730569 -5178358.5660209656 0 -5178358.5660209656 -7705835.3204650879 0 0 0 0 -445304.23178863525 -5063617.1680297852 0 -5063617.1680297852 -6346875.6410143375 0 0 0 0 1479624.6786187291 -9334101.5766220093 0 -9334101.5766220093 -10583517.589037895 0 0 0 0 823545.92251244653 -6772438.2030279636 0 -6772438.2030279636 -6414082.0383605957 0 0 0 0 61718.331923526159 -2009090.3847830854 0 -2009090.3847830854 -2157080.2006507507 0 0 0 0 7478331.8897464871 -3157398.369178772 0 -3157398.369178772 -34292932.965402126 0 0 0 0 -589672.67044579983 -8182066.3101730347 0 -8182066.3101730347 -2207059.3780033588 0 0 0 0 630039.80605569482 1210208.9460601807 0 1210208.9460601807 -22719908.412628174 0 0 0 0 11718961.808775187 -8001939.01927948 0 -8001939.01927948 -18256929.850673676 0 0 0 0 1587701.661462009 -9220889.8429794312 0 -9220889.8429794312 -16798272.58140564 0 0 0 0 -1757329.7365796715 -6698177.6831054688 0 -6698177.6831054688 -13997542.383285522 0 0 0 0 2711953.914460659 -4473184.3855743408 0 -4473184.3855743408 -12889876.576042175 0 0 0 0 1748141.4157104492 -12986886.875930786 0 -12986886.875930786 -8930753.0238647461 0 0 0 0 1825145.1819241047 -10304487.949638367 0 -10304487.949638367 -7191196.6294555664 0 0 0 0 818891.051668784 -1056583.8597460408 0 -1056583.8597460408 -1398245.2539110184 0 0 0 0 16578189.194946289 -23654309.832633972 0 -23654309.832633972 -5504255.0584411621 0 0 0 0 -1197398.2607997553 -5056875.6520044375 0 -5056875.6520044375 -10081427.597222976 0 0 0 0 2753387.9438392222 -8574294.3912353516 0 -8574294.3912353516 -14723493.990119934 0 0 0 0 5189294.3968359232 -13321483.231506348 0 -13321483.231506348 -10518732.669830322 0 0 0 0 27533655.924650967 -3334920.0318984985 0 -3334920.0318984985 -22698863.328170776 0 0 0 0 16476704.204286009 11496747.844593048 0 11496747.844593048 4221257.5666503906 0 0 0 0 52527550.672692508 26379167.798400879 0 26379167.798400879 -6045345.0072174072 0 0 0 0 23806359.84162733 30932420.338027954 0 30932420.338027954 118651584.01173401 0 0 0 0 46196867.105595961 -898959.58554077148 0 -898959.58554077148 -8837187.1226654053 0 0 0 0 2063195.9517416677 645076.50103913248 0 645076.50103913248 -3075156.0118481405 0 0 0 0 24909711.621019363 12704877.113048553 0 12704877.113048553 -21061572.956056595 0 0 0 0 1066740.9487714819 1341716.0097543523 0 1341716.0097543523 -12872203.518297873 0 0 0 0 32500958.284442656 79941384.080048084 0 79941384.080048084 97816716.577377319 0 0 0 0 -10533183.660345912 92105871.637496948 0 92105871.637496948 96539840.41758728 0 0 0 0 73969316.584111482 28519213.297639847 0 28519213.297639847 55958100.411590576 0 0 0 0 -63327836.940282099 -23111803.152450562 0 -23111803.152450562 45349243.441375732 0 0 0 0 37981246.741893083 -11946863.035713196 0 -11946863.035713196 37058526.563468933 0 0 0 0 -43492397.146221042 42900214.920227051 0 42900214.920227051 116875427.6009903 0 0 0 0 31884062.038546562 1148889.5139312744 0 1148889.5139312744 -67205372.45955658 0 0 0 0 14090410.644357681 24933952.88256073 0 24933952.88256073 -98992804.683822632 0 0 0 0 62445267.57741642 -67705150.84854126 0 -67705150.84854126 -56061961.364425659 0 0 0 0 -195900.04728047448 -1005590.9688577579 0 -1005590.9688577579 -297988.85460800305 0 0 0 0 43740480.9604702 -10317544.306712151 0 -10317544.306712151 -188733474.30123901 0 0 0 0 1095863.3720785966 1833587.4317121543 0 1833587.4317121543 -13758713.813939422 0 0 0 0 17862086.485075772 57547356.752859354 0 57547356.752859354 -159641509.74538422 0 0 0 0 -40665143.135278702 153415312.94898987 0 153415312.94898987 -339950319.49032593 0 0 0 0 -49967816.950308323 57992555.849470139 0 57992555.849470139 -65908452.317790985 0 0 0 0 -101232519.19487262 -33184250.601961136 0 -33184250.601961136 140120316.18451691 0 0 0 0 24780099.074588403 10179988.275964499 0 10179988.275964499 -39351670.383125305 0 0 0 0 -269140.76225459576 16239115.466960907 0 16239115.466960907 -61915704.755214691 0 0 0 0 -19649164.468561888 13292624.282964706 0 13292624.282964706 -3487546.3561401367 0 0 0 0 -10301786.381647944 -5751317.793094635 0 -5751317.793094635 -1301687.1279983521 0 0 0 0 -2336946.0987782478 -17162120.590141296 0 -17162120.590141296 -10092262.416394234 0 0 0 0 7807345.2691035271 -9717250.6056365967 0 -9717250.6056365967 -8578547.3529663086 0 0 0 0 -954224.96380071924 -4777878.7439774899 0 -4777878.7439774899 -510655.93862159923 0 0 0 0 -20024955.54750371 -17987587.825159073 0 -17987587.825159073 10102406.694221497 0 0 0 0 16101534.494955599 -28223748.242248535 0 -28223748.242248535 -41451336.773986816 0 0 0 0 4622471.5393662453 -7617961.9433288574 0 -7617961.9433288574 -12696254.336975098 0 0 0 0 -525622.80283248506 -4206545.2166049946 0 -4206545.2166049946 -9762076.0593158528 0 0 0 0 5690348.2859950066 -7755170.8504447937 0 -7755170.8504447937 -16368125.711700439 0 0 0 0 -2908901.1682586968 -9184179.0772647858 0 -9184179.0772647858 -9766079.7372741699 0 0 0 0 50137.294095842517 -11745.302710473537 0 -11745.302710473537 -704950.05260750465 0 0 0 0 -1010967.9940900803 -7692173.7122974396 0 -7692173.7122974396 -20529108.445419312 0 0 0 0 -3388093.4358990192 -5602489.6612377167 0 -5602489.6612377167 -1780609.292755127 0 0 0 0 390897.85500260023 -621656.99594456889 0 -621656.99594456889 -6250399.4498941721 0 0 0 0 -8557247.2003917694 2521040.1102256775 0 2521040.1102256775 -14243808.122051239 0 0 0 0 -3721162.552729249 -7077101.6930122375 0 -7077101.6930122375 -27161808.390781403 0 0 0 0 1669098.5912630558 -10028885.725889206 0 -10028885.725889206 -31384466.540800095 0 0 0 0 -4318349.4267742634 -2122076.8308563232 0 -2122076.8308563232 -19386852.821563721 0 0 0 0 221166.64730297285 -256512.63873994723 0 -256512.63873994723 -2786414.4480432812 0 0 0 0 6183349.0634438992 596868.17060852051 0 596868.17060852051 -49539024.189777374 0 0 0 0 7721097.4411222935 -28123972.822914124 0 -28123972.822914124 -67455877.999422073 0 0 0 0 -4578470.2108085155 -41505193.726696014 0 -41505193.726696014 -56478181.546714783 0 0 0 0 222175.21618207183 -100138.48130595405 0 -100138.48130595405 -291467.22173384577 0 0 0 0 30205997.412949085 36862098.573947906 0 36862098.573947906 2158896.9383444786 0 0 0 0 24337138.70566678 10834647.450824738 0 10834647.450824738 -39148301.824211121 0 0 0 0 18032174.761134803 -21847484.643162727 0 -21847484.643162727 -50207369.576782227 0 0 0 0 12672497.938457012 -23492506.524904251 0 -23492506.524904251 -50098522.841148376 0 0 0 0 2074833.6452249289 -23673548.585662842 0 -23673548.585662842 -39199139.233867645 0 0 0 0 -2787526.5068099499 -34166908.908332825 0 -34166908.908332825 -45860385.370445251 0 0 0 0 8136614.935847044 -18644490.029777527 0 -18644490.029777527 -25812767.246076584 0 0 0 0 18310917.475850701 -16146157.937349319 0 -16146157.937349319 -40864794.127662659 0 0 0 0 17978957.822473526 -14043253.871009827 0 -14043253.871009827 -48576174.179092884 0 0 0 0 -6852961.2982099056 -18787380.905097961 0 -18787380.905097961 -38308341.630720139 0 0 0 0 16461278.664134741 -25805737.533359528 0 -25805737.533359528 -35999770.062513351 0 0 0 0 14751181.185038045 -14684962.774934769 0 -14684962.774934769 -38197516.376869202 0 0 0 0 3489324.0391403437 -21608357.709844589 0 -21608357.709844589 -23787061.990005493 0 0 0 0 5071736.8901436329 -15223104.991046906 0 -15223104.991046906 -31392899.352081299 0 0 0 0 119398.5453345821 7770.0487933587283 0 7770.0487933587283 -840404.81905134581 0 0 0 0 2366371.1781225801 -6507504.818113327 0 -6507504.818113327 -6260245.686050415 0 0 0 0 5843988.3389277458 -13048677.536167145 0 -13048677.536167145 -42133168.020248413 0 0 0 0 1901340.8070049286 -4522233.4571456909 0 -4522233.4571456909 -36114172.569320679 0 0 0 0 -514619.79173374176 -9549795.6290016174 0 -9549795.6290016174 -21641417.75958252 0 0 0 0 -91225.377736330032 -8137187.7581558228 0 -8137187.7581558228 -20965993.028516769 0 0 0 0 -4387943.0932196677 -18229548.014157295 0 -18229548.014157295 -25210862.363800049 0 0 0 0 793674.50817410438 -960699.06553269923 0 -960699.06553269923 -3825956.4965050481 0 0 0 0 -7162148.523878336 -10926124.639865875 0 -10926124.639865875 -20279772.697219849 0 0 0 0 708925.31347839325 -1449160.908664709 0 -1449160.908664709 -3113278.4464056455 0 0 0 0 -797667.35375547409 -10967497.242523193 0 -10967497.242523193 -28562167.247943878 0 0 0 0 -914308.17041436071 -6634180.313182123 0 -6634180.313182123 2043461.2493183212 0 0 0 0 -3331197.5904190615 -21106390.726493835 0 -21106390.726493835 -29105566.950714111 0 0 0 0 -659862.30473923683 -4900419.0675048828 0 -4900419.0675048828 -18639940.311473846 0 0 0 0 -937414.4146630764 1687165.2543144226 0 1687165.2543144226 4263072.0088500977 0 0 0 0 2525268.7010421199 -1792855.9118262623 0 -1792855.9118262623 -11535954.559751566 0 0 0 0 -4347695.107866168 -15297280.658378601 0 -15297280.658378601 5784154.9649047852 0 0 0 0 6657646.3308385462 -9487981.7651596069 0 -9487981.7651596069 -69264717.750770569 0 0 0 0 -2115032.0571782812 -13881391.237576485 0 -13881391.237576485 -35359293.331062317 0 0 0 0 -8358889.2393343449 -440020.58306884766 0 -440020.58306884766 -76825782.744047165 0 0 0 0 7521272.3083709478 -26819603.137390137 0 -26819603.137390137 -39257786.870910645 0 0 0 0 3140605.452942647 -7341809.3274364471 0 -7341809.3274364471 -44457305.954071045 0 0 0 0 9751791.7185671628 -18652640.628814697 0 -18652640.628814697 -74960739.719070435 0 0 0 0 -14046453.922057748 -30549656.366706848 0 -30549656.366706848 -34366175.321475983 0 0 0 0 -1066939.5229861222 -6774752.2125897463 0 -6774752.2125897463 -4589382.6101529049 0 0 0 0 645874.82327410579 -14886515.830680847 0 -14886515.830680847 11414923.01865387 0 0 0 0 -1592899.8344780207 -3399316.1121139526 0 -3399316.1121139526 -21850443.606018066 0 0 0 0 -5896258.6638580561 -9285737.1769485474 0 -9285737.1769485474 -8332545.8966293335 0 0 0 0 22927388.077368975 -30995767.828674316 0 -30995767.828674316 -38834476.337748528 0 0 0 0 24343734.181794226 -13690360.34866333 0 -13690360.34866333 -42723880.441955566 0 0 0 0 567418.06040288426 -20748.451356548816 0 -20748.451356548816 -1415635.651937563 0 0 0 0 -20453471.715410948 -33109039.215003967 0 -33109039.215003967 6712569.5879878998 0 0 0 0 12860292.169584349 -35712433.935676575 0 -35712433.935676575 -53165617.169158936 0 0 0 0 -1447327.6255295363 -6613264.2600368746 0 -6613264.2600368746 -4179586.8250719393 0 0 0 0 -4087821.9064223766 -2261446.1561584473 0 -2261446.1561584473 27149341.511493921 0 0 0 0 -27714312.740271568 707919.40428924561 0 707919.40428924561 28450239.853401184 0 0 0 0 -4896089.2313554287 -6635360.8146371841 0 -6635360.8146371841 -11950076.219165802 0 0 0 0 29417303.672216535 -11868795.294704437 0 -11868795.294704437 -208652982.90072632 0 0 0 0 13808740.975860596 -83030202.913925171 0 -83030202.913925171 -86170348.055053711 0 0 0 0 -20397540.975139856 -54795100.028251648 0 -54795100.028251648 -91345775.259140015 0 0 0 0 -12722497.169047475 -8743485.8590087891 0 -8743485.8590087891 -210261671.88749695 0 0 0 0 -3227236.5611922145 -4377500.6855926514 0 -4377500.6855926514 -76935610.272613525 0 0 0 0 -31936261.34403193 -8797696.1348800659 0 -8797696.1348800659 -77563808.169338226 0 0 0 0 -764185.77595082042 -272228.62544301152 0 -272228.62544301152 -714654.55188181251 0 0 0 0 9922441.6699836254 -14479957.915737152 0 -14479957.915737152 -132523553.91669464 0 0 0 0 25763752.195671022 22131123.892219543 0 22131123.892219543 -177201790.10364532 0 0 0 0 -105131130.88737774 83127357.60484314 0 83127357.60484314 -193489124.55874634 0 0 0 0 -386374.17800861946 -17986.975313477218 0 -17986.975313477218 -155904.80877107754 0 0 0 0 -293052066.13875329 -70276265.426212311 0 -70276265.426212311 266464691.98954773 0 0 0 0 90843596.479581356 6013142.4629058838 0 6013142.4629058838 -431303108.02313232 0 0 0 0 -81597669.487871468 -28317249.216751099 0 -28317249.216751099 -51286390.880622864 0 0 0 0 109318948.29792535 16903692.114807129 0 16903692.114807129 -58325519.924934387 0 0 0 0 64378444.179389253 -116449295.08848524 0 -116449295.08848524 102473797.35778809 0 0 0 0 42632899.39048171 -10073885.88848877 0 -10073885.88848877 -21037007.176856995 0 0 0 0 -907639.18860510841 -449292.99262861162 0 -449292.99262861162 -1585192.8102810774 0 0 0 0 12285732.895518422 -23666451.541202545 0 -23666451.541202545 46225516.315216064 0 0 0 0 3443053.3534315974 9026161.3954277039 0 9026161.3954277039 -98459293.614532471 0 0 0 0 11824554.415382355 -19851423.730911255 0 -19851423.730911255 -83935876.854934692 0 0 0 0 -10333120.349714935 4034123.1177825928 0 4034123.1177825928 -85108314.818199158 0 0 0 0 -8321122.7173030674 34222036.500152588 0 34222036.500152588 -128782688.18960571 0 0 0 0 42542702.190999389 -2108823.593296051 0 -2108823.593296051 -37117127.935100555 0 0 0 0 20134894.559428215 11258410.481430054 0 11258410.481430054 -44851806.696342468 0 0 0 0 19256017.7317729 4483911.4257202148 0 4483911.4257202148 -31036285.660995483 0 0 0 0 20301068.670230389 -6422737.386756897 0 -6422737.386756897 -43077215.288345337 0 0 0 0 16932924.165655196 -14535621.077600956 0 -14535621.077600956 -32350989.840011597 0 0 0 0 47606931.925309002 -22606510.42628479 0 -22606510.42628479 -16543812.525382996 0 0 0 0 20131923.829343975 -4626588.0333099365 0 -4626588.0333099365 -13289665.051635742 0 0 0 0 74790394.436926961 8511801.2649116516 0 8511801.2649116516 -86859380.801986694 0 0 0 0 60778949.861089051 -15782441.164489746 0 -15782441.164489746 -30312827.873806 0 0 0 0 46095831.267839551 46273293.20161438 0 46273293.20161438 -120491785.01801682 0 0 0 0 -22907850.900815949 34608472.640411377 0 34608472.640411377 -58987136.369270325 0 0 0 0 22107889.073095143 21808069.090194702 0 21808069.090194702 -61107834.429077148 0 0 0 0 23301813.970858678 36728324.860043526 0 36728324.860043526 -61431596.070465088 0 0 0 0 22935788.998523116 28360690.884429932 0 28360690.884429932 -41493916.256942749 0 0 0 0 -13527844.848205095 35811505.346511841 0 35811505.346511841 -36261552.362983704 0 0 0 0 40787511.39718689 10482223.837273598 0 10482223.837273598 -57855294.188751221 0 0 0 0 41943932.624872506 24419285.993263245 0 24419285.993263245 -54036306.331031799 0 0 0 0 42290960.309965134 18227398.324867249 0 18227398.324867249 -46779897.095787048 0 0 0 0 27341341.012305021 16842115.731048584 0 16842115.731048584 -42041388.728256226 0 0 0 0 37916811.012111127 21579583.578567505 0 21579583.578567505 -41374919.70249176 0 0 0 0 45857717.718195722 4477124.3809051514 0 4477124.3809051514 -21648587.481628418 0 0 0 0 18592689.53402549 -4409043.9540710449 0 -4409043.9540710449 -21619449.350791931 0 0 0 0 17527886.719383914 -74110730.463596344 0 -74110730.463596344 -916755.02624511719 0 0 0 0 62463492.692423582 -28270456.561935425 0 -28270456.561935425 -13728141.119823456 0 0 0 0 21545020.03331989 726894.79147338867 0 726894.79147338867 -1170735.6589050293 0 0 0 0 45926563.64749451 -3711720.7951126099 0 -3711720.7951126099 -43079075.220825195 0 0 0 0 19185.065958829364 22515.978598058224 0 22515.978598058224 119342.98391711712 0 0 0 0 92475095.323751181 -88020073.782981873 0 -88020073.782981873 -2438846.4356842041 0 0 0 0 -37655363.704132929 90248912.996492386 0 90248912.996492386 157830798.48911285 0 0 0 0 158422366.97429484 -25451856.938415527 0 -25451856.938415527 -38881398.054672241 0 0 0 0 14244166.514847696 -44566204.405189514 0 -44566204.405189514 109155019.4750824 0 0 0 0 69336427.650483608 77825827.624271393 0 77825827.624271393 -9944030.6038208008 0 0 0 0 203955.18468524265 -84293.002598173916 0 -84293.002598173916 -623397.72266627476 0 0 0 0 19786566.283772796 -87366304.024688721 0 -87366304.024688721 313951594.9672699 0 0 0 0 24589578.836977124 2013875.969581604 0 2013875.969581604 -53960208.116928101 0 0 0 0 -185727.4812676218 -2982611.4247286841 0 -2982611.4247286841 -1396829.0636834111 0 0 0 0 1034869.2813175262 2239459.8174006268 0 2239459.8174006268 -1898584.6954571232 0 0 0 0 -270880.06643533707 -92183.092788696289 0 -92183.092788696289 -9388805.0238246918 0 0 0 0 6468496.5155819654 6507129.7033843994 0 6507129.7033843994 -42244074.592376709 0 0 0 0 29396457.366422385 9855845.1386032104 0 9855845.1386032104 -50252550.668289185 0 0 0 0 -8273446.8047661781 -20998026.385902405 0 -20998026.385902405 -49393348.867965698 0 0 0 0 1835878.0103711679 1687082.9729812741 0 1687082.9729812741 -3160580.8440022841 0 0 0 0 -2559757.9510256648 -21601402.243683815 0 -21601402.243683815 -54141118.03944397 0 0 0 0 3738850.0795614719 3024661.3669204712 0 3024661.3669204712 -48357297.356933594 0 0 0 0 3799915.2616313845 -14721017.021788597 0 -14721017.021788597 -65335710.08821106 0 0 0 0 613884.33591198921 -1072839.3100242615 0 -1072839.3100242615 -8659106.9815444946 0 0 0 0 762663.84071582556 -1516430.5638370514 0 -1516430.5638370514 -9381287.8881759644 0 0 0 0 -129474.33145525819 -3292423.2207572162 0 -3292423.2207572162 -2591881.3040566565 0 0 0 0 3551059.7168727517 -27947004.544206619 0 -27947004.544206619 81606571.370307922 0 0 0 0 1799108.4440641403 -15477362.08372879 0 -15477362.08372879 58511161.378395081 0 0 0 0 10249704.785332695 -12911106.509604454 0 -12911106.509604454 48659665.192070007 0 0 0 0 43507073.135953546 -12547301.551445007 0 -12547301.551445007 45120912.179595947 0 0 0 0 4466310.9118689671 -4804039.8823442459 0 -4804039.8823442459 46337603.201911926 0 0 0 0 12396170.131728947 -19651286.481971741 0 -19651286.481971741 22705410.513832092 0 0 0 0 -12163222.048049808 -18517031.491313934 0 -18517031.491313934 58576125.835067749 0 0 0 0 -8847252.2115054131 -11753280.188697815 0 -11753280.188697815 19838932.497493744 0 0 0 0 1814523.5814390182 -2886298.9026641846 0 -2886298.9026641846 1148550.4542770386 0 0 0 0 3108623.3455574512 -24625726.357151031 0 -24625726.357151031 -6412301.2067184448 0 0 0 0 -10273590.346805584 -22580398.004117489 0 -22580398.004117489 -4527491.4279174805 0 0 0 0 8087600.1266992092 24031823.051670074 0 24031823.051670074 -6925637.7856616974 0 0 0 0 11637071.803350896 -6666280.7088506222 0 -6666280.7088506222 -10505301.700408936 0 0 0 0 31880794.759718776 -25332655.826385498 0 -25332655.826385498 13543833.356510162 0 0 0 0 -8355438.315250501 5026269.1394920349 0 5026269.1394920349 7561789.3005523682 0 0 0 0 32080007.195289623 37041432.673062645 0 37041432.673062645 31676458.138031006 0 0 0 0 93558.505035632741 71757.08896496892 0 71757.08896496892 23538.720621101558 0 0 0 0 37102594.027139366 -42567784.38558197 0 -42567784.38558197 26258223.764801025 0 0 0 0 22939304.965205081 26241646.338886261 0 26241646.338886261 -20540396.310096741 0 0 0 0 106895345.08476545 -80135159.476905823 0 -80135159.476905823 -44114053.221847534 0 0 0 0 15562371.89720498 -53555130.492881775 0 -53555130.492881775 54690123.636688232 0 0 0 0 97960404.036175236 -146990937.19112396 0 -146990937.19112396 20558738.782272339 0 0 0 0 -98884318.791655332 1764028.3871078491 0 1764028.3871078491 42006229.885093689 0 0 0 0 -6512509.2195415944 8040811.9640731812 0 8040811.9640731812 27164060.322599411 0 0 0 0 71848111.222057492 5312186.2002487183 0 5312186.2002487183 -14348853.621025085 0 0 0 0 2712.5406235738433 117204.87694250146 0 117204.87694250146 -59729.684410497546 0 0 0 0 16256.232012281385 335035.97420821554 0 335035.97420821554 -168257.14162813127 0 0 0 0 -72921916.324760824 18358322.271308899 0 18358322.271308899 31342999.972507477 0 0 0 0 -17037455.475771084 -17053207.342247009 0 -17053207.342247009 -28548104.138015747 0 0 0 0 -7191949.3045019023 12933855.477714062 0 12933855.477714062 -12803971.597892761 0 0 0 0 -40652439.239652514 62161017.000297546 0 62161017.000297546 5318774.3229637146 0 0 0 0 72152571.240561977 8158525.2082535028 0 8158525.2082535028 -56624415.741661072 0 0 0 0 -32332823.923526473 64750660.945716858 0 64750660.945716858 -6376078.0702362061 0 0 0 0 39509.073604758771 457911.18920451123 0 457911.18920451123 -214403.85926442593 0 0 0 0 -12083065.049072016 -1371131.6644477844 0 -1371131.6644477844 -460456.22314453125 0 0 0 0 -32003413.097870648 15205612.517333984 0 15205612.517333984 -1198532.4600143433 0 0 0 0 -25941587.899218142 20134001.79460907 0 20134001.79460907 -1392015.7641983032 0 0 0 0 -8389126.7827076316 21559590.678123474 0 21559590.678123474 -7697642.7712249756 0 0 0 0 60383.576013180893 52425.579088341445 0 52425.579088341445 -165938.37832442834 0 0 0 0 -116494504.3359642 70804858.77399826 0 70804858.77399826 -43474703.079269409 0 0 0 0 -38530692.634082079 48030900.899810791 0 48030900.899810791 118200831.47047949 0 0 0 0 -59262831.026055992 87423527.27947998 0 87423527.27947998 -7730899.2467405796 0 0 0 0 -28935643.307286412 77951815.940765381 0 77951815.940765381 -7986343.396851778 0 0 0 0 -107864706.97607309 -40136727.549560547 0 -40136727.549560547 -80420032.454154968 0 0 0 0 -35986915.50454396 110863671.5954113 0 110863671.5954113 -133643918.36556244 0 0 0 0 -24599188.804621369 4257522.9659080505 0 4257522.9659080505 -61330914.835243225 0 0 0 0 -25120833.417708412 9272857.9429473877 0 9272857.9429473877 11372575.83052063 0 0 0 0 3848653.9197903574 -36935580.967529297 0 -36935580.967529297 -11201241.643091202 0 0 0 0 -90976027.633365244 -7340560.1954460144 0 -7340560.1954460144 -7438610.3085250854 0 0 0 0 -45956449.933061525 -18718771.432258606 0 -18718771.432258606 -16712150.908561707 0 0 0 0 -44999189.167329475 -28421154.42222023 0 -28421154.42222023 -14557517.475509644 0 0 0 0 -60287486.183324218 -13486950.509765625 0 -13486950.509765625 -10180030.424667358 0 0 0 0 -45465509.020780779 -29376286.204437256 0 -29376286.204437256 -16495570.037971497 0 0 0 0 -43993913.101567715 -44386637.532211304 0 -44386637.532211304 -18240440.051877975 0 0 0 0 -25662344.352072373 -14311446.691120148 0 -14311446.691120148 -544259.87005615234 0 0 0 0 -77026183.250670418 -40771109.296630859 0 -40771109.296630859 6046338.30564785 0 0 0 0 -44357740.741048872 -35683011.866119385 0 -35683011.866119385 13969.236267089844 0 0 0 0 -38903770.530168816 -5351312.2019462585 0 -5351312.2019462585 7421757.9986114502 0 0 0 0 -27500426.001845449 -14149017.279380798 0 -14149017.279380798 10586909.272918701 0 0 0 0 -8882466.4548971951 41435112.397907257 0 41435112.397907257 -6293602.8741149902 0 0 0 0 34037538.954725146 -45122705.296302795 0 -45122705.296302795 -1732135.6666278839 0 0 0 0 15783543.894253522 -37779132.369693756 0 -37779132.369693756 11294098.27382946 0 0 0 0 6621423.5538432598 -65913989.511945724 0 -65913989.511945724 41053244.39175415 0 0 0 0 -139018.87406447585 -145222.60291778669 0 -145222.60291778669 46070.289785511792 0 0 0 0 5073385.106584996 1784530.4167442322 0 1784530.4167442322 -4762912.9656219482 0 0 0 0 -44338586.076707795 2558634.9012145996 0 2558634.9012145996 22620248.951812744 0 0 0 0 -89131.669452377566 -106781.94940263964 0 -106781.94940263964 -27887.448984965682 0 0 0 0 103888142.20629726 -118627146.18633842 0 -118627146.18633842 -122585529.41687775 0 0 0 0 -120028961.48962171 -56366720.181713104 0 -56366720.181713104 -2072513.6828613281 0 0 0 0 -21883024.54580982 -10324852.680192471 0 -10324852.680192471 69250746.908889771 0 0 0 0 6229913.2072660029 47658457.834724426 0 47658457.834724426 -20464620.45249939 0 0 0 0 -78533729.099456519 -15931593.092967987 0 -15931593.092967987 -50273123.595947266 0 0 0 0 -10553596.26933749 8989870.7116317749 0 8989870.7116317749 -176036193.79800415 0 0 0 0 -98532698.37566331 43030410.120521545 0 43030410.120521545 -126451106.16915894 0 0 0 0 -83955003.225131854 -109707427.75956821 0 -109707427.75956821 -390853232.10440063 0 0 0 0 -73629584.845284671 -27136038.689979553 0 -27136038.689979553 -81800378.563194275 0 0 0 0 -95182261.167925984 -166612451.97579372 0 -166612451.97579372 -131944879.85228729 0 0 0 0 42854126.102363259 -8878603.6172084808 0 -8878603.6172084808 -266656689.97780609 0 0 0 0 -8043787.8695621789 -7675115.6744918823 0 -7675115.6744918823 -87047501.378648758 0 0 0 0 -56578711.363372132 -110307852.99409485 0 -110307852.99409485 -154651552.01928627 0 0 0 0 9214647.5127754211 -8242662.3468894958 0 -8242662.3468894958 -155135576.75801086 0 0 0 0 -3743732.1894917488 -25172910.405517578 0 -25172910.405517578 -110978701.14118958 0 0 0 0 -1737484.2565323189 -16597807.946455956 0 -16597807.946455956 -81095875.115280151 0 0 0 0 -24879727.337099209 -34902386.377361298 0 -34902386.377361298 -48226925.124176025 0 0 0 0 -27314936.616593078 -52947448.083824158 0 -52947448.083824158 -90683608.986980438 0 0 0 0 -37232940.126111463 -38168509.069816589 0 -38168509.069816589 -47747329.266937256 0 0 0 0 -46492415.198709607 -53241270.443342209 0 -53241270.443342209 -49578971.59211731 0 0 0 0 -29440488.24602288 -57050293.282917023 0 -57050293.282917023 -50318833.515884399 0 0 0 0 4070477.1346310079 -24481711.509326935 0 -24481711.509326935 -19070981.21913147 0 0 0 0 -23988236.225032896 -14908958.940307617 0 -14908958.940307617 -32106549.001132965 0 0 0 0 -23404456.187741101 -28678447.003223419 0 -28678447.003223419 -38346639.635995865 0 0 0 0 -24334586.427012086 -21702713.430458069 0 -21702713.430458069 -81881369.275268555 0 0 0 0 -63952.142971515656 -8027709.9902229309 0 -8027709.9902229309 -105758809.68218231 0 0 0 0 -10153408.368072033 13202972.393417358 0 13202972.393417358 -71215100.274246216 0 0 0 0 -14804.71114176522 -9727.4372967332602 0 -9727.4372967332602 -104246.38148941565 0 0 0 0 -12381805.986764088 17665025.443531513 0 17665025.443531513 13005663.598655701 0 0 0 0 -7853.3189793782221 44570.581737823784 0 44570.581737823784 -89105.638470746577 0 0 0 0 11221127.657079134 47818371.796744823 0 47818371.796744823 -24746203.055931091 0 0 0 0 -4793611.8550921995 -26516163.902046204 0 -26516163.902046204 -46433252.686447144 0 0 0 0 -2113171.454542309 -33454275.658180237 0 -33454275.658180237 -75768842.152292252 0 0 0 0 2983836.7932288796 -10822199.629234314 0 -10822199.629234314 -19456895.090626359 0 0 0 0 13675431.751016039 -12026242.5001297 0 -12026242.5001297 -47244018.743713379 0 0 0 0 -8392.7532248882271 92114.33881717734 0 92114.33881717734 -185782.9217190519 0 0 0 0 19914471.097043209 12941328.179473877 0 12941328.179473877 -18974666.794223905 0 0 0 0 18927185.974761918 5195568.8493003845 0 5195568.8493003845 -26003030.352424622 0 0 0 0 -9736370.1802141368 -3745971.1074523926 0 -3745971.1074523926 -24284863.879777908 0 0 0 0 1064025.6109341867 -19066372.869533539 0 -19066372.869533539 -56288645.4245224 0 0 0 0 -2510840.4732003361 11259674.633216858 0 11259674.633216858 -85247649.004104614 0 0 0 0 -29262789.230556995 -2212621.8707923889 0 -2212621.8707923889 -52634484.116016388 0 0 0 0 -2316055.8236224316 -21518602.165436745 0 -21518602.165436745 -40228025.848434448 0 0 0 0 -18228510.577906296 -11040051.869613647 0 -11040051.869613647 -26529459.358657837 0 0 0 0 -33181094.280345686 -28904647.747919083 0 -28904647.747919083 -26896807.093162537 0 0 0 0 -45476056.064481318 -23763855.750961304 0 -23763855.750961304 -27264630.111424923 0 0 0 0 -26165730.633001305 -14688765.065440178 0 -14688765.065440178 -30968049.077224731 0 0 0 0 -48571007.463251621 629526.59674453735 0 629526.59674453735 -41307333.087974548 0 0 0 0 -63789407.066672519 26267364.203653336 0 26267364.203653336 -54073032.614570618 0 0 0 0 -49197975.539661437 9677222.9995384216 0 9677222.9995384216 -35210890.752326965 0 0 0 0 -32071076.495236166 26081434.488018036 0 26081434.488018036 -78020779.409576416 0 0 0 0 -3148498.4147806764 18810827.185935974 0 18810827.185935974 -83438285.701896667 0 0 0 0 -123392780.14669079 53075020.738889694 0 53075020.738889694 -47317349.18309021 0 0 0 0 -39421807.759729341 66725615.083086014 0 66725615.083086014 -143244243.01889801 0 0 0 0 3877887.6201441288 -25246243.164333344 0 -25246243.164333344 -147900908.02892852 0 0 0 0 -11989096.3182448 -2460329.5498809814 0 -2460329.5498809814 -39025904.231124878 0 0 0 0 59995.419802905089 64265.583197329193 0 64265.583197329193 -352606.30632316787 0 0 0 0 -63867.804277053336 147199.64771953598 0 147199.64771953598 -244891.80903562903 0 0 0 0 -2386374.2865511328 -320021.22653961182 0 -320021.22653961182 -49725155.071217537 0 0 0 0 7925.2294141268503 8987.3895191177726 0 8987.3895191177726 -186531.64031400718 0 0 0 0 8071265.5338926166 -6679537.3871517181 0 -6679537.3871517181 -86856360.373924255 0 0 0 0 1767510.4759554565 13930453.798797607 0 13930453.798797607 -82102433.596908569 0 0 0 0 -3374636.180894956 18394282.157764435 0 18394282.157764435 -84202480.562142849 0 0 0 0 -3352164.650078699 1802988.9318504333 0 1802988.9318504333 -57512138.035152435 0 0 0 0 435917.07500387728 14316306.731903076 0 14316306.731903076 -82099549.421875 0 0 0 0 -785429.68831035821 19112547.299463272 0 19112547.299463272 -100320436.91984558 0 0 0 0 -15044333.657317074 2646890.5926399231 0 2646890.5926399231 -70537679.430088043 0 0 0 0 -13279362.718989477 19640528.114364624 0 19640528.114364624 -81303132.364810944 0 0 0 0 -393671.19627825357 6381273.9327354431 0 6381273.9327354431 -70956140.502544403 0 0 0 0 -3350833.4358430505 7245076.5434513092 0 7245076.5434513092 -69844500.037971497 0 0 0 0 2253861.582656825 -4365980.6880435944 0 -4365980.6880435944 -61885917.922271729 0 0 0 0 -3534343.3806132227 8197093.3058586121 0 8197093.3058586121 -68722285.874778748 0 0 0 0 -1456280.4693418755 -1947014.3064670563 0 -1947014.3064670563 -62234864.277999878 0 0 0 0 -1692109.8745513856 1938826.7320709229 0 1938826.7320709229 -58072204.585723877 0 0 0 0 2014268.9991961829 -4086955.1974639893 0 -4086955.1974639893 -54717861.501525879 0 0 0 0 -4335896.3425259925 539554.5100402832 0 539554.5100402832 -46983893.265182495 0 0 0 0 -7195.9036709166176 5379.9825745783746 0 5379.9825745783746 -97626.698988904711 0 0 0 0 1278674.0735888402 -8933979.9353179932 0 -8933979.9353179932 -37177101.639953613 0 0 0 0 1399376.0929114236 -2668345.9211807251 0 -2668345.9211807251 -51495503.070503235 0 0 0 0 -2331366.9229612201 -3549543.9517745972 0 -3549543.9517745972 -47904750.658865929 0 0 0 0 -4654.5412964652332 5319.3923694863915 0 5319.3923694863915 -33497.082028466277 0 0 0 0 2034985.3685476631 2142945.6040039062 0 2142945.6040039062 -9680254.617266655 0 0 0 0 -2297806.1989306761 -2817593.7140860558 0 -2817593.7140860558 -51318479.940872192 0 0 0 0 3936155.2787306746 1996164.7043952942 0 1996164.7043952942 -62660556.673885345 0 0 0 0 -337.05440004852221 2723925.3860015869 0 2723925.3860015869 -51218277.895626068 0 0 0 0 -2006489.3557017576 -1480394.1057853699 0 -1480394.1057853699 -64322982.038860321 0 0 0 0 6885.5841029021785 4188963.5811729431 0 4188963.5811729431 -71255311.366600037 0 0 0 0 -1120579.7566597126 4251030.7582359314 0 4251030.7582359314 -70806124.829345703 0 0 0 0 -4827.0909552503335 3709097.877456665 0 3709097.877456665 -70583846.502073288 0 0 0 0 -4807943.0177668277 7519880.4412345886 0 7519880.4412345886 -56275854.476318359 0 0 0 0 -1500748.5401854324 2370528.156826973 0 2370528.156826973 -79954422.226966858 0 0 0 0 -9594938.3093772978 21320883.380360007 0 21320883.380360007 -53473664.699905396 0 0 0 0 -9430539.4351902865 25362536.395843506 0 25362536.395843506 11303826.651626587 0 0 0 0 2444118.1120058028 -19014527.447335243 0 -19014527.447335243 -116459683.6701355 0 0 0 0 -520.96369536302882 45195.258983030915 0 45195.258983030915 -101338.190995235 0 0 0 0 -6028934.2403754937 13003053.561576843 0 13003053.561576843 -77935971.330309868 0 0 0 0 -27590393.386148117 2729545.7186470032 0 2729545.7186470032 -26752196.870574951 0 0 0 0 20440908.217037015 -4834170.4495241046 0 -4834170.4495241046 -43235471.147529602 0 0 0 0 703462.59732275363 -6019963.3128356934 0 -6019963.3128356934 -51580748.59034729 0 0 0 0 5901263.7130876519 -15061614.07585144 0 -15061614.07585144 -35855142.095981598 0 0 0 0 1184436.4203041978 -9461348.6558933258 0 -9461348.6558933258 -88671925.555664062 0 0 0 0 6951001.9085769132 6236099.926990509 0 6236099.926990509 -71652765.157707214 0 0 0 0 -21750673.528346904 -14457072.679008484 0 -14457072.679008484 -59100782.410387039 0 0 0 0 1965.6076128593447 -2911513.0485343933 0 -2911513.0485343933 -58183808.283351898 0 0 0 0 324426.29175479524 10527171.712451935 0 10527171.712451935 -42950564.469364166 0 0 0 0 -6139256.61440787 726077.88169670105 0 726077.88169670105 -57504207.148406982 0 0 0 0 63238.204086303711 -12591181.584609985 0 -12591181.584609985 8314904.1794228554 0 0 0 0 940776.27853870392 -17329870.853767395 0 -17329870.853767395 482800.6085357666 0 0 0 0 -11234304.632329941 -18963156.75579834 0 -18963156.75579834 524619.13614308834 0 0 0 0 9222030.689198494 -20966521.817974091 0 -20966521.817974091 -8014086.0172348022 0 0 0 0 9613426.0893778801 -20384803.382804871 0 -20384803.382804871 -9806492.6587982178 0 0 0 0 11694549.388986588 -15581249.145507812 0 -15581249.145507812 -8056183.4189147949 0 0 0 0 6072874.2457742691 -16201090.164546967 0 -16201090.164546967 -1381706.2916793823 0 0 0 0 5602818.7979717255 -15869968.377929688 0 -15869968.377929688 1106804.1977386475 0 0 0 0 183611.1311474964 -23022892.725485325 0 -23022892.725485325 -3179884.7564239502 0 0 0 0 8847595.2763442993 -14343007.506668091 0 -14343007.506668091 -1822631.2656440735 0 0 0 0 -44752981.10325861 50436484.240699768 0 50436484.240699768 96642332.902738571 0 0 0 0 415759.17757131765 -3687695.9056477826 0 -3687695.9056477826 -6246847.0210824637 0 0 0 0 6477554.284828186 -14828059.172477722 0 -14828059.172477722 -1921514.1637649536 0 0 0 0 16901378.535997391 -14244956.686332703 0 -14244956.686332703 14417794.159820557 0 0 0 0 6869176.5027351379 9370798.9278793335 0 9370798.9278793335 -39317647.722602844 0 0 0 0 -52257817.418083191 226858367.84376526 0 226858367.84376526 -18269437.969921112 0 0 0 0 -32258645.98298645 -9269981.9102745056 0 -9269981.9102745056 7537158.5076999664 0 0 0 0 -19112901.506960869 3123053.3863544464 0 3123053.3863544464 -211397246.05490875 0 0 0 0 -19999728.666343689 -608791.11040496826 0 -608791.11040496826 -223135475.8578949 0 0 0 0 -32270218.475726724 -186003471.88391018 0 -186003471.88391018 11579970.334627151 0 0 0 0 44822908.835762024 -43949095.227485657 0 -43949095.227485657 -512548265.03153992 0 0 0 0 12060341.891468048 307957674.23708344 0 307957674.23708344 -151041712.27116013 0 0 0 0 106183394.00489044 283230181.94647217 0 283230181.94647217 -401221435.21244431 0 0 0 0 11540157.509607315 -3060426.3430786133 0 -3060426.3430786133 8555315.7804262638 0 0 0 0 5496730.9265823364 -14050586.613372803 0 -14050586.613372803 -375409.42236709595 0 0 0 0 -2057165.9543971978 -6048409.3900850238 0 -6048409.3900850238 -7943813.9982470954 0 0 0 0 -14359422.79957056 -5587647.2816410065 0 -5587647.2816410065 39848303.116439819 0 0 0 0 7046440.8277978785 -1650867.1005077846 0 -1650867.1005077846 -13850711.90950221 0 0 0 0 38346118.981616974 18787513.505571365 0 18787513.505571365 -62295101.22743988 0 0 0 0 2305527.1578543186 -6810936.8709049225 0 -6810936.8709049225 -13244217.835365295 0 0 0 0 1424271.0582793043 -8738307.7419015709 0 -8738307.7419015709 -7196636.3283822499 0 0 0 0 4948347.1819504639 1542979.3931952678 0 1542979.3931952678 -16900890.363140292 0 0 0 0 -11907178.762690365 39399249.415752769 0 39399249.415752769 60509055.132789612 0 0 0 0 -17264620.408769131 -26826488.360656738 0 -26826488.360656738 12143154.59179306 0 0 0 0 -16789097.923713684 -16425659.025920868 0 -16425659.025920868 32172975.745372772 0 0 0 0 -1710504.4404621124 -16622133.981985092 0 -16622133.981985092 -10498080.426261902 0 0 0 0 -31777500.770853996 -28102129.808124542 0 -28102129.808124542 -12897633.592857361 0 0 0 0 -116482500.62856078 41640776.092633724 0 41640776.092633724 -12508853.961647034 0 0 0 0 12231835.531376839 -3936873.2335357666 0 -3936873.2335357666 241863.32081985474 0 0 0 0 17825059.479885101 16036790.86267662 0 16036790.86267662 -194464714.77490616 0 0 0 0 8490271.5965919495 912836.1290397644 0 912836.1290397644 -141424072.79957581 0 0 0 0 -68740536.288773537 -86566592.859462738 0 -86566592.859462738 -100969892.18937683 0 0 0 0 10461382.09307766 14144985.506195068 0 14144985.506195068 -52599881.417453766 0 0 0 0 13726938.460600853 -16986309.174488068 0 -16986309.174488068 -84627867.585475922 0 0 0 0 502610.21496486664 -31521867.321409225 0 -31521867.321409225 -17412079.588859558 0 0 0 0 16041296.328320503 -19055704.923080444 0 -19055704.923080444 -31959521.140647888 0 0 0 0 13179323.072845936 -9092387.4775114059 0 -9092387.4775114059 -24240894.43258667 0 0 0 0 19556286.171777725 -7711978.9799499512 0 -7711978.9799499512 -33788546.462539673 0 0 0 0 23096835.228787422 2613459.381061554 0 2613459.381061554 -5894705.573548317 0 0 0 0 -28488835.521317959 -39799629.47196579 0 -39799629.47196579 -25133958.294346809 0 0 0 0 3549875.8016467094 -3528248.1354064941 0 -3528248.1354064941 -17304359.804107189 0 0 0 0 25568526.737319469 -8328484.0871067047 0 -8328484.0871067047 -9970991.9630775452 0 0 0 0 1507240.9034690403 -2658683.8100563567 0 -2658683.8100563567 -3459532.14640145 0 0 0 0 18721210.552284241 -14232598.098320007 0 -14232598.098320007 -11721182.658442497 0 0 0 0 17763627.127972603 -13272382.468405724 0 -13272382.468405724 -12577347.965202332 0 0 0 0 344644.08651904284 -4219122.9206202999 0 -4219122.9206202999 -16721267.115223141 0 0 0 0 53640729.278770447 -86634664.095424652 0 -86634664.095424652 -49294175.384902954 0 0 0 0 -6471412.7137093544 -345041.29496765137 0 -345041.29496765137 20559074.994598389 0 0 0 0 -13645106.353680134 6362423.5487647057 0 6362423.5487647057 28526707.148693085 0 0 0 0 -609970.93358303001 -1057704.7940135552 0 -1057704.7940135552 1208999.8112136833 0 0 0 0 40876781.519225121 -11104913.398846149 0 -11104913.398846149 -21112018.401792526 0 0 0 0 19591772.391964436 -3863040.6611528397 0 -3863040.6611528397 -15418983.377603054 0 0 0 0 28610974.083105803 12574215.327558517 0 12574215.327558517 -25935047.331825256 0 0 0 0 2372139.827590704 3747869.9395570755 0 3747869.9395570755 -13059869.834753036 0 0 0 0 1644164.3688240051 16734736.564885139 0 16734736.564885139 -11169049.697080612 0 0 0 0 205242.32491207123 -3260167.5526676178 0 -3260167.5526676178 -20880879.009078026 0 0 0 0 1105161.5610111905 -2983686.0566939935 0 -2983686.0566939935 -14706178.277284315 0 0 0 0 15287195.081113338 -23701157.243871689 0 -23701157.243871689 1704365.1563339233 0 0 0 0 2649910.0553896427 1004987.0850695372 0 1004987.0850695372 -21770719.627599716 0 0 0 0 -5769796.2239804268 11819492.174062729 0 11819492.174062729 -33296657.024861336 0 0 0 0 268019.68398231093 -133127.8953033085 0 -133127.8953033085 -6627781.3543797201 0 0 0 0 4062319.617585659 -2154714.990811348 0 -2154714.990811348 -26426763.762111664 0 0 0 0 -3569839.4327212572 -1160518.749168396 0 -1160518.749168396 -12247092.862571716 0 0 0 0 -3405796.5097346306 -226456.38537216187 0 -226456.38537216187 -18654564.856178284 0 0 0 0 -23585585.36958313 12231974.583666801 0 12231974.583666801 -8888260.1188631058 0 0 0 0 -16737677.414191723 -30823455.484347343 0 -30823455.484347343 -22739554.593660355 0 0 0 0 8463635.3371677399 -10017462.365455627 0 -10017462.365455627 -6237524.4839248657 0 0 0 0 -1534538.6008615494 -16533424.843830109 0 -16533424.843830109 -3385057.8288488388 0 0 0 0 13110282.597461939 -12473823.823432922 0 -12473823.823432922 -3154021.7244567871 0 0 0 0 2059639.2816789709 -1448965.1528725401 0 -1448965.1528725401 -3028527.0720159784 0 0 0 0 13957601.236548424 -19958397.013338089 0 -19958397.013338089 -2761195.8873443604 0 0 0 0 15767647.35402298 -22499706.215770721 0 -22499706.215770721 -14681458.304664612 0 0 0 0 1206263.3232308116 -7494417.4527149331 0 -7494417.4527149331 956083.2811058946 0 0 0 0 3631010.9873781204 -9176153.6730232239 0 -9176153.6730232239 -4256925.2825584412 0 0 0 0 749638.93287944794 -9799563.9691123962 0 -9799563.9691123962 3413089.6885986328 0 0 0 0 -24868.150088664144 -5034527.8424832961 0 -5034527.8424832961 -2255305.5466189422 0 0 0 0 1270702.6791123152 -4956391.3657679558 0 -4956391.3657679558 -540737.47556304932 0 0 0 0 702532.42269608914 -3029111.9324220615 0 -3029111.9324220615 -5500759.5923629981 0 0 0 0 2462847.0840296745 -536288.28658294678 0 -536288.28658294678 -4810676.1751012802 0 0 0 0 1440128.224313736 -2261215.7373714447 0 -2261215.7373714447 -1638147.2762506008 0 0 0 0 1659530.760471344 -2159772.8245830536 0 -2159772.8245830536 -3730238.1190605164 0 0 0 0 1480564.8693554401 -1581606.2062721252 0 -1581606.2062721252 -2807687.876159668 0 0 0 0 1816720.9407177744 -723960.97670198791 0 -723960.97670198791 -6903703.744935941 0 0 0 0 1031217.730327162 -444188.54079548921 0 -444188.54079548921 -15957073.974884268 0 0 0 0 1742625.8810911179 -2505685.8258419037 0 -2505685.8258419037 -4473966.095246315 0 0 0 0 67669951.212632179 -11775484.671062469 0 -11775484.671062469 23980740.441188812 0 0 0 0 -42006.750989758177 -3236750.70388522 0 -3236750.70388522 1056007.3982349634 0 0 0 0 1135942.1398341316 -1380498.1361743324 0 -1380498.1361743324 -5210961.1195133794 0 0 0 0 2624196.574297905 -7342166.1090183258 0 -7342166.1090183258 -3444510.4834594727 0 0 0 0 1097438.6812119484 -1109132.3407936096 0 -1109132.3407936096 -1760375.6997528076 0 0 0 0 2863147.2700188016 -5724747.0673474986 0 -5724747.0673474986 -5710306.221805308 0 0 0 0 38012085.622629166 -32217151.403289795 0 -32217151.403289795 25645996.90593338 0 0 0 0 52266576.749485493 -43718244.587220669 0 -43718244.587220669 -35427669.964447021 0 0 0 0 2797325.4311175346 -4616095.1381034851 0 -4616095.1381034851 -2361376.865650177 0 0 0 0 52662522.215139389 -40081576.784894943 0 -40081576.784894943 -2093134.5437717438 0 0 0 0 -1778640.2192439665 -2723968.178081627 0 -2723968.178081627 2046922.5505694617 0 0 0 0 -3008962.3525953293 1916119.6183929443 0 1916119.6183929443 -2037182.2088749409 0 0 0 0 2899601.784903571 835294.02406471968 0 835294.02406471968 -1567992.5338478088 0 0 0 0 2439902.7055796161 -4080243.8030342981 0 -4080243.8030342981 -5004428.5151844304 0 0 0 0 910559.39297859999 -293057.77582305763 0 -293057.77582305763 -6618914.0547534004 0 0 0 0 8142797.5524544716 -9094200.8481426239 0 -9094200.8481426239 -5539372.1961307526 0 0 0 0 -63166.348415337678 -96321.342686858959 0 -96321.342686858959 131942.24324942008 0 0 0 0 -13636191.928253591 -7151964.6186408997 0 -7151964.6186408997 -2750652.7366714478 0 0 0 0 3242545.7746933512 1481295.4928884506 0 1481295.4928884506 -5880098.4490242004 0 0 0 0 7444733.9490556717 -5072952.6258583069 0 -5072952.6258583069 -12022941.770040512 0 0 0 0 -30056197.802553177 4007822.1395435333 0 4007822.1395435333 531556.06990814209 0 0 0 0 -30207051.704099178 -72656898.491291046 0 -72656898.491291046 -22992023.598434448 0 0 0 0 42693498.102254868 -20881827.742710114 0 -20881827.742710114 -102716614.97422028 0 0 0 0 26143036.293466568 8503704.4309043884 0 8503704.4309043884 -154848165.51549149 0 0 0 0 -23727601.873704255 28691077.167172849 0 28691077.167172849 -34948903.190841675 0 0 0 0 5898136.3267159462 896473.02114295959 0 896473.02114295959 -36311061.843765259 0 0 0 0 37504883.622407913 -43466297.344835281 0 -43466297.344835281 -29967921.326499939 0 0 0 0 -105746.39908647537 -3445965.8161468506 0 -3445965.8161468506 1512292.6361980438 0 0 0 0 -5015877.1518921852 -5026107.3106117249 0 -5026107.3106117249 844851.11207580566 0 0 0 0 -3821703.3202519417 -4151579.7372150421 0 -4151579.7372150421 -2690746.3271484375 0 0 0 0 -1025035.7197234631 -6622782.4200754166 0 -6622782.4200754166 -5704992.803689003 0 0 0 0 -4957274.5672592521 -2383211.6517124176 0 -2383211.6517124176 -7577899.651799202 0 0 0 0 -8015930.0600942373 1524852.7349624634 0 1524852.7349624634 -9756257.1875505447 0 0 0 0 -6921388.5780767202 -2419319.6584873199 0 -2419319.6584873199 -1767602.5606498718 0 0 0 0 -12479068.901180983 6153930.5175676346 0 6153930.5175676346 -8204120.0503768921 0 0 0 0 -3365607.5857241154 -2920698.8274097443 0 -2920698.8274097443 -9116970.5384662151 0 0 0 0 -4910559.6390023232 -2982434.0887861252 0 -2982434.0887861252 -9105981.4710865021 0 0 0 0 -35280.520020289463 -864184.7892640694 0 -864184.7892640694 -3349104.4338485878 0 0 0 0 1598765.9574041367 -12705592.824029922 0 -12705592.824029922 -12560109.970308304 0 0 0 0 1947175.9233595133 -2278721.9696683884 0 -2278721.9696683884 -20852043.935278893 0 0 0 0 239989.67367756367 -755367.41971087456 0 -755367.41971087456 -4728089.8980560303 0 0 0 0 -149435027.31809235 63909195.720451355 0 63909195.720451355 -61779467.425434113 0 0 0 0 -14322.951565666823 -697596.11562513839 0 -697596.11562513839 -1334811.4027789128 0 0 0 0 -54328391.811470032 111516477.8195219 0 111516477.8195219 -99432878.862751007 0 0 0 0 -7119407.9035477638 -62070684.405991077 0 -62070684.405991077 -197090760.58600616 0 0 0 0 5200619.736659646 -6690807.7503223419 0 -6690807.7503223419 1113147.3050518036 0 0 0 0 22635476.008692741 -17560209.029410362 0 -17560209.029410362 -179323108.88388824 0 0 0 0 -138618.48541495018 -56688.509693880565 0 -56688.509693880565 -297300.85947360843 0 0 0 0 -2132428.1911087874 -364606.35613205284 0 -364606.35613205284 113205.80337407254 0 0 0 0 -47287606.104149818 -45716573.597681046 0 -45716573.597681046 27242804.631843328 0 0 0 0 -95216640.816389084 41041252.738262177 0 41041252.738262177 -87884616.52221489 0 0 0 0 -10134137.811993599 -40888071.345653534 0 -40888071.345653534 -22023709.26362586 0 0 0 0 -103454774.68689659 -98054428.151629329 0 -98054428.151629329 -45654385.67023468 0 0 0 0 -23075950.916654587 20949025.174135208 0 20949025.174135208 -182775639.34825325 0 0 0 0 238851022.80504864 -52165360.481279135 0 -52165360.481279135 -141734435.46329117 0 0 0 0 -466321686.95811737 -141362291.49416971 0 -141362291.49416971 151801738.64533997 0 0 0 0 -257081553.13674545 -606738704.33139801 0 -606738704.33139801 155962662.17784262 0 0 0 0 201670309.9691968 -385568788.81165981 0 -385568788.81165981 -72675196.475547791 0 0 0 0 -39304472.670687199 -129035072.94810009 0 -129035072.94810009 29802479.046718597 0 0 0 0 -2607841.3803437948 10153886.146347046 0 10153886.146347046 -8700048.4502811432 0 0 0 0 -191469827.72577441 74948477.154402733 0 74948477.154402733 -20243203.448532104 0 0 0 0 -814974.30392771377 40792.972427838482 0 40792.972427838482 123206.45212176768 0 0 0 0 64027241.526201248 -65008465.348849297 0 -65008465.348849297 -125295121.06731415 0 0 0 0 85947448.719991446 53055647.54846096 0 53055647.54846096 -236737231.34169579 0 0 0 0 -364766291.52876568 274955498.23454666 0 274955498.23454666 59422925.781898499 0 0 0 0 3088259.5579645485 3099532.23122341 0 3099532.23122341 -11282629.911989748 0 0 0 0 21775657.245316982 30073954.938999176 0 30073954.938999176 37320754.931785583 0 0 0 0 16617197.19007653 3056202.610845089 0 3056202.610845089 -4616675.8576583862 0 0 0 0 -5494254.9293308258 -8037959.4335594177 0 -8037959.4335594177 33700460.839694977 0 0 0 0 -13402951.277776957 -6225422.8514766693 0 -6225422.8514766693 -3871987.1589355469 0 0 0 0 -9052523.1638162136 -13704271.895220757 0 -13704271.895220757 -19738311.84539032 0 0 0 0 -4171946.2915024757 -4450948.8477630615 0 -4450948.8477630615 -12226377.050697327 0 0 0 0 -3185908.2660634518 -6120868.8923435211 0 -6120868.8923435211 -10145393.66091156 0 0 0 0 4824556.3266660087 1687083.1097994111 0 1687083.1097994111 -11872432.120748647 0 0 0 0 -1203201.3419113159 -978282.27705955505 0 -978282.27705955505 -10588724.194215775 0 0 0 0 7785635.4511198997 20716966.479820251 0 20716966.479820251 9302709.2266178131 0 0 0 0 -106992436.83838272 157878463.60079193 0 157878463.60079193 -138592114.33744812 0 0 0 0 2167583.5854087505 4179494.8257048577 0 4179494.8257048577 -244788.77482179552 0 0 0 0 -23278629.040938377 45678792.341791391 0 45678792.341791391 -93281684.792110443 0 0 0 0 -181713097.38167381 -17475929.327859879 0 -17475929.327859879 80952599.160060883 0 0 0 0 -911308.67980862269 -1033945.3819947317 0 -1033945.3819947317 916834.22160052881 0 0 0 0 2178868.5843716734 4353453.6319737332 0 4353453.6319737332 193149.46344778687 0 0 0 0 85330053.385071754 -93030367.451652527 0 -93030367.451652527 -1917082.5674057007 0 0 0 0 -181950557.20167255 -240406830.6828289 0 -240406830.6828289 266164875.6974411 0 0 0 0 1861244.710735321 -1905489.4848022461 0 -1905489.4848022461 -11156203.442890167 0 0 0 0 5894067.1046246337 87636.846490406431 0 87636.846490406431 -12043452.895170378 0 0 0 0 20810632.609330177 28254587.169502735 0 28254587.169502735 12583979.099975586 0 0 0 0 -19894772.42957449 19805232.318255424 0 19805232.318255424 16790409.712215424 0 0 0 0 -177006694.01642418 -151581463.53055 0 -151581463.53055 -168951987.52164459 0 0 0 0 914469.5855866879 822244.63863802887 0 822244.63863802887 -206831.73643504642 0 0 0 0 -160830725.40055895 -88466464.809631348 0 -88466464.809631348 -10103618.18863678 0 0 0 0 45509224.402509689 -31384358.632709503 0 -31384358.632709503 -57537951.536117554 0 0 0 0 -51279712.067098618 -54709324.892782211 0 -54709324.892782211 8918492.1384372711 0 0 0 0 -55470335.110085487 -37625494.594501495 0 -37625494.594501495 -14945333.705825806 0 0 0 0 5489601.0281801224 -4954456.3514537811 0 -4954456.3514537811 -12912709.508846283 0 0 0 0 1114013.7820239067 -6403519.0680809021 0 -6403519.0680809021 -12504217.557862282 0 0 0 0 344971.98537898064 -7032526.00141716 0 -7032526.00141716 -12983584.212221146 0 0 0 0 -22998.444618701935 -9566139.9545564651 0 -9566139.9545564651 -15134248.149116516 0 0 0 0 -421073.13849973679 -6751529.7517967224 0 -6751529.7517967224 -13058880.825136185 0 0 0 0 -2697455.4560052752 -9917485.0764714479 0 -9917485.0764714479 -16432037.134651184 0 0 0 0 -478366.59650063515 -6816526.8336715698 0 -6816526.8336715698 -19626307.100658417 0 0 0 0 1678729.2002482414 -8205036.8224697113 0 -8205036.8224697113 -27583814.465118408 0 0 0 0 1911285.2316373587 -5882353.74102211 0 -5882353.74102211 -17432180.008205414 0 0 0 0 2974504.6123818159 -7661061.6811447144 0 -7661061.6811447144 -15920335.364883423 0 0 0 0 2294695.1352629662 -8909760.7946472168 0 -8909760.7946472168 -17973787.452115059 0 0 0 0 2819624.0822856426 -7345164.4509239197 0 -7345164.4509239197 -10506258.135837555 0 0 0 0 17650532.803463101 -4773689.8572711945 0 -4773689.8572711945 -16857566.197696686 0 0 0 0 3303402.2325649858 -4905110.1076021194 0 -4905110.1076021194 -13163607.525444031 0 0 0 0 190155.59145982831 19607.624459283426 0 19607.624459283426 -261854.79520999081 0 0 0 0 16514680.333360434 10968447.777570724 0 10968447.777570724 1426199.8683433533 0 0 0 0 -6523102.6651005745 -14328520.129276276 0 -14328520.129276276 -34530532.319648743 0 0 0 0 4130695.2465507612 1370007.2822861671 0 1370007.2822861671 -5748957.2357406616 0 0 0 0 2169307.3510460258 -2584378.1946220398 0 -2584378.1946220398 -6053268.9998531342 0 0 0 0 10395381.525095582 -6707796.7019681931 0 -6707796.7019681931 -14724999.503387451 0 0 0 0 557811.92943096161 -8131661.7548751831 0 -8131661.7548751831 -16083194.902666092 0 0 0 0 3737990.4488458633 -9171766.7675495148 0 -9171766.7675495148 -15567158.451405287 0 0 0 0 615260.47988259792 -8380660.1380558014 0 -8380660.1380558014 -13216806.091072083 0 0 0 0 2727589.1075605154 -8692936.8533792496 0 -8692936.8533792496 -13298459.307720184 0 0 0 0 2239821.1637942791 -6127712.5956401825 0 -6127712.5956401825 -14538378.901752472 0 0 0 0 -31423074.567723274 -41862949.35017395 0 -41862949.35017395 -36139042.379114151 0 0 0 0 -8149425.2769479174 -27616568.533293724 0 -27616568.533293724 -46290245.772388458 0 0 0 0 3126689.9645365477 -29226792.908721924 0 -29226792.908721924 -57794937.5394907 0 0 0 0 -48697541.298959464 -69314485.085561752 0 -69314485.085561752 -75383128.119830132 0 0 0 0 -28257343.393616751 -27284625.992750168 0 -27284625.992750168 -42908351.202739716 0 0 0 0 -1048101.1484843791 -8526095.4712371826 0 -8526095.4712371826 -27813673.457782745 0 0 0 0 2530871.717859298 10921455.969245911 0 10921455.969245911 1774078.479763031 0 0 0 0 2912668.2656092346 -18025379.012708664 0 -18025379.012708664 -24734481.549884796 0 0 0 0 116587.35668236736 -148409.9973043995 0 -148409.9973043995 -426491.17482654005 0 0 0 0 363976.15012744733 -64959.525245252997 0 -64959.525245252997 -616042.57489900291 0 0 0 0 1473818.9069626629 -5181173.7903594971 0 -5181173.7903594971 -11985851.615276337 0 0 0 0 -1141058.4476333261 -2611811.5682277679 0 -2611811.5682277679 -13190218.666481972 0 0 0 0 1433686.1379410028 -5426589.8408317566 0 -5426589.8408317566 -13305111.282314301 0 0 0 0 -2202447.0604314804 -2887355.9261322021 0 -2887355.9261322021 -14380920.219421387 0 0 0 0 206957.74240834266 480396.11353182793 0 480396.11353182793 -6632191.8190307617 0 0 0 0 404190.22350366809 -272793.60684449784 0 -272793.60684449784 -1032927.2678387035 0 0 0 0 118640.81245782154 -482703.0678754542 0 -482703.0678754542 -1174614.1172111034 0 0 0 0 5209223.5655891672 10418198.620186806 0 10418198.620186806 -12401971.882358551 0 0 0 0 441049.37435550749 -597311.7470701877 0 -597311.7470701877 -1930081.1864647772 0 0 0 0 -351768.56314188242 -1115850.2138895988 0 -1115850.2138895988 -12092176.03653717 0 0 0 0 -2353532.2787594795 -6160753.7650108337 0 -6160753.7650108337 -13256650.278841972 0 0 0 0 2845854.0419815779 -20788196.895507812 0 -20788196.895507812 -12168956.930831909 0 0 0 0 -1521000.5996810198 -240148.6773223877 0 -240148.6773223877 -14887880.103477478 0 0 0 0 -21293876.461864471 -17113773.568149567 0 -17113773.568149567 -15139898.044101715 0 0 0 0 3312983.5340994 -12288430.747518539 0 -12288430.747518539 -57747198.3073349 0 0 0 0 10997.255376338959 -3450114.4071998596 0 -3450114.4071998596 -18236501.627788544 0 0 0 0 2251115.3054516613 -11906487.337882996 0 -11906487.337882996 -45033273.382125854 0 0 0 0 1844035.0270911455 -3975885.0562782288 0 -3975885.0562782288 -20408424.011936188 0 0 0 0 -407839.13630895142 -6755419.7270267196 0 -6755419.7270267196 548776.86374398798 0 0 0 0 1839411.4988999814 -11926380.633583069 0 -11926380.633583069 -44824070.248008728 0 0 0 0 918541.6557331495 -6976082.8417863846 0 -6976082.8417863846 -51612662.211891174 0 0 0 0 2411444.8069797456 -5052089.8165187836 0 -5052089.8165187836 -23009072.962753296 0 0 0 0 85620.377148414715 -6765588.544501042 0 -6765588.544501042 -467918.42503332708 0 0 0 0 1664872.7883412242 -13119827.359809875 0 -13119827.359809875 -44571094.736476898 0 0 0 0 764331.91065901518 -9365771.7932128906 0 -9365771.7932128906 -36919600.97277832 0 0 0 0 5523813.4348216653 -5365692.7076911926 0 -5365692.7076911926 -42401585.926010132 0 0 0 0 -665188.79118195176 -787956.19973707199 0 -787956.19973707199 -13361712.794868469 0 0 0 0 4567043.2998811901 3108975.7847061157 0 3108975.7847061157 -27708067.747268677 0 0 0 0 2797227.8536502123 -2603748.4550228119 0 -2603748.4550228119 -36235302.065639496 0 0 0 0 -1714693.9151972085 2692956.5067005157 0 2692956.5067005157 -23724120.777122498 0 0 0 0 -137081.20362409949 -10461504.962814331 0 -10461504.962814331 -45881038.199775696 0 0 0 0 3921718.7606152296 218564.50328826904 0 218564.50328826904 -43108286.597856522 0 0 0 0 1714009.2900556326 -3020270.9402770996 0 -3020270.9402770996 -47785434.614654541 0 0 0 0 1786187.3165133819 -2805649.9965133667 0 -2805649.9965133667 -52732234.569580078 0 0 0 0 -502711.47466522455 7777819.6642799377 0 7777819.6642799377 -39959349.856887817 0 0 0 0 -206363.23811285943 7399845.3222103119 0 7399845.3222103119 -51727339.178268433 0 0 0 0 844476.78425829113 4627953.9333648682 0 4627953.9333648682 -59365933.244392395 0 0 0 0 -928309.33966478752 -719203.07838986069 0 -719203.07838986069 -3282636.5904405471 0 0 0 0 -667596.67599514127 153708.53839874268 0 153708.53839874268 -55638360.081988335 0 0 0 0 -2699038.4955138564 -203925.74639892578 0 -203925.74639892578 -54824270.805747986 0 0 0 0 6279998.0814379156 3214593.8536758423 0 3214593.8536758423 -30122064.280852318 0 0 0 0 -6318418.9745629132 -9983394.498588562 0 -9983394.498588562 -32502115.41442585 0 0 0 0 2957413.9493339434 -5806062.0630722046 0 -5806062.0630722046 -46981514.544082642 0 0 0 0 2203674.991445303 -5851051.2013435364 0 -5851051.2013435364 -15217342.187573433 0 0 0 0 6191847.201729551 -6434663.3125915527 0 -6434663.3125915527 -59567876.101325989 0 0 0 0 986614.28278608085 -7084538.231296353 0 -7084538.231296353 -3462938.7691745539 0 0 0 0 3898160.089661479 -7108592.0211238861 0 -7108592.0211238861 -21510979.075870514 0 0 0 0 4428794.8381048441 -5065165.6901054382 0 -5065165.6901054382 -23288905.020107269 0 0 0 0 551970.48631652514 -6797665.6845890898 0 -6797665.6845890898 -1589056.2823750614 0 0 0 0 2358102.6068655849 -3865485.9826545715 0 -3865485.9826545715 -54819757.404415011 0 0 0 0 401420.49500535429 -12246475.736923218 0 -12246475.736923218 -39608705.184425354 0 0 0 0 -1714112.6287578195 -1106468.953414917 0 -1106468.953414917 -37641479.54901123 0 0 0 0 5739400.9787307382 392360.36472320557 0 392360.36472320557 -33923533.995437622 0 0 0 0 1915069.7310751975 6493675.7366409302 0 6493675.7366409302 -11573626.987693787 0 0 0 0 2237015.2600030601 -5407329.5016288757 0 -5407329.5016288757 -22589633.984375 0 0 0 0 3789776.0901840888 2720847.4275097214 0 2720847.4275097214 -11383727.673685748 0 0 0 0 58447328.979376793 28725829.94332695 0 28725829.94332695 -6095929.4044647217 0 0 0 0 -1197409.445967108 -9138931.8029556274 0 -9138931.8029556274 -27048885.138870239 0 0 0 0 6682974.0171326213 5602247.7814006805 0 5602247.7814006805 -17452540.626464844 0 0 0 0 38820114.684510231 112640271.95889091 0 112640271.95889091 21251513.762653351 0 0 0 0 3492126.1118834531 2461483.1584501825 0 2461483.1584501825 -12877803.09940692 0 0 0 0 65518505.613101006 1504438.0842781067 0 1504438.0842781067 -109200482.85131073 0 0 0 0 6274777.6201515198 -9070107.4762954712 0 -9070107.4762954712 -2234802.4039497375 0 0 0 0 -49224234.41008091 -2335359.9841175079 0 -2335359.9841175079 -26645573.127037048 0 0 0 0 -14328674.918037415 -42918183.145111084 0 -42918183.145111084 -53133505.035583496 0 0 0 0 28783619.780527115 13133047.503726959 0 13133047.503726959 -36584965.097595215 0 0 0 0 -25914142.84458065 -73142663.752872467 0 -73142663.752872467 -28873925.310405731 0 0 0 0 478091.15811768081 152573.35340795293 0 152573.35340795293 -1612378.1000107042 0 0 0 0 -1393433.7293567657 -30749987.640434265 0 -30749987.640434265 -73921143.147548676 0 0 0 0 978798.22439789772 -46640298.025186539 0 -46640298.025186539 13995654.541320801 0 0 0 0 43024365.535684586 -16956080.50604248 0 -16956080.50604248 -35139761.417808056 0 0 0 0 37591603.395568848 -58625549.62953949 0 -58625549.62953949 -42544456.323875427 0 0 0 0 6655411.0658025742 -28390082.972227097 0 -28390082.972227097 -55463386.034919739 0 0 0 0 56363867.016936183 -66581618.539330006 0 -66581618.539330006 -29535535.921455383 0 0 0 0 59553407.213335037 -10292874.653842926 0 -10292874.653842926 -49654696.87374115 0 0 0 0 8590950.8767230511 8678668.1041717529 0 8678668.1041717529 -12674419.024065018 0 0 0 0 912054.60042175651 -1337061.021788884 0 -1337061.021788884 -2709016.3688051682 0 0 0 0 4337887.9804425118 2655836.4050359279 0 2655836.4050359279 -10459647.536123231 0 0 0 0 8352869.3462276459 -5670659.3230743408 0 -5670659.3230743408 -16694597.798942566 0 0 0 0 4360070.8375271782 1230323.2696018219 0 1230323.2696018219 -14781522.213783264 0 0 0 0 -4883881.2808442116 -8079110.4297428131 0 -8079110.4297428131 -28428553.616405487 0 0 0 0 -205858.44272860512 -1971536.277586041 0 -1971536.277586041 -5248629.0573257376 0 0 0 0 2596291.7656736323 1325331.0307139829 0 1325331.0307139829 -6531253.9660989866 0 0 0 0 5825801.2861289978 -5885252.7804946899 0 -5885252.7804946899 -20029728.314247131 0 0 0 0 -5470321.8249959946 -3395915.8359589577 0 -3395915.8359589577 -16975500.429428101 0 0 0 0 15410442.53500843 -1409820.2023944855 0 -1409820.2023944855 -25871942.882255554 0 0 0 0 -33337269.927196503 -16049144.503433228 0 -16049144.503433228 -33677311.153335571 0 0 0 0 18668196.935401917 -3822465.661781311 0 -3822465.661781311 -61743249.439315796 0 0 0 0 125674.85121289454 -263977.69317305088 0 -263977.69317305088 -1634843.6829486527 0 0 0 0 -5286408.3506832123 -1623579.9308853149 0 -1623579.9308853149 -18969873.59021759 0 0 0 0 -6848074.3282394409 -8712733.5773010254 0 -8712733.5773010254 -13671611.705245972 0 0 0 0 -18206875.049583435 -10830319.947475433 0 -10830319.947475433 -12250045.532196045 0 0 0 0 -11862424.614089966 3520754.1131258011 0 3520754.1131258011 -2449322.7079849243 0 0 0 0 -10809546.151819229 -14738874.808074951 0 -14738874.808074951 -10473822.865371704 0 0 0 0 9838913.4731855392 7322088.987323761 0 7322088.987323761 -41070817.752563477 0 0 0 0 3158770.4309463715 -133623.95473157335 0 -133623.95473157335 -6157313.8633761406 0 0 0 0 8264165.6082005501 -5529918.3973083496 0 -5529918.3973083496 -19977947.912696838 0 0 0 0 10350976.35808754 1302481.3090133667 0 1302481.3090133667 -15584277.678955078 0 0 0 0 47910793.083877563 79773833.818389893 0 79773833.818389893 -103457357.68366241 0 0 0 0 -76316815.597617149 -4005388.2811603546 0 -4005388.2811603546 5048377.7100982666 0 0 0 0 408215.10692742094 -398771.50101687759 0 -398771.50101687759 -1494051.6599429352 0 0 0 0 78340342.337394714 -13990933.254951477 0 -13990933.254951477 -26148094.932243347 0 0 0 0 -10964279.370926969 -35972385.036715388 0 -35972385.036715388 -42064909.652236938 0 0 0 0 -41841072.038478851 -46148636.840782166 0 -46148636.840782166 -40580779.559234619 0 0 0 0 143418580.74808884 154866221.55960846 0 154866221.55960846 -112858995.6729126 0 0 0 0 -31538623.064613342 -15937833.575660706 0 -15937833.575660706 -6260607.8044939041 0 0 0 0 404138.89703221712 -19781.680986769497 0 -19781.680986769497 -1337928.2765856795 0 0 0 0 77765154.476345062 -7769631.8940582275 0 -7769631.8940582275 -84879262.295944214 0 0 0 0 -75311468.167201996 -177641832.51042938 0 -177641832.51042938 -273329101.26959229 0 0 0 0 -215676081.94791794 153917884.01409149 0 153917884.01409149 -134041081.37756157 0 0 0 0 3190175.1454925537 -57408552.33506012 0 -57408552.33506012 -148080534.55462646 0 0 0 0 660119.11051990837 543549.10088731721 0 543549.10088731721 -2320452.8535713218 0 0 0 0 67085507.073045731 -10933290.726200104 0 -10933290.726200104 -106526343.41098022 0 0 0 0 66848890.787540436 23510523.547275543 0 23510523.547275543 -56731695.57006073 0 0 0 0 7502348.2663328648 1049567.2053260803 0 1049567.2053260803 -3546802.1264724731 0 0 0 0 15570084.152900696 -14770773.772548676 0 -14770773.772548676 -40376083.695953369 0 0 0 0 -73360.295691490173 -5593659.1954803467 0 -5593659.1954803467 5549696.2042694092 0 0 0 0 4806786.2469358444 -5937974.7787818909 0 -5937974.7787818909 167512.30635070801 0 0 0 0 2551639.5246806145 -3099108.6022930145 0 -3099108.6022930145 -2937974.5485687256 0 0 0 0 291405.54251670837 5652597.546131134 0 5652597.546131134 7660631.8611960411 0 0 0 0 -25671377.816501617 -42182041.929821014 0 -42182041.929821014 -15719906.18711853 0 0 0 0 -3088911.1343231201 -19458191.559738159 0 -19458191.559738159 -11662403.644500732 0 0 0 0 3597052.5552425385 -21477390.055204391 0 -21477390.055204391 -22181196.731292725 0 0 0 0 5827513.9492397308 -24819269.474205017 0 -24819269.474205017 -34895192.042923689 0 0 0 0 9999950.8315544128 -15457348.419902802 0 -15457348.419902802 -23076851.356063843 0 0 0 0 5337831.5219707489 -3799669.875541687 0 -3799669.875541687 -2142735.5987930298 0 0 0 0 15785950.741415739 -4727982.0645828247 0 -4727982.0645828247 -38907890.670028687 0 0 0 0 4686015.686715126 -4556216.6957626343 0 -4556216.6957626343 -38153341.009742737 0 0 0 0 10815081.150899649 -20818642.338132858 0 -20818642.338132858 -55056917.512420654 0 0 0 0 3432851.0764069557 -8887929.3815231323 0 -8887929.3815231323 -9597245.2833328247 0 0 0 0 13673291.644898593 -11783154.318397522 0 -11783154.318397522 -10311600.574172974 0 0 0 0 -5462256.3747599125 -5989512.3900299072 0 -5989512.3900299072 40776530.146419525 0 0 0 0 -37068672.313920975 20760292.354278564 0 20760292.354278564 -18441896.140211344 0 0 0 0 -1929685.2000471354 -74623475.024419785 0 -74623475.024419785 10364646.769561768 0 0 0 0 28434331.442132235 4901308.8425369263 0 4901308.8425369263 -18730031.271362305 0 0 0 0 13245938.882711172 -16008618.754180908 0 -16008618.754180908 -76564496.064285278 0 0 0 0 -25280800.483318806 -31176679.371398926 0 -31176679.371398926 -42265295.854324341 0 0 0 0 2015343.9994034371 2317499.0842514429 0 2317499.0842514429 -1880834.6831490472 0 0 0 0 10460555.312520504 4769919.3830490112 0 4769919.3830490112 -17265801.402008057 0 0 0 0 -22829898.288873196 43053306.525512695 0 43053306.525512695 -33192765.981483459 0 0 0 0 48884982.237066954 -16357232.423574448 0 -16357232.423574448 -32559864.016639709 0 0 0 0 31208722.07906723 30804251.25050354 0 30804251.25050354 -63786236.271324158 0 0 0 0 1364896.5868164958 1269854.5959352702 0 1269854.5959352702 -2668178.4944619294 0 0 0 0 4764373.533097744 -511570.26341247559 0 -511570.26341247559 -9888996.6020584106 0 0 0 0 224227.09096047131 -2597020.4776537083 0 -2597020.4776537083 -5931367.1149393357 0 0 0 0 -66742210.766731024 -66414586.002972603 0 -66414586.002972603 18854658.672531128 0 0 0 0 3862750.8624839494 1000478.3897505067 0 1000478.3897505067 -5155509.6972484346 0 0 0 0 -1002775.9902825356 -1047003.3409690857 0 -1047003.3409690857 -3896077.5693435669 0 0 0 0 3114208.0706624985 1433020.7099761963 0 1433020.7099761963 -9203076.5355415344 0 0 0 0 2581611.3422521655 -3304673.9661959819 0 -3304673.9661959819 -10790207.732090466 0 0 0 0 3551546.5613460541 -3276128.7141494751 0 -3276128.7141494751 -5414344.8641471863 0 0 0 0 4345714.8476028442 -360117.24443054199 0 -360117.24443054199 -8270983.8693313599 0 0 0 0 1293493.7909269882 223921.91262601502 0 223921.91262601502 -5769886.4371969774 0 0 0 0 7269600.8767180443 -6080285.4201524258 0 -6080285.4201524258 -16098733.977127075 0 0 0 0 97201.956569671631 -1480383.2482299805 0 -1480383.2482299805 -4066408.8400268555 0 0 0 0 1544500.7130054533 -2317530.1334006339 0 -2317530.1334006339 -5357158.3649657527 0 0 0 0 23137400.274810791 -15636395.176055908 0 -15636395.176055908 -122254507.7148819 0 0 0 0 -33042786.178840637 106746111.69216156 0 106746111.69216156 45233526.110778809 0 0 0 0 132323096.4049387 -106501741.03133011 0 -106501741.03133011 -71631658.008178711 0 0 0 0 -72962040.751882553 -53811628.667121887 0 -53811628.667121887 92080918.143486023 0 0 0 0 -88324714.4022789 -9746473.8158416748 0 -9746473.8158416748 4696424.2642974854 0 0 0 0 1247966.492805481 -1348319.9714393616 0 -1348319.9714393616 -3066254.645690918 0 0 0 0 892718.56689433451 -2942875.8275881791 0 -2942875.8275881791 -6763660.6785626747 0 0 0 0 -21658564.360916138 -7495719.5646209717 0 -7495719.5646209717 -33286468.273345947 0 0 0 0 -244675.59101331234 -1487512.4730491638 0 -1487512.4730491638 -6899276.9342727661 0 0 0 0 3570759.9652017467 296520.4571969253 0 296520.4571969253 -4987935.2443420701 0 0 0 0 1478771.297668457 -1113265.2791442871 0 -1113265.2791442871 -1916548.7728271484 0 0 0 0 953587.98296504933 -2185152.6369610466 0 -2185152.6369610466 -7399196.3422643989 0 0 0 0 -532507.9488105257 -1906679.847928267 0 -1906679.847928267 -6224238.2952281833 0 0 0 0 3780517.150565133 1426960.2397228712 0 1426960.2397228712 -4232409.6635671258 0 0 0 0 1407235.8076839447 -1032692.1636123657 0 -1032692.1636123657 -4265092.7075119019 0 0 0 0 350986.39727973938 -1337984.5661773682 0 -1337984.5661773682 -4350406.5095825195 0 0 0 0 3410399.3312286399 349747.00581134111 0 349747.00581134111 -8427519.4558282532 0 0 0 0 -2432822.9653682709 352475.1434173584 0 352475.1434173584 -1794065.1902332306 0 0 0 0 1231611.2472717664 -1632090.5182550102 0 -1632090.5182550102 -5200852.3623359678 0 0 0 0 1817633.783795957 1323600.974020306 0 1323600.974020306 -3128906.6760608554 0 0 0 0 1336481.4067932963 -300402.8911113739 0 -300402.8911113739 -5395333.4478225708 0 0 0 0 -4895852.1985330582 -13401219.481887817 0 -13401219.481887817 -29411594.441085815 0 0 0 0 1269838.468788147 -1784100.5093345642 0 -1784100.5093345642 -8423581.0400161743 0 0 0 0 156282.22546684602 -1694749.8730822224 0 -1694749.8730822224 -4542743.3080922067 0 0 0 0 1012916.1863745451 -1781426.4464969635 0 -1781426.4464969635 -7779149.2554855347 0 0 0 0 340072.15718657459 -756572.97209613025 0 -756572.97209613025 -1429422.3357925266 0 0 0 0 4017896.6849548817 -15481481.916107178 0 -15481481.916107178 -57909394.533378601 0 0 0 0 10818333.450050116 -13162243.884162903 0 -13162243.884162903 -84363263.36831665 0 0 0 0 158316.25842022896 -20987076.132759094 0 -20987076.132759094 30756760.867340088 0 0 0 0 -19957370.616164684 -25869197.525096893 0 -25869197.525096893 56114948.936630249 0 0 0 0 -6167382.664478302 -26975184.899559021 0 -26975184.899559021 77882362.811187744 0 0 0 0 17654993.603784561 -42179901.727111816 0 -42179901.727111816 57241934.708526611 0 0 0 0 108547.11695597903 -4047785.222246699 0 -4047785.222246699 -4613824.6174305491 0 0 0 0 17024840.097260475 -22020154.625984192 0 -22020154.625984192 56479737.391029358 0 0 0 0 -2830450.8033480644 -56833766.435165405 0 -56833766.435165405 82163954.938137054 0 0 0 0 -13230349.651179314 -6669666.0889892578 0 -6669666.0889892578 110033117.20921326 0 0 0 0 578501.79214574432 -388193.27267647535 0 -388193.27267647535 -1283419.8206158653 0 0 0 0 -7082804.790116787 -45408581.006454468 0 -45408581.006454468 61563333.067489624 0 0 0 0 -24321672.37972784 -43013433.534313202 0 -43013433.534313202 61244237.305679321 0 0 0 0 -1069220.2267255783 -38049719.629226685 0 -38049719.629226685 33718313.059494019 0 0 0 0 -21574981.554657459 -19911493.966850281 0 -19911493.966850281 28264863.600261688 0 0 0 0 11635845.136187077 -78719730.588705063 0 -78719730.588705063 37516385.813049316 0 0 0 0 60708209.512079477 -65158566.731872559 0 -65158566.731872559 29734983.24331665 0 0 0 0 -544013.11601352692 -20618140.644672394 0 -20618140.644672394 31326107.951835632 0 0 0 0 -836354.92165654036 -4602672.7169362493 0 -4602672.7169362493 -5948160.6597709805 0 0 0 0 1731807.7035005093 -45472423.247852325 0 -45472423.247852325 44183726.116386414 0 0 0 0 195199233.32275772 90087124.286224365 0 90087124.286224365 -104511389.04423523 0 0 0 0 21920716.08005619 -5590008.8469562531 0 -5590008.8469562531 -18857751.399401665 0 0 0 0 2220155.5711783366 -2649001.071097387 0 -2649001.071097387 -5116814.1423810478 0 0 0 0 10856788.593482018 8572427.9774150848 0 8572427.9774150848 -5938866.959854126 0 0 0 0 -521156.8175985862 -5746637.6200846247 0 -5746637.6200846247 -12971850.496998128 0 0 0 0 -679793.90974748088 -4686019.906917613 0 -4686019.906917613 -12232406.274409045 0 0 0 0 74371562.246423244 -14190220.853331566 0 -14190220.853331566 -28632339.838546753 0 0 0 0 171130967.78073287 -155649382.314188 0 -155649382.314188 84649623.130088806 0 0 0 0 -33498006.83161068 -74819903.156677246 0 -74819903.156677246 133524055.87253189 0 0 0 0 -48499337.666795254 7403525.0990066528 0 7403525.0990066528 76056483.304096222 0 0 0 0 -35839061.767557144 -82017280.584159851 0 -82017280.584159851 38056726.732894897 0 0 0 0 62466758.671497464 -22429487.656991959 0 -22429487.656991959 -5302180.3403167725 0 0 0 0 -11091067.068395138 -41772188.553043365 0 -41772188.553043365 -6034182.3367080688 0 0 0 0 -286413.89134412352 242429.4121111501 0 242429.4121111501 75176.20070836693 0 0 0 0 -65196264.647487164 -54057566.36340332 0 -54057566.36340332 4339961.2052593231 0 0 0 0 -37262308.247498631 -32285449.339519501 0 -32285449.339519501 106203664.05522156 0 0 0 0 -9881756.6662034988 -28253456.80355835 0 -28253456.80355835 -28900604.456287384 0 0 0 0 -40760458.907390833 -11666179.64730835 0 -11666179.64730835 -6149195.1608009338 0 0 0 0 -30104802.838988781 -17766639.649185181 0 -17766639.649185181 30690504.187026978 0 0 0 0 -5864251.1778431833 -27504691.91452837 0 -27504691.91452837 -429461.8296661377 0 0 0 0 -11787997.310087204 24506662.039367676 0 24506662.039367676 -25521900.010787964 0 0 0 0 -17239931.894340515 3610395.8514595032 0 3610395.8514595032 -1997207.6325817108 0 0 0 0 302126.4712255802 268029.90317509696 0 268029.90317509696 -476266.88438654691 0 0 0 0 506868.64371484518 -88576.473172774538 0 -88576.473172774538 3119.0874819401652 0 0 0 0 908261.37110900879 347925.58097076416 0 347925.58097076416 -1782184.477973938 0 0 0 0 424237.92101287842 257425.2688331604 0 257425.2688331604 -1097910.5623016357 0 0 0 0 1062359.0950124264 299276.0403637886 0 299276.0403637886 -1045539.2607727051 0 0 0 0 811005.03912258148 -329799.58492469788 0 -329799.58492469788 -446447.06964874268 0 0 0 0 1391661.9206994493 -421239.30287960544 0 -421239.30287960544 -512475.3914408749 0 0 0 0 1209666.3530273438 -328376.46509933472 0 -328376.46509933472 -941203.13608932495 0 0 0 0 208030.8454284668 130154.85562133789 0 130154.85562133789 -305474.01495361328 0 0 0 0 1357790.4481638516 -187199.7456765715 0 -187199.7456765715 -696406.47640111018 0 0 0 0 217628.07473754883 -265178.54343414307 0 -265178.54343414307 -1278657.12890625 0 0 0 0 -455863.97187614441 626646.32628631592 0 626646.32628631592 -1062640.4702911377 0 0 0 0 1588010.8707313538 329910.70025634766 0 329910.70025634766 -1215096.7004432678 0 0 0 0 33976.021090378053 -18993.218992797658 0 -18993.218992797658 -27707.860391296446 0 0 0 0 -117533079.15458107 63051814.180297852 0 63051814.180297852 129306978.9020462 0 0 0 0 252370.29626560211 870919.31101226807 0 870919.31101226807 -2023185.4227905273 0 0 0 0 461968.32971954346 1127244.2311992645 0 1127244.2311992645 -2023170.8044815063 0 0 0 0 949129.46821056493 -137073.96948936582 0 -137073.96948936582 22483.415605055168 0 0 0 0 266176.04536856711 1267295.0885095 0 1267295.0885095 -1328018.7867066786 0 0 0 0 -39247546.821573257 -33944455.194355011 0 -33944455.194355011 51677568.58102417 0 0 0 0 83923534.967336655 -56666085.157333374 0 -56666085.157333374 -84998436.497665405 0 0 0 0 -63438226.766166687 13388979.981121063 0 13388979.981121063 13095706.352180481 0 0 0 0 -165577058.06893158 198373743.0694046 0 198373743.0694046 -146524446.62043381 0 0 0 0 -26500.585097297095 98753.759014142677 0 98753.759014142677 -53839.882399948314 0 0 0 0 81021418.853565216 51609033.158073425 0 51609033.158073425 -1792061.728843689 0 0 0 0 -44970352.386258125 -84496025.697372437 0 -84496025.697372437 -6651033.4948883057 0 0 0 0 225780412.45555115 -42434671.675964355 0 -42434671.675964355 -32581117.328674316 0 0 0 0 -8328723.7814006805 -16106030.375469208 0 -16106030.375469208 78417851.169147491 0 0 0 0 7825413.3346252441 -14248607.296936035 0 -14248607.296936035 32073440.480529785 0 0 0 0 699759.29993429128 -602065.12241458148 0 -602065.12241458148 -1520231.8596678246 0 0 0 0 435240.92591434345 377482.27750609815 0 377482.27750609815 -220693.90884998254 0 0 0 0 82873353.351913452 -50771167.914886475 0 -50771167.914886475 -45196699.167388916 0 0 0 0 -237084890.47455883 -456925203.54989815 0 -456925203.54989815 222543460.0012207 0 0 0 0 257514802.57344437 -34578203.470100403 0 -34578203.470100403 -34090669.966171265 0 0 0 0 30072924.015338898 35469026.12518692 0 35469026.12518692 823392.02073669434 0 0 0 0 43105588.552503586 4749430.9346542358 0 4749430.9346542358 -13588280.125541687 0 0 0 0 85579916.487911224 15523018.773468018 0 15523018.773468018 -29959367.110122681 0 0 0 0 33788904.643611908 -23872552.596839905 0 -23872552.596839905 -33942391.36501503 0 0 0 0 42781252.375371933 7739705.0171546936 0 7739705.0171546936 -32718129.604187012 0 0 0 0 44911573.469112396 1601152.2306671143 0 1601152.2306671143 -31278015.129204273 0 0 0 0 -11692260.754043579 28232388.13898468 0 28232388.13898468 -29602594.864643097 0 0 0 0 2223208.6208572388 5523108.9788703918 0 5523108.9788703918 -19365596.39453125 0 0 0 0 16914560.285634041 6025839.5282554626 0 6025839.5282554626 -24925746.208496094 0 0 0 0 21894196.58158493 -639043.20927429199 0 -639043.20927429199 -24467992.16278553 0 0 0 0 23182232.821502686 12676805.983985901 0 12676805.983985901 -27612020.66355896 0 0 0 0 10468903.15266037 -20433181.810932159 0 -20433181.810932159 -32677841.998823643 0 0 0 0 35504533.88610363 5936354.0010643005 0 5936354.0010643005 -7557011.2761611938 0 0 0 0 -37596553.585557938 -22720092.47763443 0 -22720092.47763443 -24358977.473394394 0 0 0 0 6223756.6176905632 -5291143.4421768188 0 -5291143.4421768188 -41349625.02117157 0 0 0 0 1987699.3186153769 11650053.279425383 0 11650053.279425383 -63204875.214202881 0 0 0 0 -27667202.989629745 -17384429.926193237 0 -17384429.926193237 -38175964.866775513 0 0 0 0 6896126.7875237465 -10174424.149831772 0 -10174424.149831772 -132869903.07865906 0 0 0 0 -23024683.850422621 -4055804.5923843384 0 -4055804.5923843384 -75883178.367774963 0 0 0 0 4711843.5358772278 -7807159.9365692139 0 -7807159.9365692139 -90073446.729125977 0 0 0 0 -38417723.20214653 -44304870.094120026 0 -44304870.094120026 -34013163.945645809 0 0 0 0 -43534155.759482384 -32276409.475414276 0 -32276409.475414276 -34686183.062429428 0 0 0 0 -24617404.26872921 -49808670.798976898 0 -49808670.798976898 -33524377.44367981 0 0 0 0 -26343528.882997513 -34309483.779289246 0 -34309483.779289246 -38353283.367851257 0 0 0 0 -2988629.9138278961 1695042.3104248047 0 1695042.3104248047 4587443.954875946 0 0 0 0 -1732380.7902050018 -2158987.7094650269 0 -2158987.7094650269 3236483.7450752258 0 0 0 0 2054521.1376533508 3805012.2368507385 0 3805012.2368507385 2848363.4297485352 0 0 0 0 -38769803.300933838 -141175596.28305817 0 -141175596.28305817 -73546842.973022461 0 0 0 0 605024.43925126735 93633.990583002567 0 93633.990583002567 -844951.78505883366 0 0 0 0 -35036187.52287674 -28067593.173828125 0 -28067593.173828125 -23482472.904144287 0 0 0 0 -63614103.540195465 -72187979.717124939 0 -72187979.717124939 -122306600.48244476 0 0 0 0 -9759836.7773704529 -69572083.820068359 0 -69572083.820068359 -155734640.99934387 0 0 0 0 73868.83832497336 58357.853643829003 0 58357.853643829003 -25123.131505041383 0 0 0 0 40193776.649866581 -218851674.88948441 0 -218851674.88948441 1114632.5958709717 0 0 0 0 6694315.3068275452 52846293.884490967 0 52846293.884490967 -137500353.69542694 0 0 0 0 -129296440.80415344 90006981.42830658 0 90006981.42830658 -171384008.05023193 0 0 0 0 12880089.40202713 -61854488.869911194 0 -61854488.869911194 -75501460.851257324 0 0 0 0 7180392.7541894913 -93501726.743349075 0 -93501726.743349075 -239102895.41767883 0 0 0 0 38641231.318166733 -5049262.065864563 0 -5049262.065864563 -75350071.432113647 0 0 0 0 30705978.495903015 40767167.692058563 0 40767167.692058563 -30342695.574279785 0 0 0 0 31564370.852215767 13724929.030258179 0 13724929.030258179 -17395718.675590515 0 0 0 0 43036713.0274086 27180262.422424316 0 27180262.422424316 -65078800.870628357 0 0 0 0 -6132631.69161129 -4642390.0588722229 0 -4642390.0588722229 -358952.4209022522 0 0 0 0 207099.72195863724 -2698597.489906311 0 -2698597.489906311 -2380555.3678665161 0 0 0 0 89450.942064285278 493804.32025146484 0 493804.32025146484 -1482680.7713413239 0 0 0 0 -1476612.4733514786 398994.07814407349 0 398994.07814407349 2923074.6819229126 0 0 0 0 -18937949.989253998 19638395.18270874 0 19638395.18270874 -20388485.650367737 0 0 0 0 -1265088.7686433792 1177850.4890365601 0 1177850.4890365601 988185.33820343018 0 0 0 0 221042.11521318741 365877.13821435906 0 365877.13821435906 -270442.28811340034 0 0 0 0 313961.76284885406 -1117284.1044969559 0 -1117284.1044969559 1078933.6378936768 0 0 0 0 159407.79166100919 53303.019801393151 0 53303.019801393151 -388856.63431970775 0 0 0 0 1536268.3434040686 -500769.52658526041 0 -500769.52658526041 -1171827.4792444222 0 0 0 0 -1808983.73481673 -1863265.9363977909 0 -1863265.9363977909 -385456.8371963501 0 0 0 0 -6722678.1601629257 -30488406.426437378 0 -30488406.426437378 -41662403.600921631 0 0 0 0 220949.95768034924 181858.99032365531 0 181858.99032365531 -134445.23984305188 0 0 0 0 -3841517.1500740051 -16612696.074630737 0 -16612696.074630737 -70441666.351364136 0 0 0 0 4169526.7865314484 -27726736.89831543 0 -27726736.89831543 -97293933.353424072 0 0 0 0 6218750.3528957367 -36589708.390785217 0 -36589708.390785217 -88721908.189651489 0 0 0 0 726379.44240951538 -25639480.326248169 0 -25639480.326248169 -91521248.570220947 0 0 0 0 10885165.698013306 -8298598.1962966919 0 -8298598.1962966919 -87571507.448608398 0 0 0 0 11072202.179365158 -42684070.998346329 0 -42684070.998346329 -101275952.21255493 0 0 0 0 -11194258.254295349 -70727287.960639954 0 -70727287.960639954 -136083081.90522766 0 0 0 0 -53040441.920143127 -71375618.037376404 0 -71375618.037376404 -93693930.998916626 0 0 0 0 39174120.585830688 -15361319.970535278 0 -15361319.970535278 -152456393.1502533 0 0 0 0 -54438332.561988831 -120059833.5408783 0 -120059833.5408783 -172229625.834198 0 0 0 0 -19932963.344390869 -43389682.657470703 0 -43389682.657470703 -195959203.11413574 0 0 0 0 -57391628.884654999 -2556900.8845367432 0 -2556900.8845367432 -105359909.41164398 0 0 0 0 20296482.286699295 -31416330.830173492 0 -31416330.830173492 -94989762.142105103 0 0 0 0 -17821851.794859886 -69854036.776184082 0 -69854036.776184082 -45981983.636032104 0 0 0 0 -18266180.52913475 -50043654.449493408 0 -50043654.449493408 -80978148.988311768 0 0 0 0 -11121336.640701294 -32315967.946807861 0 -32315967.946807861 -53373805.396224976 0 0 0 0 -28700995.976290703 -36241460.940404892 0 -36241460.940404892 -22330203.53993988 0 0 0 0 -16894724.810064316 -62248495.149475098 0 -62248495.149475098 -83739314.483463287 0 0 0 0 -13767301.987789154 -45737171.995903015 0 -45737171.995903015 -51158803.756698608 0 0 0 0 -16733063.67105484 -36119054.269287109 0 -36119054.269287109 -49162774.990390778 0 0 0 0 -15320568.100568771 -31747889.403503418 0 -31747889.403503418 -59438654.417025566 0 0 0 0 -13406510.845621586 -45424959.614906311 0 -45424959.614906311 -61144463.855743408 0 0 0 0 -9218690.9590339661 -33058713.186790466 0 -33058713.186790466 -81926954.486793518 0 0 0 0 70846.986919680377 -527381.07939664111 0 -527381.07939664111 -208805.96263345703 0 0 0 0 -16380538.599941254 31858398.610969543 0 31858398.610969543 -11352692.897705078 0 0 0 0 515395.52608382702 -359041.41725444794 0 -359041.41725444794 -593109.28739929199 0 0 0 0 1174691.7152695842 90806.278370734304 0 90806.278370734304 -1006403.7597600911 0 0 0 0 10348.772744102404 18311.860072379932 0 18311.860072379932 145953.11595887691 0 0 0 0 -20849190.402482986 -267385.39394760132 0 -267385.39394760132 163752.04355239868 0 0 0 0 -2024048.9227151871 12943434.802009583 0 12943434.802009583 -22260769.32409668 0 0 0 0 -97812382.505378723 -91200965.381480217 0 -91200965.381480217 -44678975.824073792 0 0 0 0 -57411595.51568985 -55660774.872879028 0 -55660774.872879028 -19824480.339319229 0 0 0 0 -32359179.366918564 -23262430.843589783 0 -23262430.843589783 -80251521.807281494 0 0 0 0 -24118052.971058846 -85164495.610567093 0 -85164495.610567093 -135025447.50242615 0 0 0 0 -36260133.116644382 20673803.056446075 0 20673803.056446075 -21337910.931015015 0 0 0 0 814507.23819405586 46177.487689362839 0 46177.487689362839 -686053.61188627966 0 0 0 0 -1143269.9305839539 -339618.45272827148 0 -339618.45272827148 2995612.0856628418 0 0 0 0 468060.55500793457 -1667391.4111118317 0 -1667391.4111118317 -3475102.6428909302 0 0 0 0 -262454.71481323242 -3321071.0562744141 0 -3321071.0562744141 3353051.8558416367 0 0 0 0 893889.72879964404 -1084643.8647399165 0 -1084643.8647399165 -229591.86163875088 0 0 0 0 1005245.4142971039 -377223.17535018921 0 -377223.17535018921 -815939.64144515991 0 0 0 0 47728.784112930298 550886.42070198059 0 550886.42070198059 -812748.09757995605 0 0 0 0 -3375584.406578064 -2158949.4987640381 0 -2158949.4987640381 2094441.0932540894 0 0 0 0 3426199.5929787159 -1292851.805721283 0 -1292851.805721283 -438216.70822906494 0 0 0 0 346199.54692059546 -684029.04223396094 0 -684029.04223396094 119535.45920817554 0 0 0 0 104405.28051766113 -220229.56478013261 0 -220229.56478013261 36779.366403188556 0 0 0 0 3225541.7952976227 4666084.8182201385 0 4666084.8182201385 -18383770.717567444 0 0 0 0 -2453461.7806377411 3023343.1380233765 0 3023343.1380233765 -2310558.3109283447 0 0 0 0 -2115017.8708744049 -1007353.9220275879 0 -1007353.9220275879 351882.38277816772 0 0 0 0 7431032.5371446609 2314981.2137947083 0 2314981.2137947083 -11719308.912872314 0 0 0 0 -713524.34310770035 5471457.7354850769 0 5471457.7354850769 -9991448.4429779053 0 0 0 0 992705.92073631287 499795.79318618774 0 499795.79318618774 -6174766.612827301 0 0 0 0 -624969.29379081726 2733772.3473167419 0 2733772.3473167419 -6301514.1761360168 0 0 0 0 1141997.4050275865 135220.91739839315 0 135220.91739839315 -501148.37627151422 0 0 0 0 4585092.9380273819 -2877968.2993240356 0 -2877968.2993240356 -1562950.1513557434 0 0 0 0 -622864.73046398163 -362390.48767852783 0 -362390.48767852783 1310463.2013130188 0 0 0 0 1853354.6588687897 -4424734.6668930054 0 -4424734.6668930054 -4236429.9488506317 0 0 0 0 486314.78601455688 -6626611.4559249878 0 -6626611.4559249878 781137.35316467285 0 0 0 0 633548.40075719077 229468.2124490384 0 229468.2124490384 -286029.6415336132 0 0 0 0 8568515.2130489349 6048575.4547967911 0 6048575.4547967911 -9512398.906867981 0 0 0 0 -2192629.9051742554 -5704295.04737854 0 -5704295.04737854 -11833628.673128128 0 0 0 0 -10659636.205485344 5703204.49634552 0 5703204.49634552 8862611.9098587036 0 0 0 0 9515528.5085544586 -33373808.482162476 0 -33373808.482162476 46959708.117835999 0 0 0 0 408363.3544054986 169989.57659449801 0 169989.57659449801 -394829.02442643419 0 0 0 0 -41546197.117519379 -16372260.697906494 0 -16372260.697906494 16449218.234161377 0 0 0 0 28078050.705945969 18237580.119052887 0 18237580.119052887 -65705779.01770401 0 0 0 0 38429539.708403587 1237421.3850498199 0 1237421.3850498199 -66263080.757629395 0 0 0 0 128139042.10366821 -61938008.542114258 0 -61938008.542114258 -46495750.064491272 0 0 0 0 71021944.782565117 -34777966.650619507 0 -34777966.650619507 -38105931.676376343 0 0 0 0 5370351.8813934326 -7369564.6053848267 0 -7369564.6053848267 16806587.297325134 0 0 0 0 6133782.9361824989 -97767.507690429688 0 -97767.507690429688 -9787935.0184326172 0 0 0 0 8102924.8187541962 913367.17137908936 0 913367.17137908936 -10582606.140106201 0 0 0 0 12633055.88456583 9807782.2262973785 0 9807782.2262973785 -26661606.553253174 0 0 0 0 23827427.659761429 -632738.4122467041 0 -632738.4122467041 -20224177.508956909 0 0 0 0 -4577594.6313972473 27961715.464925766 0 27961715.464925766 -25356624.728218079 0 0 0 0 31200819.885913849 31934725.201929092 0 31934725.201929092 -44215727.700580597 0 0 0 0 13181795.491104126 29032397.371686935 0 29032397.371686935 -42002733.399421692 0 0 0 0 5115747.5295143127 27253265.291236877 0 27253265.291236877 -32010304.930969238 0 0 0 0 14525190.032546997 29217270.910744667 0 29217270.910744667 -62868963.266975403 0 0 0 0 -7217752.4427785873 43158125.827846527 0 43158125.827846527 -83146439.029666901 0 0 0 0 -112085256.55673218 -123034408.5669899 0 -123034408.5669899 -118455041.85176659 0 0 0 0 -27858223.828228951 22337526.311300278 0 22337526.311300278 13541900.009346008 0 0 0 0 -29554922.615554929 34295303.918444633 0 34295303.918444633 -10792807.785949707 0 0 0 0 222951.23069685046 -29406.709232345223 0 -29406.709232345223 -630723.2518453002 0 0 0 0 9405150.8039855957 -30921440.484889984 0 -30921440.484889984 9660900.5792279243 0 0 0 0 -2279375.3366193771 -8329629.3359556198 0 -8329629.3359556198 -26756648.128013611 0 0 0 0 284931.42753458023 -1984782.7605600357 0 -1984782.7605600357 -21770759.186889648 0 0 0 0 -3441037.1400279999 -2402375.555480957 0 -2402375.555480957 -16630882.133892059 0 0 0 0 -3510161.7786397934 5802724.8643951416 0 5802724.8643951416 -12543796.87216568 0 0 0 0 18077289.937510967 -174745.33334732056 0 -174745.33334732056 -67959609.901351929 0 0 0 0 19175221.868531942 -6087649.5972390175 0 -6087649.5972390175 -36123395.05166626 0 0 0 0 -23990670.181350708 -39640550.49197197 0 -39640550.49197197 -37405868.370498657 0 0 0 0 37193678.319118023 -1360873.5011177063 0 -1360873.5011177063 -41852834.210519791 0 0 0 0 34778789.234511852 -17626580.667613983 0 -17626580.667613983 -5790449.5401992798 0 0 0 0 9183583.5660071373 -24086781.018100739 0 -24086781.018100739 -18678476.651042938 0 0 0 0 78499919.061740398 -38261178.030254364 0 -38261178.030254364 -26399640.517311096 0 0 0 0 62232340.660390377 3407657.4410085678 0 3407657.4410085678 -17981409.307106018 0 0 0 0 -31567017.967898846 -41625752.244102478 0 -41625752.244102478 -7515113.579208374 0 0 0 0 3252961.8342577219 -10892934.374380112 0 -10892934.374380112 -9041395.1966934204 0 0 0 0 -31899137.99811697 -25653557.354400635 0 -25653557.354400635 -24645048.642316818 0 0 0 0 534021.82592387171 -870106.09526674077 0 -870106.09526674077 -1810396.5917701833 0 0 0 0 -29027246.120156288 -37747023.019609451 0 -37747023.019609451 -17664470.933380127 0 0 0 0 47841124.655803919 7112423.1925611496 0 7112423.1925611496 -22926079.423171997 0 0 0 0 16394984.078360558 4021159.1525421143 0 4021159.1525421143 3424865.8322544098 0 0 0 0 171868.5292199204 -305912.21904793661 0 -305912.21904793661 -630412.2958451733 0 0 0 0 23376950.03542304 63595653.481131077 0 63595653.481131077 -129450651.63127899 0 0 0 0 -28177900.28599453 58371933.106750488 0 58371933.106750488 -24265746.372095108 0 0 0 0 -123916561.21756172 -92797558.795471191 0 -92797558.795471191 -56606903.11057663 0 0 0 0 12311200.435586333 6689786.2955493927 0 6689786.2955493927 -49322981.928092957 0 0 0 0 37531824.61874187 -54991173.327131748 0 -54991173.327131748 -138794121.06775665 0 0 0 0 -288358613.22359467 17916019.103557587 0 17916019.103557587 69988552.439483643 0 0 0 0 -125460558.02189255 79525607.44418335 0 79525607.44418335 82382933.614425659 0 0 0 0 51791536.286115646 -36361274.033439636 0 -36361274.033439636 -136209140.97794867 0 0 0 0 -2876677.051235199 -37682577.727592468 0 -37682577.727592468 -85991174.43611145 0 0 0 0 226936.43913085153 229670.12482332997 0 229670.12482332997 -149247.21104416531 0 0 0 0 39540014.879308701 10489493.011852264 0 10489493.011852264 -59426317.272460938 0 0 0 0 -22651552.654824734 -36348758.778148651 0 -36348758.778148651 -48768362.727828979 0 0 0 0 -19949511.755662918 -41397525.899024963 0 -41397525.899024963 -47832097.572031021 0 0 0 0 -11223883.175649643 -40107200.168205261 0 -40107200.168205261 -51623468.406455994 0 0 0 0 -54358034.062608719 -28395743.41844368 0 -28395743.41844368 -40887055.915992737 0 0 0 0 -16863226.317070961 13059003.795841217 0 13059003.795841217 -45034182.507797241 0 0 0 0 -34691157.456129074 -47830805.96881485 0 -47830805.96881485 -59192742.911613464 0 0 0 0 14836347.409704208 -5557285.4546947479 0 -5557285.4546947479 -63542655.762031555 0 0 0 0 37892748.653888226 16474068.493629456 0 16474068.493629456 -55324388.41192627 0 0 0 0 10588580.740159988 12083097.064899445 0 12083097.064899445 -53051722.245368958 0 0 0 0 12521834.443098783 2990423.8393297195 0 2990423.8393297195 -47063804.92880249 0 0 0 0 29152351.702823639 9834323.193939209 0 9834323.193939209 -46949831.722322464 0 0 0 0 32725565.260018826 3056199.7570304871 0 3056199.7570304871 -38489707.462875366 0 0 0 0 28094380.420535088 501763.51941299438 0 501763.51941299438 -26579699.083930969 0 0 0 0 24133889.400125027 16890187.538024902 0 16890187.538024902 -43765406.416322708 0 0 0 0 12307315.469448566 33299735.339849472 0 33299735.339849472 -46681381.054740906 0 0 0 0 30861718.478664398 21976367.656600952 0 21976367.656600952 -40157311.439414978 0 0 0 0 70367703.247410297 51464436.09935379 0 51464436.09935379 -41000041.321832657 0 0 0 0 7028905.8408589363 76048878.464588165 0 76048878.464588165 -13487556.885223389 0 0 0 0 27829972.68507719 -27863625.121196747 0 -27863625.121196747 -56599040.829071045 0 0 0 0 77651144.085838318 14768940.42408371 0 14768940.42408371 -59230199.691734314 0 0 0 0 399134.30709712673 363504.3274195753 0 363504.3274195753 -312831.91668045521 0 0 0 0 40339236.129473686 63804700.205913544 0 63804700.205913544 71097468.085645676 0 0 0 0 113017927.92783773 41330648.634770393 0 41330648.634770393 -13982054.69316864 0 0 0 0 99547517.35889101 -32986837.673786163 0 -32986837.673786163 -47219783.080558777 0 0 0 0 35084512.634810925 2451896.6084594727 0 2451896.6084594727 -105652684.02325439 0 0 0 0 -20490607.898903847 -59739562.608673096 0 -59739562.608673096 -32224841.629875183 0 0 0 0 42481286.478531361 -27205423.801490784 0 -27205423.801490784 10046761.316986084 0 0 0 0 -9196867.6093864441 -34126715.294792175 0 -34126715.294792175 -68732071.010925293 0 0 0 0 -17093272.322237015 -30906265.257583618 0 -30906265.257583618 -59760145.754501343 0 0 0 0 -18208423.646357536 -35628591.540267944 0 -35628591.540267944 -54403629.555740356 0 0 0 0 -14651749.492134929 -36768533.907598495 0 -36768533.907598495 -55931864.85534668 0 0 0 0 -19183349.871686935 -36069699.964508057 0 -36069699.964508057 -48810575.542831421 0 0 0 0 -16794440.672394753 -30483241.582843781 0 -30483241.582843781 -62050702.459014893 0 0 0 0 -15672215.612695694 -26045877.470619202 0 -26045877.470619202 -47294227.310375214 0 0 0 0 -24682207.197871208 -31671933.02964592 0 -31671933.02964592 -49918119.024131775 0 0 0 0 -8786196.3376121521 -10433410.425052643 0 -10433410.425052643 -36505123.851601601 0 0 0 0 1052043.8645343781 -24669901.532566071 0 -24669901.532566071 -47978347.827629089 0 0 0 0 1633255.5107475221 -15375943.445280671 0 -15375943.445280671 -63265814.639686584 0 0 0 0 970246.33072877815 631454.41490995511 0 631454.41490995511 -770197.61247274838 0 0 0 0 1389440.2030029297 1052170.0470581055 0 1052170.0470581055 -69009132.9695611 0 0 0 0 -6104241.538066864 -22647991.038677216 0 -22647991.038677216 -69756769.108093262 0 0 0 0 10203810.618970871 14220019.046295166 0 14220019.046295166 203106.25314331055 0 0 0 0 -12282853.022027969 -16212268.557922363 0 -16212268.557922363 -75002968.214416504 0 0 0 0 -7508834.4455490112 -35045690.410522461 0 -35045690.410522461 -83544019.064163208 0 0 0 0 150526.4390096101 -42620.071633830667 0 -42620.071633830667 -164805.49151101336 0 0 0 0 -13181979.464431763 -47140024.417831421 0 -47140024.417831421 -107694955.66127014 0 0 0 0 -7438635.8793087006 -27730464.695838928 0 -27730464.695838928 -81247598.972900391 0 0 0 0 -7280235.1726570129 -19415655.971786499 0 -19415655.971786499 -103679693.71706009 0 0 0 0 -12626421.765872955 -30184438.317199707 0 -30184438.317199707 -62173385.18157959 0 0 0 0 -14797822.542358398 -23348157.922988892 0 -23348157.922988892 -81165283.084564209 0 0 0 0 -515421.09705102444 6110581.7055063248 0 6110581.7055063248 -5575487.8871154785 0 0 0 0 12059895.503314972 4177305.7017402649 0 4177305.7017402649 -19518929.719726562 0 0 0 0 34607056.699249268 16395720.519638062 0 16395720.519638062 -28747056.878662109 0 0 0 0 28285964.738731384 21452996.572967529 0 21452996.572967529 -23530415.02923584 0 0 0 0 22714690.217247009 14478869.87525177 0 14478869.87525177 -9571455.4062576294 0 0 0 0 17844600.863538504 19455496.213693619 0 19455496.213693619 -1988083.763671875 0 0 0 0 39845027.774729729 33358683.937885284 0 33358683.937885284 -11287157.162361145 0 0 0 0 30471122.905975342 19143118.778980255 0 19143118.778980255 9008932.0989456177 0 0 0 0 40403531.826695442 25613456.796047211 0 25613456.796047211 -25348461.96081543 0 0 0 0 30810643.069019794 22775938.357223511 0 22775938.357223511 -467000.27738952637 0 0 0 0 42223004.550004959 25202604.897506714 0 25202604.897506714 -35159424.217838287 0 0 0 0 16609098.379171371 9215955.0100975037 0 9215955.0100975037 -24449022.691749573 0 0 0 0 21595792.703805923 -10316280.428718567 0 -10316280.428718567 15980774.810154915 0 0 0 0 20332737.934746265 215338.05626678467 0 215338.05626678467 -50342302.595840454 0 0 0 0 19800048.846160889 -62619071.626052856 0 -62619071.626052856 4522698.8716945648 0 0 0 0 18883957.698708534 -69007283.90473175 0 -69007283.90473175 -19982821.411712646 0 0 0 0 32180031.537255287 -57185225.803955078 0 -57185225.803955078 -37166817.276016235 0 0 0 0 32196757.772104025 -52465574.712123871 0 -52465574.712123871 -18120019.988830566 0 0 0 0 28776823.381788254 -44864530.028577805 0 -44864530.028577805 -19687667.605056763 0 0 0 0 4103718.8823022842 18167404.556663513 0 18167404.556663513 -11037200.927687168 0 0 0 0 46463273.850796938 32518632.966165543 0 32518632.966165543 -38591018.064231873 0 0 0 0 33058515.819299698 -38736621.598690033 0 -38736621.598690033 -12271740.608428955 0 0 0 0 -443427.53088219999 983469.8340328075 0 983469.8340328075 855642.93411211669 0 0 0 0 11001753.876677692 45375950.618631124 0 45375950.618631124 26511983.212665558 0 0 0 0 25300286.375166893 4294951.2182731628 0 4294951.2182731628 -30975951.015971184 0 0 0 0 465710.54597226763 4738479.3374953065 0 4738479.3374953065 -10248671.936998185 0 0 0 0 -13649612.987408161 16289489.701684952 0 16289489.701684952 8745242.6457824707 0 0 0 0 -16618087.530257046 29903766.782455444 0 29903766.782455444 37899974.900704384 0 0 0 0 10860173.281438828 46242537.369860649 0 46242537.369860649 39923030.224952698 0 0 0 0 -685922.45863173646 4202328.0082145277 0 4202328.0082145277 -9190332.2759505622 0 0 0 0 5935431.6834180355 32984812.456199646 0 32984812.456199646 50784977.055389404 0 0 0 0 15301949.33988408 7265968.4961128235 0 7265968.4961128235 -13724193.986747742 0 0 0 0 7719136.5556750298 -18593805.092250824 0 -18593805.092250824 67473845.752456665 0 0 0 0 -3332934.1754676104 40423621.621723175 0 40423621.621723175 -35001902.507665634 0 0 0 0 928982.63459914923 -16932967.140380383 0 -16932967.140380383 -68418059.658004761 0 0 0 0 45844510.802736759 47325771.307668686 0 47325771.307668686 -12105562.51682663 0 0 0 0 21543007.437486649 11112846.57239151 0 11112846.57239151 2580271.2949943542 0 0 0 0 -9420653.3636834621 30432985.393878937 0 30432985.393878937 -7614554.2891464233 0 0 0 0 7210010.1994066834 -5048125.7922105789 0 -5048125.7922105789 -44622918.26285553 0 0 0 0 -897224.27605068684 23058701.113244057 0 23058701.113244057 21454217.506706238 0 0 0 0 -69541443.190408766 -42370780.845358849 0 -42370780.845358849 -45588808.348831177 0 0 0 0 -13127525.718410134 7164890.5962657928 0 7164890.5962657928 -51406088.417644501 0 0 0 0 28980274.602129936 12958816.45633316 0 12958816.45633316 34503510.41494751 0 0 0 0 52944357.171352386 28641271.986656189 0 28641271.986656189 -4375342.2185306549 0 0 0 0 83667885.337650299 -95441166.974521637 0 -95441166.974521637 112750961.34394073 0 0 0 0 -416445.2014577901 4965777.9585795216 0 4965777.9585795216 -10065671.18168823 0 0 0 0 35673273.008164406 42505269.086883545 0 42505269.086883545 17520775.013409615 0 0 0 0 3912899.2294433964 -616071.34401515685 0 -616071.34401515685 -3565457.3287433684 0 0 0 0 28674033.450904846 -17755094.958614349 0 -17755094.958614349 -26586669.449127197 0 0 0 0 53211204.233667374 -72985192.003913879 0 -72985192.003913879 153626718.11843109 0 0 0 0 -225218008.91012001 113392570.19339752 0 113392570.19339752 98833153.963392258 0 0 0 0 -530664.38938140869 68599358.643375397 0 68599358.643375397 52217453.862716675 0 0 0 0 -66200282.047795296 210813786.74287701 0 210813786.74287701 15906273.675994873 0 0 0 0 176096515.29857349 73184591.785939217 0 73184591.785939217 486416592.35773468 0 0 0 0 -107916795.85314751 -216635361.86033249 0 -216635361.86033249 -233506315.52702332 0 0 0 0 97255543.47492981 -135625888.1782608 0 -135625888.1782608 -476428490.17507362 0 0 0 0 -9452413.3837718964 244259876.48766327 0 244259876.48766327 -434079296.46102905 0 0 0 0 -468750.83518567169 3664037.3417216484 0 3664037.3417216484 -8293358.9079762287 0 0 0 0 432979657.95349693 307922637.83752823 0 307922637.83752823 -855379042.62652588 0 0 0 0 63861073.432657957 36434096.102079391 0 36434096.102079391 -26242844.923538208 0 0 0 0 -7637671.1759996414 10380379.485275269 0 10380379.485275269 14027575.034992218 0 0 0 0 -36964013.285030842 -50794959.486818314 0 -50794959.486818314 -27473645.40045166 0 0 0 0 -15498326.146371126 -69566119.036287308 0 -69566119.036287308 -119202819.04311371 0 0 0 0 -569065.52073192596 -24409931.532054901 0 -24409931.532054901 -60702218.128631592 0 0 0 0 26550651.574144363 -49823933.633327484 0 -49823933.633327484 -49728186.608032227 0 0 0 0 -3453857.2078800201 -60164132.30670166 0 -60164132.30670166 -25325987.095550537 0 0 0 0 191549563.07098675 196937516.98604202 0 196937516.98604202 205450143.98553467 0 0 0 0 -388741.01825481001 809947.60744936578 0 809947.60744936578 -1070869.1242943592 0 0 0 0 -421588.92388082948 2315074.8770265114 0 2315074.8770265114 -5219756.6893445142 0 0 0 0 34981389.904008865 29230830.967885733 0 29230830.967885733 -37754463.684989929 0 0 0 0 -53223375.09657678 -105759488.01826429 0 -105759488.01826429 -176781798.88453674 0 0 0 0 -71166562.866808772 -55299089.607032776 0 -55299089.607032776 -77047219.94744873 0 0 0 0 -31422414.252754211 -56722418.982753754 0 -56722418.982753754 -88307407.92632103 0 0 0 0 -2175370.7588536739 2332783.8652572632 0 2332783.8652572632 -33930299.979305267 0 0 0 0 -2233094.1639151573 -41599620.357893229 0 -41599620.357893229 -77111931.851493835 0 0 0 0 -92969400.412855625 -115077621.10733795 0 -115077621.10733795 -118626420.54278755 0 0 0 0 -45146027.060936451 -88054690.747302532 0 -88054690.747302532 -141017280.76350403 0 0 0 0 -56459134.643354416 -53115020.159076691 0 -53115020.159076691 -60379525.131004333 0 0 0 0 -74759201.327756837 -119007440.4820118 0 -119007440.4820118 -207677652.42776489 0 0 0 0 -149578179.32538542 -147763684.04115868 0 -147763684.04115868 -190964432.72570419 0 0 0 0 -164362365.59836096 -93415282.401082516 0 -93415282.401082516 -243506484.16111755 0 0 0 0 -98751893.185519457 -132320835.3155098 0 -132320835.3155098 -221155180.71107101 0 0 0 0 -110918186.28963947 -106278365.96607208 0 -106278365.96607208 -198113930.26788044 0 0 0 0 -57288557.388455033 -81629948.884512901 0 -81629948.884512901 -295055969.41384125 0 0 0 0 -55908445.348605394 -96722469.449350357 0 -96722469.449350357 -203201574.84770966 0 0 0 0 -75354007.528746128 -105911335.33519363 0 -105911335.33519363 -101446751.66729736 0 0 0 0 -40993229.645616531 -71646856.224348068 0 -71646856.224348068 -143847665.2675705 0 0 0 0 -66289096.19376564 -84411788.490039825 0 -84411788.490039825 -74001234.136196136 0 0 0 0 -54201380.058707237 -137301396.54005814 0 -137301396.54005814 -197812775.42111206 0 0 0 0 -44170196.474040985 -37677886.408647537 0 -37677886.408647537 -43188257.223297119 0 0 0 0 -90877379.809789658 2338046.7865066528 0 2338046.7865066528 49656280.447677612 0 0 0 0 -124157103.45466232 -92695542.484733582 0 -92695542.484733582 26503526.390842438 0 0 0 0 -101039728.61557388 -146618980.4781189 0 -146618980.4781189 -108483067.59741592 0 0 0 0 -53752876.897004128 -103010446.7881279 0 -103010446.7881279 -199294248.09497833 0 0 0 0 -151599348.96973324 -177963644.26712799 0 -177963644.26712799 -143239869.66238403 0 0 0 0 -150861286.00959259 -196321039.6639272 0 -196321039.6639272 -309778792.13194275 0 0 0 0 -67214093.303905487 -97418350.26184082 0 -97418350.26184082 -316085614.54445648 0 0 0 0 -46819592.850310326 -141606381.38322544 0 -141606381.38322544 -265639331.16360474 0 0 0 0 -48941559.656099319 -84889241.986507416 0 -84889241.986507416 -313151227.73606873 0 0 0 0 -53225798.177236557 -117014424.08275604 0 -117014424.08275604 -345462725.56999207 0 0 0 0 -49893795.952312469 -99017529.665042877 0 -99017529.665042877 -350550960.3840332 0 0 0 0 -90622226.845014572 -26585140.018348694 0 -26585140.018348694 -360490364.19171715 0 0 0 0 -67296070.294381082 -102584217.87113923 0 -102584217.87113923 -524517674.10691833 0 0 0 0 -45565580.465161204 -94730397.813360214 0 -94730397.813360214 -310109573.94503784 0 0 0 0 -60779547.671368599 -89741629.934150696 0 -89741629.934150696 -236575722.17237854 0 0 0 0 -32604513.176663399 -107193132.75879478 0 -107193132.75879478 -306530071.9061203 0 0 0 0 -60229956.60389328 -73045928.342262268 0 -73045928.342262268 -320811736.65694427 0 0 0 0 -68417411.114545822 -97353932.774330139 0 -97353932.774330139 -325161737.76301575 0 0 0 0 -57063882.692286015 -85643496.985481262 0 -85643496.985481262 -313218445.23787689 0 0 0 0 -104466065.25712776 -82202629.307888031 0 -82202629.307888031 -300332265.91011 0 0 0 0 -117955574.49999821 -173133626.44137716 0 -173133626.44137716 -150539979.50379944 0 0 0 0 -108331992.34284067 -42565640.871746063 0 -42565640.871746063 -253979944.29121399 0 0 0 0 -62289914.21287632 -67509546.589935303 0 -67509546.589935303 -301403822.73148346 0 0 0 0 -28334282.786084175 -73203276.15867424 0 -73203276.15867424 -373811239.5063324 0 0 0 0 5321168.9954991341 -144273019.63210678 0 -144273019.63210678 -303071957.66087532 0 0 0 0 -89433489.490000725 -5254896.9843883514 0 -5254896.9843883514 -470743333.53642559 0 0 0 0 -77263555.390353918 -183246941.76534653 0 -183246941.76534653 -390324226.96766472 0 0 0 0 -308867738.18453288 -67560592.840631962 0 -67560592.840631962 -228386986.038311 0 0 0 0 -83261240.356774807 -70530213.797096252 0 -70530213.797096252 -312079230.92616272 0 0 0 0 95852538.056215286 -59447901.790108681 0 -59447901.790108681 94202193.008247375 0 0 0 0 18749930.356407881 -23572938.619509697 0 -23572938.619509697 -15698349.8412323 0 0 0 0 67986736.993846893 9139707.5723800659 0 9139707.5723800659 -13137047.970790863 0 0 0 0 9532631.418970108 -55664761.863082886 0 -55664761.863082886 14031459.567995071 0 0 0 0 9492774.367773056 -51204161.819610596 0 -51204161.819610596 -34394765.873077393 0 0 0 0 -20829881.502130508 -33229398.520622253 0 -33229398.520622253 -22544103.848758698 0 0 0 0 -20481283.115359485 -25404845.412479401 0 -25404845.412479401 -97348639.937332153 0 0 0 0 12792061.004161835 7004489.9219970703 0 7004489.9219970703 -92907998.78237915 0 0 0 0 1184060.2857608795 17674148.885047913 0 17674148.885047913 -80281970.485740662 0 0 0 0 31466083.80755806 60803046.783866882 0 60803046.783866882 -212359269.08088684 0 0 0 0 5199426.7642555237 11271907.605350494 0 11271907.605350494 -205188392.19023132 0 0 0 0 68280110.628246307 64976170.218933105 0 64976170.218933105 -382158288.95909119 0 0 0 0 67962161.406017303 54150962.554649353 0 54150962.554649353 -284393471.3536911 0 0 0 0 30842799.468395233 410421.92789459229 0 410421.92789459229 -219683368.15705872 0 0 0 0 46097494.142433167 95067898.677604675 0 95067898.677604675 -204532912.02400017 0 0 0 0 77742026.863763988 115705232.81149006 0 115705232.81149006 113867144.08398438 0 0 0 0 68049412.770170212 151369785.72654724 0 151369785.72654724 -170613151.3185463 0 0 0 0 302975837.0627718 291331555.38421631 0 291331555.38421631 -225229687.38708496 0 0 0 0 77211875.560365677 100671410.38710785 0 100671410.38710785 -198327711.78499985 0 0 0 0 27076733.176047325 79034681.800275803 0 79034681.800275803 -42823145.334243774 0 0 0 0 -290654251.60563087 -377874213.43862152 0 -377874213.43862152 -248411649.13272858 0 0 0 0 238803.89764783159 256480.07713784464 0 256480.07713784464 -1981841.0911936052 0 0 0 0 -167588532.42104912 -203418142.02283859 0 -203418142.02283859 -50631788.013320923 0 0 0 0 -31184597.050833702 -211814080.42638779 0 -211814080.42638779 -308568393.86352348 0 0 0 0 -112893181.95515156 -267028693.49132156 0 -267028693.49132156 -273471287.66367149 0 0 0 0 391547149.88332081 12146454.395496368 0 12146454.395496368 -258104573.97159195 0 0 0 0 171290342.55253649 -474784988.28749657 0 -474784988.28749657 -504161666.71594238 0 0 0 0 -314091851.09807205 -46563184.953010559 0 -46563184.953010559 -223676745.56616974 0 0 0 0 157370.49919959018 1183720.9431165606 0 1183720.9431165606 -4495958.0110204592 0 0 0 0 247572962.58363628 76091487.556136608 0 76091487.556136608 -988144.14186859131 0 0 0 0 234577598.40460491 -39506730.195365906 0 -39506730.195365906 -18652071.107551575 0 0 0 0 80453208.401359558 -29794619.113235474 0 -29794619.113235474 24938390.218948364 0 0 0 0 99535205.511188507 37882431.439432144 0 37882431.439432144 53300507.575561523 0 0 0 0 131630184.43753147 -259069.19654083252 0 -259069.19654083252 -36935041.970718384 0 0 0 0 -494401773.95075607 622201465.28243256 0 622201465.28243256 737228422.20007324 0 0 0 0 -1114234677.2820425 -1145004193.1648521 0 -1145004193.1648521 -522698138.70243835 0 0 0 0 -177332854.41815758 98646633.333892822 0 98646633.333892822 -429591728.06928253 0 0 0 0 614561649.67284393 345242380.30360794 0 345242380.30360794 -104596688.01098633 0 0 0 0 -115455.35906324536 711814.58710459992 0 711814.58710459992 -1750894.0411453024 0 0 0 0 99862405.089974165 28839111.858878136 0 28839111.858878136 -35992706.594718933 0 0 0 0 -463042.41739262547 1726393.1414983701 0 1726393.1414983701 -3596434.046751041 0 0 0 0 84245973.86882782 -10360759.597007751 0 -10360759.597007751 -11339227.292625427 0 0 0 0 81715016.94751358 -26590550.559436798 0 -26590550.559436798 -63541723.500228882 0 0 0 0 75963967.49728775 -31370606.768920898 0 -31370606.768920898 -25283355.70725441 0 0 0 0 99851852.193023682 -9691280.8279571533 0 -9691280.8279571533 -57966392.502502441 0 0 0 0 53889476.906663895 -28386935.914970398 0 -28386935.914970398 -54297446.108019829 0 0 0 0 73905628.675840378 -44139328.731399536 0 -44139328.731399536 -92920446.407608032 0 0 0 0 52564928.052402496 -49082246.230606079 0 -49082246.230606079 -68994585.841726303 0 0 0 0 40340440.9333992 -50232707.091880798 0 -50232707.091880798 -71251503.968658447 0 0 0 0 56380223.154747009 -58052244.856880188 0 -58052244.856880188 -98362184.333587646 0 0 0 0 13932061.852676392 -50371930.808532715 0 -50371930.808532715 -60360573.066968918 0 0 0 0 40347078.907463074 -63436263.355354309 0 -63436263.355354309 -108520403.56158447 0 0 0 0 25147181.868284225 -35948936.487163544 0 -35948936.487163544 -64787070.271881104 0 0 0 0 73712006.979787827 -55242710.330190659 0 -55242710.330190659 -73336433.759567261 0 0 0 0 89127384.206336975 -32670487.023143768 0 -32670487.023143768 -37860506.837982178 0 0 0 0 29660078.891961098 -53018660.297546387 0 -53018660.297546387 -22006212.954399109 0 0 0 0 -26240127.167988777 -42089516.433376312 0 -42089516.433376312 -17257659.303268433 0 0 0 0 -24369794.058044434 -39931203.286209106 0 -39931203.286209106 -17876954.275993347 0 0 0 0 24547171.738889694 -43454674.476531982 0 -43454674.476531982 -77544832.741394043 0 0 0 0 15048887.397127151 -57273059.587516785 0 -57273059.587516785 -73535819.820373535 0 0 0 0 21755151.021718979 -38620239.459655762 0 -38620239.459655762 -118130938.79905701 0 0 0 0 21144921.294038296 -26784504.369727135 0 -26784504.369727135 -263460355.99003601 0 0 0 0 61607.917898178101 -163837391.03180695 0 -163837391.03180695 -87146386.751800537 0 0 0 0 -4288106.7396869659 -211082291.87094498 0 -211082291.87094498 -220725815.51268005 0 0 0 0 -18765496.260286331 -120313935.47606659 0 -120313935.47606659 -67762549.668392181 0 0 0 0 18030033.970878601 -116775946.24132538 0 -116775946.24132538 -183674543.71471405 0 0 0 0 20429323.515895844 -82410460.484100342 0 -82410460.484100342 -102042956.74306107 0 0 0 0 29199933.43441534 -86574314.738958359 0 -86574314.738958359 -108279066.63523865 0 0 0 0 48456189.471393585 -61656159.561786652 0 -61656159.561786652 -113150811.84081268 0 0 0 0 26461180.454299927 -61201570.349487305 0 -61201570.349487305 -97003999.379995346 0 0 0 0 9824408.8146896362 -57154555.058670044 0 -57154555.058670044 -113589820.70097351 0 0 0 0 15566779.910167694 -64541720.253425598 0 -64541720.253425598 -105986051.00511169 0 0 0 0 -35063309.450702667 -93997417.122573853 0 -93997417.122573853 -105093014.12814331 0 0 0 0 -45337938.700643539 -49504142.821426392 0 -49504142.821426392 -109211720.81893158 0 0 0 0 5817252.1795082092 -41261769.335399628 0 -41261769.335399628 -121408297.47134781 0 0 0 0 -318909.07385459356 -22524.087815485895 0 -22524.087815485895 183357.40935993847 0 0 0 0 -53497002.655424118 -99202956.290214539 0 -99202956.290214539 -79068410.265277863 0 0 0 0 -1697078.2227191925 -10716272.430919647 0 -10716272.430919647 -16038366.5234375 0 0 0 0 48827591.020309448 -12370792.187217712 0 -12370792.187217712 2649064.2211303711 0 0 0 0 170849.85529411584 126015.16923379153 0 126015.16923379153 -94493.771166857332 0 0 0 0 256423.89320383081 -234811.74446319044 0 -234811.74446319044 -94895.343954734504 0 0 0 0 -94924936.652303696 -97757276.115188599 0 -97757276.115188599 -89674534.383918762 0 0 0 0 21964198.222142696 -103120611.19090462 0 -103120611.19090462 -225268701.75837708 0 0 0 0 -37834238.218223572 -34214329.182113647 0 -34214329.182113647 -19107630.629863739 0 0 0 0 19185436.258348465 21356432.657936096 0 21356432.657936096 -1343170.7425994873 0 0 0 0 36440643.624923706 -58586046.768867493 0 -58586046.768867493 -139988971.20048904 0 0 0 0 35604242.722963333 -61730970.875995636 0 -61730970.875995636 -141445583.40046692 0 0 0 0 33864810.444658279 -31283597.580329895 0 -31283597.580329895 -133823323.02167702 0 0 0 0 58109275.836288452 -49438902.872337341 0 -49438902.872337341 -128154510.89059448 0 0 0 0 66359680.790854454 -30162398.783351898 0 -30162398.783351898 -85931807.569580078 0 0 0 0 40213976.542830467 -40980267.516059875 0 -40980267.516059875 -80433005.719619751 0 0 0 0 36649669.41699028 -49000348.525718689 0 -49000348.525718689 -91160387.813108444 0 0 0 0 43018526.605997086 -41912147.578643799 0 -41912147.578643799 -126885278.63699341 0 0 0 0 5562827.2668151855 -39049640.465698242 0 -39049640.465698242 -127093242.13159847 0 0 0 0 26496666.918798447 -6625348.9490356445 0 -6625348.9490356445 -141429226.67982101 0 0 0 0 66414693.109189987 -14823784.468471527 0 -14823784.468471527 -141241967.38035583 0 0 0 0 64714792.255646706 58613122.613037109 0 58613122.613037109 -87268074.168426514 0 0 0 0 80471702.889173508 -24731174.050773621 0 -24731174.050773621 -198211795.63593292 0 0 0 0 67159554.944508553 -44247056.049907684 0 -44247056.049907684 -211978270.99925232 0 0 0 0 143305818.635849 -11035164.282714844 0 -11035164.282714844 -317980546.49495697 0 0 0 0 139015766.60696793 47641748.919517517 0 47641748.919517517 -209573981.7545979 0 0 0 0 46159197.742565155 -68626908.319877625 0 -68626908.319877625 -227564783.42164612 0 0 0 0 75897427.989967346 -45992367.226898193 0 -45992367.226898193 -237500033.36495972 0 0 0 0 17838.727542290464 54637.021772373468 0 54637.021772373468 25032.224317125045 0 0 0 0 981497.58068349399 -282449.06043712795 0 -282449.06043712795 -770094.27858470008 0 0 0 0 -307221053.55422592 260176734.68460846 0 260176734.68460846 124002503.8961792 0 0 0 0 810643311.19184494 -194353817.98271179 0 -194353817.98271179 77189985.817975998 0 0 0 0 160233344.86080551 141014398.84577942 0 141014398.84577942 78348229.898475647 0 0 0 0 353206255.26334 8502943.2705230713 0 8502943.2705230713 -28813738.94519043 0 0 0 0 -171868192.6549015 -16838362.374300003 0 -16838362.374300003 93854395.258369446 0 0 0 0 77321460.716750145 -247534240.5310421 0 -247534240.5310421 196539739.69796753 0 0 0 0 139527904.61505604 -89783139.637325287 0 -89783139.637325287 -49760791.565128326 0 0 0 0 -46248932.158250809 -117857252.83883095 0 -117857252.83883095 -25496151.455223083 0 0 0 0 1538696.88839297 -788857.57643244043 0 -788857.57643244043 -763911.73411260545 0 0 0 0 91777541.182813644 100013294.29557037 0 100013294.29557037 90995395.367708206 0 0 0 0 50822340.22918129 -52241261.302017212 0 -52241261.302017212 -3155681.823348999 0 0 0 0 21476234.63898468 41187396.449829102 0 41187396.449829102 10853941.352466583 0 0 0 0 -2673843.1415691376 -2824693.3014793396 0 -2824693.3014793396 -4645878.8688621521 0 0 0 0 -4692582.1488380432 -6901634.8516902924 0 -6901634.8516902924 8365333.8746910095 0 0 0 0 -4863451.741891861 -8654286.5057258606 0 -8654286.5057258606 -1782903.6559066772 0 0 0 0 1327256.3444072008 -841269.71629011072 0 -841269.71629011072 -435050.84111682326 0 0 0 0 -146373506.5186348 29027671.734115601 0 29027671.734115601 -5636722.9077825546 0 0 0 0 -3489174.1744022369 525952.80849075317 0 525952.80849075317 339026.4891204834 0 0 0 0 112740.64701461792 -945697.39422225952 0 -945697.39422225952 -3248778.1446075439 0 0 0 0 759196.80682754517 -2438686.892414093 0 -2438686.892414093 -212342.71364593506 0 0 0 0 2289425.0240178108 6535224.9409332275 0 6535224.9409332275 11401254.671600342 0 0 0 0 479087.19397633569 99583.077865641564 0 99583.077865641564 -709750.02597592026 0 0 0 0 6925367.4661750793 -4520563.9370498657 0 -4520563.9370498657 -2971954.6342010498 0 0 0 0 -8236294.0221500397 -2854830.8926849365 0 -2854830.8926849365 -2744994.0642929077 0 0 0 0 -53163794.314202309 -61347350.181419373 0 -61347350.181419373 -23781767.033332825 0 0 0 0 2001212.5966709852 27185375.973594904 0 27185375.973594904 24518749.039993286 0 0 0 0 302771.42229706142 36805.224302617833 0 36805.224302617833 -380266.65731664374 0 0 0 0 4638473.4924468994 -16328682.934803009 0 -16328682.934803009 -31832644.159111023 0 0 0 0 8907503.2255020142 -35438847.220352173 0 -35438847.220352173 -10469392.096618891 0 0 0 0 95687076.372781754 -10282480.266422272 0 -10282480.266422272 -21793646.996334076 0 0 0 0 -517416.1053122005 -3759264.7698312141 0 -3759264.7698312141 -11004874.573837671 0 0 0 0 -13562424.417135239 -20773948.267290115 0 -20773948.267290115 1581860.3678588867 0 0 0 0 -23458277.283468246 -13655963.493728638 0 -13655963.493728638 27811631.753128052 0 0 0 0 77182664.223838806 -33200689.282756805 0 -33200689.282756805 -18054756.329090118 0 0 0 0 -125829.2981895213 -2481606.3047511629 0 -2481606.3047511629 -8935731.5935019329 0 0 0 0 552516029.86972857 -218323205.52093887 0 -218323205.52093887 -206893343.82498169 0 0 0 0 150605409.50077319 201615441.88254166 0 201615441.88254166 -22723346.392219543 0 0 0 0 144719.44970690878 -1063944.4868706777 0 -1063944.4868706777 -5558547.0848595276 0 0 0 0 233108519.33616447 150074047.11271858 0 150074047.11271858 -250753597.65099335 0 0 0 0 12098550.828472137 -45000684.784664154 0 -45000684.784664154 19618724.323822021 0 0 0 0 71805105.731735229 -50795998.806808472 0 -50795998.806808472 -47074251.33278656 0 0 0 0 -7396886.519692421 -5977616.6295375824 0 -5977616.6295375824 -45663578.682189941 0 0 0 0 -36595186.102613449 -23679404.030067444 0 -23679404.030067444 -13755281.883155823 0 0 0 0 -28955907.992959976 -46253338.944974899 0 -46253338.944974899 -48862777.511611938 0 0 0 0 -8628146.3557853699 -10708782.676139832 0 -10708782.676139832 -33961416.443599701 0 0 0 0 -39588568.959327698 3917833.3725662231 0 3917833.3725662231 -125687568.23130035 0 0 0 0 -41507211.731739044 -38258536.745117188 0 -38258536.745117188 -103589631.38047791 0 0 0 0 -223912599.45749664 3219515.7094497681 0 3219515.7094497681 -8709913.8479690552 0 0 0 0 -69963607.544078827 58969971.054626465 0 58969971.054626465 -287849366.45202637 0 0 0 0 -93180723.876132965 -98567868.932846069 0 -98567868.932846069 40019137.197792053 0 0 0 0 -78997662.83581543 30127852.665618896 0 30127852.665618896 -43964418.996421814 0 0 0 0 97448.096026426181 153072.73139461316 0 153072.73139461316 -68294.603025095537 0 0 0 0 -52002408.128398895 1833629.2365608215 0 1833629.2365608215 94304579.336952209 0 0 0 0 1572365.3645486832 -18062332.709079742 0 -18062332.709079742 -40782543.133125305 0 0 0 0 -69019348.804483414 -34269767.780929565 0 -34269767.780929565 64733956.944160461 0 0 0 0 23680454.624044418 -63890457.340492249 0 -63890457.340492249 19215005.74331665 0 0 0 0 -36300198.878572464 -15714961.973075867 0 -15714961.973075867 27496376.740071297 0 0 0 0 -23494394.938163973 -5131249.3580215275 0 -5131249.3580215275 35072113.674423218 0 0 0 0 -16317133.778787613 12022045.870170593 0 12022045.870170593 2970514.6259231567 0 0 0 0 53925909.412450552 153293583.33571625 0 153293583.33571625 -98972961.952484131 0 0 0 0 -419563.48921188328 434479.37049740739 0 434479.37049740739 -143474.43997951597 0 0 0 0 -17979344.160601854 -44630544.683395386 0 -44630544.683395386 -16940335.43536377 0 0 0 0 -89326893.041326761 -2250088.5478496552 0 -2250088.5478496552 74555271.811035156 0 0 0 0 5148701.5608024597 -18857108.598911285 0 -18857108.598911285 -43083905.474052429 0 0 0 0 -317523579.44403887 196521337.51388168 0 196521337.51388168 -97796215.791137695 0 0 0 0 -331552909.06905842 -229682280.27545929 0 -229682280.27545929 94993759.983032227 0 0 0 0 85523451.752597332 -42312342.581386566 0 -42312342.581386566 25117283.847938538 0 0 0 0 302354916.14551616 -383376285.50897789 0 -383376285.50897789 47461847.731262207 0 0 0 0 194353112.77156591 93960505.520397186 0 93960505.520397186 -39206251.756493568 0 0 0 0 111533286.05025017 -139266904.92900276 0 -139266904.92900276 -673876084.79364014 0 0 0 0 -14842504.593589306 169362195.8993969 0 169362195.8993969 -103199306.80780029 0 0 0 0 36472798.796642303 80800164.448532104 0 80800164.448532104 -135763834.71296692 0 0 0 0 964510.71767033346 926195.44043679745 0 926195.44043679745 -2947630.306120187 0 0 0 0 -163063477.24715352 129247399.59192276 0 129247399.59192276 -96771244.616516113 0 0 0 0 -17051299.658060074 -40141981.186538696 0 -40141981.186538696 -86463271.850097656 0 0 0 0 -150450395.35799855 -284289656.80236864 0 -284289656.80236864 -346000206.28878021 0 0 0 0 284795.06671865156 471115.82905789232 0 471115.82905789232 -1043002.0392216071 0 0 0 0 -481291338.10735798 342773851.23511124 0 342773851.23511124 -158662529.83753967 0 0 0 0 -1199728.8573403358 38076468.955886841 0 38076468.955886841 -550335562.7277298 0 0 0 0 10670506.818135917 -78045996.237764359 0 -78045996.237764359 -339748481.46260834 0 0 0 0 -6694212.7845444679 -29860316.90447998 0 -29860316.90447998 -99303958.869438171 0 0 0 0 1014793.9224011349 -1039391.8619107194 0 -1039391.8619107194 -1707662.2376395278 0 0 0 0 102649727.63298941 -267031846.58016205 0 -267031846.58016205 321739439.93769836 0 0 0 0 40380567.493956685 -22589965.732719421 0 -22589965.732719421 -250020929.61865997 0 0 0 0 52770387.260271311 -159155221.18241501 0 -159155221.18241501 -290095137.77342987 0 0 0 0 87161746.362838566 -159842609.48918343 0 -159842609.48918343 -266405891.08541107 0 0 0 0 58050327.790142775 -154333922.14267731 0 -154333922.14267731 21915397.908599854 0 0 0 0 -51847592.555036306 -147838667.00619507 0 -147838667.00619507 267195916.3050766 0 0 0 0 103326641.00126314 -120982777.01064682 0 -120982777.01064682 31681169.556190491 0 0 0 0 98189615.817569017 -122501394.1526289 0 -122501394.1526289 102030778.0451889 0 0 0 0 2302219.3167049079 -1095673.3384679258 0 -1095673.3384679258 -3195291.1884744931 0 0 0 0 170780431.83242083 -83359332.153118134 0 -83359332.153118134 -25630985.181804657 0 0 0 0 1551714.5242625119 1501805.7297373354 0 1501805.7297373354 -6305293.895529516 0 0 0 0 65667026.288779795 52448180.433601022 0 52448180.433601022 34488420.549667358 0 0 0 0 -46619092.206234932 93009306.688323975 0 93009306.688323975 -131202359.4570713 0 0 0 0 2650704.2414629813 -458024.18222484365 0 -458024.18222484365 -2565313.1256929152 0 0 0 0 -38098221.004701614 104638065.49073792 0 104638065.49073792 -122678898.6425705 0 0 0 0 18609618.318898201 80737258.129749298 0 80737258.129749298 34903066.880371094 0 0 0 0 116531368.73775673 110074001.64533234 0 110074001.64533234 12058294.272752762 0 0 0 0 265223994.28446987 69341274.427390933 0 69341274.427390933 -62216831.491600037 0 0 0 0 33564869.539933205 113946605.31883621 0 113946605.31883621 5020698.2411956787 0 0 0 0 938094.39819849178 1552173.7602837021 0 1552173.7602837021 -5759826.9626869038 0 0 0 0 302743276.09281921 -21822111.979439378 0 -21822111.979439378 -157500999.539505 0 0 0 0 123814454.28359318 -21596145.430656433 0 -21596145.430656433 -186500751.05564499 0 0 0 0 132924198.16001773 -65551327.156225204 0 -65551327.156225204 9066276.8977813721 0 0 0 0 29427766.854362011 118289740.37972641 0 118289740.37972641 -7533713.6837100983 0 0 0 0 -28019117.697116494 287132072.05754471 0 287132072.05754471 -314237372.97296143 0 0 0 0 113624218.38653183 -64439946.620391846 0 -64439946.620391846 -285160333.94628906 0 0 0 0 -241551527.98194504 -121799780.68556976 0 -121799780.68556976 80847569.777524948 0 0 0 0 -141851123.68099785 -155595254.43362427 0 -155595254.43362427 61224229.148845673 0 0 0 0 -35637494.517513275 -34707191.272966385 0 -34707191.272966385 -2807892.6377868652 0 0 0 0 -49773039.418373108 -52375990.991695404 0 -52375990.991695404 -9921315.0253753662 0 0 0 0 -90505289.823057175 -217101661.45439529 0 -217101661.45439529 -230567392.98564577 0 0 0 0 -3446681.3705554008 4669927.2365198135 0 4669927.2365198135 -48872952.643512726 0 0 0 0 13390.790903490502 134476.74498323724 0 134476.74498323724 -706632.34063025936 0 0 0 0 -105850718.47919416 -176990264.24060631 0 -176990264.24060631 -48259432.683868408 0 0 0 0 -50229467.388496399 -143388878.300354 0 -143388878.300354 -178962848.50538635 0 0 0 0 -35088559.359668732 -99699138.842685699 0 -99699138.842685699 -53012242.202453613 0 0 0 0 -104693653.139925 -170192192.71779442 0 -170192192.71779442 -13501448.030792236 0 0 0 0 -55679445.360900879 -75259156.537002563 0 -75259156.537002563 -54084678.597342491 0 0 0 0 11589812.027091026 1285402.23878479 0 1285402.23878479 -7922200.1336517334 0 0 0 0 -162958101.17754126 -49639069.199058056 0 -49639069.199058056 -4893625.9053497314 0 0 0 0 19337105.920418739 139254039.52939224 0 139254039.52939224 404087652.95932961 0 0 0 0 261008136.98944664 33887485.626716614 0 33887485.626716614 -263407661.01907349 0 0 0 0 1051894.0883895485 -345804.97407027334 0 -345804.97407027334 -898377.16181549802 0 0 0 0 401501339.84251595 224541262.38317108 0 224541262.38317108 -233610946.64648438 0 0 0 0 124777273.60379887 64807148.375579834 0 64807148.375579834 -150834233.17848778 0 0 0 0 170353522.9225502 340270662.92287064 0 340270662.92287064 -12924965.793838501 0 0 0 0 -263982918.41146469 -50504459.175262451 0 -50504459.175262451 67672521.717254639 0 0 0 0 -277743840.93515444 219612647.93834114 0 219612647.93834114 -101648600.41091156 0 0 0 0 45182621.96096611 -264695320.16093826 0 -264695320.16093826 307138546.835186 0 0 0 0 64320.767148204613 -209375.20224519307 0 -209375.20224519307 -1750022.2128225639 0 0 0 0 -6294405.105594635 -184484028.62791443 0 -184484028.62791443 -536416199.38474274 0 0 0 0 -344974771.99038696 -596689126.56106567 0 -596689126.56106567 175596553.45097947 0 0 0 0 51100721.63033247 32073421.246146679 0 32073421.246146679 -57892175.409469604 0 0 0 0 -227704609.6481747 133209508.40202713 0 133209508.40202713 -170062690.60370636 0 0 0 0 21744915.570407867 -39292624.647750854 0 -39292624.647750854 -87957688.690548897 0 0 0 0 -258487998.34536362 -46314693.910778046 0 -46314693.910778046 193836545.38271105 0 0 0 0 -135663247.00082722 -229545376.60260063 0 -229545376.60260063 -401491842.52735901 0 0 0 0 -334748.83900410775 393711.80090441555 0 393711.80090441555 -659193.28187020496 0 0 0 0 -135191985.82728577 -151523349.34251022 0 -151523349.34251022 -175053131.89614868 0 0 0 0 -85144954.083580017 -177757761.7812233 0 -177757761.7812233 -282240059.11074066 0 0 0 0 10560593.326724052 -116847270.23595428 0 -116847270.23595428 -417243774.55867004 0 0 0 0 -128130829.62094879 -102667101.5366745 0 -102667101.5366745 -47290294.911834717 0 0 0 0 -53096954.881748199 -93160141.833831787 0 -93160141.833831787 -191432252.64810181 0 0 0 0 -249372.54005156923 521558.64975227788 0 521558.64975227788 -1398022.8840945624 0 0 0 0 -92963216.645320892 -23678157.903526306 0 -23678157.903526306 -28136255.180828094 0 0 0 0 -27468285.947520256 -21549065.992534637 0 -21549065.992534637 -46785736.734161377 0 0 0 0 46062098.270654678 223704964.13935089 0 223704964.13935089 -768386022.78181458 0 0 0 0 -48020831.913316727 -44701492.295585632 0 -44701492.295585632 -43491111.713000298 0 0 0 0 -27351306.670583725 -49206959.937961578 0 -49206959.937961578 -43014850.390769958 0 0 0 0 -29434185.474000931 -46870421.258113861 0 -46870421.258113861 -105374863.16191101 0 0 0 0 -42520749.10943985 -39956547.654716492 0 -39956547.654716492 -107564784.37180328 0 0 0 0 -16148019.197412491 -14563188.694145203 0 -14563188.694145203 -94865069.356933594 0 0 0 0 -12389952.046724319 -38076697.966953278 0 -38076697.966953278 -198335255.08358765 0 0 0 0 5794650.3983421326 -43009044.925186157 0 -43009044.925186157 -200814474.91821289 0 0 0 0 -53207047.561304808 -94577412.680165291 0 -94577412.680165291 -183269561.57655334 0 0 0 0 28382618.033174515 -66589527.025344849 0 -66589527.025344849 -276682269.21315765 0 0 0 0 3988575.5893516541 -58684864.300361633 0 -58684864.300361633 -272130863.07089233 0 0 0 0 32607959.740530014 -4263307.8735237122 0 -4263307.8735237122 -281125473.82307434 0 0 0 0 63753974.97019577 -11289209.028968811 0 -11289209.028968811 -285641666.39019012 0 0 0 0 107155570.77374077 -2818169.8629684448 0 -2818169.8629684448 -397976245.1633606 0 0 0 0 98789032.457523346 -21753477.563796997 0 -21753477.563796997 -439347680.72271729 0 0 0 0 88544139.309867859 -32539447.101982117 0 -32539447.101982117 -374451819.03986263 0 0 0 0 53789241.673072815 -45316819.364673615 0 -45316819.364673615 -375244135.99256897 0 0 0 0 104797023.08003998 -74112098.340633392 0 -74112098.340633392 -405671767.32836914 0 0 0 0 45336543.355772018 -67103614.991764069 0 -67103614.991764069 -398934428.8740387 0 0 0 0 138014124.21606827 -55227877.75440979 0 -55227877.75440979 -439212513.74592984 0 0 0 0 94754734.764764786 -134817506.87357712 0 -134817506.87357712 -303695790.70587158 0 0 0 0 59042416.32551384 -72093089.264644623 0 -72093089.264644623 -399962291.72753716 0 0 0 0 53505130.345080376 -97021187.920585632 0 -97021187.920585632 -377545952.31342125 0 0 0 0 -126997589.02180576 -76763314.196596622 0 -76763314.196596622 -247915941.86923218 0 0 0 0 -51510077.648245811 -79816226.319065094 0 -79816226.319065094 -375928153.02555084 0 0 0 0 35482630.855254173 -48801250.092116356 0 -48801250.092116356 -405697485.98480225 0 0 0 0 -69583688.223954201 -22018057.205226898 0 -22018057.205226898 -506648162.18588829 0 0 0 0 -104242559.96707439 -293186323.88894844 0 -293186323.88894844 -351865671.06626415 0 0 0 0 -315410394.34701824 -133578359.99528503 0 -133578359.99528503 -288251006.10043335 0 0 0 0 -96571157.219280243 -170277832.81681061 0 -170277832.81681061 -293844893.27346039 0 0 0 0 -106429315.06422234 -121161257.56847954 0 -121161257.56847954 -193655179.44127655 0 0 0 0 -64816556.791439056 -111532883.48539352 0 -111532883.48539352 -263388404.47481155 0 0 0 0 -59323732.60134697 -108413206.89980888 0 -108413206.89980888 -269627240.54137802 0 0 0 0 -56373017.40626812 -65855075.278465271 0 -65855075.278465271 -330915905.4732666 0 0 0 0 -42416238.714394569 -21119902.527626038 0 -21119902.527626038 -190326372.27520418 0 0 0 0 -25155512.026096821 -61540579.229022026 0 -61540579.229022026 -126572040.60129929 0 0 0 0 20500870.736013412 13223602.202651978 0 13223602.202651978 -69904441.540031433 0 0 0 0 120598841.64252853 -66139354.012996674 0 -66139354.012996674 -147372577.99835205 0 0 0 0 135919671.00162888 -201169782.64912415 0 -201169782.64912415 -279633289.73893738 0 0 0 0 -16059512.599229813 -72537233.422672272 0 -72537233.422672272 -121884454.38516998 0 0 0 0 19492646.170524597 -89798486.297401428 0 -89798486.297401428 -247186111.79830933 0 0 0 0 -120265881.53492117 342381844.29481888 0 342381844.29481888 -217575269.73062515 0 0 0 0 -88959655.673193455 239257953.68905973 0 239257953.68905973 -135908639.54676819 0 0 0 0 47652710.925095081 203356845.5967598 0 203356845.5967598 -222752173.45076752 0 0 0 0 -82793209.961461067 184878120.96664429 0 184878120.96664429 -101761370.71117973 0 0 0 0 140226.65038575674 718725.78073775768 0 718725.78073775768 -1747543.4301785603 0 0 0 0 144615302.05441761 123538397.57683563 0 123538397.57683563 -144615791.24960327 0 0 0 0 520572.03449243866 1396374.0761312726 0 1396374.0761312726 -4442247.7764074355 0 0 0 0 335170840.9739213 -110851797.93123817 0 -110851797.93123817 -202157703.57228279 0 0 0 0 -47831386.731360435 -394214784.27128029 0 -394214784.27128029 -322722682.96505928 0 0 0 0 -25406787.147468567 -48970195.910499096 0 -48970195.910499096 -39895064.580482483 0 0 0 0 -95969254.603973389 34056326.904650688 0 34056326.904650688 -812593024.74217987 0 0 0 0 -487745935.32252789 204447906.1751709 0 204447906.1751709 -229280718.71635437 0 0 0 0 -473263902.53685856 -227555647.5956459 0 -227555647.5956459 -419636016.3853302 0 0 0 0 -377044052.90712029 512602639.15752566 0 512602639.15752566 -408161849.51829529 0 0 0 0 51470989.379363537 163893553.76462936 0 163893553.76462936 -797417518.64581299 0 0 0 0 -72001340.573863506 36175509.446922302 0 36175509.446922302 -266515938.52787781 0 0 0 0 -11151177.418704987 -88301087.493412018 0 -88301087.493412018 -176858736.8379364 0 0 0 0 98308590.973124027 70688430.099052429 0 70688430.099052429 -408946429.23282623 0 0 0 0 52853795.085860431 131159224.62367094 0 131159224.62367094 -315798561.7849884 0 0 0 0 -10635142.173547983 225879561.83959579 0 225879561.83959579 -403933870.17125702 0 0 0 0 -8398267.1656368971 2556293.8493890762 0 2556293.8493890762 7892700.4624481201 0 0 0 0 -324314.88423821051 124990.94373105932 0 124990.94373105932 258377.11605787277 0 0 0 0 1048858.5121488571 -23838463.463422775 0 -23838463.463422775 -1054275.9852218628 0 0 0 0 186517799.82351416 -13430573.36067009 0 -13430573.36067009 -1572084.6809463501 0 0 0 0 187438136.12547874 -24381569.383552551 0 -24381569.383552551 -173680398.77219391 0 0 0 0 -88887735.984349966 53985084.457136154 0 53985084.457136154 -122269853.85982513 0 0 0 0 -36591421.481555939 -20741101.870033264 0 -20741101.870033264 73443137.090694427 0 0 0 0 -74516589.554589272 -108923697.42730331 0 -108923697.42730331 -115134842.63271427 0 0 0 0 126477297.28765011 -141097456.08337402 0 -141097456.08337402 -31718302.175823212 0 0 0 0 -127727556.02569604 37711313.087538719 0 37711313.087538719 -15137827.580230713 0 0 0 0 -174680774.30669212 -64160477.050678253 0 -64160477.050678253 6137518.9236016273 0 0 0 0 -333756168.51515102 -114075272.25670624 0 -114075272.25670624 -122978156.09398651 0 0 0 0 -243044305.67302227 72096932.67874527 0 72096932.67874527 -185997619.60324764 0 0 0 0 -333728121.65659118 122293885.33287504 0 122293885.33287504 -36318182.740936279 0 0 0 0 -271848863.35948944 38703888.339382172 0 38703888.339382172 -3820374.3497619629 0 0 0 0 -220527247.87916505 89244508.850749969 0 89244508.850749969 42753624.027816772 0 0 0 0 -294009286.52719402 50224337.497695923 0 50224337.497695923 67463328.006362915 0 0 0 0 -755863.14130614838 -531517.6824589707 0 -531517.6824589707 46458.549489794299 0 0 0 0 -89959914.183416843 101616808.1874485 0 101616808.1874485 -9764301.6415672302 0 0 0 0 -23505047.063811779 35818504.715021133 0 35818504.715021133 27012443.611274719 0 0 0 0 466268.80036783591 -654365.92404017597 0 -654365.92404017597 -1251920.6038116328 0 0 0 0 1050078.7807011604 -262752.60849571228 0 -262752.60849571228 -583115.90376281738 0 0 0 0 -427331.43658794649 -967005.57588366978 0 -967005.57588366978 -1735208.2276702449 0 0 0 0 664183.59024655819 -3433841.3324317932 0 -3433841.3324317932 -3325562.4626922607 0 0 0 0 -12452055.886095524 -73147387.469186783 0 -73147387.469186783 47462356.648436546 0 0 0 0 -1883571.5681781769 -2647816.5429840088 0 -2647816.5429840088 -2487578.4906616211 0 0 0 0 -401407.44273662567 -2344999.6753787994 0 -2344999.6753787994 -2658844.8734054565 0 0 0 0 -441284.76512217522 -3217250.7728939056 0 -3217250.7728939056 -2174957.0605049133 0 0 0 0 -171962.34395717701 -1965395.1560815573 0 -1965395.1560815573 -2452778.2493430935 0 0 0 0 171032744.57559872 63093019.607898712 0 63093019.607898712 -43144009.346061707 0 0 0 0 134303277.7647295 -30826805.610488892 0 -30826805.610488892 -71919977.513225555 0 0 0 0 22099140.160593033 26474680.506168365 0 26474680.506168365 463761.38488006592 0 0 0 0 18514005.678203821 53939167.523730278 0 53939167.523730278 -127901866.68857956 0 0 0 0 -242848358.31710929 157952178.35369211 0 157952178.35369211 -197574844.80382538 0 0 0 0 -120560603.79112053 39993622.779655457 0 39993622.779655457 -105594039.48264694 0 0 0 0 -260302016.55934238 110182715.89280319 0 110182715.89280319 -38501669.552280426 0 0 0 0 -113678962.72717381 78614118.7942276 0 78614118.7942276 -28505078.655683041 0 0 0 0 -115593520.06797028 20249191.923301697 0 20249191.923301697 -31507554.894779205 0 0 0 0 -160532293.8286252 33393648.504885674 0 33393648.504885674 20600028.762397766 0 0 0 0 -211430185.24382782 56051850.437068939 0 56051850.437068939 28624453.884342194 0 0 0 0 -279067523.93420959 9046085.0665588379 0 9046085.0665588379 28200813.664527893 0 0 0 0 -204415522.59633541 66516999.899124146 0 66516999.899124146 -57037555.183361053 0 0 0 0 -113368305.32445657 40172754.125975609 0 40172754.125975609 49215772.038848877 0 0 0 0 -203494173.9698925 52570395.150161743 0 52570395.150161743 80203457.266727448 0 0 0 0 -115660235.42210197 23869107.49115181 0 23869107.49115181 -2465745.3214797974 0 0 0 0 7110932.2720832825 26027608.801353455 0 26027608.801353455 24866575.810531616 0 0 0 0 25918932.265667915 -7512506.7776870728 0 -7512506.7776870728 67096224.085922241 0 0 0 0 8805234.6080446243 20933954.336788177 0 20933954.336788177 -23059859.506389618 0 0 0 0 13002486.430766761 66931740.160765171 0 66931740.160765171 39050593.035125732 0 0 0 0 1484730.8638274313 2256091.2337547466 0 2256091.2337547466 -5335357.4135257378 0 0 0 0 130546643.43300533 70195310.652084351 0 70195310.652084351 -3851712.232635498 0 0 0 0 110647833.27987862 90732680.66293335 0 90732680.66293335 61854201.128753662 0 0 0 0 9623149.0401382446 2709885.5932712555 0 2709885.5932712555 -9184945.9123420715 0 0 0 0 6617083.644792676 3448402.4916834831 0 3448402.4916834831 -8698981.9471435547 0 0 0 0 7490559.9506855011 -607422.42386245728 0 -607422.42386245728 -13962544.465423584 0 0 0 0 6291159.1209802628 1267584.3524284363 0 1267584.3524284363 -9461170.6924152374 0 0 0 0 5685329.7115697861 800181.78935050964 0 800181.78935050964 -5777987.7083435059 0 0 0 0 9561393.7631750107 1821847.0688858032 0 1821847.0688858032 -10441112.456775665 0 0 0 0 7564215.3809137344 4199955.4908409119 0 4199955.4908409119 -3734394.649723053 0 0 0 0 11405768.663062572 2220308.9610128403 0 2220308.9610128403 -5763742.754447937 0 0 0 0 15827268.82716465 6102609.6337738037 0 6102609.6337738037 -7051454.8881816864 0 0 0 0 550348.08321873378 2765327.6188230924 0 2765327.6188230924 -5872567.585286133 0 0 0 0 -16459843.746995926 24827302.802951813 0 24827302.802951813 -7583984.7930145264 0 0 0 0 -188020.73407605151 761990.56568557583 0 761990.56568557583 -706249.87446481362 0 0 0 0 11477914.008039951 2129558.4489345551 0 2129558.4489345551 -5869823.7411575317 0 0 0 0 -3546337.9849872589 5573136.1933746338 0 5573136.1933746338 -3763714.9255580902 0 0 0 0 212775.79807180772 3686308.4963598046 0 3686308.4963598046 -5918146.2417170629 0 0 0 0 5947647.7592043877 16370632.472652435 0 16370632.472652435 -10902866.949852943 0 0 0 0 -2086624.0719476766 5940759.6305015516 0 5940759.6305015516 1817786.8256814461 0 0 0 0 2417844.9537668228 12590494.751869202 0 12590494.751869202 42876551.853792906 0 0 0 0 -1387421.4099788666 13859349.89097023 0 13859349.89097023 -10986909.618377686 0 0 0 0 -4542794.6963977814 21799477.66375351 0 21799477.66375351 -16579221.191150665 0 0 0 0 -8978386.0143852234 5507161.33847332 0 5507161.33847332 513974.25658416748 0 0 0 0 -14658782.955381393 16445587.043903351 0 16445587.043903351 -1159120.6475448608 0 0 0 0 -17486396.406208038 14950416.548473358 0 14950416.548473358 1465746.8433914185 0 0 0 0 -20247210.700656891 9020142.9613571167 0 9020142.9613571167 -366069.53882026672 0 0 0 0 461136.34781803703 304842.57768558897 0 304842.57768558897 59422.901494946331 0 0 0 0 3612354.2476844788 10532577.810838699 0 10532577.810838699 -3115227.9863128662 0 0 0 0 -6967601.7524047289 9406263.2444183268 0 9406263.2444183268 -4006808.7688179296 0 0 0 0 20118607.484915733 -23988701.858924866 0 -23988701.858924866 -1701749.3492584229 0 0 0 0 -38207623.961795807 102290183.49057579 0 102290183.49057579 61507649.62697506 0 0 0 0 -44892978.330713272 66369619.323074341 0 66369619.323074341 -6220765.4182631969 0 0 0 0 60136607.531732559 84400477.192502975 0 84400477.192502975 -18428985.085515976 0 0 0 0 -4480337.1417532507 11248669.582869921 0 11248669.582869921 -10494117.586548325 0 0 0 0 -58660394.513635635 15934639.762540817 0 15934639.762540817 83354181.58839798 0 0 0 0 58589607.78719902 36573332.701705933 0 36573332.701705933 -39734399.356376648 0 0 0 0 4134677.8235402107 3337584.8553857803 0 3337584.8553857803 -9768197.1439781189 0 0 0 0 20578408.701041222 2724377.4631996155 0 2724377.4631996155 -26834558.346027374 0 0 0 0 243669.87107535079 3344230.0823060242 0 3344230.0823060242 -3281316.8088280037 0 0 0 0 5820194.7296013609 2236785.3411333393 0 2236785.3411333393 -10270287.563370042 0 0 0 0 3948260.9758462906 3772303.2633733749 0 3772303.2633733749 -9156175.481388092 0 0 0 0 6192151.8417901993 -220908.20296096802 0 -220908.20296096802 -12925157.861051559 0 0 0 0 3545447.8568023574 3407604.4971455829 0 3407604.4971455829 -15122236.448284617 0 0 0 0 43975340.391763687 47558778.010658264 0 47558778.010658264 -106729177.81894779 0 0 0 0 -54691484.56396842 65169609.749807358 0 65169609.749807358 -39064734.51738739 0 0 0 0 -56466558.898852408 104895406.04744601 0 104895406.04744601 -71883280.157905579 0 0 0 0 80839632.630565643 1242235.7365779877 0 1242235.7365779877 -25903578.032022715 0 0 0 0 80980419.848407745 -40177605.664901733 0 -40177605.664901733 -2691206.5251808167 0 0 0 0 71837069.65353775 -19409059.591160774 0 -19409059.591160774 -49443085.80109024 0 0 0 0 143825660.19556046 -111265384.1639576 0 -111265384.1639576 -110361962.97940481 0 0 0 0 59183523.449498177 51074770.015932083 0 51074770.015932083 -139602224.93373489 0 0 0 0 162330792.75274277 -63387861.993453979 0 -63387861.993453979 -164104438.40514374 0 0 0 0 -9137160.6993837357 169988377.50082397 0 169988377.50082397 -259360051.41989899 0 0 0 0 -17804295.668125153 148577686.11832047 0 148577686.11832047 -235360195.15546036 0 0 0 0 228163567.22820663 -48588616.281028748 0 -48588616.281028748 -401160698.30784988 0 0 0 0 108077926.15057564 -56345250.548688889 0 -56345250.548688889 -108059022.60282898 0 0 0 0 -259578910.71846962 234525544.57506943 0 234525544.57506943 -186117274.6570282 0 0 0 0 -21260820.948256016 -58930941.400954247 0 -58930941.400954247 -222102109.85106039 0 0 0 0 -273262804.94427723 48351674.743391037 0 48351674.743391037 -5108057.1737327576 0 0 0 0 -1299807.3322550899 1695550.963183966 0 1695550.963183966 127621.33977113385 0 0 0 0 -36770235.367389679 -599117737.08462524 0 -599117737.08462524 -314125726.80163765 0 0 0 0 138559544.71053696 126620600.77743244 0 126620600.77743244 -673011083.83972931 0 0 0 0 -69085685.598960876 297592574.87434006 0 297592574.87434006 -479537658.86911011 0 0 0 0 -167709370.80918026 99075341.63740921 0 99075341.63740921 -48632833.477184296 0 0 0 0 -17408980.314881325 -30447139.750857353 0 -30447139.750857353 -49577759.246027946 0 0 0 0 38237693.488388062 155547256.00858498 0 155547256.00858498 -373950933.07580757 0 0 0 0 17011492.996338844 97173959.987457275 0 97173959.987457275 -46056331.268533707 0 0 0 0 -10574940.021380663 22213780.243772507 0 22213780.243772507 -35400952.954782963 0 0 0 0 4146884.8529167175 34588643.526535511 0 34588643.526535511 -32188595.773534775 0 0 0 0 3930128.544585228 53734732.557389259 0 53734732.557389259 -139613818.60704041 0 0 0 0 -2671150.0208120346 -5556297.2526378632 0 -5556297.2526378632 -7835043.4640855789 0 0 0 0 -13509474.124962542 -10534073.342339098 0 -10534073.342339098 -9937082.1099758148 0 0 0 0 -2574382.5698542595 6101612.1582355499 0 6101612.1582355499 -5505427.6496906281 0 0 0 0 -16323059.653889 5996904.4498472214 0 5996904.4498472214 -3805698.3075046539 0 0 0 0 -3449916.4795973008 4652429.1016394906 0 4652429.1016394906 85706.936137983575 0 0 0 0 -416520.47600129247 7143546.6665267944 0 7143546.6665267944 -2115787.3592300415 0 0 0 0 -1183504.7446157725 -359484.40616959846 0 -359484.40616959846 1257161.3296936471 0 0 0 0 -66344361.474549294 38483542.814406395 0 38483542.814406395 17193069.734840393 0 0 0 0 -99464913.842681408 -13003473.718413353 0 -13003473.718413353 20804102.255321503 0 0 0 0 -162848311.45851326 41465039.7889328 0 41465039.7889328 25062180.319644928 0 0 0 0 -152702106.66027248 -23931016.001368761 0 -23931016.001368761 22659701.661136627 0 0 0 0 -13624655.624755859 -15213853.927199841 0 -15213853.927199841 -12139510.467334032 0 0 0 0 -16621470.383036003 -5981773.4455072284 0 -5981773.4455072284 -5944840.7262134552 0 0 0 0 -13013584.067046165 -6813670.0693723261 0 -6813670.0693723261 -4007233.1431045532 0 0 0 0 -9502835.6883075796 -5470239.0391599769 0 -5470239.0391599769 -9034398.321192164 0 0 0 0 -13408028.046731666 21734302.865635693 0 21734302.865635693 -26871626.385129929 0 0 0 0 -3698456.8499427605 -6005476.6323799985 0 -6005476.6323799985 -21502057.690960817 0 0 0 0 -16699520.172742844 -18840549.810940266 0 -18840549.810940266 -38350517.999835968 0 0 0 0 -14536348.998422623 -11317780.710740089 0 -11317780.710740089 -13051560.826598883 0 0 0 0 -14836343.702905655 -19504018.945232391 0 -19504018.945232391 -38362968.808303833 0 0 0 0 -11087371.34365654 -22764946.747526646 0 -22764946.747526646 -45433379.521442413 0 0 0 0 -8818427.7748651505 -21371927.862366676 0 -21371927.862366676 -58343794.896453857 0 0 0 0 -1642704.7550194263 -20752757.00572139 0 -20752757.00572139 -46124529.807899475 0 0 0 0 -930903.5973110199 -14002052.249776363 0 -14002052.249776363 -40029523.71049118 0 0 0 0 -5822056.9099445343 -19763289.916441917 0 -19763289.916441917 -46257459.30500412 0 0 0 0 -40036173.286411613 -6741771.7467346191 0 -6741771.7467346191 75930600.379838943 0 0 0 0 -1894982.1432866734 1359668.7903340943 0 1359668.7903340943 5100658.4830031134 0 0 0 0 8026675.1563431798 10644815.173385825 0 10644815.173385825 -23955791.860146262 0 0 0 0 -9414620.5092468262 -14028620.652898788 0 -14028620.652898788 -54029080.551000595 0 0 0 0 -6719362.7260122299 -18314427.055418015 0 -18314427.055418015 -72734391.397777557 0 0 0 0 -7371443.7370729446 -12176108.262064934 0 -12176108.262064934 -66193685.837890625 0 0 0 0 2962242.2615279513 5734097.4407402826 0 5734097.4407402826 -16995971.118646577 0 0 0 0 6833651.5451027155 16201363.279434204 0 16201363.279434204 -3517430.5809173584 0 0 0 0 9769653.9915482998 24076147.09459877 0 24076147.09459877 24116419.814397007 0 0 0 0 8591387.6577734947 13225179.983642578 0 13225179.983642578 -1257487.6556472778 0 0 0 0 34534783.148642689 14714654.689617157 0 14714654.689617157 24024555.70117569 0 0 0 0 998207.97771017998 8980669.5139486324 0 8980669.5139486324 -10230678.50943552 0 0 0 0 -2012860.4857282639 7583292.4637651443 0 7583292.4637651443 -2285492.6894607544 0 0 0 0 -6873341.6223150147 -1817374.8574382477 0 -1817374.8574382477 -4971786.6394229941 0 0 0 0 12733333.59617281 15332671.681365967 0 15332671.681365967 9133771.0396118164 0 0 0 0 7488840.545101881 18519555.119194031 0 18519555.119194031 21731603.590194702 0 0 0 0 -2163879.4341150951 10986042.225564357 0 10986042.225564357 7617570.9756766912 0 0 0 0 2990637.9402230978 8571013.9601669312 0 8571013.9601669312 1278117.8786067963 0 0 0 0 6048644.0927297836 21999004.244350567 0 21999004.244350567 -13495487.7660947 0 0 0 0 3614511.0697002346 14464933.278095959 0 14464933.278095959 -14776931.255972423 0 0 0 0 -1407302.4510386428 5247436.856297005 0 5247436.856297005 5562850.3106538802 0 0 0 0 -4274333.3918457031 19632822.418067932 0 19632822.418067932 51423760.704544067 0 0 0 0 14602450.868477345 27238472.117069244 0 27238472.117069244 49577317.490371704 0 0 0 0 848655.46668688592 518293.0327748917 0 518293.0327748917 -1385882.3652008474 0 0 0 0 12252022.518618584 44940236.509147644 0 44940236.509147644 49931107.638710022 0 0 0 0 49043091.340927124 36884084.325061798 0 36884084.325061798 -9781608.2869415283 0 0 0 0 -4216577.3222980499 8663776.0911140442 0 8663776.0911140442 8552804.8832092285 0 0 0 0 -5091718.8585388064 10125848.904173709 0 10125848.904173709 20214856.376549285 0 0 0 0 -7128171.3105386822 5774442.5026265178 0 5774442.5026265178 5672635.3131686002 0 0 0 0 -2222803.2682043123 5936624.2194970399 0 5936624.2194970399 -130735.72413013875 0 0 0 0 -19533972.930657566 13316705.709163666 0 13316705.709163666 32994130.899719238 0 0 0 0 -16451284.95305866 3111373.6479034424 0 3111373.6479034424 14460730.412414551 0 0 0 0 729472.50766563416 41150606.989952445 0 41150606.989952445 44996859.532821655 0 0 0 0 2625250.9167504907 54347420.952690125 0 54347420.952690125 8246409.2253265381 0 0 0 0 45270491.977108479 40215662.963867188 0 40215662.963867188 850165.69829559326 0 0 0 0 52967147.803757668 16361309.655731201 0 16361309.655731201 1429235.8519973755 0 0 0 0 -7593187.2878274918 26325728.06558609 0 26325728.06558609 57663596.6951828 0 0 0 0 -28126747.562831521 -30276554.131156921 0 -30276554.131156921 130424232.22996521 0 0 0 0 37690952.424590588 53491004.264953613 0 53491004.264953613 -30678209.486694336 0 0 0 0 -15211679.222271919 -45733018.389854431 0 -45733018.389854431 13614458.397863388 0 0 0 0 50534643.177757442 58547628.382709503 0 58547628.382709503 -7313934.9952545166 0 0 0 0 -12078.454722532071 2667415.7214933857 0 2667415.7214933857 -2541279.8389128298 0 0 0 0 -6574809.4598436356 23074144.28478241 0 23074144.28478241 66360117.141212463 0 0 0 0 70022515.098923206 104076306.35259628 0 104076306.35259628 8133590.205947876 0 0 0 0 16521642.225975513 42207753.656293869 0 42207753.656293869 -94012956.426818848 0 0 0 0 -23118650.317174911 4706913.5811481476 0 4706913.5811481476 -41338950.606292725 0 0 0 0 5535659.1989736557 58407108.2631073 0 58407108.2631073 -28177580.137359619 0 0 0 0 -43509382.626422405 17798848.768873215 0 17798848.768873215 133021115.42617798 0 0 0 0 9789944.5202184096 14404755.730590351 0 14404755.730590351 -26116503.185704004 0 0 0 0 52185521.17403543 138025562.74775505 0 138025562.74775505 102833734.09997559 0 0 0 0 -13758558.618231922 43008272.741977692 0 43008272.741977692 26240521.466842651 0 0 0 0 -21395422.211342514 -12628464.141014099 0 -12628464.141014099 -1381277.3211021423 0 0 0 0 105452.18161438813 978783.11047036853 0 978783.11047036853 1110163.0405519605 0 0 0 0 99115710.631572247 155814435.14548206 0 155814435.14548206 -162033161.26728058 0 0 0 0 -72650514.75718081 -42224287.575248718 0 -42224287.575248718 67702853.774505615 0 0 0 0 -63741119.305218518 -16868027.098396301 0 -16868027.098396301 105453590.1411438 0 0 0 0 -17389761.72562588 22719305.644325256 0 22719305.644325256 77679067.964363098 0 0 0 0 -71391123.470217913 56987061.145272255 0 56987061.145272255 76137642.218765259 0 0 0 0 -95744270.425672889 -16212729.122960091 0 -16212729.122960091 119752758.09398651 0 0 0 0 -130913668.6282506 731579.63082122803 0 731579.63082122803 35304201.116539001 0 0 0 0 -71392706.747922897 5338722.1793422699 0 5338722.1793422699 -90318932.609062195 0 0 0 0 582056.42540769605 1024496.2777793761 0 1024496.2777793761 -2411085.5653293766 0 0 0 0 -107867090.2537573 55673108.927597046 0 55673108.927597046 40661507.655200958 0 0 0 0 -57840315.724386096 -157170731.78180695 0 -157170731.78180695 169705710.30285645 0 0 0 0 -79910123.222224116 -191544395.66500497 0 -191544395.66500497 -205606418.21326447 0 0 0 0 499954.96709436539 131892.95357086323 0 131892.95357086323 -1208150.1503063329 0 0 0 0 -242793502.53557903 -48574777.9614048 0 -48574777.9614048 -60270062.384254456 0 0 0 0 18485949.70622921 -25623679.603229523 0 -25623679.603229523 -227899499.371189 0 0 0 0 7949940.776930809 -67767972.871723175 0 -67767972.871723175 -100785067.88973999 0 0 0 0 79799213.977052212 20645554.934070587 0 20645554.934070587 -110549224.29161072 0 0 0 0 58884689.162221432 -54919422.198795319 0 -54919422.198795319 -57764623.139095306 0 0 0 0 24287865.055082202 -6304962.9331846237 0 -6304962.9331846237 -123821590.78097534 0 0 0 0 -16786098.125467777 -114756379.71431732 0 -114756379.71431732 -185318818.91999626 0 0 0 0 -8387804.8775072098 -28460400.7619133 0 -28460400.7619133 -56877389.011432648 0 0 0 0 -25257523.244399071 -142757619.16854858 0 -142757619.16854858 -273777947.5887146 0 0 0 0 -24881717.413558628 -201770239.734568 0 -201770239.734568 -341729470.15666199 0 0 0 0 28726584.746999741 -110658984.63613892 0 -110658984.63613892 -287904522.4572525 0 0 0 0 -9756141.9050598145 -123279276.16500854 0 -123279276.16500854 -226806123.63568687 0 0 0 0 23185518.782657623 -104131126.06200409 0 -104131126.06200409 -339747117.79009247 0 0 0 0 -50215378.544401169 -258230795.8952179 0 -258230795.8952179 -420217868.80282593 0 0 0 0 10503230.876461029 -79009094.374908447 0 -79009094.374908447 -559139202.8560524 0 0 0 0 1335337.1888866425 -116028575.00088501 0 -116028575.00088501 -324418975.78959656 0 0 0 0 -1430114.0330944061 -4720704.5071563721 0 -4720704.5071563721 -328783471.71445012 0 0 0 0 -16754438.578166962 -3175405.1403579712 0 -3175405.1403579712 -420176596.82754517 0 0 0 0 -37495029.818655014 -64474227.158882141 0 -64474227.158882141 -387817705.26076508 0 0 0 0 -32286810.042272568 -29728928.750461578 0 -29728928.750461578 -265585821.3621521 0 0 0 0 -87631625.623363495 67565069.380134583 0 67565069.380134583 -180691869.31397247 0 0 0 0 -6167815.9039812088 -54111374.279335022 0 -54111374.279335022 -184687960.00947571 0 0 0 0 -32902468.276092529 49339527.930641174 0 49339527.930641174 -248426773.00513458 0 0 0 0 -139622573.52080536 97735034.328849792 0 97735034.328849792 -90004191.463180542 0 0 0 0 -67504581.362705231 78842276.943855286 0 78842276.943855286 -299260088.90789795 0 0 0 0 -101898339.91926575 22809852.698776245 0 22809852.698776245 -223038053.69486237 0 0 0 0 -105076537.65486908 10084001.591720581 0 10084001.591720581 -466240821.06436539 0 0 0 0 -82107898.708003998 121140439.6977005 0 121140439.6977005 -430348830.13040161 0 0 0 0 -150981665.83652496 188047447.5129776 0 188047447.5129776 -482847427.22611237 0 0 0 0 -151791369.44156075 34929607.131118774 0 34929607.131118774 -247594423.22581482 0 0 0 0 -43442705.244596481 -21118180.504589081 0 -21118180.504589081 -745167900.40939331 0 0 0 0 -207731882.38479614 212833229.8458252 0 212833229.8458252 -939082137.23233795 0 0 0 0 5488489.3998670578 -190429589.57959938 0 -190429589.57959938 -1128461208.273819 0 0 0 0 -330452329.26904154 -568547288.66734552 0 -568547288.66734552 -699231805.6071701 0 0 0 0 -84184466.721862793 -227688087.54793549 0 -227688087.54793549 -555839666.2747345 0 0 0 0 -4610545.9574832916 -7947385.7566719055 0 -7947385.7566719055 -690691780.72348022 0 0 0 0 -30584702.072231293 -273540216.50407791 0 -273540216.50407791 -676145552.1315155 0 0 0 0 251481207.49171925 132777958.19800186 0 132777958.19800186 -681902980.89142609 0 0 0 0 90907397.580202103 -168664770.1382637 0 -168664770.1382637 -1038140588.4337463 0 0 0 0 198814668.28514671 36602120.391269684 0 36602120.391269684 -737163354.22137451 0 0 0 0 45542514.609710693 -250070504.67932129 0 -250070504.67932129 -925768021.35378265 0 0 0 0 -392499492.87789917 -503093480.09603882 0 -503093480.09603882 -928414741.38747406 0 0 0 0 -818113369.31624603 -118662418.55795288 0 -118662418.55795288 -545449850.61602783 0 0 0 0 131362989.54191971 10226511.293151855 0 10226511.293151855 -515487381.97783661 0 0 0 0 77730668.402605057 19374304.247066498 0 19374304.247066498 -396625069.08650208 0 0 0 0 78029432.43478775 148233475.36637497 0 148233475.36637497 -404196702.74713135 0 0 0 0 114772089.14250565 99035370.98600769 0 99035370.98600769 -406289369.97502899 0 0 0 0 106445451.37774658 64740561.877761841 0 64740561.877761841 -507742014.35604858 0 0 0 0 130210221.46841812 -98224105.67855072 0 -98224105.67855072 -606902089.79091263 0 0 0 0 142498525.57808685 -25517150.994125366 0 -25517150.994125366 -738768966.66770935 0 0 0 0 149990427.71417332 103627215.11520386 0 103627215.11520386 -540916648.81637573 0 0 0 0 81370337.115020752 -90464541.306243896 0 -90464541.306243896 -614767813.50958252 0 0 0 0 150209192.62674046 19675357.063773155 0 19675357.063773155 -543096281.68969727 0 0 0 0 139465352.2092371 -49976651.350597382 0 -49976651.350597382 -516723087.3921051 0 0 0 0 130106098.74511909 12065869.821334839 0 12065869.821334839 -461535612.60166931 0 0 0 0 -79678790.417094231 -158170902.21488953 0 -158170902.21488953 -203723057.9210434 0 0 0 0 137756825.20664597 -66546954.650161743 0 -66546954.650161743 -494088873.88043976 0 0 0 0 144671641.83926582 -131628566.98223114 0 -131628566.98223114 -523776930.41198349 0 0 0 0 122396743.64017487 -83304744.215614319 0 -83304744.215614319 -634561293.78939819 0 0 0 0 -191798366.19184113 -323599515.78258896 0 -323599515.78258896 -443420502.06652832 0 0 0 0 -336036.58810579218 140785.72067480721 0 140785.72067480721 143653.50667986646 0 0 0 0 -219111218.4197464 -436811657.72608185 0 -436811657.72608185 -615862578.55825233 0 0 0 0 279221010.23697948 119543411.75839996 0 119543411.75839996 -337279862.99263 0 0 0 0 -14948815.516296387 -172717136.98414612 0 -172717136.98414612 -554440646.60846901 0 0 0 0 -61314002.376239777 -221234944.94874573 0 -221234944.94874573 -707167667.26119995 0 0 0 0 -36729842.190673828 95014087.765853882 0 95014087.765853882 31712792.741500854 0 0 0 0 -1544319.6965140193 1127144.8011200801 0 1127144.8011200801 1290253.784448117 0 0 0 0 -13456765.033699036 -89211646.911037445 0 -89211646.911037445 46950942.3956604 0 0 0 0 116722365.40247536 -22266128.5546875 0 -22266128.5546875 7048315.2993164062 0 0 0 0 -13549821.635852814 -32205919.15290451 0 -32205919.15290451 -124220716.19800377 0 0 0 0 49696607.383106709 -19572469.954197884 0 -19572469.954197884 -137225499.72972107 0 0 0 0 -82495.016688717529 463122.91275132634 0 463122.91275132634 -562255.27212410793 0 0 0 0 125158713.54479647 -94754770.048951149 0 -94754770.048951149 25407172.095527649 0 0 0 0 171421129.89967012 16123742.170984268 0 16123742.170984268 -45194006.156761169 0 0 0 0 12603.600371360779 -42063195.464027405 0 -42063195.464027405 30195540.02571106 0 0 0 0 -2395156.8533337908 4330217.2418640871 0 4330217.2418640871 2298430.5336319171 0 0 0 0 -37365008.258844376 17667748.946311951 0 17667748.946311951 29716127.028442383 0 0 0 0 -3435451.3822484016 -48727870.263284683 0 -48727870.263284683 19636339.458374023 0 0 0 0 -34886965.862457275 7350085.6036300659 0 7350085.6036300659 43381398.01631403 0 0 0 0 -6349350.9202771187 30399872.878234863 0 30399872.878234863 25395708.643753052 0 0 0 0 -54133688.87010479 22614146.912574768 0 22614146.912574768 30059500.687576294 0 0 0 0 -37070807.807246208 -3673542.8710489273 0 -3673542.8710489273 -5782947.1682510376 0 0 0 0 -28682644.985525131 52444094.858726501 0 52444094.858726501 -137066248.8760643 0 0 0 0 -43735812.690780878 -5033699.3863515854 0 -5033699.3863515854 -132207501.3948822 0 0 0 0 -97261201.074487686 50616887.911701202 0 50616887.911701202 -32471218.273551941 0 0 0 0 -67649256.485412598 -22065584.899681091 0 -22065584.899681091 -69538303.490344048 0 0 0 0 -65597305.534062386 12697632.224790573 0 12697632.224790573 13450259.881896973 0 0 0 0 -18067068.533927429 12184958.499516487 0 12184958.499516487 -308802671.53627777 0 0 0 0 22906580.223500922 35619294.068462372 0 35619294.068462372 -300687336.36943817 0 0 0 0 -407190.9602078303 31787552.219299316 0 31787552.219299316 -319620796.06617737 0 0 0 0 -25947241.109758213 47563431.662208557 0 47563431.662208557 -328823028.47582245 0 0 0 0 -95380458.456804127 43507360.10792923 0 43507360.10792923 -321111643.18095398 0 0 0 0 -18434226.057259545 27579594.970302582 0 27579594.970302582 -379531860.95690918 0 0 0 0 132219.16893403709 153693562.81614304 0 153693562.81614304 -425520225.54769897 0 0 0 0 9948576.8146554083 69707134.979156494 0 69707134.979156494 -317004367.52579498 0 0 0 0 22924468.096107718 49121002.218112946 0 49121002.218112946 -284474271.51502991 0 0 0 0 45727812.768475324 36299455.035926819 0 36299455.035926819 -285300110.38510513 0 0 0 0 27699231.917215914 62017696.910751343 0 62017696.910751343 -252442666.22049713 0 0 0 0 46269814.325108178 30302903.952029467 0 30302903.952029467 -243700014.06751251 0 0 0 0 57355277.858804673 -7970616.4549560547 0 -7970616.4549560547 -275120622.07327271 0 0 0 0 24269354.017730221 24918859.498908997 0 24918859.498908997 -259300529.38433838 0 0 0 0 25696232.122399434 -64842539.924663544 0 -64842539.924663544 -294182853.63059998 0 0 0 0 25936752.075711139 17913258.024440765 0 17913258.024440765 -277752186.11369324 0 0 0 0 46380567.824345499 -28084581.633544922 0 -28084581.633544922 -230361496.04651737 0 0 0 0 82411510.119569749 25039557.824094772 0 25039557.824094772 -236802432.67582703 0 0 0 0 40118655.010185868 38101178.402175903 0 38101178.402175903 -142295336.78130341 0 0 0 0 36142062.58417666 -18055526.038730621 0 -18055526.038730621 -197566098.62667847 0 0 0 0 47675442.486193866 -13033982.960487366 0 -13033982.960487366 -199260404.06987 0 0 0 0 25782084.26891762 -43737673.665092468 0 -43737673.665092468 -205089807.26365948 0 0 0 0 36728538.732725084 -25145827.168226242 0 -25145827.168226242 -204048357.6277771 0 0 0 0 -16882822.499487028 -66148862.473670959 0 -66148862.473670959 -180677540.36820221 0 0 0 0 -15121218.000812531 -38280763.127601624 0 -38280763.127601624 -148216520.69610596 0 0 0 0 1258866.8920535147 -3021452.5648803711 0 -3021452.5648803711 -287106480.35601044 0 0 0 0 -2800581.5373681351 14864539.495523453 0 14864539.495523453 -356643172.40215302 0 0 0 0 2951.3818742154172 1433333.6152621275 0 1433333.6152621275 1177765.2727050781 0 0 0 0 -48740568.22764805 -153683809.29754639 0 -153683809.29754639 -416229966.11581039 0 0 0 0 135425.47928294813 23087.807834679261 0 23087.807834679261 -465606.90355139226 0 0 0 0 1050634.7069507975 1064481.8463630676 0 1064481.8463630676 73763.451843261719 0 0 0 0 -10711613.37628144 -54276857.166313171 0 -54276857.166313171 -143879701.31491852 0 0 0 0 28986.174703865203 227941.87439750135 0 227941.87439750135 -574678.33953023329 0 0 0 0 1031480.039477063 1995879.3428289294 0 1995879.3428289294 382958.71105194092 0 0 0 0 1251964.6958836373 803688.19356536865 0 803688.19356536865 -602113.65692138672 0 0 0 0 -3161.0280355754021 2155574.2872886658 0 2155574.2872886658 -890687.98950576782 0 0 0 0 1667219.9303236622 1493737.7633323669 0 1493737.7633323669 -4163319.2467498779 0 0 0 0 1756345.4908621311 912966.11769866943 0 912966.11769866943 -936416.20234680176 0 0 0 0 1511876.2042352837 265128.80782318115 0 265128.80782318115 -1738629.653793335 0 0 0 0 1903264.9722786299 -2707025.0523352623 0 -2707025.0523352623 369161.10807800293 0 0 0 0 -14456.894441257446 31873.537851274014 0 31873.537851274014 -33883.717713564634 0 0 0 0 -90476.883024170995 1700867.7682113647 0 1700867.7682113647 -8429557.8173780441 0 0 0 0 8275857.4170066863 5489381.6603393555 0 5489381.6603393555 -7951591.9563598633 0 0 0 0 2011371.7439368954 -2371896.3987121582 0 -2371896.3987121582 -4565819.848543644 0 0 0 0 -35.042996514747756 1971913.9806747437 0 1971913.9806747437 -24987980.565265656 0 0 0 0 -6700215.6665449375 -791671.50025177002 0 -791671.50025177002 689951.98413085938 0 0 0 0 -498252.81229768693 1287624.2242202759 0 1287624.2242202759 -4098517.8498592377 0 0 0 0 -861518.23112690449 1073063.6121940613 0 1073063.6121940613 -3397171.4672622681 0 0 0 0 -1028036.1876792163 1349566.0143470764 0 1349566.0143470764 -3111540.652633667 0 0 0 0 -669278.66352731735 1320959.2068328857 0 1320959.2068328857 -8292571.73853302 0 0 0 0 -482661.64770434797 450821.50594711304 0 450821.50594711304 -2555000.7704620361 0 0 0 0 1495735.1457071719 159090.7194108963 0 159090.7194108963 -445217.64730072021 0 0 0 0 -31452.833419486989 101584.01576609537 0 101584.01576609537 -131393.66428405046 0 0 0 0 -327669.73149010539 1158842.7752637863 0 1158842.7752637863 -3491148.8208618164 0 0 0 0 -1351705.9418044239 187724.00268173218 0 187724.00268173218 418426.97627258301 0 0 0 0 -84714.62538367293 12535.523766880855 0 12535.523766880855 107004.07526677102 0 0 0 0 -5156806.0217475463 -14105548.669728994 0 -14105548.669728994 -5826516.1016845703 0 0 0 0 -126062.78447962066 508792.62012526765 0 508792.62012526765 10634.753827568144 0 0 0 0 4703497.8192703724 33548802.847984314 0 33548802.847984314 -69174618.772422791 0 0 0 0 1178122.8740596808 615142.20955657959 0 615142.20955657959 -509834.49477672577 0 0 0 0 -3577191.9941029605 11754125.047731996 0 11754125.047731996 -38784469.415641785 0 0 0 0 -88162.712451671265 399183.50228587538 0 399183.50228587538 -506377.96558539942 0 0 0 0 -15885268.293359011 -35822974.515098572 0 -35822974.515098572 -44348840.633353233 0 0 0 0 14373085.734963328 -9744799.6141471863 0 -9744799.6141471863 -94337078.395294189 0 0 0 0 19596600.823675394 -11129659.401996613 0 -11129659.401996613 -146165154.38420105 0 0 0 0 26972568.271490067 -23065738.47448349 0 -23065738.47448349 -144629006.47088623 0 0 0 0 24586003.90489769 -12091803.068367004 0 -12091803.068367004 -164560322.76195717 0 0 0 0 32431120.488837957 17069183.830917358 0 17069183.830917358 -159264115.30607605 0 0 0 0 -26935893.327789664 7652963.1475982666 0 7652963.1475982666 -170865739.62965393 0 0 0 0 -36311839.120725691 89655760.952713013 0 89655760.952713013 -64595954.69708252 0 0 0 0 -88184.515761032468 55529.818911269307 0 55529.818911269307 48717.793278247118 0 0 0 0 28559205.232111216 207771.47382354736 0 207771.47382354736 -178662338.09863281 0 0 0 0 38378948.410403728 -42133078.938896179 0 -42133078.938896179 -2113625.5757446289 0 0 0 0 17067966.31864202 -288377.56105804443 0 -288377.56105804443 -156301166.06931686 0 0 0 0 199568.08631670475 29937770.76789856 0 29937770.76789856 -226544577.08006859 0 0 0 0 -12995.157354420255 22647.698590099812 0 22647.698590099812 -117536.30731969327 0 0 0 0 -2087118.591195941 20652329.233963013 0 20652329.233963013 -228158843.65847778 0 0 0 0 55153867.324277878 -4294328.2595329285 0 -4294328.2595329285 -158146842.59146118 0 0 0 0 61582525.783822179 31701313.008052826 0 31701313.008052826 -32978735.593811035 0 0 0 0 336519.29764050245 1567572.3595328331 0 1567572.3595328331 -264567.22108459473 0 0 0 0 -24346.714512623366 539177.99793811888 0 539177.99793811888 -836254.14194578677 0 0 0 0 5106036.1293819547 -8906265.1806716919 0 -8906265.1806716919 -42067737.407375336 0 0 0 0 -119249.13960031196 498710.12618062273 0 498710.12618062273 2554.5043625235558 0 0 0 0 200078.5438246578 902757.59061527252 0 902757.59061527252 20952.64094543457 0 0 0 0 -515786.63184273243 1040138.2162246704 0 1040138.2162246704 -5408.3616256713867 0 0 0 0 285649.66916702688 970996.17282485962 0 970996.17282485962 -2679381.3872756958 0 0 0 0 -907137.28770562634 1693242.3673524857 0 1693242.3673524857 -1028047.3412780762 0 0 0 0 1091361.3371710926 1271797.5111427307 0 1271797.5111427307 -1125323.3506240845 0 0 0 0 221660.23865413666 561869.10249328613 0 561869.10249328613 -862365.84813690186 0 0 0 0 -102066.59066589922 1693059.2031726837 0 1693059.2031726837 -295392.31205749512 0 0 0 0 -94465.079305931926 62669.662391662598 0 62669.662391662598 -1066565.7055206299 0 0 0 0 -570162.16670381278 -193670.21728229523 0 -193670.21728229523 -2078515.6711120605 0 0 0 0 250768.56395973265 68133.537910461426 0 68133.537910461426 -2403466.9480884075 0 0 0 0 52353017.755168438 45839732.505252838 0 45839732.505252838 29562666.795959473 0 0 0 0 2021651.2436581254 40038904.130195618 0 40038904.130195618 33905621.66689682 0 0 0 0 -133956.98298601137 506188.14440914243 0 506188.14440914243 -683789.86158104241 0 0 0 0 630983.06307983398 373264.12340545654 0 373264.12340545654 -1497961.6341824532 0 0 0 0 -84294.79832168619 534993.1614300888 0 534993.1614300888 -827719.12414882332 0 0 0 0 72976626.289865792 63316059.798610687 0 63316059.798610687 12661495.886123657 0 0 0 0 57664362.525326908 16087673.514962196 0 16087673.514962196 -24009859.93914032 0 0 0 0 19295604.844499886 30287445.028270721 0 30287445.028270721 -102941373.81269836 0 0 0 0 24466118.076619625 -5369783.0983200073 0 -5369783.0983200073 -7203549.2828483582 0 0 0 0 32619090.270038247 -656337.01908874512 0 -656337.01908874512 14178548.766670942 0 0 0 0 35361512.598309159 27298671.077994347 0 27298671.077994347 -68407867.715118408 0 0 0 0 32671848.915227115 2024781.367805481 0 2024781.367805481 -156100668.28739166 0 0 0 0 28740987.243560672 -19577123.26158905 0 -19577123.26158905 -74791928.249196053 0 0 0 0 22212974.353497207 -23196896.980555534 0 -23196896.980555534 -103923586.5738678 0 0 0 0 31107148.810730755 5719937.9133338928 0 5719937.9133338928 -192134095.02502656 0 0 0 0 60543741.632130772 4584421.3075351715 0 4584421.3075351715 -192213542.13934326 0 0 0 0 44040672.336767793 41665603.470779419 0 41665603.470779419 -139458556.15470123 0 0 0 0 41264310.964490399 -48892610.849559784 0 -48892610.849559784 -302280666.56365204 0 0 0 0 111745.77308941755 38450.019784428179 0 38450.019784428179 -118324.60757710412 0 0 0 0 -4097778.6768404841 -11233282.998981476 0 -11233282.998981476 -197035121.955513 0 0 0 0 46008090.584911764 -17071859.842647552 0 -17071859.842647552 -196541059.62178802 0 0 0 0 28957017.672117412 3280299.0943470001 0 3280299.0943470001 -202292688.30195618 0 0 0 0 1865490.501537621 4935687.4189682007 0 4935687.4189682007 -198372757.75860596 0 0 0 0 36687113.636790931 7083192.2542724609 0 7083192.2542724609 -199068698.3060112 0 0 0 0 22562438.681213103 277121.56195926666 0 277121.56195926666 -189145210.24786377 0 0 0 0 1294590.3880999088 3629106.4272766113 0 3629106.4272766113 -188783899.30375671 0 0 0 0 8801479.851305306 -3974046.1918144226 0 -3974046.1918144226 -190109053.89250183 0 0 0 0 14855583.159585446 14268928.734972 0 14268928.734972 -213975828.89753723 0 0 0 0 212033.75478143955 82711.249826930463 0 82711.249826930463 -223517.31954029016 0 0 0 0 14657349.442518294 -16253862.006473541 0 -16253862.006473541 -251756433.37615967 0 0 0 0 13119291.705172449 -7916962.4802093506 0 -7916962.4802093506 -245268466.84959984 0 0 0 0 17270860.704769224 -22500119.766731262 0 -22500119.766731262 -324956180.05712795 0 0 0 0 102623.8028153092 48948.406158659607 0 48948.406158659607 -123305.23718693387 0 0 0 0 458940.05157567933 11417478.949120998 0 11417478.949120998 -200604430.72042847 0 0 0 0 17706682.643866807 6968986.8556442261 0 6968986.8556442261 -200126322.53474426 0 0 0 0 52462202.184880756 -10897728.368688107 0 -10897728.368688107 -224289802.98296356 0 0 0 0 56918106.429354846 6968697.7567863464 0 6968697.7567863464 -201693299.4295845 0 0 0 0 96264743.846284747 23103861.392284393 0 23103861.392284393 -207043022.71721268 0 0 0 0 8528089.0203610361 5386278.5623450279 0 5386278.5623450279 -174210343.21189117 0 0 0 0 51462009.649574846 -13024417.568332672 0 -13024417.568332672 -230653656.88013077 0 0 0 0 70718754.314432412 -15450835.343864441 0 -15450835.343864441 -242684733.39992142 0 0 0 0 57040939.039513528 -25758746.111206055 0 -25758746.111206055 -207300669.73243332 0 0 0 0 55394782.845416039 -40328534.527462006 0 -40328534.527462006 -256731539.93780136 0 0 0 0 12021213.02289471 -119438553.8289032 0 -119438553.8289032 -298552814.51543045 0 0 0 0 52222077.844186932 15810212.408229828 0 15810212.408229828 -395093889.33500671 0 0 0 0 -7966375.6709079444 69265078.606798172 0 69265078.606798172 -330100108.04632568 0 0 0 0 59091466.562638387 -7711486.6108398438 0 -7711486.6108398438 -333128005.95560455 0 0 0 0 11558722.133642316 61250271.901481628 0 61250271.901481628 -268553699.03867722 0 0 0 0 228933.97220152617 42732529.505477905 0 42732529.505477905 -252118829.47776794 0 0 0 0 -61358597.387834221 97924496.0917418 0 97924496.0917418 -183755386.51087189 0 0 0 0 -59436812.606151611 110545497.27461886 0 110545497.27461886 -206732758.62633514 0 0 0 0 -21408622.43170321 62304004.004024506 0 62304004.004024506 -166234760.31441116 0 0 0 0 -20520944.043879449 63259006.687194824 0 63259006.687194824 -184590117.80688667 0 0 0 0 26364135.384911433 29995237.870205879 0 29995237.870205879 -204429636.71047211 0 0 0 0 38114854.018351972 33002429.106151581 0 33002429.106151581 -224650984.676651 0 0 0 0 8397961.4206599593 4847554.742816925 0 4847554.742816925 -108277022.41364288 0 0 0 0 -5879563.6398624927 34565865.900194168 0 34565865.900194168 -156488563.1404953 0 0 0 0 -24185943.611129642 31182890.863503933 0 31182890.863503933 -100920152.49014282 0 0 0 0 -58137412.168918729 46286162.867210388 0 46286162.867210388 -105842045.88682556 0 0 0 0 -22401595.575658679 41331776.934825897 0 41331776.934825897 -110147074.46607041 0 0 0 0 11610402.101649702 42668399.763946533 0 42668399.763946533 -44438266.718315125 0 0 0 0 -6684476.8935111016 3098593.194229126 0 3098593.194229126 -31933710.603408813 0 0 0 0 -83020746.49745208 39963434.762741089 0 39963434.762741089 -43940802.028421402 0 0 0 0 -70814284.85874027 78472631.60370636 0 78472631.60370636 -63129320.736282349 0 0 0 0 -55682084.148604095 57065519.425643921 0 57065519.425643921 -35675269.542251587 0 0 0 0 -65166579.848281711 91698745.313484669 0 91698745.313484669 -8733648.9074707031 0 0 0 0 -56402390.631011114 52504937.694956779 0 52504937.694956779 24660693.3516922 0 0 0 0 -50348049.195591152 101836152.20787048 0 101836152.20787048 15565182.258247375 0 0 0 0 180221.51490329468 -20922.790859494358 0 -20922.790859494358 -361545.27290399373 0 0 0 0 -10387988.901319221 13517332.422412872 0 13517332.422412872 -13161009.733463287 0 0 0 0 -21278641.470662117 12021682.727722168 0 12021682.727722168 -12194073.428421021 0 0 0 0 -14719.856240058398 4626.4734577462077 0 4626.4734577462077 -6658.9822632409632 0 0 0 0 -70112071.149001583 46461393.39158392 0 46461393.39158392 -2899666.0254974365 0 0 0 0 -151297643.32605952 63611880.706504822 0 63611880.706504822 -5806436.5521697998 0 0 0 0 -140491853.98617077 47370965.487060547 0 47370965.487060547 -33151622.974510193 0 0 0 0 -211319332.8280783 80342205.79048419 0 80342205.79048419 -12876968.399169922 0 0 0 0 -756.69331067604162 73579.734355174354 0 73579.734355174354 -110589.18670540303 0 0 0 0 -99446542.351462334 88729523.431499481 0 88729523.431499481 -130889748.45263672 0 0 0 0 -1690068.1182880672 -7449129.7916816473 0 -7449129.7916816473 -33663723.566246033 0 0 0 0 -13658553.057172507 77003245.963375092 0 77003245.963375092 -71138626.79133606 0 0 0 0 -89155874.832442448 63237431.096288681 0 63237431.096288681 -64073388.422637939 0 0 0 0 -89523534.514550149 59140652.764158249 0 59140652.764158249 -85584680.55506897 0 0 0 0 -58942882.889134526 53981589.776603699 0 53981589.776603699 -101743139.63031387 0 0 0 0 -73288691.896620035 90117410.157403231 0 90117410.157403231 -134022072.19657135 0 0 0 0 -75918294.266924411 70968837.767163277 0 70968837.767163277 -107346147.52868652 0 0 0 0 -75140901.763048738 3242275.790184021 0 3242275.790184021 -81211839.826087952 0 0 0 0 -81784602.316839635 9249679.5017166138 0 9249679.5017166138 -85502708.402938843 0 0 0 0 -118886335.85055783 -80587505.883312225 0 -80587505.883312225 -118993955.61742973 0 0 0 0 -37805599.258284144 41765715.804766655 0 41765715.804766655 -48969233.982910156 0 0 0 0 7204703.1671666354 -34104361.821340561 0 -34104361.821340561 -105894830.27848816 0 0 0 0 -65562101.808644801 88074006.113201141 0 88074006.113201141 -92221030.031135559 0 0 0 0 -31977859.370289773 -21257435.824542999 0 -21257435.824542999 -13156308.043136597 0 0 0 0 94455.196709235446 -187259.13445106521 0 -187259.13445106521 -386380.86586998403 0 0 0 0 -5313006.1340453029 18577064.206905365 0 18577064.206905365 -27105757.494823456 0 0 0 0 -14588382.146228582 5784159.8022956848 0 5784159.8022956848 -11949198.556175232 0 0 0 0 -4658935.048862204 13861922.329411507 0 13861922.329411507 -14598830.584976196 0 0 0 0 -10516705.812061667 13049412.386104584 0 13049412.386104584 -14711262.473937988 0 0 0 0 -29369648.852329731 -28042381.14655304 0 -28042381.14655304 -5692250.4877510071 0 0 0 0 -18386465.520200014 3199606.1834373474 0 3199606.1834373474 -13618984.263427734 0 0 0 0 -21381585.829659641 -41117291.334943771 0 -41117291.334943771 12908974.44670105 0 0 0 0 -82531807.169551849 -11046231.284885406 0 -11046231.284885406 25100526.986989975 0 0 0 0 50915569.479906768 -178014390.55828333 0 -178014390.55828333 -471418481.61489868 0 0 0 0 -209314.09785964224 227388.08168704435 0 227388.08168704435 -161142.07315194607 0 0 0 0 90486359.461444139 80586052.95539856 0 80586052.95539856 -378945867.5269165 0 0 0 0 68023.296348070842 -140711.91769929975 0 -140711.91769929975 -239824.43427794054 0 0 0 0 -58918899.499185443 38542281.620212555 0 38542281.620212555 -35460967.009468079 0 0 0 0 -56733927.264867783 -181656151.67776489 0 -181656151.67776489 -413882316.37098694 0 0 0 0 -43728885.737680122 -225080878.61506271 0 -225080878.61506271 139024780.81816864 0 0 0 0 107521109.7325995 -9884474.8359375 0 -9884474.8359375 -702653024.31533813 0 0 0 0 -211784343.57944202 -264770224.05091858 0 -264770224.05091858 644577248.30975723 0 0 0 0 -90966918.232553959 -26947655.167419434 0 -26947655.167419434 -701513111.32555199 0 0 0 0 103493161.2285881 91380719.456085205 0 91380719.456085205 -637586684.87295532 0 0 0 0 235239.70935997996 -504919.17752850801 0 -504919.17752850801 -584792.65660217591 0 0 0 0 112461794.78278434 -126646144.36355591 0 -126646144.36355591 -47295672.671691895 0 0 0 0 -156882118.19174671 -203137084.26485443 0 -203137084.26485443 194151228.70737457 0 0 0 0 58868828.126735263 5715844.8146829605 0 5715844.8146829605 294896458.59999084 0 0 0 0 -173168586.13239598 -64849478.054084778 0 -64849478.054084778 -52207262.437815189 0 0 0 0 -239262869.08069035 91488704.01010704 0 91488704.01010704 38604236.446296692 0 0 0 0 -165624787.7707541 24287338.364631653 0 24287338.364631653 -113199543.56437683 0 0 0 0 -265989871.58678305 99299866.928073883 0 99299866.928073883 -86288849.748094559 0 0 0 0 -160541635.73012263 14395476.969764709 0 14395476.969764709 -50827565.00276947 0 0 0 0 -129323319.14229751 125937145.92379761 0 125937145.92379761 -149459394.53987503 0 0 0 0 656439.64089518785 75193616.419059753 0 75193616.419059753 -377017366.25254631 0 0 0 0 -171154762.04961315 218320461.97699738 0 218320461.97699738 -285747535.52532578 0 0 0 0 -604199015.24573684 259488607.98963928 0 259488607.98963928 -209841442.07732964 0 0 0 0 -71110203.764769465 243222852.46832466 0 243222852.46832466 -745124609.17995453 0 0 0 0 -102202215.26889145 -294316098.95896149 0 -294316098.95896149 -666966082.14940834 0 0 0 0 -960000.54498671554 1200959.138721792 0 1200959.138721792 -1396687.0389212221 0 0 0 0 -187988172.49854296 491216642.1455307 0 491216642.1455307 -681949676.01844215 0 0 0 0 -86795819.86529389 260796847.3608036 0 260796847.3608036 -178191154.89311981 0 0 0 0 7738948.454677701 10412371.467914581 0 10412371.467914581 -285915723.91709137 0 0 0 0 -7609832.0982750356 -82186382.240833282 0 -82186382.240833282 -785137701.54747772 0 0 0 0 -323910071.6450609 -274226227.97921753 0 -274226227.97921753 -335741820.33065033 0 0 0 0 -171372934.98836449 123169985.85094261 0 123169985.85094261 -9373147.0576095581 0 0 0 0 -138985948.73749661 239926694.44078064 0 239926694.44078064 -204233772.09614182 0 0 0 0 -96717144.875389159 270230439.55370522 0 270230439.55370522 -182518338.7857132 0 0 0 0 -470233913.81612575 283184895.96329117 0 283184895.96329117 -1716214.2781906128 0 0 0 0 -48687319.813590616 -53984267.862966537 0 -53984267.862966537 -166056476.76597214 0 0 0 0 -7586390.9931648076 -73604955.151203156 0 -73604955.151203156 -158674856.89287567 0 0 0 0 -1852201.9945967686 2964665.5167153422 0 2964665.5167153422 -4316176.9310075901 0 0 0 0 115236243.75405407 164441533.46134472 0 164441533.46134472 50046886.3151474 0 0 0 0 26227571.455487728 1314504.318397522 0 1314504.318397522 5980399.1295955181 0 0 0 0 17564611.183176398 -7790833.0611209869 0 -7790833.0611209869 122720896.28474426 0 0 0 0 20268474.290252537 -4341881.566546917 0 -4341881.566546917 -82702251.020866394 0 0 0 0 88445678.266312599 -128111601.01920319 0 -128111601.01920319 -22308521.367408752 0 0 0 0 164093810.97547483 -89661593.03204155 0 -89661593.03204155 -174991351.13491058 0 0 0 0 138540846.95251942 -34425409.677965164 0 -34425409.677965164 -241939667.80362701 0 0 0 0 113161990.27993488 14686113.230405807 0 14686113.230405807 -295675157.33396912 0 0 0 0 63983386.53950274 -59371820.994168282 0 -59371820.994168282 -117941114.90705872 0 0 0 0 75206013.047575951 -34110931.022758484 0 -34110931.022758484 -127440839.73963928 0 0 0 0 85264728.209518433 -54025149.740608215 0 -54025149.740608215 -139516537.03610229 0 0 0 0 72471506.18564415 -33335113.205211639 0 -33335113.205211639 -170035045.90441132 0 0 0 0 16748882.30654192 -32640842.743572235 0 -32640842.743572235 -170337177.48232269 0 0 0 0 17218673.13036108 -38082459.904445648 0 -38082459.904445648 -126595592.69311523 0 0 0 0 -26773550.648830771 -51050364.037799835 0 -51050364.037799835 -142966743.13955688 0 0 0 0 -48740069.251880109 15069858.820129395 0 15069858.820129395 -113827602.1320343 0 0 0 0 -14062734.537884258 -26581746.082397461 0 -26581746.082397461 -63859044.153251648 0 0 0 0 -26326278.288410783 44986212.257156372 0 44986212.257156372 -263720870.65152359 0 0 0 0 -23423207.980451908 162948825.79038715 0 162948825.79038715 -154932751.48535156 0 0 0 0 91784427.227718398 -37109062.126622438 0 -37109062.126622438 -206668937.20251465 0 0 0 0 -36121141.657117464 -83385790.699039459 0 -83385790.699039459 -208160798.16418839 0 0 0 0 -65213654.300930396 -40012743.980285645 0 -40012743.980285645 -141650065.87264252 0 0 0 0 -22415848.826632977 -66502459.208358765 0 -66502459.208358765 -219551930.42119598 0 0 0 0 -760261.11885418615 -100480.38448518328 0 -100480.38448518328 582750.14582826197 0 0 0 0 -113121711.37232494 -79784130.423355103 0 -79784130.423355103 -18401874.8934021 0 0 0 0 -149657.64794780844 -25675.722880393267 0 -25675.722880393267 -46115.840112954378 0 0 0 0 -8706080.6835532188 -90801288.359512329 0 -90801288.359512329 -212722999.69956589 0 0 0 0 -29911890.818037987 -8604727.7389411926 0 -8604727.7389411926 -174012841.70393372 0 0 0 0 14819123.657882452 -34820327.982757568 0 -34820327.982757568 -88034320.629470825 0 0 0 0 -19848526.309478849 -48651015.784055471 0 -48651015.784055471 -79850583.798553467 0 0 0 0 -15652588.221567869 -19823555.510261536 0 -19823555.510261536 -11348984.093040466 0 0 0 0 -2283062.0612596273 -2416648.7238426208 0 -2416648.7238426208 -1355851.7658462524 0 0 0 0 -2601846.9084721766 -438982.00324097648 0 -438982.00324097648 1146286.3618401885 0 0 0 0 -23948844.355881333 2769934.4463844299 0 2769934.4463844299 -16161946.405293345 0 0 0 0 -51180.035769024398 -1434636.458498694 0 -1434636.458498694 -1651905.4147329032 0 0 0 0 -1955353.2149679661 -1960123.991191864 0 -1960123.991191864 -1438995.6432852745 0 0 0 0 -3616345.8119606972 -3346155.0186805725 0 -3346155.0186805725 -2242753.5567169189 0 0 0 0 -12186243.822707176 -9428636.7272720337 0 -9428636.7272720337 -10066105.404876709 0 0 0 0 -1959394.8682032689 -1415166.6317552738 0 -1415166.6317552738 1462258.6718577594 0 0 0 0 -2886778.5618629456 -2583769.6050224304 0 -2583769.6050224304 -2147738.7885308266 0 0 0 0 -2684705.339082621 -2925612.9701631069 0 -2925612.9701631069 -3135903.6676559448 0 0 0 0 -1767202.7402004004 -2628415.9853553772 0 -2628415.9853553772 -3592325.1956291199 0 0 0 0 511848.1932252479 -2450370.3694042219 0 -2450370.3694042219 -6725817.1374589317 0 0 0 0 233960710.32983923 45281075.235328674 0 45281075.235328674 -186502445.28245544 0 0 0 0 294832903.14770508 -53755953.181697845 0 -53755953.181697845 -62840189.288009644 0 0 0 0 5128554.9559612274 -17439894.384490967 0 -17439894.384490967 -2498593.9193382263 0 0 0 0 -737235.80892858747 -3014429.601475534 0 -3014429.601475534 452518.86954644695 0 0 0 0 -2679182.7791686356 -2833283.8071752787 0 -2833283.8071752787 -3660590.800163269 0 0 0 0 -12183654.839280605 -7273872.9233627319 0 -7273872.9233627319 3656664.2873878479 0 0 0 0 308563.45146631997 -1236807.0931676086 0 -1236807.0931676086 -4440901.2111551464 0 0 0 0 184668597.73624611 -160894409.08066177 0 -160894409.08066177 -31370568.33190918 0 0 0 0 -6870576.4523830414 -8172000.3016204834 0 -8172000.3016204834 -5936503.5709609985 0 0 0 0 34398728.241892457 -17284048.524617195 0 -17284048.524617195 -21803205.716941833 0 0 0 0 4556152.2126808167 -9179927.7489776611 0 -9179927.7489776611 -97326371.182296753 0 0 0 0 49860983.940193176 -580451.98757553101 0 -580451.98757553101 -96582168.545250416 0 0 0 0 42430315.500284195 25304195.486068726 0 25304195.486068726 -186750003.16650391 0 0 0 0 30497732.755300522 -40762918.080305099 0 -40762918.080305099 -168569364.05634308 0 0 0 0 88874.646864279173 -354497.93620382063 0 -354497.93620382063 -1554097.2779511623 0 0 0 0 -47348676.164197445 123581967.6560154 0 123581967.6560154 -174893354.05422211 0 0 0 0 -13590070.397701263 60343770.038070679 0 60343770.038070679 -58228081.385982513 0 0 0 0 69940742.63384819 24012206.089294434 0 24012206.089294434 -189765338.40089417 0 0 0 0 71105738.557721078 76986817.585575581 0 76986817.585575581 -296957800.31855774 0 0 0 0 94767114.484286308 -788257786.49765396 0 -788257786.49765396 -182935885.60140991 0 0 0 0 -426814430.25174999 -144424180.41628647 0 -144424180.41628647 124662787.08450317 0 0 0 0 333456259.08392811 -44160234.205509186 0 -44160234.205509186 -110634331.70872879 0 0 0 0 -1229582.092725662 3537919.5949608311 0 3537919.5949608311 -7578836.0560973734 0 0 0 0 209685568.86120537 75497688.729910851 0 75497688.729910851 -18411877.169219971 0 0 0 0 13482626.338260651 -94412849.778793335 0 -94412849.778793335 14183835.275192261 0 0 0 0 13495687.356758118 -96025912.675281525 0 -96025912.675281525 77343635.816886902 0 0 0 0 43791909.181248665 -100455612.86190796 0 -100455612.86190796 -134531869.15733337 0 0 0 0 44236606.912445068 -141546204.1391716 0 -141546204.1391716 42254629.915294647 0 0 0 0 -100340104.99017906 -145810623.77890396 0 -145810623.77890396 55578871.399570465 0 0 0 0 -36738289.946597934 -84811811.501561165 0 -84811811.501561165 -50830899.259094238 0 0 0 0 -73344202.13497895 126773401.07358885 0 126773401.07358885 -142589266.65374756 0 0 0 0 -420577977.49768734 21767879.451225281 0 21767879.451225281 -77513642.943201065 0 0 0 0 -296614486.3731848 240822765.02525711 0 240822765.02525711 -199919109.64894104 0 0 0 0 56618259.249188423 17888690.853969574 0 17888690.853969574 -9470378.205329895 0 0 0 0 45112026.413691521 89301028.561100006 0 89301028.561100006 -452563350.12519836 0 0 0 0 -215873006.95907593 -249205204.82428551 0 -249205204.82428551 -199234410.44326782 0 0 0 0 -961017.30085671262 -7950.3247059620917 0 -7950.3247059620917 25083.131206504069 0 0 0 0 -361710654.6915071 45664196.361207962 0 45664196.361207962 507177661.58387756 0 0 0 0 -294771930.09865975 65910578.086929321 0 65910578.086929321 513177791.61897278 0 0 0 0 88622320.187383175 81557333.694496155 0 81557333.694496155 207966113.52163696 0 0 0 0 -350983405.66075635 193940444.2516098 0 193940444.2516098 436584259.09145737 0 0 0 0 -143452293.47139549 -130666892.97865677 0 -130666892.97865677 -436878133.7747364 0 0 0 0 -421676547.08744812 84529766.165679932 0 84529766.165679932 579926148.37406921 0 0 0 0 253271425.77298725 250887579.49811554 0 250887579.49811554 -86819397.086532593 0 0 0 0 61872531.972212076 -351294549.25626373 0 -351294549.25626373 -523834462.55254364 0 0 0 0 -845368.56498995633 2590577.5654646531 0 2590577.5654646531 -5870339.4203428216 0 0 0 0 42579266.947250187 129966275.96748352 0 129966275.96748352 -446098522.98363495 0 0 0 0 -22196712.421786904 267253864.81663895 0 267253864.81663895 -219528155.44579315 0 0 0 0 -54480662.442128547 131888778.41410697 0 131888778.41410697 -194329145.90939331 0 0 0 0 -55686707.518385738 89512573.935319722 0 89512573.935319722 -44893193.149627686 0 0 0 0 -236176.07201975584 70653168.792339325 0 70653168.792339325 -91568802.711326599 0 0 0 0 1926104.7828906476 23353098.320171356 0 23353098.320171356 104159694.02396011 0 0 0 0 21958570.333849639 -6028547.6053886414 0 -6028547.6053886414 -6798920.5789260864 0 0 0 0 147562245.76303935 -43132798.470239639 0 -43132798.470239639 -23003826.305831909 0 0 0 0 -41892339.666721523 11161673.818466187 0 11161673.818466187 -20241831.867416382 0 0 0 0 -40312005.341683447 19314159.139511585 0 19314159.139511585 -165528553.210495 0 0 0 0 16918359.014298856 -29161295.786705017 0 -29161295.786705017 -90975615.655639648 0 0 0 0 -37533890.898224294 -39327910.147251099 0 -39327910.147251099 -51312458.702438354 0 0 0 0 18754528.13673389 -45775301.150398254 0 -45775301.150398254 -103728820.76073647 0 0 0 0 8454477.3578398824 -69190741.231079102 0 -69190741.231079102 -94628622.308023453 0 0 0 0 -11877981.337808743 -39618368.729351044 0 -39618368.729351044 -137639908.34803009 0 0 0 0 20664656.744596183 -44858893.381095886 0 -44858893.381095886 -111871145.06798553 0 0 0 0 14840286.370210588 -48282016.394273758 0 -48282016.394273758 -49021556.37538147 0 0 0 0 93624028.014159262 -32380424.388923645 0 -32380424.388923645 -63679041.802680969 0 0 0 0 62270701.876931667 -28357846.515018463 0 -28357846.515018463 -28287063.204814911 0 0 0 0 67736876.491047233 30706498.050086975 0 30706498.050086975 23249060.631340027 0 0 0 0 -1879725.4967232337 3857170.1840021703 0 3857170.1840021703 -6762959.1358212195 0 0 0 0 -223774646.02263784 631674204.32207108 0 631674204.32207108 98029238.812179565 0 0 0 0 85120932.166926831 23661382.470222473 0 23661382.470222473 -52431749.243743896 0 0 0 0 46014512.290846407 -11467078.71736145 0 -11467078.71736145 -45474076.531173706 0 0 0 0 45113444.465290189 -66797333.090709686 0 -66797333.090709686 -92324523.633583069 0 0 0 0 17052224.087258875 -75453662.077323914 0 -75453662.077323914 -114740716.43086624 0 0 0 0 38285037.690162838 -57155338.268203735 0 -57155338.268203735 -169543349.30319214 0 0 0 0 -1927206.0026488602 -10550914.037685394 0 -10550914.037685394 -19071179.311635971 0 0 0 0 19051527.227534413 -61275028.272773743 0 -61275028.272773743 -169976423.21183777 0 0 0 0 26686030.58455275 -84378343.716695309 0 -84378343.716695309 -201962763.29122925 0 0 0 0 18630696.468125552 -57536182.365589142 0 -57536182.365589142 -137663133.29380798 0 0 0 0 28108127.699689507 -54744808.997966766 0 -54744808.997966766 -179602489.7138443 0 0 0 0 25864988.177766271 -77792330.428123474 0 -77792330.428123474 -136236703.06210327 0 0 0 0 -21654347.65133971 9585820.1634521484 0 9585820.1634521484 -165480674.94901276 0 0 0 0 -1505746.4125990868 -16593579.615974426 0 -16593579.615974426 -132406876.16883755 0 0 0 0 3587793.4190398306 -32495106.560930252 0 -32495106.560930252 -178800452.70491028 0 0 0 0 34631365.034656078 -17981632.027694702 0 -17981632.027694702 -184462077.87308502 0 0 0 0 6194676.7716188431 8406212.5482063293 0 8406212.5482063293 -165740577.25688171 0 0 0 0 -6381438.1954785436 41251878.238265991 0 41251878.238265991 -164182287.46562195 0 0 0 0 2986257.2179311961 19863686.743530273 0 19863686.743530273 -205298812.69611168 0 0 0 0 -8128043.5455604289 32165278.227678299 0 32165278.227678299 -189367441.51748657 0 0 0 0 -16943255.794316001 44241555.451262474 0 44241555.451262474 -131347493.10984802 0 0 0 0 -17403802.71486605 46713250.124660492 0 46713250.124660492 -131239514.33763885 0 0 0 0 6028424.3661955968 65750764.563697815 0 65750764.563697815 -153892697.07073975 0 0 0 0 -22162639.603068292 30418702.590202332 0 30418702.590202332 -158980295.66168213 0 0 0 0 -20648016.326414466 21683721.465694427 0 21683721.465694427 -127539501.84378815 0 0 0 0 -41856033.855717123 36790234.242347717 0 36790234.242347717 -103744743.69216919 0 0 0 0 -48683918.453634977 21899977.148048401 0 21899977.148048401 -127217107.01696873 0 0 0 0 -10204965.26651936 20143196.573158264 0 20143196.573158264 -96627143.913299561 0 0 0 0 -29654970.768612221 39569384.461442947 0 39569384.461442947 -105581804.02664185 0 0 0 0 -39375383.304378599 26502743.665302277 0 26502743.665302277 -110548467.65481186 0 0 0 0 -52252689.353055 36396824.119255066 0 36396824.119255066 -114850524.20392609 0 0 0 0 -88575618.826966703 14789724.999725342 0 14789724.999725342 -103723444.22600555 0 0 0 0 -67146578.788463533 -2595459.8059959412 0 -2595459.8059959412 -98900225.577674866 0 0 0 0 -39706012.089167237 7080733.0651378632 0 7080733.0651378632 -102777781.20574951 0 0 0 0 -49199339.675284445 -9894193.0738258362 0 -9894193.0738258362 -133125517.91002655 0 0 0 0 -18508215.154813096 -42447071.469709396 0 -42447071.469709396 -99696321.417449951 0 0 0 0 -78004475.103632212 -19041824.221572876 0 -19041824.221572876 -93474567.458798409 0 0 0 0 -37480660.473710619 -30027072.000330091 0 -30027072.000330091 -104913137.35112 0 0 0 0 -91032821.4501241 1987372.436000824 0 1987372.436000824 -144975202.59043884 0 0 0 0 -96227260.324773073 -12343252.573474884 0 -12343252.573474884 -82148407.390571594 0 0 0 0 -195535513.1609109 74135362.102605343 0 74135362.102605343 -151842846.09371948 0 0 0 0 -88237214.221968681 46492665.082708359 0 46492665.082708359 -146829273.18900299 0 0 0 0 -133374531.557814 5028209.2465286255 0 5028209.2465286255 -96594755.798816681 0 0 0 0 -179377955.94383049 -30048630.01266861 0 -30048630.01266861 -155227098.33068848 0 0 0 0 -45690503.217450321 78692781.410930634 0 78692781.410930634 -112987457.50871658 0 0 0 0 -53301830.674489558 35665076.050735474 0 35665076.050735474 -331279196.76499939 0 0 0 0 -6487697.7442307472 100444582.6295929 0 100444582.6295929 -230436682.29813385 0 0 0 0 -34021149.238319933 54827937.483657837 0 54827937.483657837 -79686126.724937439 0 0 0 0 -74772493.437356949 163718055.45330048 0 163718055.45330048 -221453519.42507935 0 0 0 0 -129241466.58825326 78528386.697944641 0 78528386.697944641 -29524077.699485779 0 0 0 0 -146215.30207670096 294414.69591792114 0 294414.69591792114 -189443.08485947549 0 0 0 0 933703.56706857681 -24348601.188285828 0 -24348601.188285828 -13667070.847549438 0 0 0 0 -2175370.4433032768 520379.32855859026 0 520379.32855859026 -217618.7268297933 0 0 0 0 -68526140.277370065 70086301.865430832 0 70086301.865430832 -46312957.964111328 0 0 0 0 55046885.140756607 171433816.59324646 0 171433816.59324646 217720773.85445595 0 0 0 0 81649754.007407084 261037716.89290023 0 261037716.89290023 -30818303.329421997 0 0 0 0 250472.89934485301 370984.66805706173 0 370984.66805706173 -525497.51151169837 0 0 0 0 187080983.53491589 -94105587.500213623 0 -94105587.500213623 45353688.479082108 0 0 0 0 1301515.2808736339 2002611.6254291534 0 2002611.6254291534 -102550092.87578583 0 0 0 0 191394.34771015396 293756.81134633347 0 293756.81134633347 -401519.11256202683 0 0 0 0 -2598937.1651984742 1937834.2301072702 0 1937834.2301072702 -880882.26769016311 0 0 0 0 -1480451.4517446011 -3773304.0972747803 0 -3773304.0972747803 -68566378.536087036 0 0 0 0 -488748.79658240825 903089.36937097833 0 903089.36937097833 -275860.1219580546 0 0 0 0 13012003.373189449 -7963559.5213699341 0 -7963559.5213699341 8465978.5859260559 0 0 0 0 -29834365.835311413 -107659735.094944 0 -107659735.094944 -286514370.17215729 0 0 0 0 -20527683.619504392 -43876319.878234863 0 -43876319.878234863 -80862151.501825333 0 0 0 0 66650557.201576546 2092922.8641662598 0 2092922.8641662598 -104047576.39398956 0 0 0 0 11062971.555565745 -56549868.110553741 0 -56549868.110553741 -161145860.78263092 0 0 0 0 53793172.43832323 -30555996.079115391 0 -30555996.079115391 -154934471.50068665 0 0 0 0 49154814.281665951 10054429.360660553 0 10054429.360660553 -198543775.7685585 0 0 0 0 4189258.8070886806 354135.75478553772 0 354135.75478553772 -169074485.6025238 0 0 0 0 -45250149.973655403 82834295.208572388 0 82834295.208572388 -296453073.47976112 0 0 0 0 -19542291.729403138 46427732.256828308 0 46427732.256828308 -174283428.54010773 0 0 0 0 -78554815.387811601 28483798.893836975 0 28483798.893836975 -114536629.71282053 0 0 0 0 19864941.700086348 -15536.966747283936 0 -15536.966747283936 -125531651.61658478 0 0 0 0 76695414.694483981 -44524700.38193512 0 -44524700.38193512 -148169048.07334137 0 0 0 0 17950289.115479298 -2433621.3211631775 0 -2433621.3211631775 -124925017.39105797 0 0 0 0 2059477.4272862226 -57796341.288345337 0 -57796341.288345337 -75338098.837005615 0 0 0 0 17390147.551636189 -13091418.088302612 0 -13091418.088302612 -66010583.619977951 0 0 0 0 136735261.12533092 -103287606.82830811 0 -103287606.82830811 -142899846.29612446 0 0 0 0 35160652.689005986 -81524800.921762466 0 -81524800.921762466 -146688186.34873962 0 0 0 0 152262862.32557917 -24558779.226268768 0 -24558779.226268768 -177304148.57114029 0 0 0 0 48597439.646142423 -24295565.124237061 0 -24295565.124237061 -75561522.909692764 0 0 0 0 21124003.056910068 -80365772.715145111 0 -80365772.715145111 -139288871.13308716 0 0 0 0 34886813.487044618 -118313451.15150452 0 -118313451.15150452 -87712652.930625916 0 0 0 0 -67081735.196017668 -5787601.840171814 0 -5787601.840171814 -140986308.64001083 0 0 0 0 24614160.754744206 -75952671.325920105 0 -75952671.325920105 -181316181.09793091 0 0 0 0 27144191.030886203 20971059.000556946 0 20971059.000556946 -212399623.15969086 0 0 0 0 42451409.274962485 -37542085.408569336 0 -37542085.408569336 -111482573.24066162 0 0 0 0 198011936.31179085 -47167911.276107788 0 -47167911.276107788 -135128857.92449951 0 0 0 0 209989271.03235698 -102371244.20171356 0 -102371244.20171356 -73882658.266723633 0 0 0 0 86180893.101513267 3766000.480255127 0 3766000.480255127 -84825065.861022949 0 0 0 0 -69067499.505310968 4491572.79545784 0 4491572.79545784 -278245876.25640869 0 0 0 0 -592830.97964151099 15588439.822933197 0 15588439.822933197 -341471745.07801056 0 0 0 0 -48516321.362904653 -10040846.502765656 0 -10040846.502765656 -273500245.0259552 0 0 0 0 -64544771.900316276 -99345351.55579257 0 -99345351.55579257 -303765042.76351166 0 0 0 0 -64182900.567131184 -91301251.172462463 0 -91301251.172462463 -125163981.5066452 0 0 0 0 7772.5817676531415 2491605.6402549744 0 2491605.6402549744 2199212.1508636475 0 0 0 0 86224.544465301617 -139209.71625954285 0 -139209.71625954285 -359900.61784803122 0 0 0 0 -191942807.10368231 -189253683.72888184 0 -189253683.72888184 -174302717.55712891 0 0 0 0 -3586.4159037919317 2472832.1152648926 0 2472832.1152648926 2215170.4284591675 0 0 0 0 -60630317.264337346 -103874847.5881424 0 -103874847.5881424 -95206490.698959351 0 0 0 0 -58092411.424337208 -71777229.517421722 0 -71777229.517421722 -75613478.179092407 0 0 0 0 123569.61931486329 -18715.864555323496 0 -18715.864555323496 -562603.39329107851 0 0 0 0 3936165.6739586489 650210.38201141357 0 650210.38201141357 -6718965.3143692017 0 0 0 0 4201376.4231072348 2540194.7901535034 0 2540194.7901535034 -1213877.847946167 0 0 0 0 5679083.4452474508 -1577636.8463563472 0 -1577636.8463563472 43945178.93746414 0 0 0 0 611705.76053840783 -1784515.4533233643 0 -1784515.4533233643 -700188.84192657471 0 0 0 0 957390.41528314911 -950116.93776702881 0 -950116.93776702881 -730924.66177082062 0 0 0 0 514623.26100238878 -892226.02479934692 0 -892226.02479934692 -253034.91965675354 0 0 0 0 -4625507.9011871628 -241545.59151297016 0 -241545.59151297016 38292.649975970387 0 0 0 0 -14304909.188329456 2191284.9825515747 0 2191284.9825515747 338017.81512451172 0 0 0 0 1100735.9890052676 -1251312.4231185913 0 -1251312.4231185913 -119188.11126708984 0 0 0 0 1000956.2720012013 -762308.30854034424 0 -762308.30854034424 -627130.80154418945 0 0 0 0 18508455.447971821 -1698510.0706062317 0 -1698510.0706062317 -17982022.507713318 0 0 0 0 -201699.64199107283 -57642.877446795115 0 -57642.877446795115 -728861.9398926273 0 0 0 0 6676915.5944161434 1715379.8272209167 0 1715379.8272209167 -259478.68044757843 0 0 0 0 -838036.56493686617 3170735.7962859683 0 3170735.7962859683 -359014.67663948704 0 0 0 0 268556.90981662029 -616145.96548809856 0 -616145.96548809856 -656234.03303662874 0 0 0 0 -14212635.949737698 -9628492.2810745239 0 -9628492.2810745239 18676600.615875244 0 0 0 0 -15122713.447059929 50913246.558349609 0 50913246.558349609 -65440646.076568604 0 0 0 0 -30706200.161598921 10985343.252006531 0 10985343.252006531 -12642125.53414917 0 0 0 0 7088299.4077932239 17513641.115196228 0 17513641.115196228 -15528891.456535339 0 0 0 0 103177.85865382034 -464130.97919908166 0 -464130.97919908166 -482418.90936557949 0 0 0 0 -23511071.123333916 3654278.117515564 0 3654278.117515564 15621782.959732056 0 0 0 0 554244.88485527597 -38189.079811096191 0 -38189.079811096191 -724147.44148254395 0 0 0 0 1765995.9740382489 -363160.02467727661 0 -363160.02467727661 -706355.42979431152 0 0 0 0 186895.59329680874 112119.247695731 0 112119.247695731 -685492.00148045272 0 0 0 0 31309490.219703808 1852419.7796592712 0 1852419.7796592712 -50602199.775634766 0 0 0 0 -14438390.045940757 -26078757.984146118 0 -26078757.984146118 -43684946.380859375 0 0 0 0 672410.00614787638 -1511995.5790252686 0 -1511995.5790252686 -9212768.1244888306 0 0 0 0 95439.585906390072 -57640.829861845821 0 -57640.829861845821 -161656.20405286085 0 0 0 0 33067763.677427728 -22732442.062572479 0 -22732442.062572479 -99953686.431983948 0 0 0 0 -9669434.4853840768 31586511.043518066 0 31586511.043518066 -27633217.22089386 0 0 0 0 19867088.36838299 57561386.363868713 0 57561386.363868713 -89049340.577865601 0 0 0 0 -5883650.8991736472 45240366.113563538 0 45240366.113563538 -92351033.86730957 0 0 0 0 -3192972.6993355453 66093205.873710632 0 66093205.873710632 -101495895.46935368 0 0 0 0 20650969.660484314 8083737.240447998 0 8083737.240447998 -30710376.061687469 0 0 0 0 54295.195854768863 -74246.079794449732 0 -74246.079794449732 -96446.552692696452 0 0 0 0 -14031933.027906388 19492628.349281311 0 19492628.349281311 -29346834.195419312 0 0 0 0 26933120.886263382 11663316.419775486 0 11663316.419775486 -61012023.606048584 0 0 0 0 -4020025.0231314898 52247300.649429321 0 52247300.649429321 -90865061.749359131 0 0 0 0 -9906894.211547792 25486048.054519653 0 25486048.054519653 -25470226.586093903 0 0 0 0 10247753.18854937 35417044.661422729 0 35417044.661422729 -76918118.944396973 0 0 0 0 2607014.4282719046 69207728.900344849 0 69207728.900344849 -135735274.36961651 0 0 0 0 -20106314.404792935 52704350.828605652 0 52704350.828605652 -75810872.908956051 0 0 0 0 -1878119.9384546429 39472482.814472198 0 39472482.814472198 -82808341.575622559 0 0 0 0 -13522287.062842429 64019509.16153717 0 64019509.16153717 -87230181.989097595 0 0 0 0 10934794.006832011 77440579.31055069 0 77440579.31055069 -196614466.70407104 0 0 0 0 17726621.856031425 49022100.869224548 0 49022100.869224548 -137935640.72187042 0 0 0 0 12005281.747689223 50947190.065581322 0 50947190.065581322 -198152554.86747742 0 0 0 0 25161288.736696005 39542010.505020142 0 39542010.505020142 -243317160.02756906 0 0 0 0 29410969.438951254 58494123.370956421 0 58494123.370956421 -199741205.58937073 0 0 0 0 13383813.132169336 79415139.308753967 0 79415139.308753967 -196678001.3744812 0 0 0 0 31351668.007934827 63000620.84135437 0 63000620.84135437 -253606286.3818512 0 0 0 0 11579751.918477163 102555816.5196228 0 102555816.5196228 -275039641.44434547 0 0 0 0 -18773709.750265375 99909079.761756897 0 99909079.761756897 -210671622.25662231 0 0 0 0 -21036270.783375204 114927546.92835999 0 114927546.92835999 -210226477.18682957 0 0 0 0 -204107973.47284868 169338412.61928177 0 169338412.61928177 -135270047.3347168 0 0 0 0 -78090.859663678013 65830.67086056713 0 65830.67086056713 -298708.73608861119 0 0 0 0 -36269915.204847664 168082727.99862671 0 168082727.99862671 -367015876.37433529 0 0 0 0 74384541.8079997 16094213.175437927 0 16094213.175437927 -171662679.37644958 0 0 0 0 -110363782.03032917 47072205.974693298 0 47072205.974693298 3616773.2904205322 0 0 0 0 51107.061133110947 8701199.1136115976 0 8701199.1136115976 75150170.073028564 0 0 0 0 -20989085.365283996 -21911979.146743774 0 -21911979.146743774 -9357187.3281097412 0 0 0 0 -50318866.365641534 46794453.115333557 0 46794453.115333557 -40443073.652229309 0 0 0 0 -36974503.264875263 90180072.668052673 0 90180072.668052673 -105837074.529953 0 0 0 0 -15914976.642357975 72195637.437801361 0 72195637.437801361 -126016623.99176025 0 0 0 0 -104217357.47268391 133025856.78238678 0 133025856.78238678 -112477624.21876526 0 0 0 0 -39765322.503038034 46661195.347813606 0 46661195.347813606 -46410140.772186279 0 0 0 0 -7637739.9731493313 5459516.6761627197 0 5459516.6761627197 -2145075.9388504028 0 0 0 0 -953700.34561480768 20824772.633655548 0 20824772.633655548 -44556238.063148201 0 0 0 0 27912.816346591535 7370532.3061332703 0 7370532.3061332703 -56123445.880874634 0 0 0 0 1986985.2180544958 14152205.442115784 0 14152205.442115784 -44438217.094579339 0 0 0 0 2341875.6587110013 13171077.489284515 0 13171077.489284515 -90875038.282268524 0 0 0 0 3236738.1710849106 -18706478.079116821 0 -18706478.079116821 -66468495.686660767 0 0 0 0 -25279472.987990752 39108446.550159454 0 39108446.550159454 -48864746.542331696 0 0 0 0 -23746376.735580083 -15010078.392620087 0 -15010078.392620087 -5379519.2359466553 0 0 0 0 8878.9767307282837 -85214.269498797134 0 -85214.269498797134 -120125.57379172742 0 0 0 0 -231975.56737544388 -1049513.5646743774 0 -1049513.5646743774 -157612.34117126465 0 0 0 0 -240754.81401700526 1394246.1774902344 0 1394246.1774902344 -7186055.7949619293 0 0 0 0 56902.814661809818 -264245.76483716816 0 -264245.76483716816 -309043.06061514467 0 0 0 0 -3104901.5145149827 2623813.4742889404 0 2623813.4742889404 480900.89459228516 0 0 0 0 1811362.4034051895 -12237307.259061813 0 -12237307.259061813 -3267071.2851257324 0 0 0 0 -1345402.5296292971 -407799.77094622701 0 -407799.77094622701 -2849514.9167201109 0 0 0 0 -1854548.5087323636 -2848877.1388931274 0 -2848877.1388931274 5689099.6290855408 0 0 0 0 4649249.4515887797 -2076785.047252655 0 -2076785.047252655 -6843907.3790817261 0 0 0 0 -2465498.3460408002 -897802.85720825195 0 -897802.85720825195 854278.85349273682 0 0 0 0 2594513.8411751706 536822.13199996948 0 536822.13199996948 2018554.5569381714 0 0 0 0 7714554.4243461937 1735526.5918016434 0 1735526.5918016434 -9794737.2996520996 0 0 0 0 -25862.346578107987 7795567.834690094 0 7795567.834690094 -13929387.267745972 0 0 0 0 62220.741308340424 14936793.281093597 0 14936793.281093597 -4680794.7810134888 0 0 0 0 8082386.5951053035 12496146.174964905 0 12496146.174964905 -11258340.59034729 0 0 0 0 29792206.202354331 24978621.616416931 0 24978621.616416931 -21590707.189163208 0 0 0 0 23029836.797123615 -12817288.831246376 0 -12817288.831246376 7285659.7044372559 0 0 0 0 107984367.90436052 -3068866.4962997437 0 -3068866.4962997437 -32305129.92754364 0 0 0 0 84111.147707363591 -655813.44490977656 0 -655813.44490977656 -339301.22589068115 0 0 0 0 13722700.07000301 -2322261.0874404907 0 -2322261.0874404907 -4078403.610408783 0 0 0 0 -39764366.126551263 -111147564.5579958 0 -111147564.5579958 -303443264.96672821 0 0 0 0 -279677261.72107261 352501830.18075562 0 352501830.18075562 -343426819.68740845 0 0 0 0 -427643214.77386737 571164255.78305054 0 571164255.78305054 -666160041.59812927 0 0 0 0 173434.93050922645 -29240.064277363941 0 -29240.064277363941 -1008659.5939085931 0 0 0 0 164305997.25875568 83922009.902450562 0 83922009.902450562 -1394086740.2636414 0 0 0 0 137473153.84368896 401972695.45965195 0 401972695.45965195 -715593875.64955521 0 0 0 0 144439.06375444561 156082181.60421371 0 156082181.60421371 -211613345.64823914 0 0 0 0 52462733.432010546 -37376711.363929749 0 -37376711.363929749 16397023.53571701 0 0 0 0 453316.38207227999 119109.48639854044 0 119109.48639854044 -373630.46653980389 0 0 0 0 -337759375.47589684 452740135.26101685 0 452740135.26101685 -413424440.54019165 0 0 0 0 -634496.59932377934 127014808.91234589 0 127014808.91234589 -614331017.71132946 0 0 0 0 -67657513.95369643 270915342.71125793 0 270915342.71125793 -632096906.59320068 0 0 0 0 -274831.13888442027 91227.71385537833 0 91227.71385537833 -691903.56972308457 0 0 0 0 -198186564.82314688 209191735.51047897 0 209191735.51047897 -449923639.81985474 0 0 0 0 -148162915.84030095 122067874.68901443 0 122067874.68901443 -511405686.31149292 0 0 0 0 -52226078.692057952 146175893.33512878 0 146175893.33512878 -506625590.51370239 0 0 0 0 -71355640.428634137 122085037.82048035 0 122085037.82048035 -437175336.0098381 0 0 0 0 -160016734.3832483 217332065.21792603 0 217332065.21792603 -452183497.05130005 0 0 0 0 -111485817.03176455 69038287.820194244 0 69038287.820194244 -258870593.16911316 0 0 0 0 -126087328.26838568 131136714.47317886 0 131136714.47317886 -303156677.95744324 0 0 0 0 -45370605.336911716 64187710.838237762 0 64187710.838237762 -321371431.71446228 0 0 0 0 -115138.1742789276 65880289.809222855 0 65880289.809222855 -489812788.18753052 0 0 0 0 -58769536.328185901 66496817.559410095 0 66496817.559410095 -396015187.15759277 0 0 0 0 -75813724.951563835 80780135.716087341 0 80780135.716087341 -364852279.70323563 0 0 0 0 -115860367.20078447 163021259.0385704 0 163021259.0385704 -417364052.8846283 0 0 0 0 149294988.50967312 -5070091.4618988037 0 -5070091.4618988037 -2544198.5972137451 0 0 0 0 178753822.60161102 -8052197.3899765015 0 -8052197.3899765015 -13060929.378982544 0 0 0 0 163715321.85370845 -46087618.607978821 0 -46087618.607978821 -108109029.5557251 0 0 0 0 75635445.67047298 47344287.883537292 0 47344287.883537292 -37586200.606903076 0 0 0 0 59993149.964872435 98656131.780277252 0 98656131.780277252 -166649960.3276825 0 0 0 0 -72018972.332401782 62760272.22882843 0 62760272.22882843 -171172220.94149017 0 0 0 0 39479338.376043454 55564622.459712982 0 55564622.459712982 -247038184.95887756 0 0 0 0 35352824.815493643 254550460.40491486 0 254550460.40491486 -356958251.42192078 0 0 0 0 -41749037.020376772 143924685.57545471 0 143924685.57545471 -204841573.58729172 0 0 0 0 -65520895.989317805 182706232.87440491 0 182706232.87440491 -387475946.70698547 0 0 0 0 -16141924.373781785 148581614.98750305 0 148581614.98750305 -412927172.33364868 0 0 0 0 38081429.042659402 177297396.68135834 0 177297396.68135834 -482393942.66664124 0 0 0 0 -42932592.451493382 270058882.36691284 0 270058882.36691284 -476428489.97565317 0 0 0 0 146910.5105440651 37983.46672280319 0 37983.46672280319 -121317.65282329172 0 0 0 0 205441948.50392854 322370574.77112007 0 322370574.77112007 -64440191.468894958 0 0 0 0 137259445.7367965 159270925.32221603 0 159270925.32221603 -452099266.53540039 0 0 0 0 97773123.82573992 186206823.06728268 0 186206823.06728268 -480681693.48777008 0 0 0 0 -40436243.307216525 135350639.72993469 0 135350639.72993469 -454311858.33267975 0 0 0 0 99564885.370144427 176250956.25422478 0 176250956.25422478 -627630093.29071045 0 0 0 0 42384498.512291789 265270959.63349915 0 265270959.63349915 -577568728.82821655 0 0 0 0 4513351.9427738488 244621470.00248718 0 244621470.00248718 -584249333.80747986 0 0 0 0 -97878803.247925818 187716829.33370972 0 187716829.33370972 -634997887.98190308 0 0 0 0 -130944.06519918193 -128557.12981883809 0 -128557.12981883809 -469142.600900013 0 0 0 0 -39395942.143202424 216976058.7554512 0 216976058.7554512 -468901355.64080811 0 0 0 0 -38446685.938898891 267445835.92550659 0 267445835.92550659 -646285382.0333252 0 0 0 0 -126663444.34540063 159696599.07978821 0 159696599.07978821 -303442564.1333952 0 0 0 0 260141.6649744148 -300914.5273328051 0 -300914.5273328051 -2466065.1379489899 0 0 0 0 489558.83367264457 -1539283.4432134628 0 -1539283.4432134628 584462.1057434082 0 0 0 0 31588924.078698277 212722250.32804108 0 212722250.32804108 -470618857.48052788 0 0 0 0 35346103.53635931 168435493.52404022 0 168435493.52404022 -313484996.57298279 0 0 0 0 119790086.51143798 215391351.98516369 0 215391351.98516369 -570150225.2437439 0 0 0 0 115989905.48927313 187645594.23347235 0 187645594.23347235 -500860713.59120178 0 0 0 0 29025721.740003943 239117337.83318329 0 239117337.83318329 -446243732.65003967 0 0 0 0 131753062.46411026 138579077.90806198 0 138579077.90806198 -631487104.70024109 0 0 0 0 178523121.94708776 159966530.54903412 0 159966530.54903412 -630317303.29188538 0 0 0 0 139057398.40672135 108658372.19750977 0 108658372.19750977 -510307882.88230896 0 0 0 0 -588658242.78151608 -539097184.44557571 0 -539097184.44557571 -538105503.22788239 0 0 0 0 147240640.85982323 327622671.30160522 0 327622671.30160522 -1441713167.9554977 0 0 0 0 -468016913.20484316 703751623.6077987 0 703751623.6077987 -614234636.54724121 0 0 0 0 -103351115.67913389 225099150.96035004 0 225099150.96035004 -265347245.86991119 0 0 0 0 -133455235.3111921 284392564.91553497 0 284392564.91553497 -320795247.10317993 0 0 0 0 -293265657.61203289 186392940.87614059 0 186392940.87614059 -137730540.16452026 0 0 0 0 99605163.442189693 280362630.31309128 0 280362630.31309128 -681133318.25778198 0 0 0 0 110615887.98426247 228972363.45214844 0 228972363.45214844 -550745859.90715027 0 0 0 0 9250011.1578044891 -12054973.245624542 0 -12054973.245624542 -83982503.300819397 0 0 0 0 63654685.541546226 46574970.073577881 0 46574970.073577881 -527878329.78949547 0 0 0 0 9147495.8003339767 51215065.113464355 0 51215065.113464355 -27387904.475753784 0 0 0 0 -23173423.69165802 144284426.11837769 0 144284426.11837769 -341908364.04918671 0 0 0 0 -90898797.027737379 -6625688.8640413284 0 -6625688.8640413284 -60468022.223983765 0 0 0 0 11652260.526762128 -41725248.147150993 0 -41725248.147150993 36524566.384643555 0 0 0 0 -60557954.860722661 -37888145.069814682 0 -37888145.069814682 54649842.732116699 0 0 0 0 3790023.1190000409 1445789.2934819534 0 1445789.2934819534 -3766922.7868861742 0 0 0 0 72214180.644731045 18184459.167053223 0 18184459.167053223 -3170865.666683197 0 0 0 0 222961892.84593153 35084198.497344971 0 35084198.497344971 589434.41954040527 0 0 0 0 40480679.16890499 34043904.18556118 0 34043904.18556118 6469119.7780914307 0 0 0 0 1314412.9399341508 -337561.45793866366 0 -337561.45793866366 -845600.9946212098 0 0 0 0 -15983846.60657981 67229592.559441566 0 67229592.559441566 -13019544.645263672 0 0 0 0 230245881.36203599 15734603.064224243 0 15734603.064224243 -73546770.131385803 0 0 0 0 168411569.16354609 74280547.741817474 0 74280547.741817474 -79332010.289810181 0 0 0 0 209098677.91732121 210344559.09472275 0 210344559.09472275 -336745990.53933716 0 0 0 0 232699970.92040682 126536642.64808464 0 126536642.64808464 -40406274.749588013 0 0 0 0 63902059.337746143 83350620.83588028 0 83350620.83588028 5338632.448600769 0 0 0 0 33150609.775337279 -71165815.807775974 0 -71165815.807775974 -23195543.60572052 0 0 0 0 355201105.17557967 -140532913.84896564 0 -140532913.84896564 -682949857.99290466 0 0 0 0 3513251.4748724587 1684129.7864019796 0 1684129.7864019796 -4056774.2024034671 0 0 0 0 350880025.1578784 -313194154.08703995 0 -313194154.08703995 -67740488.07604599 0 0 0 0 -36143482.968554735 136123412.72986221 0 136123412.72986221 -389261677.09233093 0 0 0 0 -692943.23962949542 3696714.1114645265 0 3696714.1114645265 -3697194.0004386529 0 0 0 0 120132549.11614895 41438178.031112671 0 41438178.031112671 -19546272.067002058 0 0 0 0 -56485681.495013714 -82769156.457939148 0 -82769156.457939148 -14376777.340545654 0 0 0 0 -449705510.72347784 263143091.13844264 0 263143091.13844264 43812849.263977051 0 0 0 0 118654216.22978354 605331966.78511047 0 605331966.78511047 -1303532035.6907425 0 0 0 0 -405916.93998327176 1280245.1339948103 0 1280245.1339948103 -1327541.514521379 0 0 0 0 83502687.177202523 -327304640.97118759 0 -327304640.97118759 -1711835716.7533798 0 0 0 0 98512560.539827347 134698799.71635818 0 134698799.71635818 -951077944.49341202 0 0 0 0 116100977.81151444 -108956355.63691139 0 -108956355.63691139 -669074328.70906067 0 0 0 0 13835961.74486208 33510846.755844116 0 33510846.755844116 33618231.103736877 0 0 0 0 70790845.141601086 22048469.996910095 0 22048469.996910095 -38409088.962905884 0 0 0 0 21656466.795466661 -10473556.830435753 0 -10473556.830435753 -50141507.910652161 0 0 0 0 42282536.301270962 26981004.019388199 0 26981004.019388199 -32294385.941169739 0 0 0 0 3360815.0652805539 -1628416.7078929953 0 -1628416.7078929953 -2868944.8538695462 0 0 0 0 5369186.8172750473 -7414710.1558456421 0 -7414710.1558456421 -8377927.8228759766 0 0 0 0 -4076106.3341046521 2002451.5112271607 0 2002451.5112271607 -1353343.4510706132 0 0 0 0 814701.2625541687 -8061658.7662353516 0 -8061658.7662353516 -15171748.3561306 0 0 0 0 -53709813.72406888 386182366.44830704 0 386182366.44830704 -466584122.28546906 0 0 0 0 -5551481.9939406477 2608943.1552929319 0 2608943.1552929319 -2247233.0775549253 0 0 0 0 -234228449.65653491 97347768.34967804 0 97347768.34967804 127876990.40133667 0 0 0 0 -10658952.764285922 19779209.609543324 0 19779209.609543324 -6384096.5115127563 0 0 0 0 2958576.6094792043 -642349.1598816663 0 -642349.1598816663 -2457750.996817831 0 0 0 0 125620.3183421251 368394.10706456378 0 368394.10706456378 -865396.83082413394 0 0 0 0 50016218.700085163 -98136533.270549774 0 -98136533.270549774 -255097892.34819126 0 0 0 0 -1681943.3475476503 -3704122.9133453369 0 -3704122.9133453369 18392491.256450653 0 0 0 0 121504640.05048037 -142668508.21535492 0 -142668508.21535492 -622816119.90707946 0 0 0 0 6809674.4189478755 -3038412.3670387268 0 -3038412.3670387268 -19594767.503417969 0 0 0 0 4644262.1666398644 -5514167.5293235779 0 -5514167.5293235779 -1753368.1335754395 0 0 0 0 -25315.778854310513 -5442783.5915145874 0 -5442783.5915145874 -1677635.5352554321 0 0 0 0 -258355.54556369781 -9375318.8006057739 0 -9375318.8006057739 5980540.9472198486 0 0 0 0 1316050.9349597692 1463631.8871078491 0 1463631.8871078491 225896.49794387817 0 0 0 0 4276157.9606364965 -6327375.6928939819 0 -6327375.6928939819 -15028726.103561401 0 0 0 0 -1188479.2934580445 -709626.51338195801 0 -709626.51338195801 -15793844.271598816 0 0 0 0 5263820.1644459367 -7181882.4946975708 0 -7181882.4946975708 -26237532.646087646 0 0 0 0 5274137.198312968 -7343558.0514450073 0 -7343558.0514450073 -20848948.010895729 0 0 0 0 8983108.4581415057 -5182580.7578353882 0 -5182580.7578353882 -46589072.513092041 0 0 0 0 1650565.8405091166 23641014.856449127 0 23641014.856449127 -62599772.272380829 0 0 0 0 -5337141.8330028653 6846077.8239097595 0 6846077.8239097595 -27890890.391155243 0 0 0 0 4143680.1779040694 65878.518486022949 0 65878.518486022949 -22241735.686538696 0 0 0 0 7043941.4153165817 2881053.8652267456 0 2881053.8652267456 -34869826.098327637 0 0 0 0 6432573.7697107792 572379.7110824585 0 572379.7110824585 -26011880.26423645 0 0 0 0 6193907.5186237395 1356235.4970531464 0 1356235.4970531464 -21841110.409416199 0 0 0 0 5431182.2889000475 -710536.45927429199 0 -710536.45927429199 -20287888.96006012 0 0 0 0 943629.98844146729 -2188413.337638855 0 -2188413.337638855 -10006440.202354431 0 0 0 0 2837011.7955361991 -2324271.9162821919 0 -2324271.9162821919 -2764916.2773778196 0 0 0 0 -36742219.55077076 -69757790.536693573 0 -69757790.536693573 47967366.395265579 0 0 0 0 47818302.161334991 -33709712.673774719 0 -33709712.673774719 -12260444.895454407 0 0 0 0 -27092855.054077148 17822556.755088806 0 17822556.755088806 6652419.8795623779 0 0 0 0 15311982.514243126 51676686.984657288 0 51676686.984657288 -2389627.8908405304 0 0 0 0 3137769.6725405338 -2082500.308842089 0 -2082500.308842089 -2878962.6432545148 0 0 0 0 5167465.916973114 1552843.7399559021 0 1552843.7399559021 -22112324.735725403 0 0 0 0 2957334.2604629993 6683058.3931503296 0 6683058.3931503296 -29428783.588989258 0 0 0 0 2840581.4104452133 5831422.5454101562 0 5831422.5454101562 -27876575.965950012 0 0 0 0 1835157.352407217 6070858.5451622009 0 6070858.5451622009 -28892711.377166748 0 0 0 0 3182237.750842154 6759474.5267620087 0 6759474.5267620087 -31540959.708236694 0 0 0 0 -3653700.9440262318 7041443.3731155396 0 7041443.3731155396 -28937590.703903198 0 0 0 0 -11329085.115650177 13373267.982116699 0 13373267.982116699 -32370997.10144043 0 0 0 0 -788256.67908668518 5616111.4458007812 0 5616111.4458007812 -29513143.945556641 0 0 0 0 -2666468.5617165565 7009586.9381103516 0 7009586.9381103516 -29339200.486099243 0 0 0 0 -1031152.2621651292 8676554.0556325912 0 8676554.0556325912 -31873607.458435059 0 0 0 0 -30238229.035568237 12965247.648574829 0 12965247.648574829 96989801.480377197 0 0 0 0 -5574485.6699938774 11130516.025161743 0 11130516.025161743 -32313179.722717285 0 0 0 0 -1288951.9751114845 8564253.5394287109 0 8564253.5394287109 -33794561.407730103 0 0 0 0 2430192.0418077572 -1591943.2449390888 0 -1591943.2449390888 -4958732.3451723941 0 0 0 0 -616274.96629738808 17170035.921127319 0 17170035.921127319 -46454484.680633545 0 0 0 0 2807787.7989077568 13459021.006103516 0 13459021.006103516 -49439044.545608521 0 0 0 0 166448.80975857785 -511588.21928234771 0 -511588.21928234771 1201283.7581512891 0 0 0 0 -22519996.117485046 -44704724.290283203 0 -44704724.290283203 86341842.838272095 0 0 0 0 -9743808.651714325 11401738.000793457 0 11401738.000793457 -30477127.141616821 0 0 0 0 -2651617.2028431892 7845173.7365722656 0 7845173.7365722656 -31657995.826141357 0 0 0 0 -5823698.3670935631 15140151.404373169 0 15140151.404373169 -35978481.581848145 0 0 0 0 -6681244.0841331482 15286726.151153564 0 15286726.151153564 -34749804.140670776 0 0 0 0 -2454261.8663830757 11982002.649871826 0 11982002.649871826 -36493835.715759277 0 0 0 0 -2934308.2804372311 15770328.119865417 0 15770328.119865417 -38845855.398864746 0 0 0 0 -3308617.2906527519 13784314.853912354 0 13784314.853912354 -38057581.379760742 0 0 0 0 490110.78603363037 10911162.712371826 0 10911162.712371826 -43329606.883441925 0 0 0 0 -1341208.6730308533 9904958.1075439453 0 9904958.1075439453 -35613296.331893921 0 0 0 0 -675183.6721572876 14482237.190856934 0 14482237.190856934 -43067628.653593063 0 0 0 0 1083535.8068268299 8729863.5528106689 0 8729863.5528106689 -40492183.715118408 0 0 0 0 158542.2954454422 13044696.957122803 0 13044696.957122803 -40731442.050079346 0 0 0 0 -3936500.0620167255 17453738.971717834 0 17453738.971717834 -41223461.441802979 0 0 0 0 -36621845.56111908 -22001963.962615967 0 -22001963.962615967 75044556.047904015 0 0 0 0 -28134781.243309021 -37642927.316711426 0 -37642927.316711426 53695208.150886536 0 0 0 0 -18382990.072303772 -10746331.833328247 0 -10746331.833328247 12384227.452545166 0 0 0 0 -23441292.052635193 -6406576.6390686035 0 -6406576.6390686035 34948825.190063477 0 0 0 0 -24504626.282943726 -7925082.8159484863 0 -7925082.8159484863 59877063.838172913 0 0 0 0 -25344726.773040771 19971970.760284424 0 19971970.760284424 75735086.180181503 0 0 0 0 -18061064.113277435 16661611.730194092 0 16661611.730194092 54751151.600738525 0 0 0 0 4101541.2488021851 48533874.869781494 0 48533874.869781494 81137205.99798584 0 0 0 0 24866615.785507202 55813194.163299561 0 55813194.163299561 65364247.399993896 0 0 0 0 -12244430.374181867 16442779.366455078 0 16442779.366455078 -33703007.350402832 0 0 0 0 -8309414.7470111847 19140596.499725342 0 19140596.499725342 -37515774.86706543 0 0 0 0 7197353.3163561821 -18518665.188064575 0 -18518665.188064575 31726137.119155884 0 0 0 0 71874978.127031326 32871020.105895996 0 32871020.105895996 28369379.817352295 0 0 0 0 8619363.9525570869 -4171576.2842655182 0 -4171576.2842655182 -27333884.191955566 0 0 0 0 10254167.932988644 2096743.7286529541 0 2096743.7286529541 -30977927.541061401 0 0 0 0 86295637.762859344 -52877600.959442139 0 -52877600.959442139 19241265.15423584 0 0 0 0 109624081.9223938 -12128100.093307495 0 -12128100.093307495 6191603.5155639648 0 0 0 0 4243369.2860150337 9813127.8629455566 0 9813127.8629455566 -51542505.001098633 0 0 0 0 3931247.8882198334 3341957.6770629883 0 3341957.6770629883 -53113574.987136841 0 0 0 0 2163230.0967543125 8882261.3723602295 0 8882261.3723602295 -46147016.26574707 0 0 0 0 44880739.005409241 -67474812.420532227 0 -67474812.420532227 33596156.947692871 0 0 0 0 -14867458.454557806 -25830526.68771112 0 -25830526.68771112 9995413.2012329102 0 0 0 0 -14966945.008331299 -37121693.506820679 0 -37121693.506820679 42202360.961608887 0 0 0 0 29166922.177719116 -45331600.312545776 0 -45331600.312545776 -5850762.5139770508 0 0 0 0 -12401422.43044281 -40428625.121017456 0 -40428625.121017456 32264923.672424316 0 0 0 0 20900826.040180206 -66640042.226165771 0 -66640042.226165771 37474739.932613373 0 0 0 0 29242588.559386253 -35793133.358474731 0 -35793133.358474731 14446508.806030273 0 0 0 0 35310161.180957794 -12025545.104598999 0 -12025545.104598999 6358730.1942749023 0 0 0 0 54654615.964500427 -33659700.676971436 0 -33659700.676971436 -1439576.2278747559 0 0 0 0 9614035.6835784912 -21827251.725708008 0 -21827251.725708008 -1665793.2111911774 0 0 0 0 34255481.565562248 -12715965.475921631 0 -12715965.475921631 -41312745.261901855 0 0 0 0 2853480.7729759216 -5405812.0651397705 0 -5405812.0651397705 -8094294.5300340652 0 0 0 0 7729342.4105873108 18222314.763137817 0 18222314.763137817 26768642.073272705 0 0 0 0 57583243.649467468 176477.82623291016 0 176477.82623291016 -8545094.7601509094 0 0 0 0 1447648.232049942 -24188178.743865967 0 -24188178.743865967 -92493688.475708008 0 0 0 0 22486974.972819328 8404730.0682945251 0 8404730.0682945251 -152890474.11549377 0 0 0 0 -2120378.3460235596 1257268.5012817383 0 1257268.5012817383 -44564558.312446594 0 0 0 0 20753390.202766418 -24196787.467941284 0 -24196787.467941284 -64944645.217315674 0 0 0 0 4912233.2006855011 3137466.4853973389 0 3137466.4853973389 -80570538.528266907 0 0 0 0 17584900.096968651 -207299.10623931885 0 -207299.10623931885 -138049181.57090759 0 0 0 0 1207593.1085357666 -35695474.146728516 0 -35695474.146728516 -540690.90725708008 0 0 0 0 -5364918.9340286255 -13110645.117263794 0 -13110645.117263794 -26591061.966217041 0 0 0 0 -2396541.5332832336 -4482675.8104705811 0 -4482675.8104705811 -46457664.550598145 0 0 0 0 -6493543.5623040199 -12602031.132289886 0 -12602031.132289886 9048620.5033569336 0 0 0 0 753388.61582040787 2279149.7245483398 0 2279149.7245483398 -56350758.43850708 0 0 0 0 -2918599.9809436798 9721786.5223999023 0 9721786.5223999023 -43701570.077196121 0 0 0 0 26498790.382768631 33135731.699638367 0 33135731.699638367 -199103849.02426147 0 0 0 0 19115114.079959869 38625241.97820282 0 38625241.97820282 -147358273.78706932 0 0 0 0 12207426.799877167 6931292.8634109497 0 6931292.8634109497 -153101033.02330017 0 0 0 0 38256417.498753548 21807473.167053223 0 21807473.167053223 -255677228.13635254 0 0 0 0 68316589.976041794 25882259.151916504 0 25882259.151916504 -16669531.830627441 0 0 0 0 11889492.366596222 17344877.988800049 0 17344877.988800049 -14228752.968933105 0 0 0 0 26118237.905467987 35895161.555786133 0 35895161.555786133 -41826332.942573547 0 0 0 0 38478713.512931824 1479381.1165771484 0 1479381.1165771484 -34774730.736446381 0 0 0 0 48225618.077356339 55333830.978126526 0 55333830.978126526 28111251.657104492 0 0 0 0 37345168.691856384 36445972.796737671 0 36445972.796737671 -4672204.3139648438 0 0 0 0 8777605.0036354065 29429754.694046021 0 29429754.694046021 22183052.049499512 0 0 0 0 2246461.629242897 38173524.928619385 0 38173524.928619385 40507426.214599609 0 0 0 0 -10603653.264302254 27552209.730617523 0 27552209.730617523 23354669.890716553 0 0 0 0 -5339970.1307640076 15173242.728179932 0 15173242.728179932 5422959.0584106445 0 0 0 0 -9332649.5091438293 20903799.525039673 0 20903799.525039673 -31019192.845062256 0 0 0 0 -12515611.083335876 8797461.0079498291 0 8797461.0079498291 2259381.5477752686 0 0 0 0 8414261.2684230804 28115344.940757751 0 28115344.940757751 -45461846.348022461 0 0 0 0 -4281875.1136398315 30337822.768615723 0 30337822.768615723 -44163235.606987 0 0 0 0 1891390.9746799469 38112068.259620667 0 38112068.259620667 662440.45678710938 0 0 0 0 17111696.739486694 48056660.630226135 0 48056660.630226135 -106854903.25474548 0 0 0 0 5358174.72996521 41431973.039657593 0 41431973.039657593 -114604353.72096252 0 0 0 0 11094178.106058121 42465394.114898682 0 42465394.114898682 -114421642.51457214 0 0 0 0 20806185.201833725 60045622.31187439 0 60045622.31187439 -184575858.18737793 0 0 0 0 -1097502.9230947495 49325390.177570343 0 49325390.177570343 -105464002.63311768 0 0 0 0 -2926269.7572841644 89551010.971420288 0 89551010.971420288 -160923838.32086182 0 0 0 0 -17932830.578033447 68736975.624092102 0 68736975.624092102 -96947941.143867493 0 0 0 0 -8930581.0755691528 43803845.248855591 0 43803845.248855591 -34777531.713302612 0 0 0 0 3584539.0892372131 12421990.007385254 0 12421990.007385254 -31578562.333091736 0 0 0 0 -47161633.030593872 122503502.3006134 0 122503502.3006134 -181127682.10238647 0 0 0 0 4422095.0357272625 51618016.820876122 0 51618016.820876122 -142082239.4715271 0 0 0 0 27125272.273160934 76059846.025924683 0 76059846.025924683 -227708560.01293945 0 0 0 0 15164378.420854568 71046207.494842529 0 71046207.494842529 -182831978.51903343 0 0 0 0 10735366.824714661 118872354.47157288 0 118872354.47157288 -240602435.70461273 0 0 0 0 51497372.261488914 120790753.08502197 0 120790753.08502197 -362496602.38772583 0 0 0 0 67293185.916685104 133996554.33718872 0 133996554.33718872 -357533832.93991089 0 0 0 0 15125426.746809959 124455852.20924759 0 124455852.20924759 -288706020.35643005 0 0 0 0 -12685387.14427948 181514211.53756714 0 181514211.53756714 -293122011.77106476 0 0 0 0 53298811.660906315 46275163.312240601 0 46275163.312240601 -333121277.55218506 0 0 0 0 40382343.517466068 36629463.767028809 0 36629463.767028809 -248177872.26948547 0 0 0 0 47977026.098279953 73700895.391212463 0 73700895.391212463 -261285680.30365753 0 0 0 0 59251264.300459862 78039811.062088013 0 78039811.062088013 -342221209.13294983 0 0 0 0 31488639.796198845 87499534.399620056 0 87499534.399620056 -245023297.01040649 0 0 0 0 89938279.603124619 69753892.103889465 0 69753892.103889465 -352681188.68539429 0 0 0 0 85586739.280714035 139554796.22686768 0 139554796.22686768 -464382843.09571075 0 0 0 0 98215873.289265156 59361867.70917511 0 59361867.70917511 -503169361.69537354 0 0 0 0 123379521.32891655 138629617.54563522 0 138629617.54563522 -512403779.7771759 0 0 0 0 119800690.33523917 131113852.16261768 0 131113852.16261768 -521234845.51329041 0 0 0 0 122458313.90774441 152390076.33857727 0 152390076.33857727 -501401656.79278564 0 0 0 0 119931967.01772511 128932870.44376516 0 128932870.44376516 -485056207.98635864 0 0 0 0 125886264.60742283 142411658.43540192 0 142411658.43540192 -522027930.87673187 0 0 0 0 33681918.044498444 207821653.45554352 0 207821653.45554352 -459789511.74279022 0 0 0 0 34825252.040967226 203846958.97713089 0 203846958.97713089 -464929161.37428284 0 0 0 0 59853943.794670105 169904097.27621078 0 169904097.27621078 -452309836.8789978 0 0 0 0 116953670.65476131 104197894.65483856 0 104197894.65483856 -549470439.70426559 0 0 0 0 118833338.02767324 169711798.86917305 0 169711798.86917305 -583747169.61332703 0 0 0 0 13048924.615406036 301730471.94622803 0 301730471.94622803 -570232521.79285431 0 0 0 0 -10275651.721240997 412435102.38677216 0 412435102.38677216 -1094763338.7177391 0 0 0 0 -116037825.90672922 90627255.822526932 0 90627255.822526932 -195194015.36880493 0 0 0 0 -404658641.57616138 431551676.9939003 0 431551676.9939003 -251755582.6491394 0 0 0 0 -47808468.271464348 250388074.62704086 0 250388074.62704086 -427667757.33717346 0 0 0 0 -48937950.650912225 -20717948.929627895 0 -20717948.929627895 -83961046.960784912 0 0 0 0 -174599038.92070103 180609655.56646347 0 180609655.56646347 -204229134.58052063 0 0 0 0 -37851580.706429362 77967374.677290916 0 77967374.677290916 -121572791.98397827 0 0 0 0 -29715574.83291626 60258905.182830811 0 60258905.182830811 -172585440.86924362 0 0 0 0 -11797870.459082603 -48345881.439647675 0 -48345881.439647675 -6317813.119102478 0 0 0 0 -161534950.746418 110674438.04534912 0 110674438.04534912 -73647529.558524132 0 0 0 0 -17753344.450778961 -27763967.26638031 0 -27763967.26638031 -17416083.530548096 0 0 0 0 -224367231.48822975 137312997.91902161 0 137312997.91902161 153424395.40379524 0 0 0 0 -1342131.2041993001 871782.30049114674 0 871782.30049114674 -572769.40639859065 0 0 0 0 195744628.35628986 274035336.51576996 0 274035336.51576996 -1726868649.6928558 0 0 0 0 93469716.0603282 -24857270.127755046 0 -24857270.127755046 -1146782369.2586212 0 0 0 0 -66931657.016332626 78832875.795539856 0 78832875.795539856 -811686495.67892456 0 0 0 0 -89437419.880281448 437350186.97792053 0 437350186.97792053 -647330906.63463593 0 0 0 0 1937677.6266555786 -3007343.8699264526 0 -3007343.8699264526 -563924099.94024658 0 0 0 0 -30067220.835367203 -153181567.4812088 0 -153181567.4812088 -1044682641.6127014 0 0 0 0 -655412746.79675579 477546657.26971436 0 477546657.26971436 -885114014.1411438 0 0 0 0 -285361.06073564151 448834.18799406663 0 448834.18799406663 -181571.67648917064 0 0 0 0 -46902320.506761551 -144904208.51298523 0 -144904208.51298523 -287701012.69654083 0 0 0 0 39747920.24629879 -40229407.264541626 0 -40229407.264541626 -584480893.01315308 0 0 0 0 -90399549.8169384 -52691807.995819092 0 -52691807.995819092 -76878087.273529053 0 0 0 0 -44938343.677473962 -117606697.19116855 0 -117606697.19116855 18888786.93196106 0 0 0 0 -6266574.916844368 45615453.079162598 0 45615453.079162598 -26298111.18328476 0 0 0 0 -56960495.448889256 -4274950.0886516571 0 -4274950.0886516571 -29149208.302719116 0 0 0 0 -80464134.053866386 33859090.328979492 0 33859090.328979492 -81681210.960083008 0 0 0 0 53673456.684502125 -9030278.9125366211 0 -9030278.9125366211 -5246021.1761474609 0 0 0 0 -46448942.207341805 -31559157.911585569 0 -31559157.911585569 -210841173.88514709 0 0 0 0 -91186.828179147327 1539779.9921925701 0 1539779.9921925701 -934905.4348843731 0 0 0 0 21706980.810448647 37041923.634700775 0 37041923.634700775 -9932078.5188846588 0 0 0 0 247594.5258287224 1321442.4272708707 0 1321442.4272708707 -2987631.8785180263 0 0 0 0 -1165168982.0582113 788400799.98944092 0 788400799.98944092 -790928929.80282593 0 0 0 0 21798922.88746357 -2850889.2231826782 0 -2850889.2231826782 -25844964.735389709 0 0 0 0 -61904488.954636574 32752810.462825775 0 32752810.462825775 -21944150.608451843 0 0 0 0 -170746.33455194952 687019.75863166898 0 687019.75863166898 -1289564.1359226219 0 0 0 0 -81715706.01913166 -20387937.99930954 0 -20387937.99930954 22061323.246986389 0 0 0 0 299914807.91849613 -1058030409.4118862 0 -1058030409.4118862 144526441.41932678 0 0 0 0 -515915.15470644319 1075609.3278512713 0 1075609.3278512713 -2243046.1049957052 0 0 0 0 -351316662.36980748 220614489.99147797 0 220614489.99147797 248291670.50723267 0 0 0 0 -353081794.29325962 471640755.0970459 0 471640755.0970459 -123204696.11689758 0 0 0 0 -324681969.39180565 400641034.54959106 0 400641034.54959106 20937242.921051025 0 0 0 0 -27308290.636706352 489623849.25588226 0 489623849.25588226 -620513516.87329865 0 0 0 0 216607462.16337776 99850473.049133301 0 99850473.049133301 -152627950.06459045 0 0 0 0 -50141546.831189156 62404980.603607178 0 62404980.603607178 20602661.330581665 0 0 0 0 -50394477.905015662 33990023.056587905 0 33990023.056587905 59724258.570770264 0 0 0 0 -280432151.49913025 162803520.12398148 0 162803520.12398148 -22687752.621444702 0 0 0 0 -232584871.97128391 -25048601.120925903 0 -25048601.120925903 21918266.320259094 0 0 0 0 -181761970.46988344 51601235.733299255 0 51601235.733299255 25875409.255401611 0 0 0 0 -126816307.15185928 100588378.15481186 0 100588378.15481186 48813822.270584106 0 0 0 0 -167364917.70710373 10048513.243156433 0 10048513.243156433 26183734.949493408 0 0 0 0 -109119160.17288017 -466773.84309387207 0 -466773.84309387207 20533174.803096771 0 0 0 0 -137704702.81547022 40964916.840145111 0 40964916.840145111 19019716.559051514 0 0 0 0 -78973073.675145149 69578788.617935181 0 69578788.617935181 -30353531.261871338 0 0 0 0 -22407855.112970352 91978063.754188538 0 91978063.754188538 -26486538.886230469 0 0 0 0 -74363617.316265106 59003746.731964111 0 59003746.731964111 -47397485.950134277 0 0 0 0 1830813.6939439774 147298241.34502983 0 147298241.34502983 90780683.179214478 0 0 0 0 95361916.639705181 120975250.22846031 0 120975250.22846031 -267529533.88298798 0 0 0 0 153247.15626621246 123830286.69340897 0 123830286.69340897 -86322006.212799072 0 0 0 0 -87114913.699611664 -371986.69165802002 0 -371986.69165802002 -97885653.922088623 0 0 0 0 -31833782.365915298 26624699.506736755 0 26624699.506736755 -240894882.79792023 0 0 0 0 -52363352.49672699 -44314903.20085144 0 -44314903.20085144 -310209349.41166687 0 0 0 0 -50510879.078873634 34976022.907428741 0 34976022.907428741 -138751964.43640137 0 0 0 0 18947339.477964401 -9896837.7985839844 0 -9896837.7985839844 -320765687.80240059 0 0 0 0 47205329.546246529 -3728152.9648933411 0 -3728152.9648933411 -483148611.08730316 0 0 0 0 43862091.27423954 104928966.19338226 0 104928966.19338226 -296776723.81317139 0 0 0 0 118747381.60307217 125986573.77792358 0 125986573.77792358 -521439611.48112488 0 0 0 0 115581338.24001312 75473791.97794342 0 75473791.97794342 -865351384.80667877 0 0 0 0 40815352.685036659 171681609.21121597 0 171681609.21121597 -391764917.99464798 0 0 0 0 51972511.679457188 59320195.63662672 0 59320195.63662672 -294487759.34365082 0 0 0 0 122354338.07815909 117363095.99075031 0 117363095.99075031 -520591360.57033539 0 0 0 0 41851289.839148521 169859802.17086029 0 169859802.17086029 -393270425.97799683 0 0 0 0 -145966024.6904726 119254839.1659584 0 119254839.1659584 -132776487.11475372 0 0 0 0 -178003668.49114895 243404964.37636185 0 243404964.37636185 -245785640.91345596 0 0 0 0 -27921446.930905342 60439095.763969421 0 60439095.763969421 -155665464.20966721 0 0 0 0 358053478.04547405 150048237.99540806 0 150048237.99540806 30848057.674491882 0 0 0 0 -1140136.9349619735 -387871.36448496114 0 -387871.36448496114 -1207205.3078750223 0 0 0 0 -49534743.355202913 53037951.762599945 0 53037951.762599945 -98203272.319587708 0 0 0 0 105801526.09300995 50057154.564756393 0 50057154.564756393 14513807.499000549 0 0 0 0 -1093.8041941211559 -432779.0298028253 0 -432779.0298028253 -1047607.1035562716 0 0 0 0 -994949.72178419982 -2637382.8768698443 0 -2637382.8768698443 -4357798.4487942196 0 0 0 0 -2350388.0678479671 -2946994.2900123596 0 -2946994.2900123596 -3909588.6177597046 0 0 0 0 -683504.9749174118 -7788002.8800201416 0 -7788002.8800201416 -10638707.633852005 0 0 0 0 393021.31031000474 -930932.65527297929 0 -930932.65527297929 -1328612.9513889886 0 0 0 0 214011650.82355675 164827137.89733493 0 164827137.89733493 29972356.812774658 0 0 0 0 -2592808.4696141593 -3204254.5498574972 0 -3204254.5498574972 -3974866.4370880127 0 0 0 0 -3558211.790263379 -3092716.615898259 0 -3092716.615898259 -2086472.3007706106 0 0 0 0 -2637998.540364027 -2223846.9908256531 0 -2223846.9908256531 -3979016.5446510315 0 0 0 0 -15926892.910527229 120970260.88396072 0 120970260.88396072 106562131.20852661 0 0 0 0 -2247714.1946568489 -2797438.4231204987 0 -2797438.4231204987 -4802178.8387069702 0 0 0 0 -3782664.3213216071 -2109848.2657297291 0 -2109848.2657297291 -1745561.0568946935 0 0 0 0 -73867318.674489975 15943608.526901245 0 15943608.526901245 215869079.064785 0 0 0 0 -5156110.1548595428 77121676.722660065 0 77121676.722660065 270338438.89402008 0 0 0 0 -444571528.27030468 139981829.45010757 0 139981829.45010757 261947398.24097061 0 0 0 0 -162740901.23419142 -96642826.348215103 0 -96642826.348215103 7920554.6605072021 0 0 0 0 13181740.347229004 377002253.10435486 0 377002253.10435486 37186452.089653015 0 0 0 0 -688712998.42332268 342035682.56412125 0 342035682.56412125 52486614.073252678 0 0 0 0 -904302762.00368834 -425557413.54490662 0 -425557413.54490662 -117862862.21616364 0 0 0 0 -146184915.61341381 764061018.9524231 0 764061018.9524231 -1515689853.455452 0 0 0 0 -887671787.78466272 466039570.0433979 0 466039570.0433979 -34703331.076889038 0 0 0 0 -295807.26757014194 1651544.7976851133 0 1651544.7976851133 -2817948.3368587233 0 0 0 0 -744565550.63131905 922409529.44820595 0 922409529.44820595 -550015758.55342102 0 0 0 0 -299235580.42996597 -18922427.560089111 0 -18922427.560089111 250062176.60715103 0 0 0 0 -330467689.49573708 464296740.86702728 0 464296740.86702728 -191502256.85004425 0 0 0 0 -515471939.13139915 417616930.16598892 0 417616930.16598892 -54767500.912574768 0 0 0 0 -139557741.35751057 -470168456.61555481 0 -470168456.61555481 -1078131034.6008835 0 0 0 0 -284632795.05751038 -192208681.18119812 0 -192208681.18119812 -66225229.12865448 0 0 0 0 -161580.9318195302 68424.47405994311 0 68424.47405994311 -995137.01881475002 0 0 0 0 955028045.19311047 -162878541.77264404 0 -162878541.77264404 -1562304970.1686096 0 0 0 0 182847021.72715759 -2324493.6634292603 0 -2324493.6634292603 -1295048230.6834564 0 0 0 0 -448577713.01667023 648359263.73869514 0 648359263.73869514 -824070192.47730255 0 0 0 0 133176671.73361111 155012314.86083221 0 155012314.86083221 -728874877.79075623 0 0 0 0 -67283799.770996571 349180644.82423019 0 349180644.82423019 -544452770.3327713 0 0 0 0 82524996.590260506 20046099.553581238 0 20046099.553581238 -562343392.20793152 0 0 0 0 87741482.158356667 12370344.635894775 0 12370344.635894775 -571101393.93808746 0 0 0 0 2276691.9744801521 -116126971.20441818 0 -116126971.20441818 -313650987.66783142 0 0 0 0 71152768.849653244 13481206.570205688 0 13481206.570205688 -362128529.76596069 0 0 0 0 -62813855.110191345 -378656204.68360138 0 -378656204.68360138 -859874245.86588287 0 0 0 0 72646807.245678186 69232495.277801514 0 69232495.277801514 -734787217.32806396 0 0 0 0 -4914274.1714420319 -195015360.3338089 0 -195015360.3338089 -600585577.20510864 0 0 0 0 -6901590.8372426033 -101741281.35772324 0 -101741281.35772324 -251027990.52459717 0 0 0 0 -92192846.744711876 -132201633.37001801 0 -132201633.37001801 -223430927.79342651 0 0 0 0 -14321092.118305206 -115924641.52097702 0 -115924641.52097702 -243265258.24530029 0 0 0 0 -71717023.681500435 -137936291.78134918 0 -137936291.78134918 14198588.896652222 0 0 0 0 -59396832.354901552 -94303638.204007149 0 -94303638.204007149 -141083667.5763855 0 0 0 0 -78361327.377244949 -38203098.715545654 0 -38203098.715545654 -16602558.312026978 0 0 0 0 -39980827.176473618 -24216971.056442261 0 -24216971.056442261 -41474139.799804688 0 0 0 0 -47428996.023927689 -21389268.788009644 0 -21389268.788009644 -21932484.074401855 0 0 0 0 -50088972.557733536 21242901.13218689 0 21242901.13218689 24013864.999435425 0 0 0 0 -66157312.80579114 58949635.871689796 0 58949635.871689796 118894462.21734619 0 0 0 0 78796926.110711098 91251625.934585571 0 91251625.934585571 22328421.31313324 0 0 0 0 23874344.760213852 -31392050.395927429 0 -31392050.395927429 -277392670.01530457 0 0 0 0 -12652811.254749298 -16327284.64226532 0 -16327284.64226532 -160475298.93785095 0 0 0 0 -2409397.4586639404 -42135639.464881897 0 -42135639.464881897 -227730185.58488464 0 0 0 0 10217906.812042236 -52616189.07245636 0 -52616189.07245636 -299363310.85582352 0 0 0 0 -47021480.737694263 -27104831.723537445 0 -27104831.723537445 -48953219.507873535 0 0 0 0 -38517892.760339737 -1944013.0041503906 0 -1944013.0041503906 -58250569.196380615 0 0 0 0 -3342604.3740978241 -25531437.162773132 0 -25531437.162773132 -158400227.04299736 0 0 0 0 -11862083.493731022 7188878.0394115448 0 7188878.0394115448 -61374035.950317383 0 0 0 0 2593521.7253690353 -1373095.6899257861 0 -1373095.6899257861 -7004471.4015330411 0 0 0 0 -34094036.722694397 8516486.869140625 0 8516486.869140625 73037813.551315308 0 0 0 0 4190145.1228818893 -3369493.8097381592 0 -3369493.8097381592 -18072092.033592224 0 0 0 0 -26788325.18724823 -10917527.827880859 0 -10917527.827880859 70796731.556968689 0 0 0 0 -24217751.679040909 19049799.152053833 0 19049799.152053833 37748027.830993652 0 0 0 0 -663298.62855529785 3154015.0333175659 0 3154015.0333175659 301075.88970947266 0 0 0 0 5162182.8306503296 18312204.408488274 0 18312204.408488274 -8135237.5356140137 0 0 0 0 -8341865.7403678894 -12961343.483169556 0 -12961343.483169556 -51824018.691192627 0 0 0 0 -36280482.372392654 3494460.0836715698 0 3494460.0836715698 3482304.385559082 0 0 0 0 -36853256.408828735 988577.8134765625 0 988577.8134765625 45474315.301147461 0 0 0 0 -26479271.348524094 4080430.9947052002 0 4080430.9947052002 3513911.1116333008 0 0 0 0 -34677198.923267365 6844121.9563903809 0 6844121.9563903809 39172509.598464966 0 0 0 0 -38323038.27575922 8849131.6745109558 0 8849131.6745109558 31433721.00668335 0 0 0 0 -29696140.462524414 -2081657.6854858398 0 -2081657.6854858398 34122354.430618286 0 0 0 0 -41591658.622661591 -2131991.2831420898 0 -2131991.2831420898 35602405.424835205 0 0 0 0 -25001504.268112183 5495398.9015808105 0 5495398.9015808105 -38652070.74641037 0 0 0 0 -38333110.085273743 -6722337.7339172363 0 -6722337.7339172363 10319342.687652588 0 0 0 0 -34488631.561583519 15608551.373229027 0 15608551.373229027 8313730.5021972656 0 0 0 0 -28627546.068996429 312470.7416229248 0 312470.7416229248 44172393.508636475 0 0 0 0 -21816871.132770538 9341918.5564041138 0 9341918.5564041138 28438739.354431152 0 0 0 0 -35116175.928653717 -610669.93991088867 0 -610669.93991088867 43539897.942260742 0 0 0 0 -25192436.693965912 -1320912.1257629395 0 -1320912.1257629395 43104419.684570312 0 0 0 0 -34978889.346583366 -10125415.690597534 0 -10125415.690597534 56409348.109344482 0 0 0 0 -42289258.123374939 2156576.1881103516 0 2156576.1881103516 55257727.765716553 0 0 0 0 -2362899.2637939453 30920417.430633545 0 30920417.430633545 65066698.263809204 0 0 0 0 27140183.775295258 20129142.618186951 0 20129142.618186951 2323062.9445800781 0 0 0 0 40542824.169334412 22910642.121896744 0 22910642.121896744 -13591131.538925171 0 0 0 0 5910773.6467952728 33748767.091111183 0 33748767.091111183 9351650.6213378906 0 0 0 0 36496638.05957222 44123494.414840698 0 44123494.414840698 7341753.9776077271 0 0 0 0 -15052115.3966465 45366273.356063843 0 45366273.356063843 16684261.031158447 0 0 0 0 -7865980.7406902313 23606661.114578247 0 23606661.114578247 5245663.8194122314 0 0 0 0 -22769734.667545319 1673494.7712402344 0 1673494.7712402344 23700081.905700684 0 0 0 0 -20825798.668619156 29979833.143981934 0 29979833.143981934 19174574.249725342 0 0 0 0 8409085.0310268402 19717588.778505325 0 19717588.778505325 19606328.285217285 0 0 0 0 5803319.4269638062 17821418.500350952 0 17821418.500350952 18478064.443252563 0 0 0 0 15415070.346355438 -16978764.081558228 0 -16978764.081558228 41578212.935653687 0 0 0 0 17808646.938484192 11597667.722259521 0 11597667.722259521 21513976.301605225 0 0 0 0 -2907258.4065551758 -1156442.4382629395 0 -1156442.4382629395 33362922.316772461 0 0 0 0 -8699700.9046993256 4604267.8079681396 0 4604267.8079681396 30608653.127807617 0 0 0 0 -9003854.0199966431 -10144561.10736084 0 -10144561.10736084 47741465.310890198 0 0 0 0 15238163.894172668 -2070379.1732788086 0 -2070379.1732788086 30052880.415185928 0 0 0 0 15126965.587738991 17844234.321929932 0 17844234.321929932 22024560.948059082 0 0 0 0 36458071.893463135 -3061229.3909454346 0 -3061229.3909454346 26358673.79095459 0 0 0 0 35034454.054828644 13375580.980163574 0 13375580.980163574 16384210.913635254 0 0 0 0 10834695.190972328 8649634.0024108887 0 8649634.0024108887 22197696.925048828 0 0 0 0 27157892.595604897 20596754.781860352 0 20596754.781860352 14542899.975708008 0 0 0 0 23341241.150186539 24139904.545700073 0 24139904.545700073 12171051.397003174 0 0 0 0 2643738.8460248932 -115227.07731130067 0 -115227.07731130067 -5860975.3832668141 0 0 0 0 684896775.92712021 -41387847.64723587 0 -41387847.64723587 -4002997.9393768311 0 0 0 0 2970329.9564206572 1693373.1718658274 0 1693373.1718658274 -8334983.4269671291 0 0 0 0 441290427.87774658 -105710650.49406052 0 -105710650.49406052 85860478.588233948 0 0 0 0 -198399634.62846184 219823510.64258003 0 219823510.64258003 -126376270.29332733 0 0 0 0 697645365.07516718 -240562420.7935921 0 -240562420.7935921 -1656080.3791122437 0 0 0 0 -107498479.38218117 234358243.07548904 0 234358243.07548904 -208364741.31074524 0 0 0 0 1613106.33836383 1616872.3103941306 0 1616872.3103941306 -1399838.0414917618 0 0 0 0 -127288794.21475983 234368357.0463562 0 234368357.0463562 -203688246.17229843 0 0 0 0 -217416589.94350243 190844548.53796959 0 190844548.53796959 28732212.256759644 0 0 0 0 340968258.30104303 -85066582.774424553 0 -85066582.774424553 -127580823.3110199 0 0 0 0 -18681745.71818161 189138914.28170776 0 189138914.28170776 -191041930.64641953 0 0 0 0 448416.12560346676 3781216.2779814322 0 3781216.2779814322 -7939037.1701943763 0 0 0 0 415028102.82695389 159727057.22242737 0 159727057.22242737 -151591860.8787384 0 0 0 0 66266551.238700867 65311274.151748657 0 65311274.151748657 42780278.916732788 0 0 0 0 53408302.382593155 143922800.06129456 0 143922800.06129456 -101640005.24927425 0 0 0 0 144716988.13419342 17222176.934776306 0 17222176.934776306 -13413658.58924675 0 0 0 0 887264.80884065898 1300656.5653015487 0 1300656.5653015487 -981138.42326948792 0 0 0 0 7176328.4734965563 562003.26682090759 0 562003.26682090759 -11654044.645439148 0 0 0 0 4121884.1914322376 1959412.9581108093 0 1959412.9581108093 -9361338.5143585205 0 0 0 0 5160577.4347872734 1759507.6029319763 0 1759507.6029319763 -7069388.3423156738 0 0 0 0 5028385.0936318636 765344.75462341309 0 765344.75462341309 -13687854.614654541 0 0 0 0 3425712.0967769623 5961593.6808929443 0 5961593.6808929443 -18734856.086105347 0 0 0 0 5066089.7914049625 2355627.6708564758 0 2355627.6708564758 -11090487.482620239 0 0 0 0 3572234.5065393448 345981.46134185791 0 345981.46134185791 -13704127.274543762 0 0 0 0 643001345.9729377 -75741900.552552521 0 -75741900.552552521 267018398.08672333 0 0 0 0 3861853.6039342098 1990654.6517800037 0 1990654.6517800037 -11680965.399734434 0 0 0 0 605333429.52735984 -189753269.26036358 0 -189753269.26036358 -49253554.423576355 0 0 0 0 552442162.12883759 63343695.053508759 0 63343695.053508759 -14777071.638972282 0 0 0 0 2878063.9720114125 2528211.5676441044 0 2528211.5676441044 -2587451.170261167 0 0 0 0 625745928.41664374 -701140733.10542226 0 -701140733.10542226 316880272.63062286 0 0 0 0 221205.41859341972 500587.70277389325 0 500587.70277389325 -1628704.414992989 0 0 0 0 -119202156.14420033 117547946.91399384 0 117547946.91399384 -1292559.9647369385 0 0 0 0 463168824.82578659 -319261590.07230377 0 -319261590.07230377 102442044.39363098 0 0 0 0 3227165.6607518196 269578.24432373047 0 269578.24432373047 -3669259.6572494507 0 0 0 0 304620.35698223114 -1466620.3623161316 0 -1466620.3623161316 -310135.8650970459 0 0 0 0 2199515.058950732 1880307.3531053029 0 1880307.3531053029 -8916729.4701488987 0 0 0 0 -83411.753851890564 -3635795.6562957764 0 -3635795.6562957764 -5239426.7860565186 0 0 0 0 9474736.6236634254 3407083.4932060242 0 3407083.4932060242 2496822.0312538147 0 0 0 0 3158595.2237908388 2582516.5859571714 0 2582516.5859571714 -11088644.23482205 0 0 0 0 2911911.4678830104 3918659.3747517485 0 3918659.3747517485 -11772644.864735097 0 0 0 0 29404497.366176605 20269903.376358032 0 20269903.376358032 8277521.2929077148 0 0 0 0 4264218.9227609634 2924872.8103790283 0 2924872.8103790283 -17655736.829819202 0 0 0 0 5618807.2572369576 4110098.9311943054 0 4110098.9311943054 -19671619.404815674 0 0 0 0 3613606.3107664585 1560568.6296081543 0 1560568.6296081543 -20081123.953598022 0 0 0 0 5565657.48177284 3840757.9984474182 0 3840757.9984474182 -20960047.94052124 0 0 0 0 1057760.4653623104 2779724.0238037109 0 2779724.0238037109 -15735340.739879608 0 0 0 0 180388.77442472195 721659.5562022971 0 721659.5562022971 477505.86196984723 0 0 0 0 -41781.036477565765 -3996752.4793577194 0 -3996752.4793577194 -13226737.804534912 0 0 0 0 5480158.5504672527 27081249.374710083 0 27081249.374710083 -5324815.7571258545 0 0 0 0 -19533430.194561958 -14948079.630393982 0 -14948079.630393982 -4018376.2197220325 0 0 0 0 -12072937.977381706 15924535.469604492 0 15924535.469604492 -20116470.096660614 0 0 0 0 3269295.9567346573 2137561.9712600708 0 2137561.9712600708 -23243293.160079956 0 0 0 0 -2009024.1616187096 5239702.3097076416 0 5239702.3097076416 -9202249.5412597656 0 0 0 0 -266199.13183021545 2612118.0376319885 0 2612118.0376319885 -1746291.2135162354 0 0 0 0 3222136.4709262848 2189622.1530838013 0 2189622.1530838013 -8344445.6353225708 0 0 0 0 18570850.39308548 -492467.63668632507 0 -492467.63668632507 -9089148.0602836609 0 0 0 0 2144328.6020999551 7920919.4701805115 0 7920919.4701805115 -13837240.399917603 0 0 0 0 1062824.6379066436 5714150.1960203536 0 5714150.1960203536 -8387449.0811251961 0 0 0 0 1543623.3514599118 3059391.1604035459 0 3059391.1604035459 -7175189.3459691685 0 0 0 0 -61740833.580819011 46740597.551914215 0 46740597.551914215 65995662.836918831 0 0 0 0 3860213.3322600722 -88901985.645410538 0 -88901985.645410538 -48984213.657222748 0 0 0 0 22000304.175402343 35471695.636152267 0 35471695.636152267 98147973.383737564 0 0 0 0 77390917.129262209 -133277856.61228561 0 -133277856.61228561 -25192197.612159729 0 0 0 0 2804002.3003516197 3969734.180973053 0 3969734.180973053 -9438687.6380844116 0 0 0 0 1111421.51386791 2589657.2250273526 0 2589657.2250273526 -5815530.3899843805 0 0 0 0 1290420.6424264908 5588805.6686706543 0 5588805.6686706543 -11103969.92539978 0 0 0 0 723591324.31158304 -274526967.15092659 0 -274526967.15092659 -64198074.2707901 0 0 0 0 3569346.408223981 -172025.86088466272 0 -172025.86088466272 -12262723.636998292 0 0 0 0 2451500.7165551186 3534035.9050674438 0 3534035.9050674438 -9801214.6203422546 0 0 0 0 -500136124.12560236 489241933.72535133 0 489241933.72535133 48539590.843597412 0 0 0 0 256523690.76025522 -320684388.93937874 0 -320684388.93937874 -705683328.91474915 0 0 0 0 -65086806.118071795 243791123.31171417 0 243791123.31171417 -190414414.7613678 0 0 0 0 2487772.6335199457 4611158.9659693344 0 4611158.9659693344 -10012574.837676313 0 0 0 0 370650586.20293957 -108780746.97166443 0 -108780746.97166443 -135512932.93198395 0 0 0 0 258839493.45748627 -58396912.268981934 0 -58396912.268981934 -80477911.193351746 0 0 0 0 259976.67987306736 572362.64473174931 0 572362.64473174931 -1469580.1704230122 0 0 0 0 433486432.93960798 -270506483.87570095 0 -270506483.87570095 -79889495.106803894 0 0 0 0 246458490.01547003 -211058010.19309616 0 -211058010.19309616 -59819694.830337524 0 0 0 0 70283391.562190711 -44996233.289901733 0 -44996233.289901733 -31389863.385615349 0 0 0 0 159929619.33614939 -210261100.36130524 0 -210261100.36130524 168795304.53501892 0 0 0 0 -66860695.921677113 6972670.5405406952 0 6972670.5405406952 -84364424.478416443 0 0 0 0 76400305.314304665 -65452373.005696714 0 -65452373.005696714 -109174684.69979858 0 0 0 0 79282726.925100029 -100946784.98670006 0 -100946784.98670006 -255089205.81201172 0 0 0 0 75000659.254703939 166717835.79634285 0 166717835.79634285 -701445878.60535431 0 0 0 0 -10578625.268333882 144377221.54372597 0 144377221.54372597 -240427874.50081635 0 0 0 0 384907866.63579237 66989340.820087433 0 66989340.820087433 -401395146.58957672 0 0 0 0 174609739.83847663 196541653.83985519 0 196541653.83985519 -46754893.987878799 0 0 0 0 169992083.41896755 79956106.91567421 0 79956106.91567421 -494910291.19161987 0 0 0 0 -99758333.570180953 486572035.91587448 0 486572035.91587448 -502698025.68505502 0 0 0 0 -26964879.884765476 109789705.11773825 0 109789705.11773825 -135234725.01689911 0 0 0 0 188873680.01635784 408101724.97035599 0 408101724.97035599 -1376627530.0790215 0 0 0 0 126035030.01164407 216340879.66481209 0 216340879.66481209 -677670886.92099762 0 0 0 0 432932415.92779505 476285001.64424133 0 476285001.64424133 -2205276610.2085404 0 0 0 0 229939970.19258446 692725927.27590179 0 692725927.27590179 -1322789149.709713 0 0 0 0 127304820.58061604 997138338.99984741 0 997138338.99984741 -2201401579.133194 0 0 0 0 321714453.81146789 49071091.496780396 0 49071091.496780396 -2204819858.8859787 0 0 0 0 370127418.68343663 280666223.35989857 0 280666223.35989857 -1510262751.7482109 0 0 0 0 205212988.6265642 174540349.90956116 0 174540349.90956116 -1549496151.9637289 0 0 0 0 -147134608.65719169 -117025772.31085539 0 -117025772.31085539 -210570951.9789772 0 0 0 0 -82163832.43565315 -284458765.17515564 0 -284458765.17515564 -750488902.24494553 0 0 0 0 -77630675.389633164 79709836.657252192 0 79709836.657252192 -293571396.37884521 0 0 0 0 -65006534.643549562 -101529083.02260399 0 -101529083.02260399 -340034261.04152298 0 0 0 0 -69309852.219869792 -85351894.708724976 0 -85351894.708724976 -75056978.703983307 0 0 0 0 82160892.743770808 -49857490.535655975 0 -49857490.535655975 37672715.427181244 0 0 0 0 69117350.54915987 82708921.275929451 0 82708921.275929451 -255046645.66352463 0 0 0 0 -747998.22540082957 4670965.4885147307 0 4670965.4885147307 -3893632.8450725935 0 0 0 0 -52094598.369678915 -177863487.16294098 0 -177863487.16294098 -62481679.830496788 0 0 0 0 -141504.59455438971 1316904.198706978 0 1316904.198706978 -2182986.1497084908 0 0 0 0 -327864382.33842236 528256483.50701809 0 528256483.50701809 -376917165.92832184 0 0 0 0 -116759260.77138102 -680239244.62052155 0 -680239244.62052155 -1761795193.6706314 0 0 0 0 -574195593.19051063 20629057.808078766 0 20629057.808078766 -2204618505.0294228 0 0 0 0 -97744060.046100497 392661715.21280861 0 392661715.21280861 -2160406057.2347403 0 0 0 0 194617124.11172205 -9522758.0947856903 0 -9522758.0947856903 -2204644163.6563377 0 0 0 0 50401027.63623336 -418874496.17828751 0 -418874496.17828751 -2139795749.8212433 0 0 0 0 32591222.51351843 328048851.15812111 0 328048851.15812111 -957153447.25786209 0 0 0 0 104733688.51105309 330063470.48342514 0 330063470.48342514 -2304059685.9626441 0 0 0 0 427475250.9846316 -139368590.50656128 0 -139368590.50656128 -2137892330.5818291 0 0 0 0 91916576.629152879 197155614.81688279 0 197155614.81688279 -615085897.38394928 0 0 0 0 96957170.633059442 -8693298.8435325623 0 -8693298.8435325623 -626457114.47702408 0 0 0 0 -252766457.87751201 131944811.33089256 0 131944811.33089256 142759591.94587708 0 0 0 0 4830110.9404908568 6600276.3370513916 0 6600276.3370513916 -21670433.689315796 0 0 0 0 -29983.823414533981 31659.799964338541 0 31659.799964338541 32310.715367268771 0 0 0 0 14947732.280375753 -11099979.103301287 0 -11099979.103301287 -9872537.1034240723 0 0 0 0 14389228.433831692 5249798.9153137207 0 5249798.9153137207 -15668900.087165833 0 0 0 0 211503.89789319038 5217357.4118919373 0 5217357.4118919373 -13551173.809555054 0 0 0 0 5219549.0355548263 5203305.6346111298 0 5203305.6346111298 -16665413.55897522 0 0 0 0 373021.80381090287 4743491.2077537663 0 4743491.2077537663 -4721779.9413915426 0 0 0 0 2060004.9427848014 4780872.0317727551 0 4780872.0317727551 -7416035.2803528383 0 0 0 0 252299.98149251938 5807564.5319786072 0 5807564.5319786072 -16104683.880327225 0 0 0 0 216173.57616424561 4958130.9409179688 0 4958130.9409179688 -14022588.101325989 0 0 0 0 778976.40354564786 3189343.7176303864 0 3189343.7176303864 -18895154.136276245 0 0 0 0 -832702.3988391757 6865320.0383863449 0 6865320.0383863449 -17700535.482223511 0 0 0 0 -4138394.6079552174 4222302.7358169556 0 4222302.7358169556 -18408176.828601837 0 0 0 0 -2256340.1806972623 4077086.4100837708 0 4077086.4100837708 -18617611.787109375 0 0 0 0 -1764295.9478355646 4858960.2546615601 0 4858960.2546615601 -13899376.145328522 0 0 0 0 -1853058.2427332401 7408225.3869285583 0 7408225.3869285583 -12281030.878211975 0 0 0 0 -2152882.3286349773 6852400.856880188 0 6852400.856880188 -20304677.127334595 0 0 0 0 277821.57125711441 1689746.9969940186 0 1689746.9969940186 -24178917.661598206 0 0 0 0 -1341017.5222864151 4724963.6654396057 0 4724963.6654396057 -25409972.176605225 0 0 0 0 -4685172.0030345917 1219832.2987556458 0 1219832.2987556458 -26313114.952835083 0 0 0 0 -1063295.6039204597 5346130.1378479004 0 5346130.1378479004 -35236224.852775574 0 0 0 0 -287547.75244522095 -980637.30819702148 0 -980637.30819702148 -41595884.006027222 0 0 0 0 537533.64818954468 -2950886.6986083984 0 -2950886.6986083984 -49833901.04524231 0 0 0 0 3145014.3762040138 3707649.8600597382 0 3707649.8600597382 -28076848.708557129 0 0 0 0 -1895146.8095875978 5394565.5877799988 0 5394565.5877799988 -30357176.176086426 0 0 0 0 -7074249.6657757759 -4325597.2874450684 0 -4325597.2874450684 -33101547.151641846 0 0 0 0 -801951.70111370087 4601081.2702636719 0 4601081.2702636719 -27061811.943252563 0 0 0 0 1745309.7734794617 -1418763.2817382812 0 -1418763.2817382812 -23854891.577392578 0 0 0 0 -447205.9081941843 3866210.8771896362 0 3866210.8771896362 -26719441.777130127 0 0 0 0 -1087344.2056924105 3980823.7256011963 0 3980823.7256011963 -25250351.696105957 0 0 0 0 -2629562.5721039772 6889087.7205963135 0 6889087.7205963135 -26784607.571342468 0 0 0 0 -636715.65804791451 4133394.2290496826 0 4133394.2290496826 -35225474.690124512 0 0 0 0 -2181993.4632234573 3537217.7579803467 0 3537217.7579803467 -30737614.344268799 0 0 0 0 -23977.376365184784 7390997.8292236328 0 7390997.8292236328 -40740299.927093506 0 0 0 0 -1372221.8063051701 7813220.8241882324 0 7813220.8241882324 -32364138.870849609 0 0 0 0 -2322259.2857055664 7075162.7043838501 0 7075162.7043838501 -30363379.562896729 0 0 0 0 -1102903.2920227051 7964575.4151763916 0 7964575.4151763916 -29761423.584533691 0 0 0 0 -509492.94287443161 8748440.4210357666 0 8748440.4210357666 -36382684.924850464 0 0 0 0 2437449.0575841665 3819488.9073181152 0 3819488.9073181152 -19841829.535194397 0 0 0 0 1174899.9433717728 5841712.1466827393 0 5841712.1466827393 -30651120.795425415 0 0 0 0 131967.86007368565 4718224.588218689 0 4718224.588218689 -25352838.951065063 0 0 0 0 4065408.2622320652 3290707.328994751 0 3290707.328994751 -25980475.770118713 0 0 0 0 1007694.9379928112 6999612.2762069702 0 6999612.2762069702 -23457133.789390564 0 0 0 0 4052340.6852390766 6071309.2624740601 0 6071309.2624740601 -29746573.176696777 0 0 0 0 8163734.8206611872 4814533.1910629272 0 4814533.1910629272 -26337014.984039307 0 0 0 0 5910036.7981195152 767424.98544502258 0 767424.98544502258 -14703532.331626892 0 0 0 0 4186037.088530302 3000559.6543273926 0 3000559.6543273926 -27160771.028722763 0 0 0 0 5335678.7536551952 -4057325.082572937 0 -4057325.082572937 -9423350.932258606 0 0 0 0 14143154.999867439 1257768.6812667847 0 1257768.6812667847 -20385084.603645325 0 0 0 0 432468.8412848711 3985316.828704834 0 3985316.828704834 -14964801.700565338 0 0 0 0 -33891.002216306573 50737.571602627635 0 50737.571602627635 38809.772061821073 0 0 0 0 1019218.9039355814 13123639.656318665 0 13123639.656318665 -30078805.466300964 0 0 0 0 4814771.7674964666 5031094.2478103638 0 5031094.2478103638 -25832556.66458416 0 0 0 0 4515543.7141465843 4090634.4268035889 0 4090634.4268035889 -28787848.591766357 0 0 0 0 -24898.770108074328 30509.522572271526 0 30509.522572271526 24575.536290619522 0 0 0 0 13098159.377920717 -6607200.8292236328 0 -6607200.8292236328 -17276768.346992493 0 0 0 0 10656077.323813289 11486889.517982483 0 11486889.517982483 -27284678.313522339 0 0 0 0 209493.36150977015 15196618.640853882 0 15196618.640853882 -24549923.199226379 0 0 0 0 3803260.2792075872 7040803.6949806213 0 7040803.6949806213 -21752674.242881775 0 0 0 0 -876643.91361472011 10016431.120077133 0 10016431.120077133 -20328846.230300903 0 0 0 0 2917285.7707627546 11686939.423100263 0 11686939.423100263 -19697165.984611511 0 0 0 0 2920545.487198323 10486465.296165466 0 10486465.296165466 -18284183.274497986 0 0 0 0 -2042000.5078115463 11370791.393516541 0 11370791.393516541 -11568233.438728333 0 0 0 0 868535.81824532151 10524719.0626297 0 10524719.0626297 -11479447.080749512 0 0 0 0 380461.90446513891 8010138.3274002075 0 8010138.3274002075 -4634492.2288665771 0 0 0 0 342518.78047972918 6359915.2364730835 0 6359915.2364730835 -15386184.407440186 0 0 0 0 2017177.528403163 11765293.3045578 0 11765293.3045578 -10735314.216400146 0 0 0 0 -2848198.4451773763 9370950.3406600952 0 9370950.3406600952 -3687545.6764297485 0 0 0 0 4812567.1479219198 4606715.3991088867 0 4606715.3991088867 -11522792.686096191 0 0 0 0 2073402.8392330408 11790808.762138367 0 11790808.762138367 -16693745.434951782 0 0 0 0 -2840624.7121375799 8650155.2738418579 0 8650155.2738418579 -8099786.1728401184 0 0 0 0 -1979153.1624680758 7136100.0941619873 0 7136100.0941619873 -8515207.3006401062 0 0 0 0 -5120497.5683864355 24634859.599948883 0 24634859.599948883 -31371361.320373535 0 0 0 0 -8870127.5826686025 8601757.5153388977 0 8601757.5153388977 -17521901.334373474 0 0 0 0 -4863607.8736128211 12268147.223777771 0 12268147.223777771 -4260719.7931900024 0 0 0 0 -199902.34414820722 5222066.9000240862 0 5222066.9000240862 -4267877.3070835378 0 0 0 0 -59971887.27575624 23546998.144950867 0 23546998.144950867 25482605.360088348 0 0 0 0 -151957334.50189185 -3797532.4071292877 0 -3797532.4071292877 48247553.592926025 0 0 0 0 233396.9616017873 5332558.8289839439 0 5332558.8289839439 -5259328.1718264297 0 0 0 0 -1249395.6584457457 2116110.3993186951 0 2116110.3993186951 6442163.9207763672 0 0 0 0 184479095.90565765 -3709954.0813560486 0 -3709954.0813560486 -614844052.73410034 0 0 0 0 91474346.107019782 -164045879.18136215 0 -164045879.18136215 -611172069.05195367 0 0 0 0 271205158.11526096 -237860739.90818024 0 -237860739.90818024 -1292300691.982151 0 0 0 0 391876717.63937271 -229945961.56331444 0 -229945961.56331444 -1308665126.0283089 0 0 0 0 147283220.84900397 -574800516.53865433 0 -574800516.53865433 -1071600000.5802956 0 0 0 0 136952135.85128188 -260833217.95670128 0 -260833217.95670128 -970492586.44572449 0 0 0 0 429605061.88654941 -471396846.54647446 0 -471396846.54647446 -2205456487.1524239 0 0 0 0 -1425890236.7199156 -713547432.38575172 0 -713547432.38575172 -96384023.421318054 0 0 0 0 -1110123.168527995 142887.3515078146 0 142887.3515078146 -2759916.516963575 0 0 0 0 92698797.405053824 -683814248.11622238 0 -683814248.11622238 -1275713937.7706718 0 0 0 0 -394818530.07817382 -1533267782.4388542 0 -1533267782.4388542 -2200887926.4761543 0 0 0 0 -132797013.26520157 42342151.634883881 0 42342151.634883881 -56005008.853225708 0 0 0 0 -65211515.277687788 -195408251.25284576 0 -195408251.25284576 -306767731.34559536 0 0 0 0 -938769822.65061188 -558364867.09410858 0 -558364867.09410858 -252186381.10927582 0 0 0 0 849228.65700761997 4543923.6226996761 0 4543923.6226996761 -5188191.7942950949 0 0 0 0 -56386580.711421013 10316243.769382477 0 10316243.769382477 -34795934.60867691 0 0 0 0 2464252.4402313232 5905540.4726257324 0 5905540.4726257324 -16867031.302490234 0 0 0 0 -166979688.84003088 -305140641.34984779 0 -305140641.34984779 -333406966.56381989 0 0 0 0 -5269873.8738936186 10901345.510543823 0 10901345.510543823 11506827.258152008 0 0 0 0 3244663.4377736226 10155496.434049129 0 10155496.434049129 -3637103.1129302979 0 0 0 0 -576428.68485302781 26008.710300162435 0 26008.710300162435 1351155.3868539743 0 0 0 0 -2095687.7255727053 11989124.085922241 0 11989124.085922241 13235819.303245544 0 0 0 0 97100.145534027935 150544.87710042298 0 150544.87710042298 -1059722.4156620754 0 0 0 0 3698409.4838043451 13456070.7838974 0 13456070.7838974 1736446.2978210449 0 0 0 0 2481280.6913130321 3880034.832775116 0 3880034.832775116 4592979.590133667 0 0 0 0 3680576.3055570126 9183823.3376464844 0 9183823.3376464844 -4677818.7586226463 0 0 0 0 -1847075.6443350911 8735008.0027008057 0 8735008.0027008057 3377876.9520568848 0 0 0 0 -87616.72748669982 6991621.5755119324 0 6991621.5755119324 -1566415.4502868652 0 0 0 0 -2377336.6987017989 8648907.0082015991 0 8648907.0082015991 -2748454.2418518066 0 0 0 0 -4346302.4295915961 5428167.3339920044 0 5428167.3339920044 -1193296.3063659668 0 0 0 0 -1824947.7150568366 6232117.091468811 0 6232117.091468811 -893533.6714630127 0 0 0 0 -2150959.9383223653 6431837.8350410461 0 6431837.8350410461 -826940.17915344238 0 0 0 0 -412938.61836087704 8874122.8337554932 0 8874122.8337554932 -799417.75828170776 0 0 0 0 1804941.6490439177 9015619.1859169006 0 9015619.1859169006 -4739411.4203186035 0 0 0 0 -3815845.4206310213 3847071.7393493652 0 3847071.7393493652 154678.03722381592 0 0 0 0 -6476746.0080580264 4975693.8921127319 0 4975693.8921127319 -290452.74029541016 0 0 0 0 251691.0795655816 1625710.5774111748 0 1625710.5774111748 -2224789.908880882 0 0 0 0 -1195757.7918893397 4438317.8624305725 0 4438317.8624305725 162290.78719329834 0 0 0 0 -678917.00156092551 5090290.8461532593 0 5090290.8461532593 -6881339.9197463989 0 0 0 0 -679904.75125931576 -425924.58932113647 0 -425924.58932113647 -10607007.93195343 0 0 0 0 519833.78653477761 1605819.7146988474 0 1605819.7146988474 -2087228.1740638614 0 0 0 0 1667165.4264398534 3417960.1315361317 0 3417960.1315361317 -6268878.1644547358 0 0 0 0 -1340095.2638739049 6026971.6492919922 0 6026971.6492919922 2395010.8304846287 0 0 0 0 12575523.428978324 159005074.36944962 0 159005074.36944962 253928.25450134277 0 0 0 0 -1152609.7364440262 6094704.5759735107 0 6094704.5759735107 1490620.0644378662 0 0 0 0 -626816.87295091152 4598088.787612915 0 4598088.787612915 2404931.9268493652 0 0 0 0 2179567.6013822071 2624366.2614126205 0 2624366.2614126205 -3739504.4514160156 0 0 0 0 -694260.87803214788 5325423.0797271729 0 5325423.0797271729 -826125.62926387787 0 0 0 0 165692671.8942194 -121032159.93596649 0 -121032159.93596649 -152775364.81261826 0 0 0 0 -34880953.855813257 -265657360.99694824 0 -265657360.99694824 -402088908.29560852 0 0 0 0 -18832.277909859309 -311914.13329178095 0 -311914.13329178095 -6959150.4106040932 0 0 0 0 15225345.661800083 -14022862.149158478 0 -14022862.149158478 16542271.099975586 0 0 0 0 884917.87749900762 714020.057056427 0 714020.057056427 -1999930.0174713135 0 0 0 0 1089147.436542334 1391877.6588049196 0 1391877.6588049196 -6461774.743020568 0 0 0 0 7836659.8373482823 1311117.7313690186 0 1311117.7313690186 -5628802.8112792969 0 0 0 0 42863878.446211889 17208026.152511597 0 17208026.152511597 498989491.29000854 0 0 0 0 113669.41295587801 15134.854535825551 0 15134.854535825551 -153641.17832444981 0 0 0 0 124118.36566804488 482116.63572953269 0 482116.63572953269 -2523197.2582684644 0 0 0 0 16246529.99823913 235658945.57202148 0 235658945.57202148 108979811.01124573 0 0 0 0 -337878470.25213116 -316816681.76208496 0 -316816681.76208496 -260961591.89451599 0 0 0 0 -156595737.94224107 127527898.98582458 0 127527898.98582458 129870783.04117966 0 0 0 0 147258097.48749325 95252524.849246979 0 95252524.849246979 5662221.2143859863 0 0 0 0 -195559878.7749081 -304743496.01712799 0 -304743496.01712799 -346965933.62528992 0 0 0 0 150570.78683164719 1005128.4871315937 0 1005128.4871315937 -1961224.7982191816 0 0 0 0 319848860.77455801 -199697750.27101898 0 -199697750.27101898 -2197454970.0057869 0 0 0 0 -209040249.2497333 759295482.53278351 0 759295482.53278351 -1030427478.2680206 0 0 0 0 -90714224.742510006 -442098917.06901169 0 -442098917.06901169 -515103396.56504822 0 0 0 0 -178264587.85819072 689422337.35870361 0 689422337.35870361 -2201067466.4548783 0 0 0 0 -244941.53960256561 -12718427.905218124 0 -12718427.905218124 -195873992.88240051 0 0 0 0 23238784.227926336 449076454.08609009 0 449076454.08609009 -2055882392.4188766 0 0 0 0 70332860.787158817 77550977.923763275 0 77550977.923763275 56372765.92049408 0 0 0 0 -102456.23143707417 265114.75890684873 0 265114.75890684873 -746885.45523997396 0 0 0 0 -354738733.59896153 600197140.93921471 0 600197140.93921471 -1011476207.6304932 0 0 0 0 336242423.85872412 -334241377.46221924 0 -334241377.46221924 -2366261411.1211815 0 0 0 0 60546.598444407049 534307.22735153139 0 534307.22735153139 -1893348.9195244387 0 0 0 0 608691.96228617337 1099561.750954669 0 1099561.750954669 -2835567.9505541697 0 0 0 0 58706265.387664005 40715633.340871811 0 40715633.340871811 -46989863.599487305 0 0 0 0 48125274.098728061 -13938401.119361877 0 -13938401.119361877 -23112160.125518799 0 0 0 0 48128514.263664424 49280760.391731262 0 49280760.391731262 25902137.834640503 0 0 0 0 59414395.908923864 -25377011.428039551 0 -25377011.428039551 -71641590.901258469 0 0 0 0 -29780657.411295403 7601532.3140769005 0 7601532.3140769005 29662995.153274536 0 0 0 0 -26396615.716675885 -46634823.873864412 0 -46634823.873864412 24642293.614639282 0 0 0 0 -123724.48872133603 769048.89941992611 0 769048.89941992611 -1886012.1954058148 0 0 0 0 95793.946440333762 625284.04076701216 0 625284.04076701216 -428591.85727090389 0 0 0 0 -10288875.368368872 17892116.256467819 0 17892116.256467819 17600471.66166687 0 0 0 0 -2326501.8456727872 124615.65340042114 0 124615.65340042114 -3655141.6036872864 0 0 0 0 -84034.985126541462 -1988348.3192520142 0 -1988348.3192520142 -13823322.512733459 0 0 0 0 -233299.15072610762 660090.99176541716 0 660090.99176541716 -1485028.358935222 0 0 0 0 10274008.335979175 20722487.751502991 0 20722487.751502991 9425996.0874958038 0 0 0 0 20085.768762611566 1660862.2978945964 0 1660862.2978945964 -17884674.069892883 0 0 0 0 3110742.6230490375 -4917418.6991271973 0 -4917418.6991271973 -496966.68988037109 0 0 0 0 2521095.8039801512 12416240.030826569 0 12416240.030826569 -14259236.518058777 0 0 0 0 -10942232.246454731 12919831.11832428 0 12919831.11832428 551655.24621582031 0 0 0 0 -3500578.6080458611 1143390.8442192078 0 1143390.8442192078 -277643.94821166992 0 0 0 0 -8794506.7443180978 -17230869.793647766 0 -17230869.793647766 -36254591.186737061 0 0 0 0 -108418.03513933142 323860.15660194494 0 323860.15660194494 -299518.58660372347 0 0 0 0 -9958211.5161768645 3250360.486289978 0 3250360.486289978 3072466.0705871582 0 0 0 0 -3891584.9636258483 5892820.472820282 0 5892820.472820282 -2734513.8878173828 0 0 0 0 -7286638.3044648468 6349741.9879760742 0 6349741.9879760742 -2446594.0054512024 0 0 0 0 -6145515.5022284314 7915402.1757888794 0 7915402.1757888794 -6995605.1995239258 0 0 0 0 -2262229.2794387341 6550565.9319000244 0 6550565.9319000244 -3799054.2248878479 0 0 0 0 -3691999.9472256005 9859006.6238670349 0 9859006.6238670349 -9253131.7262115479 0 0 0 0 -1089973.597861737 11948376.93649292 0 11948376.93649292 -16504227.791641235 0 0 0 0 -4541997.7544457912 9941299.9109306335 0 9941299.9109306335 -9190910.0560913086 0 0 0 0 -7728694.6747501343 14873502.297645569 0 14873502.297645569 -15556782.488166809 0 0 0 0 -3840912.7083174884 12421269.414505005 0 12421269.414505005 -16474199.817207336 0 0 0 0 -7278631.0048164576 7515940.0263328552 0 7515940.0263328552 -12735770.85105896 0 0 0 0 -12705416.816894606 9023489.5220565796 0 9023489.5220565796 -6319068.2847099304 0 0 0 0 -17753395.478575364 12646876.859909058 0 12646876.859909058 -14534188.142436981 0 0 0 0 -7993099.7636663429 10570063.553762436 0 10570063.553762436 -29160018.182876587 0 0 0 0 -16573022.114541292 16718231.799430847 0 16718231.799430847 -20908591.351802826 0 0 0 0 2159491.9485367388 20900664.924713135 0 20900664.924713135 -36799660.236358643 0 0 0 0 -2875837.5113935769 11914559.876045227 0 11914559.876045227 -19235158.915046692 0 0 0 0 -2986890.9029486477 30103753.636951447 0 30103753.636951447 -67325855.134828329 0 0 0 0 19730877.042134881 4329867.5264434814 0 4329867.5264434814 -39640371.001213074 0 0 0 0 -42133059.223727092 13431580.999166489 0 13431580.999166489 -27002780.559257507 0 0 0 0 -17826238.555087477 -14257870.297592163 0 -14257870.297592163 -65188782.444770813 0 0 0 0 -321543.5506681595 -3922650.1867027283 0 -3922650.1867027283 -44404879.544765472 0 0 0 0 -17784.56540393264 7550184.6763429893 0 7550184.6763429893 -23919878.914428711 0 0 0 0 -5743317.4773610607 1472471.566696167 0 1472471.566696167 -27205714.64365387 0 0 0 0 -4920308.2088060537 6633576.7871141434 0 6633576.7871141434 -31732147.267745972 0 0 0 0 26013926.287690103 101466820.30972081 0 101466820.30972081 121501967.29804468 0 0 0 0 -6609518.2227363074 13081793.944336697 0 13081793.944336697 -18347962.593727678 0 0 0 0 84444788.815270901 132000116.30923271 0 132000116.30923271 83664589.911162853 0 0 0 0 -32195613.415752411 -351459425.79914522 0 -351459425.79914522 -278091295.07033467 0 0 0 0 96975284.711079597 42002437.858162284 0 42002437.858162284 14612531.904949665 0 0 0 0 627043322.11824322 36163172.559063554 0 36163172.559063554 -118861559.84735131 0 0 0 0 135116369.5796597 160169511.93283603 0 160169511.93283603 220247710.93701553 0 0 0 0 202158224.50666618 167413732.33138084 0 167413732.33138084 40872392.783354759 0 0 0 0 147564560.9751358 41432675.579364777 0 41432675.579364777 -25174922.778806686 0 0 0 0 -2324243.8499665586 3648681.8555243136 0 3648681.8555243136 1897516.6001447444 0 0 0 0 235637901.71703911 118141344.82976913 0 118141344.82976913 -88522141.196665764 0 0 0 0 146423386.17440033 36370361.41633606 0 36370361.41633606 -26786626.698160172 0 0 0 0 156573827.58525848 19005438.313934326 0 19005438.313934326 -184764217.80413437 0 0 0 0 100706858.20002937 38486662.301035881 0 38486662.301035881 -274125452.78050232 0 0 0 0 105357458.15768051 70342536.499404907 0 70342536.499404907 -84153184.037296295 0 0 0 0 43736312.346191406 202657199.6543541 0 202657199.6543541 143474068.05123138 0 0 0 0 70765480.888944626 89370191.59576416 0 89370191.59576416 94383439.817329407 0 0 0 0 84126092.708430767 85205806.767196655 0 85205806.767196655 -88318754.341262817 0 0 0 0 65049884.280546188 209421795.34565067 0 209421795.34565067 -22076711.702606201 0 0 0 0 206545585.68545151 55869904.454627991 0 55869904.454627991 -96958253.628856659 0 0 0 0 62550538.536131345 42407199.704975605 0 42407199.704975605 -456118417.54883528 0 0 0 0 -7562004.3660486434 9877591.292823229 0 9877591.292823229 -11573477.399915032 0 0 0 0 18470299.096252143 -215659449.03147724 0 -215659449.03147724 -376136560.7155757 0 0 0 0 227479586.86598587 295202444.25793839 0 295202444.25793839 61296155.780826569 0 0 0 0 -187907060.74976158 -436981506.04328823 0 -436981506.04328823 -689773207.96418905 0 0 0 0 -180052242.66699934 -11025677.963544369 0 -11025677.963544369 -406764401.9490819 0 0 0 0 -260598056.41501963 -353828661.92187285 0 -353828661.92187285 -593506424.38069344 0 0 0 0 -101260227.54739189 -596073189.77063179 0 -596073189.77063179 -767306362.09177446 0 0 0 0 47572386.429362297 -405055929.43960857 0 -405055929.43960857 -918053364.382061 0 0 0 0 -49068965.679278374 -765884819.93760395 0 -765884819.93760395 -757878341.80805683 0 0 0 0 1865744.9381300558 37141.485750207677 0 37141.485750207677 -1254258.3167710342 0 0 0 0 33265734.057730675 -110159882.60910463 0 -110159882.60910463 -502292092.04137921 0 0 0 0 97345422.703996658 -183644814.36462688 0 -183644814.36462688 -888721160.77329779 0 0 0 0 201906282.80296063 -158455593.57192343 0 -158455593.57192343 -430967191.95781994 0 0 0 0 93788772.343875885 -308923949.17623425 0 -308923949.17623425 -726904356.08842802 0 0 0 0 -62254488.838089943 -201125434.07338071 0 -201125434.07338071 -407766773.58503008 0 0 0 0 -242096814.18946266 -217288051.09366632 0 -217288051.09366632 -363762793.99218702 0 0 0 0 -184654334.3087368 -304527980.62300283 0 -304527980.62300283 -1300936212.6100144 0 0 0 0 -86598701.850507736 -75088233.181302547 0 -75088233.181302547 -705716439.95418072 0 0 0 0 -230994525.55608273 -400578388.8101368 0 -400578388.8101368 -1443904640.2232552 0 0 0 0 -189956675.41279125 -770982232.95499134 0 -770982232.95499134 -192145227.06321335 0 0 0 0 -104464005.34921741 -1068536826.1606264 0 -1068536826.1606264 -529425473.84931564 0 0 0 0 79308632.764462471 -753496205.47760773 0 -753496205.47760773 -444546124.81453562 0 0 0 0 -133805720.88401288 -806060198.30906129 0 -806060198.30906129 -116366920.17315483 0 0 0 0 -37066856.169195175 -529708665.370224 0 -529708665.370224 34886612.730864525 0 0 0 0 416107406.93386269 -380184256.1881299 0 -380184256.1881299 129962092.08996391 0 0 0 0 180628363.50121403 103671886.86438417 0 103671886.86438417 -1965465064.3116438 0 0 0 0 -1044222.1999527696 -20666.501844702056 0 -20666.501844702056 -497503.45415675198 0 0 0 0 -43403684.59139967 -110363240.37019092 0 -110363240.37019092 -906039878.66019917 0 0 0 0 -110073257.834095 -93540328.033167362 0 -93540328.033167362 -700823926.36615705 0 0 0 0 -59689322.11870575 24412498.746475279 0 24412498.746475279 -634086054.90939891 0 0 0 0 998208.84765084321 6798.0562938096118 0 6798.0562938096118 -705875.29575067014 0 0 0 0 -62337304.626138687 -415608723.05443156 0 -415608723.05443156 -621830489.68956614 0 0 0 0 -28353277.352374077 51020246.285571277 0 51020246.285571277 -847262889.7866652 0 0 0 0 -16106716.461718798 14164370.28824161 0 14164370.28824161 -811079367.11849403 0 0 0 0 -33195798.471949577 55331979.004230917 0 55331979.004230917 -749040828.64515436 0 0 0 0 38183753.79826355 29344236.524797589 0 29344236.524797589 -1057047428.8159018 0 0 0 0 -2778550.0592673942 -1810814.8289536375 0 -1810814.8289536375 -2050880.75325729 0 0 0 0 -27484996.460353374 -52236411.877867162 0 -52236411.877867162 -669002857.84208608 0 0 0 0 -46736295.442233086 13158744.279859483 0 13158744.279859483 -717395097.01490259 0 0 0 0 -11426458.237429142 -46574477.123637743 0 -46574477.123637743 -795426142.00364947 0 0 0 0 -40734277.631911039 20694834.76275555 0 20694834.76275555 -725785577.6940397 0 0 0 0 -49960552.776825428 31007567.862611111 0 31007567.862611111 -642704780.08183849 0 0 0 0 -70710019.686495781 2704761.6292746514 0 2704761.6292746514 -417187293.56877887 0 0 0 0 -86298727.730017185 -67911105.376437277 0 -67911105.376437277 -444112451.98231667 0 0 0 0 100384370.87889957 112666476.88095865 0 112666476.88095865 -412503955.48727012 0 0 0 0 -88737510.581198812 -351899166.09526283 0 -351899166.09526283 -314007667.2761519 0 0 0 0 -242545688.75053978 -228079030.26322895 0 -228079030.26322895 -380662925.90140122 0 0 0 0 -183128318.05472898 -4697683.3326511383 0 -4697683.3326511383 -460015392.45119506 0 0 0 0 195957791.3197186 199822311.04882738 0 199822311.04882738 -514283840.99914527 0 0 0 0 193935631.29882717 436515617.4815861 0 436515617.4815861 -212881286.25974393 0 0 0 0 -403448061.12456131 -165682059.89374214 0 -165682059.89374214 54824711.464815378 0 0 0 0 -1154269.7018186338 489344.42829672224 0 489344.42829672224 -610881.40073683416 0 0 0 0 -227077506.20442012 -36466850.478371024 0 -36466850.478371024 41866956.460594654 0 0 0 0 -84872244.549358845 117586548.16871953 0 117586548.16871953 95218320.079956591 0 0 0 0 86656023.767920494 103183105.41367769 0 103183105.41367769 3252200.3596730232 0 0 0 0 -25594936.687402487 -138802538.3288433 0 -138802538.3288433 -144394043.95074081 0 0 0 0 -3556678.1032639388 1251344.6704867412 0 1251344.6704867412 -1771047.7476592448 0 0 0 0 176238014.07001925 159951873.3261025 0 159951873.3261025 -94854473.158058956 0 0 0 0 -43485560.465426922 19384962.296523601 0 19384962.296523601 70207725.658659324 0 0 0 0 -7076897.6767851086 1312431.0809405332 0 1312431.0809405332 -2590125.55569728 0 0 0 0 36835073.504261971 245645114.63190532 0 245645114.63190532 57966729.120637625 0 0 0 0 -51551670.478735954 23519227.240744904 0 23519227.240744904 2935412.4622764587 0 0 0 0 -27217398.570638657 33013594.928625107 0 33013594.928625107 -3172642.1538872719 0 0 0 0 -52919890.094378337 3194719.9782171249 0 3194719.9782171249 -8002615.1115102768 0 0 0 0 103898401.43422413 146744051.40111125 0 146744051.40111125 175140052.07579851 0 0 0 0 -1569806.8113054363 243946.36803883081 0 243946.36803883081 803520.66003957903 0 0 0 0 103968254.59711647 30885324.543416739 0 30885324.543416739 -28872388.753697395 0 0 0 0 26134030.048128128 101050442.06694317 0 101050442.06694317 3227462.4198264405 0 0 0 0 -55423949.54242754 23231519.919820309 0 23231519.919820309 4324053.2099120617 0 0 0 0 -72512172.074844599 48584298.81414032 0 48584298.81414032 25894218.691558838 0 0 0 0 -45543831.201659203 66514611.436332703 0 66514611.436332703 32450272.925168991 0 0 0 0 -39657090.776889086 55817243.505105495 0 55817243.505105495 -36387198.986665726 0 0 0 0 -67032112.884821892 118683173.79829025 0 118683173.79829025 -42004455.732784748 0 0 0 0 -4738974.8234567642 54746315.678199768 0 54746315.678199768 14815873.688569069 0 0 0 0 11257964.934087992 14652940.682794094 0 14652940.682794094 24324820.025184631 0 0 0 0 41194793.556163788 21358657.400619507 0 21358657.400619507 -28612942.979870796 0 0 0 0 76832712.868133545 -59422073.909402847 0 -59422073.909402847 46925061.469503403 0 0 0 0 -94362966.740991354 31998744.2872293 0 31998744.2872293 265959259.7621994 0 0 0 0 -215435485.44312859 449945572.84656715 0 449945572.84656715 30594435.354417801 0 0 0 0 -154773645.47750473 -261945627.82792187 0 -261945627.82792187 656927452.86411858 0 0 0 0 293742.72411709512 970864.82923962735 0 970864.82923962735 -1626779.4769141753 0 0 0 0 57116277.874485254 21142601.649234295 0 21142601.649234295 -43335102.783073425 0 0 0 0 6596294.570984548 -538277.19940893352 0 -538277.19940893352 -10585865.926385032 0 0 0 0 84643133.939289093 -147754323.23317575 0 -147754323.23317575 121667641.41175079 0 0 0 0 749911.64765071869 4457619.6292896271 0 4457619.6292896271 -2650160.5614345074 0 0 0 0 15763108.683792114 3008410.3706703186 0 3008410.3706703186 -29440963.783325195 0 0 0 0 2651205.4211510057 7977708.470377503 0 7977708.470377503 -17006029.91230946 0 0 0 0 -1762311.9454631805 7710771.8972883224 0 7710771.8972883224 1480499.4892950058 0 0 0 0 2936648.2724997704 6350562.5639589224 0 6350562.5639589224 -12167989.045601469 0 0 0 0 35524192.425582886 -6975312.7395648956 0 -6975312.7395648956 -35320747.582000732 0 0 0 0 10130508.134563431 -1049553.529295167 0 -1049553.529295167 -12974835.021109091 0 0 0 0 51700653.735940933 -22524715.016309738 0 -22524715.016309738 -25789339.485923767 0 0 0 0 43806687.839971542 -13362631.712219238 0 -13362631.712219238 -31667611.365921021 0 0 0 0 57145265.732128143 8092661.5099716187 0 8092661.5099716187 -28962017.149997711 0 0 0 0 77252316.596092224 -8890791.5040550232 0 -8890791.5040550232 -31115304.442317009 0 0 0 0 30351318.617868423 67469133.724038243 0 67469133.724038243 -2389503.1643419266 0 0 0 0 71200614.687374115 3579635.375579834 0 3579635.375579834 -33982899.813941956 0 0 0 0 1184085.4453752516 4652053.5034978921 0 4652053.5034978921 -4593733.4342199452 0 0 0 0 -1151113.4162298676 13431261.423745671 0 13431261.423745671 -25350535.583507359 0 0 0 0 93346835.875240207 58706218.024957567 0 58706218.024957567 -17828875.163545132 0 0 0 0 68142460.568655014 -257457.08032226562 0 -257457.08032226562 -32458325.127105713 0 0 0 0 63271588.773355484 -32278474.385721207 0 -32278474.385721207 -44381321.621856689 0 0 0 0 114620905.82936001 -10336774.473247528 0 -10336774.473247528 -56657947.400672913 0 0 0 0 101377108.62210083 28680271.379676819 0 28680271.379676819 -13592501.532104492 0 0 0 0 152848570.20125866 40017631.572470665 0 40017631.572470665 -52831981.479606628 0 0 0 0 -5765306.9227068452 16288686.463411987 0 16288686.463411987 -22012554.972715199 0 0 0 0 66924610.811057091 -18877943.350750923 0 -18877943.350750923 -86402852.594507694 0 0 0 0 5422132.661996603 -1344365.867012497 0 -1344365.867012497 -5330035.1061549783 0 0 0 0 167357584.43372917 502379845.36954427 0 502379845.36954427 7523819.4006574154 0 0 0 0 95871968.10512352 -72053178.099172592 0 -72053178.099172592 -104904209.08823395 0 0 0 0 103908189.39266491 -97885148.024971008 0 -97885148.024971008 -354031026.65144348 0 0 0 0 96646779.045722961 -67908194.529308319 0 -67908194.529308319 -123655804.90641785 0 0 0 0 107278570.72841263 -18305232.23355484 0 -18305232.23355484 -64932810.296981812 0 0 0 0 119544759.71642303 -43777565.595600128 0 -43777565.595600128 -98281313.807502747 0 0 0 0 164806777.93153381 16608981.649201393 0 16608981.649201393 -93431496.529846191 0 0 0 0 75597574.592151642 -60202249.618106842 0 -60202249.618106842 -53677635.67741394 0 0 0 0 40351559.172859192 -71048462.702568054 0 -71048462.702568054 -56580545.260910034 0 0 0 0 63045011.222742081 -98182933.38309288 0 -98182933.38309288 -118489451.97360992 0 0 0 0 -11418666.420301437 -121953722.97987747 0 -121953722.97987747 -47764013.452812195 0 0 0 0 -4801218.0536880493 -55650819.369491577 0 -55650819.369491577 -5528191.544052124 0 0 0 0 28233847.405029297 -72883385.468257904 0 -72883385.468257904 2251756.4781646729 0 0 0 0 35983361.660324097 -38753529.479492188 0 -38753529.479492188 1221519.1850814819 0 0 0 0 27355322.827022552 -40165993.274505615 0 -40165993.274505615 -30675916.839535236 0 0 0 0 67600418.392381668 -39984432.002624512 0 -39984432.002624512 -30682379.267723083 0 0 0 0 32026649.791595459 -48392409.674980164 0 -48392409.674980164 -17952281.99041748 0 0 0 0 6788978.2557194596 -3642136.4219221454 0 -3642136.4219221454 -7335231.2833705554 0 0 0 0 40127454.377601624 6236407.7575454712 0 6236407.7575454712 -38545473.199806213 0 0 0 0 9634490.2788162231 -14796076.809326172 0 -14796076.809326172 -27108525.161874771 0 0 0 0 9660987.6081738323 -39035443.376312405 0 -39035443.376312405 -11408138.274375916 0 0 0 0 3978489.2631042693 -79840.313930861652 0 -79840.313930861652 -4950367.7733547837 0 0 0 0 4474839.2669923641 -3781484.0093114171 0 -3781484.0093114171 -5290669.4875240708 0 0 0 0 1914695.324048996 -20189067.672103882 0 -20189067.672103882 -18977772.704811096 0 0 0 0 -8043367.6229114532 -26122740.339691162 0 -26122740.339691162 8081185.6168060303 0 0 0 0 1943613.8224067688 -30224213.518547058 0 -30224213.518547058 6026612.3081893921 0 0 0 0 -12665328.015452862 -28360105.503595352 0 -28360105.503595352 29148292.976928711 0 0 0 0 -12404689.919333458 -11230620.35086441 0 -11230620.35086441 13902018.270736694 0 0 0 0 334432.56561837578 -2224671.3290682975 0 -2224671.3290682975 1283806.720487237 0 0 0 0 104085673.3236866 -4406893.1832408905 0 -4406893.1832408905 4547218.9363861084 0 0 0 0 169139644.71318054 -5811833.7425460815 0 -5811833.7425460815 -18568372.921063423 0 0 0 0 73292.202932661399 -237201.07588581741 0 -237201.07588581741 -330399.54239754262 0 0 0 0 -164811.13961867848 -278046.42076300271 0 -278046.42076300271 751706.72714611888 0 0 0 0 -54419140.785394669 5446332.2009925842 0 5446332.2009925842 338468576.82872009 0 0 0 0 -13137085.81570673 -37925542.914270878 0 -37925542.914270878 26210156.997406006 0 0 0 0 -64166335.125745773 -54504220.555015564 0 -54504220.555015564 35959855.865699768 0 0 0 0 -56561053.854038239 -30310912.734249115 0 -30310912.734249115 44473717.21383667 0 0 0 0 303964869.99184799 -131173588.88995361 0 -131173588.88995361 59995452.233409882 0 0 0 0 99375795.750770569 -1523806.877204895 0 -1523806.877204895 37883217.901550293 0 0 0 0 87347912.784217834 68322229.91519928 0 68322229.91519928 72773702.542644501 0 0 0 0 -58457175.518070221 73558380.48683548 0 73558380.48683548 54238058.574012756 0 0 0 0 -31392824.610092163 4175107.6223115921 0 4175107.6223115921 53373761.922988892 0 0 0 0 -205809697.31611729 97473591.586540222 0 97473591.586540222 39992264.018821716 0 0 0 0 -161395068.28515196 18468489.641159058 0 18468489.641159058 96907160.197525024 0 0 0 0 -276720675.23713112 139337129.11284256 0 139337129.11284256 42276193.403278351 0 0 0 0 -243774938.47608757 88310593.407684326 0 88310593.407684326 120948256.65493774 0 0 0 0 -366570780.95525742 208769025.86396027 0 208769025.86396027 46048816.44519043 0 0 0 0 -289942767.37248659 132318360.16843987 0 132318360.16843987 121205522.44261932 0 0 0 0 -67479075.006770968 8823396.2420268059 0 8823396.2420268059 90278343.520614624 0 0 0 0 -328881909.59260178 37855176.826198578 0 37855176.826198578 203492896.78406906 0 0 0 0 -418053199.44411182 188227371.77339554 0 188227371.77339554 58528770.1195755 0 0 0 0 -420518002.05494547 88085915.53621769 0 88085915.53621769 -49708598.999778748 0 0 0 0 -644908048.00954056 291739147.74627686 0 291739147.74627686 -121533117.53986931 0 0 0 0 -234521302.30967903 154742612.17797089 0 154742612.17797089 -65323493.05238533 0 0 0 0 -224447322.83963871 164967114.30358505 0 164967114.30358505 -70104445.653839111 0 0 0 0 -315351079.63232899 308590625.42925549 0 308590625.42925549 -354915498.40883636 0 0 0 0 -89444605.81479454 142748794.35489273 0 142748794.35489273 -284878861.52563477 0 0 0 0 -80003818.16546154 -80219591.197784424 0 -80219591.197784424 -214446049.54577637 0 0 0 0 -98714715.022409678 -89385876.711925507 0 -89385876.711925507 -716416845.46141815 0 0 0 0 -105649460.64031172 -48462839.350288391 0 -48462839.350288391 -249349524.94361877 0 0 0 0 86749780.967930794 214188985.17396545 0 214188985.17396545 -662751032.02702999 0 0 0 0 -487546880.24632454 330220054.31851196 0 330220054.31851196 -476308561.13469696 0 0 0 0 -394661887.25435829 452251315.35836792 0 452251315.35836792 -464498813.12757111 0 0 0 0 -679700635.57553768 -102302463.47111034 0 -102302463.47111034 -263034777.04597473 0 0 0 0 -24986753.512634277 100444287.91991806 0 100444287.91991806 -964639181.62006378 0 0 0 0 -539159991.6192379 507822387.66376877 0 507822387.66376877 -618499732.22818184 0 0 0 0 -25773899.924055099 120515164.03059006 0 120515164.03059006 -578330041.15829849 0 0 0 0 -17327445.643943787 8021895.0080108643 0 8021895.0080108643 -208604331.49155807 0 0 0 0 -73044126.38110733 -111844895.49262238 0 -111844895.49262238 -309210686.30067444 0 0 0 0 36685418.46944046 -218879869.7639122 0 -218879869.7639122 -83478632.024612427 0 0 0 0 34943384.896533966 -128702123.94852138 0 -128702123.94852138 -369574650.34358215 0 0 0 0 -11719821.483006001 -121984509.11209083 0 -121984509.11209083 96327507.272796631 0 0 0 0 140503597.57744026 -420812137.3057785 0 -420812137.3057785 38802949.568408966 0 0 0 0 -290303078.8840642 -156483633.2647028 0 -156483633.2647028 382401746.46271515 0 0 0 0 36816485.840885162 228976786.14286041 0 228976786.14286041 -114686847.91277695 0 0 0 0 70333518.622947693 -213311047.03466892 0 -213311047.03466892 235929563.23239136 0 0 0 0 16636488.134947777 -6981119.4612884521 0 -6981119.4612884521 -9549249.1864891052 0 0 0 0 -1127792.1240142609 -4452147.2173757209 0 -4452147.2173757209 -6858055.1779831313 0 0 0 0 -740273.56896781921 -3704376.5774250031 0 -3704376.5774250031 -3141378.1402740479 0 0 0 0 7256837.0514888763 -1349789.4683990479 0 -1349789.4683990479 -2553368.5363197327 0 0 0 0 1107807.4410281356 -2509370.6093248073 0 -2509370.6093248073 -3402363.2128125094 0 0 0 0 -308416.42445682408 -1366377.9133218955 0 -1366377.9133218955 -1081920.7873051409 0 0 0 0 1511310.290384118 1616516.9375426695 0 1616516.9375426695 -905645.49544642866 0 0 0 0 -3036948.9287118912 7841331.7719230652 0 7841331.7719230652 -7691169.9716072083 0 0 0 0 16097103.782828331 4261103.6437683105 0 4261103.6437683105 -19181892.254016876 0 0 0 0 25812415.69113636 24640499.675711632 0 24640499.675711632 18434686.841667175 0 0 0 0 -24656513.703456879 62762615.981983185 0 62762615.981983185 -5259151.2841262817 0 0 0 0 -82648107.390974045 -52888371.277044296 0 -52888371.277044296 -34719945.454803467 0 0 0 0 755743.36927986145 779862.07130432129 0 779862.07130432129 -235479.75573730469 0 0 0 0 635514.10892717447 247503.75511525385 0 247503.75511525385 -626938.94041112438 0 0 0 0 -305288246.31394982 83839675.797729492 0 83839675.797729492 89518843.279762268 0 0 0 0 -108461215.06790447 35954218.467556 0 35954218.467556 90081146.410028458 0 0 0 0 -172411034.30573416 95894116.492559433 0 95894116.492559433 17208201.903541565 0 0 0 0 -257423483.91530085 147247658.61244774 0 147247658.61244774 17228919.898521423 0 0 0 0 -49121670.264666557 113752427.19138336 0 113752427.19138336 -94769376.985420227 0 0 0 0 -35052261.95562458 34525258.684501648 0 34525258.684501648 -71513544.060195923 0 0 0 0 -30972137.628463745 -28887393.999450684 0 -28887393.999450684 -164904982.09887695 0 0 0 0 -18722221.187906027 -72887965.808038712 0 -72887965.808038712 -15959821.587562561 0 0 0 0 58628580.228518009 85302954.71141243 0 85302954.71141243 -107995031.63259125 0 0 0 0 484095.36422868236 517915.27452662727 0 517915.27452662727 -302425.78170477226 0 0 0 0 6599893.8859136105 63854146.444901466 0 63854146.444901466 -44766359.731811523 0 0 0 0 6416910.2606582642 12145678.12342453 0 12145678.12342453 5626729.0629243851 0 0 0 0 158206841.0392909 -17940536.872310638 0 -17940536.872310638 -94553064.245788574 0 0 0 0 -593752.13165147346 -3547903.9278964465 0 -3547903.9278964465 -7055997.2237162329 0 0 0 0 34278019.208878994 -20934472.789033413 0 -20934472.789033413 -6739735.1125793457 0 0 0 0 386065478.82584953 -519554478.26808167 0 -519554478.26808167 -66546572.176876068 0 0 0 0 29829467.564065933 -17882023.080345154 0 -17882023.080345154 84046359.276422501 0 0 0 0 -181020470.65344119 -50780659.444971085 0 -50780659.444971085 295709922.70809174 0 0 0 0 -364589978.28179359 554171789.19543839 0 554171789.19543839 -269612646.94084358 0 0 0 0 -61638839.749102831 579109755.3320961 0 579109755.3320961 -564431384.98249054 0 0 0 0 -65846380.682774544 477771140.84927368 0 477771140.84927368 -530671935.49990273 0 0 0 0 15852154.65861702 -228643200.43582916 0 -228643200.43582916 -1469854489.5535126 0 0 0 0 18843627.952142566 -286675125.15328383 0 -286675125.15328383 -539635790.61752319 0 0 0 0 144464612.21602345 442387147.55880737 0 442387147.55880737 -852184095.22341919 0 0 0 0 199293203.66787231 200035948.23132038 0 200035948.23132038 -326951031.61151123 0 0 0 0 404261741.12299585 199575155.64047241 0 199575155.64047241 -466762426.50434113 0 0 0 0 113074650.28133965 417776212.91792679 0 417776212.91792679 -511215494.21343613 0 0 0 0 -14726010.451145172 436229450.31028271 0 436229450.31028271 -391845393.68057251 0 0 0 0 96580234.048510879 136397263.40416336 0 136397263.40416336 -119445776.85862732 0 0 0 0 -125484908.58651006 358225846.41017532 0 358225846.41017532 -303041827.33813477 0 0 0 0 -95957125.272621989 330457086.96059799 0 330457086.96059799 -643613015.82813263 0 0 0 0 509420321.96718705 -104211821.38056803 0 -104211821.38056803 -302839434.4172287 0 0 0 0 77579715.345980644 -91217383.134693146 0 -91217383.134693146 -100887801.71459198 0 0 0 0 77185681.665596008 -100182398.41101456 0 -100182398.41101456 23916169.424614906 0 0 0 0 212814.87195360381 -2104899.3809778634 0 -2104899.3809778634 -5897263.0121940859 0 0 0 0 -176528189.29265308 -107159669.18593597 0 -107159669.18593597 85913207.918758392 0 0 0 0 9708597.112156868 -52632103.801445007 0 -52632103.801445007 -28570278.76108551 0 0 0 0 -110848395.63960075 -158159617.64513397 0 -158159617.64513397 -109346765.96755409 0 0 0 0 -390891043.75424767 -65609915.198818207 0 -65609915.198818207 123138994.16046906 0 0 0 0 426869.3962660972 -518825.89137347322 0 -518825.89137347322 -2568925.6073619872 0 0 0 0 -36646759.932953119 -629700578.4998045 0 -629700578.4998045 -650503875.69256592 0 0 0 0 -392673914.96728611 -47760170.509738922 0 -47760170.509738922 -646851569.53751373 0 0 0 0 -919150511.59254694 -88413902.077104092 0 -88413902.077104092 -248700973.18829346 0 0 0 0 -1019705090.1120406 396090794.93314409 0 396090794.93314409 398944804.01241302 0 0 0 0 -351129035.67780113 607747972.99193954 0 607747972.99193954 -1104868.0250701904 0 0 0 0 -499162692.02177811 359770425.71180916 0 359770425.71180916 -142020785.96080399 0 0 0 0 -508112348.58249664 213941640.75941467 0 213941640.75941467 -36174162.660274506 0 0 0 0 -317483709.48822594 136084651.86922073 0 136084651.86922073 -379198297.0599823 0 0 0 0 -156932020.30209255 276526087.19821358 0 276526087.19821358 -256683261.25540543 0 0 0 0 -100636258.20713377 214928324.26444244 0 214928324.26444244 -411222415.09580421 0 0 0 0 -38160818.283743382 438662243.65670776 0 438662243.65670776 -391568897.00426292 0 0 0 0 -129291339.44526505 238837541.93346786 0 238837541.93346786 -403619138.66840363 0 0 0 0 15969185.612622976 357628673.14402199 0 357628673.14402199 -477673511.18904114 0 0 0 0 -78775849.262156963 272825365.61364365 0 272825365.61364365 -381200514.04318619 0 0 0 0 -80084530.2386204 271808797.80429029 0 271808797.80429029 -254045883.93679047 0 0 0 0 -72469200.293242455 276983077.59520721 0 276983077.59520721 -250545779.60070419 0 0 0 0 -33303282.614753723 184490161.59574127 0 184490161.59574127 -181378548.44670486 0 0 0 0 -109446313.43889809 245438874.74375153 0 245438874.74375153 -222810882.9817276 0 0 0 0 -119645200.72771168 257775541.14838028 0 257775541.14838028 -213004203.43103027 0 0 0 0 -117062251.55775595 248386367.34918594 0 248386367.34918594 -193518319.99719238 0 0 0 0 -76397988.03451252 301605124.74940491 0 301605124.74940491 -325625917.23551178 0 0 0 0 -133680330.82347965 396575319.02049637 0 396575319.02049637 -301331872.35112 0 0 0 0 -150630165.52844238 404265498.03040695 0 404265498.03040695 -236931705.49454689 0 0 0 0 -302328420.08786774 337424091.16192245 0 337424091.16192245 -160077953.06239319 0 0 0 0 -546675217.89107895 -63928067.929482937 0 -63928067.929482937 -26767212.603347778 0 0 0 0 -328119285.4375 33213703.339805603 0 33213703.339805603 -24865621.090008438 0 0 0 0 -364801445.10652351 72592382.914346695 0 72592382.914346695 70641421.024787903 0 0 0 0 -186452415.54363823 174789399.08618546 0 174789399.08618546 -66073574.944363356 0 0 0 0 -105393579.15950489 57965080.81221962 0 57965080.81221962 50029705.716751099 0 0 0 0 -161085823.15462685 51389514.07598114 0 51389514.07598114 -77293646.589293957 0 0 0 0 -121848381.921381 183624482.25852585 0 183624482.25852585 -134498328.71266937 0 0 0 0 -310060916.5900259 111904569.78501129 0 111904569.78501129 -233426116.0182724 0 0 0 0 -978140001.01198769 225411142.14937973 0 225411142.14937973 -90451956.93737793 0 0 0 0 -388166158.62290287 267950543.98720169 0 267950543.98720169 -245516164.40359497 0 0 0 0 -488510.38553733425 1916328.6480304068 0 1916328.6480304068 -1528874.5795382671 0 0 0 0 88726632.72473526 -25811260.904256821 0 -25811260.904256821 -23850040.821586609 0 0 0 0 -250070.67465666728 522541.99888381734 0 522541.99888381734 -548603.74971456826 0 0 0 0 -225600642.33724022 -264333015.10753059 0 -264333015.10753059 -282281387.65137863 0 0 0 0 -229545199.97875738 -257980522.88974953 0 -257980522.88974953 -39645009.826377869 0 0 0 0 -230176124.079669 -216210607.34751892 0 -216210607.34751892 41798477.56703186 0 0 0 0 -150663261.9744072 -244502566.81508255 0 -244502566.81508255 -282430559.21971703 0 0 0 0 -123097259.23115826 -161058685.50120163 0 -161058685.50120163 -35920242.847503662 0 0 0 0 -201040216.79583979 -223099600.885952 0 -223099600.885952 -37472445.732269287 0 0 0 0 -7713185.6031825542 -66820326.648434639 0 -66820326.648434639 39157736.286682129 0 0 0 0 351873723.38611126 -13996316.962173462 0 -13996316.962173462 -145295132.81246376 0 0 0 0 -594686.80503658706 1334491.8076451402 0 1334491.8076451402 -1379925.3891709894 0 0 0 0 49054638.610886574 43492087.833301544 0 43492087.833301544 29103147.83026123 0 0 0 0 208845472.31062031 -7751990.3224334717 0 -7751990.3224334717 -44446087.220352173 0 0 0 0 129146724.72255516 -97037835.891180038 0 -97037835.891180038 -30628333.746070862 0 0 0 0 -823990.33644085319 3936225.1878077942 0 3936225.1878077942 -4944333.081960775 0 0 0 0 -133729033.88359427 -95548551.368126869 0 -95548551.368126869 -61217454.081417084 0 0 0 0 -612070.21715672989 1199144.5142418845 0 1199144.5142418845 -600634.92742504179 0 0 0 0 -42250243.829905033 54738457.859361649 0 54738457.859361649 83471434.758178711 0 0 0 0 -48095543.241062164 166972251.58415604 0 166972251.58415604 77471987.954538345 0 0 0 0 -281101276.35220909 19769397.667012215 0 19769397.667012215 47889519.816074371 0 0 0 0 -163131479.2937355 119228017.47080803 0 119228017.47080803 50598044.124848366 0 0 0 0 -351621620.48164272 49917821.837121487 0 49917821.837121487 76396884.065139771 0 0 0 0 -173145469.11121845 175888577.93646812 0 175888577.93646812 124074858.88454151 0 0 0 0 20972081.302749157 37979971.385443211 0 37979971.385443211 193459197.5994072 0 0 0 0 -200420848.25419998 180908706.84767151 0 180908706.84767151 165253071.52254987 0 0 0 0 -5266506.5189134963 5731786.2301640315 0 5731786.2301640315 -6415530.6290654661 0 0 0 0 -155530021.59687591 -566154456.24640846 0 -566154456.24640846 -274756591.46697807 0 0 0 0 -180577846.21240199 -260096577.04115772 0 -260096577.04115772 -456469174.75312519 0 0 0 0 -559077775.01891208 -361303089.33721924 0 -361303089.33721924 -382598249.47323418 0 0 0 0 -244494295.97962093 -386469099.45874405 0 -386469099.45874405 -573640719.65302658 0 0 0 0 -2009749.3883878246 1734165.4961679992 0 1734165.4961679992 -1858388.775503559 0 0 0 0 -562963317.77924788 -513350168.75390917 0 -513350168.75390917 -860503184.53560448 0 0 0 0 -713218846.20953608 -526806489.01222897 0 -526806489.01222897 605336582.70266771 0 0 0 0 -199434815.01028544 195920116.04173833 0 195920116.04173833 143840316.86877823 0 0 0 0 -61068789.716624975 242327282.64828491 0 242327282.64828491 150666711.58511066 0 0 0 0 -798546.85266331281 4617812.1620316878 0 4617812.1620316878 -8360574.2395008802 0 0 0 0 29559588.812928677 221351162.06163406 0 221351162.06163406 76986962.496740341 0 0 0 0 268451030.29318619 98672815.179840088 0 98672815.179840088 -194986775.75984192 0 0 0 0 147664602.71086955 -44659158.724948883 0 -44659158.724948883 -319910867.86614227 0 0 0 0 -554394197.93274069 389497844.06857872 0 389497844.06857872 4748161.7206687927 0 0 0 0 850440125.87647545 205220178.1817286 0 205220178.1817286 -1995069317.2856102 0 0 0 0 -184079987.31102037 260891965.85748196 0 260891965.85748196 -56201927.310081482 0 0 0 0 -903891705.66335201 589430257.33360386 0 589430257.33360386 126824676.41397095 0 0 0 0 -659138.29305239953 3583583.0357143497 0 3583583.0357143497 -9143080.8751871586 0 0 0 0 -784363830.56911945 -12530346.200151443 0 -12530346.200151443 128671071.92272949 0 0 0 0 -789171262.23296213 495533353.84930426 0 495533353.84930426 -49264711.095115662 0 0 0 0 -1691772911.3780723 470774269.47375011 0 470774269.47375011 -128091592.92067909 0 0 0 0 -682706912.74868584 344522124.44092751 0 344522124.44092751 -267895839.94059944 0 0 0 0 -428721.56453237182 1189589.7468237167 0 1189589.7468237167 -4153247.2906118184 0 0 0 0 -807366158.03812313 -884917204.05920792 0 -884917204.05920792 58248262.756402969 0 0 0 0 -616903588.82255197 -964171297.40522575 0 -964171297.40522575 -743168122.78027534 0 0 0 0 -627034678.34309959 -263710284.13985062 0 -263710284.13985062 -846276246.31985855 0 0 0 0 -562168205.82944036 -227795441.08526802 0 -227795441.08526802 -442887072.92897844 0 0 0 0 -656416684.72984171 -292170856.64334297 0 -292170856.64334297 -467137715.935709 0 0 0 0 -438073537.91272211 -104726907.59577847 0 -104726907.59577847 -401790678.81880188 0 0 0 0 -318169552.54474711 -310195241.60877609 0 -310195241.60877609 -409382001.5932461 0 0 0 0 -525827010.37522709 -158655696.52367401 0 -158655696.52367401 -483291705.72068787 0 0 0 0 -525094520.23921311 -148235427.09016848 0 -148235427.09016848 -407161334.86858368 0 0 0 0 -1003022293.0728769 -131861476.66759109 0 -131861476.66759109 582387551.13212204 0 0 0 0 -541577306.70106888 150226559.98004532 0 150226559.98004532 -1038542121.2275424 0 0 0 0 -978941292.78486705 -99307572.617745399 0 -99307572.617745399 -356749505.73452568 0 0 0 0 168269305.83819866 150786219.98871994 0 150786219.98871994 -49336965.862491608 0 0 0 0 239346084.46658611 -9616547.3310470581 0 -9616547.3310470581 -105425872.80461121 0 0 0 0 36771956.746652603 -21737714.704723358 0 -21737714.704723358 4823063.9607543945 0 0 0 0 -17640914.556912422 183871933.76019287 0 183871933.76019287 -184741016.56684875 0 0 0 0 -1867689.0296783447 193639655.5116539 0 193639655.5116539 -218255836.49434471 0 0 0 0 -24187570.578821182 134455806.73899841 0 134455806.73899841 -78002172.651824951 0 0 0 0 118291878.2416091 110383456.62281227 0 110383456.62281227 -144246080.24398804 0 0 0 0 40888556.769965649 187426780.29725647 0 187426780.29725647 -145200924.53923798 0 0 0 0 -55995479.060236454 178760535.75384521 0 178760535.75384521 -138074285.26321411 0 0 0 0 -81460183.326644823 294022091.80909681 0 294022091.80909681 -207701678.0348053 0 0 0 0 -94558234.349600673 205180383.98310471 0 205180383.98310471 -152087438.6384201 0 0 0 0 67616860.296447754 276177227.42344666 0 276177227.42344666 -158097742.36355972 0 0 0 0 109730579.71974182 94819783.374019623 0 94819783.374019623 -102804132.17943001 0 0 0 0 -79634603.620101333 236644809.72145081 0 236644809.72145081 -58320223.254032135 0 0 0 0 -274982638.70258415 375642420.65882874 0 375642420.65882874 -47200882.938739777 0 0 0 0 -69204801.045951962 249660591.67522621 0 249660591.67522621 -131993341.45667386 0 0 0 0 -236502462.62047502 348409074.2069664 0 348409074.2069664 -143647613.53795099 0 0 0 0 -246949653.83647937 216647647.77156448 0 216647647.77156448 -227379302.53647995 0 0 0 0 -324169953.95833886 367249280.0702529 0 367249280.0702529 -223408886.89200211 0 0 0 0 -302612980.38823533 263900149.05135727 0 263900149.05135727 -231339446.489151 0 0 0 0 -580274229.21428347 230736805.26863289 0 230736805.26863289 -82292539.576019287 0 0 0 0 -642314058.31666327 293628925.88274002 0 293628925.88274002 95138998.039424896 0 0 0 0 -517647015.26979744 549630114.28577995 0 549630114.28577995 -136777305.16107941 0 0 0 0 -615428274.13224363 329321022.12517738 0 329321022.12517738 98749523.828033924 0 0 0 0 -654584241.70804167 479710661.38132095 0 479710661.38132095 -90280854.612405777 0 0 0 0 -80650488.817058727 411524390.16035259 0 411524390.16035259 -561336166.97121048 0 0 0 0 -64408122.581588015 210169833.61870193 0 210169833.61870193 -15343829.739908218 0 0 0 0 77268112.490057468 455140161.55022717 0 455140161.55022717 -246569601.48155975 0 0 0 0 -246775690.3241207 290808056.20948792 0 290808056.20948792 -4706897.9603157043 0 0 0 0 228681921.34917617 103555552.935812 0 103555552.935812 -620923.97370910645 0 0 0 0 255890626.61198807 238428577.32174683 0 238428577.32174683 -146933029.40398788 0 0 0 0 502081075.01621795 -185561938.10078621 0 -185561938.10078621 251666907.45685196 0 0 0 0 466620871.20612979 241703276.72040939 0 241703276.72040939 -62120156.148803711 0 0 0 0 531418374.10194969 -38211836.200902939 0 -38211836.200902939 198377107.06695938 0 0 0 0 2781887.3938864693 1924237.6512735528 0 1924237.6512735528 -2797150.1776974909 0 0 0 0 699534350.37682033 -83723182.837621689 0 -83723182.837621689 -100758402.48554611 0 0 0 0 595243498.01259089 -295509589.9120903 0 -295509589.9120903 97576338.707801819 0 0 0 0 239125678.88135633 -52354494.170302093 0 -52354494.170302093 80815519.928272247 0 0 0 0 -154295918.99542251 8564417.1638698578 0 8564417.1638698578 -193172402.06364822 0 0 0 0 464308.21731364145 1262683.7361167283 0 1262683.7361167283 -3292900.2438144498 0 0 0 0 551870.53483768576 447531.30299738608 0 447531.30299738608 -5889349.8747855164 0 0 0 0 -441726574.07921487 241313437.56757402 0 241313437.56757402 -94084496.892196655 0 0 0 0 738935647.24871755 -491367571.51391983 0 -491367571.51391983 -221996102.18479347 0 0 0 0 1452803.8963955208 2051469.1003002459 0 2051469.1003002459 -8235544.5385376904 0 0 0 0 1771409.5421853268 562172.06969470903 0 562172.06969470903 -2213908.545860026 0 0 0 0 1390842400.4675844 -369104387.28431511 0 -369104387.28431511 -313987759.16736984 0 0 0 0 515664967.2706756 28384362.513545036 0 28384362.513545036 489523994.24804306 0 0 0 0 902890195.88043499 298890981.2576828 0 298890981.2576828 -141254929.00946045 0 0 0 0 970792338.59797859 -619654399.98565674 0 -619654399.98565674 -691070302.27146149 0 0 0 0 -119815604.69520934 -480477544.83752251 0 -480477544.83752251 556319136.82073784 0 0 0 0 -98301761.213409662 -720737668.14486313 0 -720737668.14486313 -942198651.35061264 0 0 0 0 103859781.18546765 -124899688.20284462 0 -124899688.20284462 -90487990.123126984 0 0 0 0 519880272.99989969 268728181.5739997 0 268728181.5739997 -380663474.86072159 0 0 0 0 81869227.818897083 600404.52444934845 0 600404.52444934845 -782031395.6533699 0 0 0 0 -397982399.66038823 78057253.562892914 0 78057253.562892914 -402144389.44292545 0 0 0 0 -469659917.37194085 -519663192.97143173 0 -519663192.97143173 -251753579.36820793 0 0 0 0 -404344315.25581598 -613272655.88739228 0 -613272655.88739228 -1590636674.0418148 0 0 0 0 -245286532.83602902 -948333365.20759463 0 -948333365.20759463 -1560133181.0539494 0 0 0 0 -230422205.39960498 -1064866927.4980245 0 -1064866927.4980245 -682169688.78619003 0 0 0 0 -211327875.15730375 -1169906823.1604071 0 -1169906823.1604071 -1464223576.8373585 0 0 0 0 -62029264.269320205 -1005998017.2541294 0 -1005998017.2541294 -1695688125.813488 0 0 0 0 -63518185.350727901 -1613601455.7855835 0 -1613601455.7855835 -2199619831.0486031 0 0 0 0 159435383.58990788 -1265367250.1564713 0 -1265367250.1564713 -1515124496.9632721 0 0 0 0 84966896.8021328 -1323923682.4070082 0 -1323923682.4070082 -553960376.21952438 0 0 0 0 290250.27075997432 -413044.57767991535 0 -413044.57767991535 -635826.66161234677 0 0 0 0 399064374.3447659 93229443.531115532 0 93229443.531115532 840926504.15161133 0 0 0 0 -372229410.23721564 596369713.42117882 0 596369713.42117882 -2187279770.7838173 0 0 0 0 -223562213.4849405 -1555605115.9463692 0 -1555605115.9463692 -1829786722.5469437 0 0 0 0 -59800.588823967577 154467.7604595907 0 154467.7604595907 -2481658.2996095307 0 0 0 0 355832.37596584007 1828807.3128263084 0 1828807.3128263084 -2395520.0753508061 0 0 0 0 -1007822554.7754796 1263238290.6935673 0 1263238290.6935673 -1055787578.4519119 0 0 0 0 -14585291.301810831 -254232911.6375227 0 -254232911.6375227 -194522222.43901062 0 0 0 0 -399977270.16783655 484409803.23358917 0 484409803.23358917 -81910786.42237854 0 0 0 0 -785604662.05177915 225347378.52575684 0 225347378.52575684 -1605716994.8005276 0 0 0 0 -37937119.65083088 155095640.05660057 0 155095640.05660057 -1564030014.6950264 0 0 0 0 -365226843.4341445 -230602473.5295909 0 -230602473.5295909 -1086731401.6478386 0 0 0 0 -276552375.14857125 -29897976.905382156 0 -29897976.905382156 -943151503.25092506 0 0 0 0 -325042985.1502443 6952661.1084495783 0 6952661.1084495783 -1820817109.0674458 0 0 0 0 -337264443.15429735 -835399536.74171638 0 -835399536.74171638 -1388583895.9155798 0 0 0 0 -1185791360.3505399 884463553.82706738 0 884463553.82706738 -846951850.55215836 0 0 0 0 -470954552.63395321 421532535.76083803 0 421532535.76083803 -1677444413.3285141 0 0 0 0 -1084488560.9646349 -745377683.99168205 0 -745377683.99168205 -1119092443.4980659 0 0 0 0 -1360988100.4410939 -211690266.09790778 0 -211690266.09790778 -1475236560.0258389 0 0 0 0 -523786190.59166652 -681668626.56681728 0 -681668626.56681728 -2205471335.6564808 0 0 0 0 -481643713.7124694 -447018742.77502298 0 -447018742.77502298 -1452758918.1756306 0 0 0 0 -431993730.05862164 -252927993.56376696 0 -252927993.56376696 -2204252752.8265591 0 0 0 0 -254913401.1155023 -69669940.950257301 0 -69669940.950257301 -1792480808.632143 0 0 0 0 16541126.798652757 2329853.4285583496 0 2329853.4285583496 -2204920181.2347679 0 0 0 0 -226092661.10894036 39836709.586213112 0 39836709.586213112 -1804547763.9842873 0 0 0 0 102577097.24143873 203556478.9939537 0 203556478.9939537 -1734486797.3698378 0 0 0 0 265037866.74984297 298834719.24910975 0 298834719.24910975 -2204472310.7300119 0 0 0 0 28541346.377986431 370189545.48460245 0 370189545.48460245 -1402416547.2390566 0 0 0 0 -112928711.08233155 105173748.35721397 0 105173748.35721397 -1766650182.0366483 0 0 0 0 527617103.12173182 710706983.88365722 0 710706983.88365722 -2205233183.2071066 0 0 0 0 376714345.85860324 561631281.21269798 0 561631281.21269798 -1654555106.5678368 0 0 0 0 393305401.12297225 317557838.43277264 0 317557838.43277264 -1682460539.9489594 0 0 0 0 197762517.54091358 535785655.09248638 0 535785655.09248638 -772415736.73074341 0 0 0 0 359746.99894400995 -91568.423272478394 0 -91568.423272478394 -1447625.7489503426 0 0 0 0 642808430.02627075 -906580000.60576773 0 -906580000.60576773 -345233782.43059063 0 0 0 0 439232588.4891625 -314957746.24754906 0 -314957746.24754906 -1818005026.3215866 0 0 0 0 -259569898.26105821 -720840779.35255814 0 -720840779.35255814 -1123625841.168973 0 0 0 0 -376050770.00860906 -205797889.70830011 0 -205797889.70830011 -5785690.2558584213 0 0 0 0 70783125.474217892 -139261847.47388124 0 -139261847.47388124 -1302487058.5133219 0 0 0 0 -365724707.05620122 841172345.09049225 0 841172345.09049225 -1427695641.6324863 0 0 0 0 -7745331.8011767715 -87064688.532821655 0 -87064688.532821655 -1522943777.1256189 0 0 0 0 599712.55324811395 179920.99723418057 0 179920.99723418057 -2019997.4217170645 0 0 0 0 391920867.37146163 481601038.9351716 0 481601038.9351716 -561941149.84801483 0 0 0 0 305133451.73467636 593445157.54705429 0 593445157.54705429 264204929.37578201 0 0 0 0 -258918125.85150003 70931355.893860579 0 70931355.893860579 -372146942.67449188 0 0 0 0 309117098.9028464 214005856.55218887 0 214005856.55218887 -1279336037.8224506 0 0 0 0 -124470501.91920584 -59070951.612075806 0 -59070951.612075806 -487079666.99063206 0 0 0 0 -355230572.10950661 -246678609.22237396 0 -246678609.22237396 -248315357.61850929 0 0 0 0 -100089041.49702024 -265763642.32004356 0 -265763642.32004356 -383066106.8302536 0 0 0 0 -301838847.5683074 -263483308.29028606 0 -263483308.29028606 -301751542.02958488 0 0 0 0 -5801247.3338186741 -337217355.31015205 0 -337217355.31015205 -289339225.08604336 0 0 0 0 -612037.64395427704 -178139464.0748806 0 -178139464.0748806 -13366311.936402321 0 0 0 0 -103982172.56273817 -216605471.10244119 0 -216605471.10244119 -127505916.7121315 0 0 0 0 162988040.68392563 -59550402.010388255 0 -59550402.010388255 -120055958.59036636 0 0 0 0 182389187.83067608 -197641053.40262222 0 -197641053.40262222 -254302648.32086754 0 0 0 0 -124516497.36784597 -57346001.86095047 0 -57346001.86095047 102168936.41278458 0 0 0 0 492652797.51564771 128881087.64028665 0 128881087.64028665 -113810703.31735039 0 0 0 0 1217843.2624746333 25078.059708548011 0 25078.059708548011 -3565818.7250096314 0 0 0 0 470337382.82681274 -166204475.21481514 0 -166204475.21481514 -215852509.41694546 0 0 0 0 -11313504.680587634 -225540298.10056633 0 -225540298.10056633 -3793438.1976776123 0 0 0 0 -24761326.667141199 174221138.6116395 0 174221138.6116395 -177822919.86624599 0 0 0 0 295851913.37169838 30546523.307851791 0 30546523.307851791 48293007.407999039 0 0 0 0 225661282.54721785 -112389701.50396347 0 -112389701.50396347 33307081.451441407 0 0 0 0 309576495.3246088 -125186772.62899399 0 -125186772.62899399 -200235450.59931183 0 0 0 0 201707108.85107863 -78860659.043576717 0 -78860659.043576717 4040502.7419109344 0 0 0 0 -238544233.17811847 -425522164.46721172 0 -425522164.46721172 97069829.608694077 0 0 0 0 -533624.90967428382 -371798.75222463347 0 -371798.75222463347 -152492.79163519759 0 0 0 0 -1676066.3844596148 -105441995.17428607 0 -105441995.17428607 -177910822.24476242 0 0 0 0 352511.61126112659 747.42400154913776 0 747.42400154913776 -804588.54047769867 0 0 0 0 -689857.49711631308 -974659.74519275036 0 -974659.74519275036 -1041566.4854903948 0 0 0 0 19518913.818045616 75568931.102283478 0 75568931.102283478 -112935846.4128933 0 0 0 0 -6025700.2006130219 -16674101.651521683 0 -16674101.651521683 -66443029.569683552 0 0 0 0 718129515.19622326 -9635297.004693985 0 -9635297.004693985 -182013485.38838387 0 0 0 0 151298126.21865869 237951897.04313278 0 237951897.04313278 209461572.98276329 0 0 0 0 -5444451.1606142521 -331350920.27312088 0 -331350920.27312088 -259190102.92355156 0 0 0 0 608601156.13178158 -579662578.06303024 0 -579662578.06303024 -2051505.9958333969 0 0 0 0 -75280018.247977734 -481011320.60677052 0 -481011320.60677052 512902632.552742 0 0 0 0 -93135675.482336104 -87928331.764387846 0 -87928331.764387846 -826219382.59029388 0 0 0 0 -51112273.087936878 71119377.365023613 0 71119377.365023613 -237380697.46730423 0 0 0 0 -362484373.45600986 -452011524.35830116 0 -452011524.35830116 -504975858.93517494 0 0 0 0 -174355628.25667334 -510297963.94551468 0 -510297963.94551468 -416254164.02798891 0 0 0 0 -240877799.81940985 -403993873.46918011 0 -403993873.46918011 -585237600.39660645 0 0 0 0 1032982.8973023522 200259.54788425146 0 200259.54788425146 -764155.90263544023 0 0 0 0 -309718585.81573981 -160838519.60713851 0 -160838519.60713851 -473988265.45951271 0 0 0 0 -252964499.84329122 -356301884.02145386 0 -356301884.02145386 4332379.8601264954 0 0 0 0 3597159.5051934719 -575307021.52203083 0 -575307021.52203083 -412362153.59735441 0 0 0 0 -114294339.50690383 -477916119.46965408 0 -477916119.46965408 -459648225.62255383 0 0 0 0 -258182129.9548907 -406985774.21694469 0 -406985774.21694469 -369881501.0411396 0 0 0 0 -134381798.4953264 -402024844.39097595 0 -402024844.39097595 -429994914.9828701 0 0 0 0 -117242283.7981292 -339978832.59072685 0 -339978832.59072685 -205385930.49369812 0 0 0 0 -127789235.31485724 -627204687.19941711 0 -627204687.19941711 -382448870.22802663 0 0 0 0 -80813263.435065091 -556102443.35655451 0 -556102443.35655451 -277138460.0396862 0 0 0 0 65565271.583289057 -82579016.523095846 0 -82579016.523095846 54243846.107625961 0 0 0 0 57056239.57531029 -111223637.15520191 0 -111223637.15520191 128380104.5147438 0 0 0 0 140392894.20598984 -142225830.61512089 0 -142225830.61512089 58281043.283258438 0 0 0 0 53931829.296075463 -82620262.239785194 0 -82620262.239785194 60786285.402830124 0 0 0 0 54204379.866042018 -57031477.525780678 0 -57031477.525780678 13941619.929141045 0 0 0 0 61878797.248466715 -32671385.493682444 0 -32671385.493682444 -24493954.508834839 0 0 0 0 59313287.31204702 -55868149.226947129 0 -55868149.226947129 9841771.0447425842 0 0 0 0 19562464.08804537 -7068154.3989551067 0 -7068154.3989551067 10951985.955360413 0 0 0 0 22086196.135365568 -29244898.126365662 0 -29244898.126365662 54134076.784122467 0 0 0 0 7349571.6492396137 -4021443.9287378392 0 -4021443.9287378392 -4775364.1047432926 0 0 0 0 16408059.899098098 4603215.148765564 0 4603215.148765564 8857843.2976608276 0 0 0 0 -501784.325262147 1213067.7224537134 0 1213067.7224537134 29207421.728591919 0 0 0 0 51367387.092179775 -30109505.423609734 0 -30109505.423609734 32400987.665314674 0 0 0 0 5740616.5659546545 -185074.69913286855 0 -185074.69913286855 -3570841.9918029006 0 0 0 0 -9289868.1172275543 -32832463.710191727 0 -32832463.710191727 -7686516.4479250908 0 0 0 0 4696352.5333649516 -38248466.805335999 0 -38248466.805335999 91524923.661939144 0 0 0 0 69423529.683159113 63306292.338949203 0 63306292.338949203 14288547.824957848 0 0 0 0 -234935.34388160706 12744803.746752739 0 12744803.746752739 168299972.37892342 0 0 0 0 -8221751.7939476967 -49963577.89822197 0 -49963577.89822197 425684851.94472313 0 0 0 0 295034336.06092644 -550406150.68543625 0 -550406150.68543625 580636695.15326309 0 0 0 0 651409771.9026289 -173996822.45479488 0 -173996822.45479488 96242214.172827482 0 0 0 0 44820179.811562538 -270232607.86869526 0 -270232607.86869526 784397465.38439369 0 0 0 0 2010992.6841370887 46362.934329393785 0 46362.934329393785 -985849.23135204311 0 0 0 0 565219612.40718949 -615423928.1916635 0 -615423928.1916635 272112721.39699173 0 0 0 0 364458026.6697588 -60843849.624470234 0 -60843849.624470234 996925.28365421295 0 0 0 0 491319461.11488867 -382324142.7407589 0 -382324142.7407589 -50130407.900733948 0 0 0 0 286439766.57248831 -137976330.23475742 0 -137976330.23475742 -52855629.891040936 0 0 0 0 96550892.894920588 -158215639.69270468 0 -158215639.69270468 146549658.35230827 0 0 0 0 103810498.24381638 -148084752.69314575 0 -148084752.69314575 155586662.03260124 0 0 0 0 177820403.3710537 -261283416.92760468 0 -261283416.92760468 258488881.45385456 0 0 0 0 179843989.08062124 -247891581.32565498 0 -247891581.32565498 341104696.60346889 0 0 0 0 301401400.72436643 -172601881.89920282 0 -172601881.89920282 23338178.332068443 0 0 0 0 174852319.90476608 -206821901.47938061 0 -206821901.47938061 133549880.94798231 0 0 0 0 206475421.94914395 -142313642.09372711 0 -142313642.09372711 12268162.454221725 0 0 0 0 159867420.69480443 -178963825.03135824 0 -178963825.03135824 19467742.143399239 0 0 0 0 211734897.19057393 -148887188.13763571 0 -148887188.13763571 17489310.644226074 0 0 0 0 235270158.73178792 -72031006.698474407 0 -72031006.698474407 6823286.4701128006 0 0 0 0 259557090.48470855 -128103620.49787712 0 -128103620.49787712 20548284.827361107 0 0 0 0 761579.56685820804 291080.79346896429 0 291080.79346896429 -1373738.9382918058 0 0 0 0 -69934674.58147788 240472262.15758228 0 240472262.15758228 -326700279.71759224 0 0 0 0 207555346.23417449 -133322888.59991407 0 -133322888.59991407 57650572.037266731 0 0 0 0 253418501.32208872 -333848622.36419296 0 -333848622.36419296 54697540.668858424 0 0 0 0 240604.17982357333 -33164.594310473185 0 -33164.594310473185 -618035.19061446795 0 0 0 0 236533007.60807955 -245628012.94052029 0 -245628012.94052029 -270801743.27285671 0 0 0 0 155363815.38783434 -150263961.99832487 0 -150263961.99832487 -50528681.203905106 0 0 0 0 187671301.12130487 -121397966.08164549 0 -121397966.08164549 -203340432.76917553 0 0 0 0 137245279.40021604 -177191920.4640646 0 -177191920.4640646 -47524808.281793594 0 0 0 0 132087356.1763975 -146459723.0925808 0 -146459723.0925808 -9446237.8956441879 0 0 0 0 95618267.427671671 -106585672.26876545 0 -106585672.26876545 -3121786.6977348328 0 0 0 0 114075799.96769856 -127699158.98391065 0 -127699158.98391065 18991037.890300751 0 0 0 0 113105356.55744433 -146271126.95954704 0 -146271126.95954704 63024395.66704464 0 0 0 0 101613859.30157125 -96196844.613848686 0 -96196844.613848686 -24767282.595760345 0 0 0 0 122453734.02695358 -120329869.01144028 0 -120329869.01144028 -77918443.290381432 0 0 0 0 105064780.79386616 -90144774.736763954 0 -90144774.736763954 -35407458.744633675 0 0 0 0 168426877.0489735 -105888019.87193632 0 -105888019.87193632 -91437047.334529877 0 0 0 0 183249608.3938528 -102446468.73769164 0 -102446468.73769164 -94278765.079974174 0 0 0 0 252385056.59142554 -44164607.803311348 0 -44164607.803311348 -152578800.23177958 0 0 0 0 201256104.43925399 -1773187.0027952194 0 -1773187.0027952194 -101542505.83632755 0 0 0 0 218263895.15661255 -98552552.332089424 0 -98552552.332089424 -193735787.104002 0 0 0 0 184976702.74632877 3751281.4387602806 0 3751281.4387602806 -485579689.6734848 0 0 0 0 190475386.51762524 48636875.96538353 0 48636875.96538353 -334530930.24822712 0 0 0 0 126695346.88459659 127902424.25585985 0 127902424.25585985 -189935853.93842888 0 0 0 0 133012364.2718378 179737588.06490946 0 179737588.06490946 -285828284.38196373 0 0 0 0 118309559.18322615 147524806.5417695 0 147524806.5417695 -88606811.498166561 0 0 0 0 324477711.37235284 206002733.91099322 0 206002733.91099322 -51940774.209817886 0 0 0 0 307694641.12475711 30142643.729690373 0 30142643.729690373 -49546892.589660645 0 0 0 0 224362197.79669505 88951372.926062584 0 88951372.926062584 61485114.211713791 0 0 0 0 269030891.94126934 57353619.77155304 0 57353619.77155304 -176963467.34371662 0 0 0 0 129904658.40580869 -11297027.96538353 0 -11297027.96538353 -779078416.19912529 0 0 0 0 68555526.756330967 206947498.85609484 0 206947498.85609484 -816495515.35859454 0 0 0 0 110713505.67559862 61024037.458166122 0 61024037.458166122 -342296371.97135258 0 0 0 0 131828969.57062981 162793251.94007659 0 162793251.94007659 -479909680.25427628 0 0 0 0 92493636.773491979 367794498.82707596 0 367794498.82707596 -360353389.83631039 0 0 0 0 -192942282.09280545 226359739.62792569 0 226359739.62792569 -508191777.73380566 0 0 0 0 499031142.11637199 287260186.5206151 0 287260186.5206151 -1187619820.9825392 0 0 0 0 -60149662.94020772 336466939.9214015 0 336466939.9214015 -540972273.2404722 0 0 0 0 1136205.6116540155 126240.54281962197 0 126240.54281962197 -3328088.1761212 0 0 0 0 -29618933.810498476 242890673.69920015 0 242890673.69920015 -389389892.81316376 0 0 0 0 1529394.2564762612 753231.30076819682 0 753231.30076819682 -3345013.0931749037 0 0 0 0 -479863344.46494502 1379285173.3819196 0 1379285173.3819196 -2202548812.8191514 0 0 0 0 407413823.99137402 -118154960.09006643 0 -118154960.09006643 -154723554.86146498 0 0 0 0 -11249086.500890071 700327876.27115393 0 700327876.27115393 -1225338305.6604018 0 0 0 0 396222732.13889682 171360933.76243234 0 171360933.76243234 -59887278.445485115 0 0 0 0 334874566.11717653 -154534239.22889709 0 -154534239.22889709 252261410.76276788 0 0 0 0 464598981.54504001 -15351103.17574501 0 -15351103.17574501 42257217.870369673 0 0 0 0 -491143961.28011662 392316511.2023015 0 392316511.2023015 274640312.80388731 0 0 0 0 452556715.33186674 333807099.01478863 0 333807099.01478863 346206139.61734629 0 0 0 0 133982.63251786132 154160.5446683967 0 154160.5446683967 -336473.78771855857 0 0 0 0 -88223407.856863201 215626120.06994534 0 215626120.06994534 -2023985.6343784332 0 0 0 0 -43413390.020338058 329559749.88621426 0 329559749.88621426 -81456661.503135204 0 0 0 0 24211486.828104019 424732121.7390132 0 424732121.7390132 -387386247.09406471 0 0 0 0 -32336514.55076547 320559511.75314975 0 320559511.75314975 -79382794.184801102 0 0 0 0 -500450376.29422259 794822126.22911215 0 794822126.22911215 -106258822.0548034 0 0 0 0 195888294.19759291 1273294521.3170962 0 1273294521.3170962 -2194059032.1428881 0 0 0 0 510511566.28317517 201949537.66426235 0 201949537.66426235 -628579618.73681831 0 0 0 0 353695469.61337245 540857663.06525075 0 540857663.06525075 -1359420329.730895 0 0 0 0 -736563571.28523612 709921011.5318799 0 709921011.5318799 -394483330.7614727 0 0 0 0 844430.19390170719 -1362433.9627232687 0 -1362433.9627232687 -3515647.4492576635 0 0 0 0 -50062136.573425174 -598370878.63984632 0 -598370878.63984632 -2200692805.1272202 0 0 0 0 41632654.015724137 -75202395.719704747 0 -75202395.719704747 -1232572028.2465286 0 0 0 0 2729206.9617620828 -1139787.8188137254 0 -1139787.8188137254 -4564190.1364509752 0 0 0 0 9891753.7429070473 7053530.4743857384 0 7053530.4743857384 -19645711.517602444 0 0 0 0 9079946.5028858185 254935.04731178284 0 254935.04731178284 -12570663.774020195 0 0 0 0 9830109.2404583693 1063846.1074075699 0 1063846.1074075699 -31953374.188651085 0 0 0 0 110728215.85710628 227393698.24993289 0 227393698.24993289 -2205457026.9491482 0 0 0 0 -2661861.3601469994 -7978000.5538263321 0 -7978000.5538263321 -17739243.61599493 0 0 0 0 1813990.7272649687 -1494910.8047363898 0 -1494910.8047363898 -3049264.0478634997 0 0 0 0 14871215.428178504 306324743.42130756 0 306324743.42130756 -2017505306.9563065 0 0 0 0 -105354632.09370326 490670879.64569473 0 490670879.64569473 -2205604482.9174647 0 0 0 0 6408179.4762158394 21663764.742637634 0 21663764.742637634 -60929792.149433136 0 0 0 0 11009215.072264194 14497048.759302139 0 14497048.759302139 -58245526.801404953 0 0 0 0 -252365.68895109859 -726178.84035935812 0 -726178.84035935812 202337.84661965433 0 0 0 0 -12028752.400032282 25155645.890259743 0 25155645.890259743 -57324158.768903732 0 0 0 0 -31257559.318851948 19246546.974173546 0 19246546.974173546 -30388154.974520683 0 0 0 0 -9986995.7533090115 22685096.453706741 0 22685096.453706741 -22345941.319952488 0 0 0 0 -11155244.053684711 1002412.6377587318 0 1002412.6377587318 -137813.48406565189 0 0 0 0 -1301556.0203206746 4044963.9291487634 0 4044963.9291487634 825865.46552773518 0 0 0 0 38963.658542156219 22125390.213203549 0 22125390.213203549 -27881140.986273766 0 0 0 0 -6374669.656437397 16711763.085028172 0 16711763.085028172 -18497528.075877666 0 0 0 0 -141170.53128623962 9403514.4000756741 0 9403514.4000756741 -4901226.6237392426 0 0 0 0 -1462871.0250638356 3221922.1199780246 0 3221922.1199780246 2353317.6339407652 0 0 0 0 -58982.466218471527 11921901.945316076 0 11921901.945316076 -5814723.9955377579 0 0 0 0 -780289.09073597891 4924795.9214804163 0 4924795.9214804163 -7351003.7048203507 0 0 0 0 214829528.35035586 -35455464.905311584 0 -35455464.905311584 -24747314.671976089 0 0 0 0 251799707.31315386 7538310.6415281296 0 7538310.6415281296 -56739330.303782463 0 0 0 0 -341369.68353467342 4633148.5415879022 0 4633148.5415879022 -8245634.8644695636 0 0 0 0 174420964.11097324 -23705506.581970215 0 -23705506.581970215 -345020038.80810571 0 0 0 0 251422370.15443498 -68784233.835317612 0 -68784233.835317612 -618485573.96624756 0 0 0 0 176986264.7558369 -136781585.58088684 0 -136781585.58088684 -638948906.73499107 0 0 0 0 536078317.53683478 -253373977.5783999 0 -253373977.5783999 -2206157880.6392002 0 0 0 0 382856461.20497113 203163606.87163734 0 203163606.87163734 -1650809531.8591614 0 0 0 0 503174888.81534618 -249749474.6477437 0 -249749474.6477437 -1236179576.0635738 0 0 0 0 190692139.48515141 -336241372.56136322 0 -336241372.56136322 -1245344943.6346107 0 0 0 0 284288922.12375611 -932329961.34415245 0 -932329961.34415245 -2200286959.054266 0 0 0 0 12534261.291902333 15498607.876607418 0 15498607.876607418 -2960755.4958763123 0 0 0 0 -484721364.15925169 -426587092.46067142 0 -426587092.46067142 -210106730.10878563 0 0 0 0 -127558911.94431931 -183763657.20873737 0 -183763657.20873737 -160537069.95908737 0 0 0 0 -13394255.733999461 73547429.863155365 0 73547429.863155365 -93632986.397501945 0 0 0 0 30180292.675829768 90967634.061001301 0 90967634.061001301 -113945633.06363487 0 0 0 0 -2831409.0813570023 15100264.440450668 0 15100264.440450668 -21678188.673671722 0 0 0 0 754648.48915804841 1246640.1035174727 0 1246640.1035174727 -1225229.0818590689 0 0 0 0 110805147.16038418 -398019971.24037933 0 -398019971.24037933 -2203282474.2791967 0 0 0 0 -755042813.49565196 -596012088.63441706 0 -596012088.63441706 -291417913.31695938 0 0 0 0 -1147181.2932616286 73262.3992416705 0 73262.3992416705 -2431260.8386726286 0 0 0 0 139692833.46884733 340978312.90410042 0 340978312.90410042 -1982967486.6240973 0 0 0 0 672805.83273391984 -674077.7137194695 0 -674077.7137194695 -1252714.6859946519 0 0 0 0 -156605146.15460801 16594651.497869492 0 16594651.497869492 -31277479.46326828 0 0 0 0 -46632844.112321578 45290675.723509312 0 45290675.723509312 -62165902.515232086 0 0 0 0 -61655967.31593015 323439523.04600525 0 323439523.04600525 -2392555019.0486231 0 0 0 0 -1192982.9178857452 -1292488.8660777705 0 -1292488.8660777705 -5699877.2514494546 0 0 0 0 13213255.39496696 -242107.6745891571 0 -242107.6745891571 -15528956.021884918 0 0 0 0 -15579340.069527332 12348723.490352988 0 12348723.490352988 -33480111.827468872 0 0 0 0 -1591504.4567217962 5571979.0584064396 0 5571979.0584064396 -1687895.0650819407 0 0 0 0 946922.40404391289 6681579.0387630463 0 6681579.0387630463 -18611344.961499691 0 0 0 0 -3785526.100255847 11592410.037188351 0 11592410.037188351 -18694992.725481987 0 0 0 0 35120545.221618414 -26622183.923552036 0 -26622183.923552036 -19242027.275590897 0 0 0 0 45111180.08077383 -14053551.447227478 0 -14053551.447227478 -12081720.014029026 0 0 0 0 4000187.9025563537 -369848.42915272503 0 -369848.42915272503 -14257382.428296829 0 0 0 0 42834900.169211864 -50681365.699213028 0 -50681365.699213028 51587652.086891174 0 0 0 0 1827319.128762553 1559272.5211069323 0 1559272.5211069323 -4300712.572082011 0 0 0 0 88655181.347562671 -42264222.928701878 0 -42264222.928701878 -44732336.621160507 0 0 0 0 26930655.01878643 31662867.199700356 0 31662867.199700356 -85307641.305850983 0 0 0 0 -281200922.95268583 298686449.82757378 0 298686449.82757378 -211847301.32781219 0 0 0 0 -12797948.583718777 85935020.67459774 0 85935020.67459774 -301096844.84047699 0 0 0 0 -135714575.44414282 255582454.54803085 0 255582454.54803085 -309182563.67751312 0 0 0 0 263533763.86631393 -177515494.70505714 0 -177515494.70505714 344864726.07398987 0 0 0 0 545948.38055350352 339895.18954844214 0 339895.18954844214 -1277651.7893484239 0 0 0 0 206235702.66555756 -261831329.53787756 0 -261831329.53787756 229988428.04282379 0 0 0 0 327077.86043741915 88085.933725128416 0 88085.933725128416 -727119.40661449637 0 0 0 0 59832228.027436733 79021610.899776459 0 79021610.899776459 89161866.687421799 0 0 0 0 252714847.91507488 -293969854.60191822 0 -293969854.60191822 331567072.67890167 0 0 0 0 383521825.90292907 -63660995.372808456 0 -63660995.372808456 -343099274.84641111 0 0 0 0 -22827665.775926232 9110358.9612240791 0 9110358.9612240791 -53649187.296585083 0 0 0 0 -17325278.955263808 70738060.301958859 0 70738060.301958859 -48878260.237417221 0 0 0 0 -747040.46546685358 2025493.8568758918 0 2025493.8568758918 -697614.37691916246 0 0 0 0 -4991948.990352869 24688593.102655411 0 24688593.102655411 19794868.935660362 0 0 0 0 -4768008.231087923 22462620.351396561 0 22462620.351396561 -20092612.913332939 0 0 0 0 8141867.7910783291 17772230.370641232 0 17772230.370641232 -21700131.91374588 0 0 0 0 24746510.449808836 13621973.213815689 0 13621973.213815689 -36726320.161270142 0 0 0 0 3632734.3882377176 -1584573.1338757493 0 -1584573.1338757493 -13907354.095165489 0 0 0 0 33013456.268561363 -3596161.5366740227 0 -3596161.5366740227 -24204576.059334755 0 0 0 0 37178230.395542145 -11530291.024503469 0 -11530291.024503469 -17257427.648752213 0 0 0 0 -482733.04033613205 9038652.3642506599 0 9038652.3642506599 -15706717.795408249 0 0 0 0 67979218.756064415 158794199.14100266 0 158794199.14100266 -544282532.47092104 0 0 0 0 61256143.803044558 125858874.86386061 0 125858874.86386061 -680368741.83444214 0 0 0 0 79738978.689177454 33657504.613720179 0 33657504.613720179 -473840080.96150112 0 0 0 0 78918.727154837688 2057778.2788889194 0 2057778.2788889194 -1511983.0077618174 0 0 0 0 -97865254.235788703 151269541.53147936 0 151269541.53147936 -428415644.6121397 0 0 0 0 134044544.19925487 115393733.25895154 0 115393733.25895154 -763400539.28382587 0 0 0 0 -35778572.131520987 101967934.9906826 0 101967934.9906826 -710432941.96313095 0 0 0 0 19310054.09360072 283560487.30311465 0 283560487.30311465 -1100932139.3618011 0 0 0 0 -306944242.04225242 440951441.39665318 0 440951441.39665318 -1145511417.7663164 0 0 0 0 178983427.1167165 -133218912.10239458 0 -133218912.10239458 -1125419003.7171488 0 0 0 0 102190584.66778444 334897938.43861783 0 334897938.43861783 -387603855.00098419 0 0 0 0 -80429430.382214904 -349266653.10227108 0 -349266653.10227108 -94195728.324018955 0 0 0 0 -168747147.05286431 2234724.8824625015 0 2234724.8824625015 -57932622.84901619 0 0 0 0 -31092658.877731323 98974173.104129791 0 98974173.104129791 -224256777.96099091 0 0 0 0 60358549.769377232 -29732122.714265823 0 -29732122.714265823 -260266555.2008543 0 0 0 0 -18352223.688140631 17137328.574120522 0 17137328.574120522 -207767661.30722904 0 0 0 0 -30418397.443803549 12254068.400772095 0 12254068.400772095 -17181386.925991058 0 0 0 0 -36621735.179706573 -11671343.826107025 0 -11671343.826107025 -59965915.533306956 0 0 0 0 -54957201.52524209 33795630.415991783 0 33795630.415991783 -31415880.796524048 0 0 0 0 28021974.259741306 18731964.111047745 0 18731964.111047745 -79129742.816709518 0 0 0 0 25978178.684968233 31744822.598855972 0 31744822.598855972 -103706997.16910744 0 0 0 0 55356994.129538536 -19423916.97276783 0 -19423916.97276783 -39861834.632596016 0 0 0 0 56342267.5116117 -8137576.4202051163 0 -8137576.4202051163 -54550272.133199692 0 0 0 0 115344651.66858083 -64493359.905448437 0 -64493359.905448437 -71734770.823339462 0 0 0 0 98253512.017740726 -42995833.620839119 0 -42995833.620839119 -98773563.634923935 0 0 0 0 15944885.47444582 20000760.172605515 0 20000760.172605515 -97466523.310381889 0 0 0 0 106927215.37084508 -32710620.242137909 0 -32710620.242137909 -106218009.15322781 0 0 0 0 66104209.51551652 20729458.487029076 0 20729458.487029076 -169789856.57424545 0 0 0 0 72791044.281001091 -90203843.501024246 0 -90203843.501024246 -9323599.9459915161 0 0 0 0 119888992.70725071 -11112824.184059143 0 -11112824.184059143 3463565.5947360992 0 0 0 0 68432605.7967062 -65000380.141340256 0 -65000380.141340256 -124328800.60766602 0 0 0 0 191138058.47303161 -45092285.965260506 0 -45092285.965260506 -70803784.562074661 0 0 0 0 117606646.55458093 -15092520.909639359 0 -15092520.909639359 -78923457.666748047 0 0 0 0 128787184.95780039 -79678714.589557648 0 -79678714.589557648 -89776191.698191166 0 0 0 0 -36225805.902543783 26234398.186243057 0 26234398.186243057 -21934659.747234344 0 0 0 0 -100793479.99583805 79744672.757722855 0 79744672.757722855 -35585842.05091095 0 0 0 0 -64602927.837483406 -78085405.447183609 0 -78085405.447183609 -122578584.93837738 0 0 0 0 -1124520.980156319 1067363.0092458948 0 1067363.0092458948 808259.35710162856 0 0 0 0 -692.93839221663075 209901.03834713157 0 209901.03834713157 -411287.16978055006 0 0 0 0 -13268244.900408745 46037550.894133091 0 46037550.894133091 -59108253.285486221 0 0 0 0 -21230497.828518808 15181913.397392392 0 15181913.397392392 -42755905.707080841 0 0 0 0 18526662.459398508 23982118.058894634 0 23982118.058894634 -37700015.424978256 0 0 0 0 48609650.124465466 -38015737.832315445 0 -38015737.832315445 -26364732.421543121 0 0 0 0 22324367.330478668 -25209891.988565445 0 -25209891.988565445 -6337161.3921618462 0 0 0 0 16387380.740597248 -6191713.9673318863 0 -6191713.9673318863 -92750211.038167 0 0 0 0 9905928.692335844 -5427488.0838861465 0 -5427488.0838861465 -23869095.502544403 0 0 0 0 -24700244.550835848 -47799192.870761871 0 -47799192.870761871 -22108286.589148521 0 0 0 0 46531814.927240372 -22583963.53225708 0 -22583963.53225708 -36936561.405601978 0 0 0 0 336803.57231354713 -14500787.511569023 0 -14500787.511569023 17782213.409807205 0 0 0 0 5178143.460647597 -3700540.4054676211 0 -3700540.4054676211 -7959588.5714741806 0 0 0 0 393957.16303777695 -45654407.132552147 0 -45654407.132552147 38826095.452152729 0 0 0 0 -68743084.928563118 177049719.64552212 0 177049719.64552212 -410264648.87304688 0 0 0 0 4383734.4662858434 -2727653.9070065767 0 -2727653.9070065767 -13782146.299919516 0 0 0 0 1187303.7250380705 2335694.1165013034 0 2335694.1165013034 -3301896.7486160067 0 0 0 0 11816456.550066352 877217.68905973434 0 877217.68905973434 -23318239.690080643 0 0 0 0 94858.955711641815 -21587.363612442045 0 -21587.363612442045 21308.796319087036 0 0 0 0 24135534.759670258 253181885.62747431 0 253181885.62747431 -715458435.66021681 0 0 0 0 -106370980.34556389 288083300.83135414 0 288083300.83135414 -428389651.39467049 0 0 0 0 -77908403.973051071 161215240.77729225 0 161215240.77729225 -377530244.18327332 0 0 0 0 2787826.8651046753 -250890.05087089539 0 -250890.05087089539 -135157373.05538464 0 0 0 0 -270476247.9503994 154001179.20644474 0 154001179.20644474 -130256214.05197811 0 0 0 0 26215637.129816055 101550146.19930935 0 101550146.19930935 -308437240.31889582 0 0 0 0 -344708564.88905716 525570791.67441082 0 525570791.67441082 -579119660.92370129 0 0 0 0 6374606.6994119277 -4221315.3234723536 0 -4221315.3234723536 -5913205.2781978715 0 0 0 0 -146317069.71385479 128018060.53936291 0 128018060.53936291 53785580.921091318 0 0 0 0 55450278.563387871 -6792382.9934079647 0 -6792382.9934079647 -53134166.53970027 0 0 0 0 67493544.936473846 -6231519.5029759407 0 -6231519.5029759407 -61679300.463401794 0 0 0 0 -14883405.505149364 -10235971.48703289 0 -10235971.48703289 50549608.521080971 0 0 0 0 7833074.296489507 10383273.356107831 0 10383273.356107831 19656003.460622787 0 0 0 0 -37646096.542262793 -12610979.008620262 0 -12610979.008620262 10679359.535380363 0 0 0 0 2881261.3794500828 9286894.357254982 0 9286894.357254982 -21118609.768159866 0 0 0 0 17526116.000702143 -4428237.8440876007 0 -4428237.8440876007 8458827.1562948227 0 0 0 0 -1255571.6608953476 21204901.923456192 0 21204901.923456192 -15782546.426625252 0 0 0 0 17900412.684592485 -2198636.6452865601 0 -2198636.6452865601 10306203.969209671 0 0 0 0 8474726.5252692699 2952240.198890686 0 2952240.198890686 11726917.688576698 0 0 0 0 11419973.785789728 -3042914.0339660645 0 -3042914.0339660645 19469819.04683876 0 0 0 0 -3219836.1668059537 1695338.3600758002 0 1695338.3600758002 -3100198.9153241273 0 0 0 0 -21826243.687236786 25540376.496432304 0 25540376.496432304 -7408600.0308954716 0 0 0 0 -52369364.235892296 45149472.783314228 0 45149472.783314228 -805836711.64609933 0 0 0 0 -10150402.002736092 34132379.011009902 0 34132379.011009902 -847498997.19631076 0 0 0 0 -27682588.652917266 37832102.657776028 0 37832102.657776028 -807210333.20199013 0 0 0 0 -1162714.1311812596 90238.812001128099 0 90238.812001128099 -927180.92039163085 0 0 0 0 -53350713.117288589 -20576897.534435868 0 -20576897.534435868 -1027772958.1857427 0 0 0 0 41989748.106562138 178802187.61319721 0 178802187.61319721 -1491196446.2385416 0 0 0 0 -142343697.75077248 71646160.661715329 0 71646160.661715329 -499344425.78649682 0 0 0 0 -145749494.20019144 244134381.31598946 0 244134381.31598946 -780187871.45560586 0 0 0 0 -132479782.95615828 81460850.796362847 0 81460850.796362847 -776815561.74193382 0 0 0 0 -88329061.193511486 4083629.6509660184 0 4083629.6509660184 -504938168.06032771 0 0 0 0 -121710016.86265469 115117367.99292034 0 115117367.99292034 -752192317.83938432 0 0 0 0 -157205833.9753809 73492625.863983691 0 73492625.863983691 -430550512.99183404 0 0 0 0 -70653729.824510306 -132356171.96716803 0 -132356171.96716803 -240079949.24721014 0 0 0 0 -136638489.64590025 64303757.191502094 0 64303757.191502094 -503178644.62160552 0 0 0 0 -222807273.36996794 -1181199.6119100153 0 -1181199.6119100153 -153760020.88053238 0 0 0 0 280909050.23163486 41454214.128293514 0 41454214.128293514 -291517281.91155815 0 0 0 0 -607810.04881954938 -2230160.8508205535 0 -2230160.8508205535 -3169146.4918419011 0 0 0 0 38439046.026604012 -252089045.09889686 0 -252089045.09889686 103897985.81293726 0 0 0 0 44307328.594605446 64825928.370024145 0 64825928.370024145 -144083824.55445591 0 0 0 0 -93495820.718566895 -64989128.861860752 0 -64989128.861860752 -232367151.88849711 0 0 0 0 65393997.160322666 112112751.7215144 0 112112751.7215144 -95614281.357836723 0 0 0 0 -15265671.321967602 54488849.63567096 0 54488849.63567096 -506109684.13534641 0 0 0 0 131594275.31035995 99402880.04505825 0 99402880.04505825 -492549456.9871583 0 0 0 0 47911847.254003525 108153539.98861313 0 108153539.98861313 -759097188.05723715 0 0 0 0 30218028.945925236 107472425.23226702 0 107472425.23226702 -476332879.71637177 0 0 0 0 -291005194.76204395 149028493.25263405 0 149028493.25263405 -459760821.35324079 0 0 0 0 -291924269.84313297 441135152.32774806 0 441135152.32774806 -983618872.01308465 0 0 0 0 -366038611.31492513 90981889.302435666 0 90981889.302435666 -717416901.54523039 0 0 0 0 61829063.224537373 199265461.00448549 0 199265461.00448549 -683330867.15594244 0 0 0 0 88474577.506710052 178535716.55923915 0 178535716.55923915 -1023937385.91326 0 0 0 0 131275490.20151186 165229230.93585873 0 165229230.93585873 -732765780.70054197 0 0 0 0 112152787.08673477 100235707.9047761 0 100235707.9047761 -530324648.46663475 0 0 0 0 66463614.548802376 196697959.85594511 0 196697959.85594511 -644253398.9794693 0 0 0 0 7076688.3461586908 162777339.09720063 0 162777339.09720063 -521360302.57528019 0 0 0 0 -716967.53333133843 -1499064.7802544413 0 -1499064.7802544413 -2303338.186937314 0 0 0 0 34047427.436422199 168350824.00605932 0 168350824.00605932 -522200709.37869692 0 0 0 0 5044657.8166275024 -965475.49414658546 0 -965475.49414658546 -174794804.30011988 0 0 0 0 29375172.630500317 196427526.40033045 0 196427526.40033045 -440789949.11218691 0 0 0 0 -323681468.69055998 598933425.55663753 0 598933425.55663753 68796662.10247612 0 0 0 0 -125387129.58124226 550144688.97650051 0 550144688.97650051 -1077105245.0010195 0 0 0 0 25287.222603176662 -358971.6673085182 0 -358971.6673085182 -969743.47447459958 0 0 0 0 -191367264.32415614 379100928.03715372 0 379100928.03715372 -755258049.44999325 0 0 0 0 -251409206.52568543 131324440.54264545 0 131324440.54264545 212619070.79237175 0 0 0 0 -279577908.63917208 6089337.4894165993 0 6089337.4894165993 125856151.21360779 0 0 0 0 182509.11833410669 -412962.57698464242 0 -412962.57698464242 -4006916.5918968599 0 0 0 0 412979705.27791458 -46358273.459486961 0 -46358273.459486961 -120488425.97457504 0 0 0 0 103081696.63351035 -170755828.05500603 0 -170755828.05500603 -26040648.826910019 0 0 0 0 93316952.173084974 118282093.55145168 0 118282093.55145168 52674933.769004822 0 0 0 0 33880941.421460629 25282618.615870953 0 25282618.615870953 83803754.984851599 0 0 0 0 31967689.61286296 64612486.774414241 0 64612486.774414241 -594310795.76576138 0 0 0 0 379392465.35215002 -21864303.003284931 0 -21864303.003284931 -202939747.85426331 0 0 0 0 127690.91315889759 -517205.9341859938 0 -517205.9341859938 -3066102.6880612541 0 0 0 0 -456767213.98958325 -747809411.69817638 0 -747809411.69817638 76356521.509300232 0 0 0 0 -1183091.0362646275 -2548309.16945427 0 -2548309.16945427 -3322565.6412759372 0 0 0 0 155245019.19066906 -137418852.17452276 0 -137418852.17452276 -201923998.43826222 0 0 0 0 -183540629.83969641 400359740.90364408 0 400359740.90364408 20347379.437866688 0 0 0 0 -343345112.97322893 -397937059.08269596 0 -397937059.08269596 -327525040.62707186 0 0 0 0 -178704.25332290924 -560041.0190822836 0 -560041.0190822836 -2076374.5102652931 0 0 0 0 -627436256.25945985 -212946611.36798716 0 -212946611.36798716 -41212373.481908798 0 0 0 0 362595577.66884601 295507945.07859421 0 295507945.07859421 -517900222.3179394 0 0 0 0 -71169234.240103304 310946205.5997718 0 310946205.5997718 -270745058.73861504 0 0 0 0 195040592.43303245 24564909.760688066 0 24564909.760688066 -40610622.483948112 0 0 0 0 -261595529.61523101 -289434340.18894279 0 -289434340.18894279 -63012189.08662796 0 0 0 0 -301007539.7584734 -58244108.754136086 0 -58244108.754136086 9494476.1323413849 0 0 0 0 -73416207.64593029 -28282974.458436012 0 -28282974.458436012 -5101284.9129104614 0 0 0 0 -25952437.820555687 -58864836.329077721 0 -58864836.329077721 -72503540.988307953 0 0 0 0 303083965.81304634 -44201830.497744232 0 -44201830.497744232 -176975199.8957181 0 0 0 0 -691364.09624597151 -2266823.3391866465 0 -2266823.3391866465 -5543899.9480296727 0 0 0 0 -47451687.440854311 -15485682.808740854 0 -15485682.808740854 -12386444.65290451 0 0 0 0 -6684970.2955904007 -42043143.564769745 0 -42043143.564769745 6194507.7253837585 0 0 0 0 633933.96242576232 94031.383149953093 0 94031.383149953093 -857070.97320332192 0 0 0 0 175054951.05519634 -72218408.313701987 0 -72218408.313701987 116652236.08691299 0 0 0 0 -64524968.90911746 -128913056.86108971 0 -128913056.86108971 52125950.255951881 0 0 0 0 -85576105.208803892 -281298388.05151749 0 -281298388.05151749 -45234754.06925106 0 0 0 0 -69038784.03528285 -227393925.90163898 0 -227393925.90163898 -221530578.19929314 0 0 0 0 4853521.2196989059 -28739721.28442955 0 -28739721.28442955 -511574945.86932182 0 0 0 0 -73676171.997575283 -112908263.1718626 0 -112908263.1718626 -198384182.20133686 0 0 0 0 -98833273.049656153 -244349587.2389183 0 -244349587.2389183 -89780802.388852119 0 0 0 0 -2118.0170988943792 -379362.99139059742 0 -379362.99139059742 -1182594.2580219395 0 0 0 0 -17497655.932592809 -313750955.4147501 0 -313750955.4147501 -241045538.1592865 0 0 0 0 -96108886.69147715 152039315.59238911 0 152039315.59238911 -246389756.12524796 0 0 0 0 56911789.114660949 -300404569.35179996 0 -300404569.35179996 -588476233.24672127 0 0 0 0 -309973443.85679042 149785938.97744751 0 149785938.97744751 -27190257.549383163 0 0 0 0 -24578928.928179502 -96369955.249315262 0 -96369955.249315262 89090918.514466286 0 0 0 0 2504466.9555595517 -21482554.621110439 0 -21482554.621110439 -100447925.64677238 0 0 0 0 -30753861.432623863 29934648.625686646 0 29934648.625686646 -128945823.56326103 0 0 0 0 66116729.297388971 -33065885.951084137 0 -33065885.951084137 20519967.832472324 0 0 0 0 -75577741.706715584 67666555.151561737 0 67666555.151561737 -35746892.938152313 0 0 0 0 -993640.63119411469 346206.94754219055 0 346206.94754219055 4982316.6869430542 0 0 0 0 -53008164.549264431 11714462.842855453 0 11714462.842855453 31340919.865652084 0 0 0 0 -124538226.12992132 14347085.181293488 0 14347085.181293488 55350413.343093872 0 0 0 0 -33837121.68537958 -54184382.721892834 0 -54184382.721892834 -79671241.410210133 0 0 0 0 -661295.8919653591 -865075.41588399303 0 -865075.41588399303 1146322.3047466623 0 0 0 0 120729319.45466113 -111126077.45432377 0 -111126077.45432377 11316331.506385803 0 0 0 0 -3577508.2034702301 -8909242.8225514889 0 -8909242.8225514889 6488190.4312572479 0 0 0 0 -1741103.7906273138 -2974519.8712863503 0 -2974519.8712863503 254860.31576973945 0 0 0 0 -8140406.5701012611 19106936.473385811 0 19106936.473385811 -29858994.864042282 0 0 0 0 -14973483.894724846 19249923.275360107 0 19249923.275360107 -11035505.373382568 0 0 0 0 -8676658.0729613304 26172803.322621822 0 26172803.322621822 -68449583.978946686 0 0 0 0 -39007421.326252937 43674472.00381279 0 43674472.00381279 -31313237.616609573 0 0 0 0 -6762345.7113480065 -27852635.613046017 0 -27852635.613046017 -60740655.866401672 0 0 0 0 -34536570.704293728 29837088.079874039 0 29837088.079874039 -32467101.46887207 0 0 0 0 -552505.45825905004 -464806.86270828126 0 -464806.86270828126 511434.72040877771 0 0 0 0 -39046303.884195209 41483202.623771191 0 41483202.623771191 -12818013.041126251 0 0 0 0 -23250843.673138618 9524683.1157684326 0 9524683.1157684326 -18238661.047544003 0 0 0 0 -35425208.502334714 19983192.5748173 0 19983192.5748173 -1913620.4907302856 0 0 0 0 1298795.6384220123 -1163402.5477628708 0 -1163402.5477628708 -639012.64795970917 0 0 0 0 -257970.67136353254 -22640989.390982807 0 -22640989.390982807 11617193.763902664 0 0 0 0 192152553.82863116 -303250565.11810732 0 -303250565.11810732 98295245.873935148 0 0 0 0 -1957091.6598408432 -3591626.3282742607 0 -3591626.3282742607 -6598172.921748193 0 0 0 0 244651274.38115561 -147757216.29771829 0 -147757216.29771829 6816059.5836296082 0 0 0 0 17642110.581548691 -141084204.56168938 0 -141084204.56168938 58478202.948093295 0 0 0 0 -68565087.758279324 -95136443.440553784 0 -95136443.440553784 256072637.64170945 0 0 0 0 -308058626.93157864 -119246028.03262979 0 -119246028.03262979 101324299.45108265 0 0 0 0 -28983607.546224117 -123463462.25948536 0 -123463462.25948536 99171720.89467597 0 0 0 0 41699210.779386997 -193833457.99609712 0 -193833457.99609712 -237416228.53043526 0 0 0 0 13027348.255389214 -85160146.213055968 0 -85160146.213055968 179606082.51976824 0 0 0 0 -4807769.4067898504 -5411341.8735490302 0 -5411341.8735490302 -6310795.5179576706 0 0 0 0 -883453.80198717117 -229304911.94562852 0 -229304911.94562852 253139792.44962978 0 0 0 0 -62254886.002757072 -30150719.888436079 0 -30150719.888436079 141224629.82167721 0 0 0 0 -56200114.206931114 28988305.158546448 0 28988305.158546448 201270673.33057225 0 0 0 0 -205797025.0526619 -80484925.980208755 0 -80484925.980208755 196413619.81625426 0 0 0 0 -35631277.760285378 -22571419.484743118 0 -22571419.484743118 149358849.43392706 0 0 0 0 18043070.41350174 200050614.82515919 0 200050614.82515919 212812429.76710916 0 0 0 0 51034969.376302719 165683054.75134039 0 165683054.75134039 -12527508.860228434 0 0 0 0 -35989418.985737801 23458919.628183126 0 23458919.628183126 194801201.12345934 0 0 0 0 -177314529.81626701 13116766.342817068 0 13116766.342817068 231518751.3867994 0 0 0 0 -31657255.302773476 159259865.2089856 0 159259865.2089856 288963283.34997511 0 0 0 0 23208746.166250229 47285385.974033587 0 47285385.974033587 158533442.47710031 0 0 0 0 -8774486.2086882591 105092921.00526801 0 105092921.00526801 55390785.027402565 0 0 0 0 -227962711.80562401 175568739.04922134 0 175568739.04922134 36979510.830087662 0 0 0 0 -156163593.98854923 -26569873.371144176 0 -26569873.371144176 -97802329.60719955 0 0 0 0 -113995512.83106804 5314527.9997085929 0 5314527.9997085929 106925361.33664697 0 0 0 0 -271669104.60007286 -67120718.658663481 0 -67120718.658663481 101724582.3124011 0 0 0 0 -659622518.10483575 -161800647.12043238 0 -161800647.12043238 -101284312.44471508 0 0 0 0 -102440749.31034517 138060886.28292435 0 138060886.28292435 -439332851.26626247 0 0 0 0 -13277066.662000179 -3565613.5118591338 0 -3565613.5118591338 -248282932.90040472 0 0 0 0 -237393526.13470507 -224173731.36561033 0 -224173731.36561033 -270065010.36057967 0 0 0 0 -260971873.23517942 -184575824.22988054 0 -184575824.22988054 159576658.29244128 0 0 0 0 -90923083.125808239 362326478.13816309 0 362326478.13816309 -770386253.13359058 0 0 0 0 -43445.268993839156 -822474.12164066732 0 -822474.12164066732 -1369025.9878958487 0 0 0 0 -21237829.180566665 62053214.694858611 0 62053214.694858611 -288873038.78401327 0 0 0 0 192788895.84524664 106521742.52733481 0 106521742.52733481 -380045759.06392288 0 0 0 0 72897342.530085564 -151474831.29918629 0 -151474831.29918629 -208812473.69543344 0 0 0 0 186661183.4800787 -119007930.88396063 0 -119007930.88396063 -214171251.97145462 0 0 0 0 -41486283.582601547 8325322.7750115544 0 8325322.7750115544 -229333920.32766014 0 0 0 0 -44202832.898533821 -239737141.15806198 0 -239737141.15806198 -749642562.76918685 0 0 0 0 33551143.168610573 21114578.561320305 0 21114578.561320305 -78766305.770135403 0 0 0 0 -1951969.9401988983 -21098079.809933662 0 -21098079.809933662 8646606.7347984314 0 0 0 0 -20435865.372290909 64943221.518917441 0 64943221.518917441 -16955788.185035706 0 0 0 0 6488886.9946352243 4635245.5323638916 0 4635245.5323638916 -24443680.919371605 0 0 0 0 3563854.1137659941 2439824.5670419186 0 2439824.5670419186 -2045551.2682057451 0 0 0 0 4945313.8405499458 3598208.8314037323 0 3598208.8314037323 -17918362.847214222 0 0 0 0 1406813.3737731576 2233569.2837867737 0 2233569.2837867737 -17105466.519073486 0 0 0 0 -32113665.267127514 84388778.68844223 0 84388778.68844223 -65447844.531787872 0 0 0 0 31524723.694600105 495724.18531227112 0 495724.18531227112 -63638556.477394104 0 0 0 0 5773043.620724285 3286300.8484382974 0 3286300.8484382974 -6327659.27964924 0 0 0 0 -766936.69678517384 -1874856.4301104925 0 -1874856.4301104925 -8610628.5531100929 0 0 0 0 59410261.503305435 68535377.006088257 0 68535377.006088257 -76968910.237410545 0 0 0 0 -62227465.434322715 32130189.134774446 0 32130189.134774446 7006460.1438903809 0 0 0 0 9182420.8098187447 -39855161.145763874 0 -39855161.145763874 12869705.969225883 0 0 0 0 -81395193.988514662 93518595.616811037 0 93518595.616811037 -71608189.185024261 0 0 0 0 -2427957.5040147137 -2116414.3562848447 0 -2116414.3562848447 -4335054.9377933443 0 0 0 0 -22538950.517093182 24051957.780632496 0 24051957.780632496 -76150732.445072174 0 0 0 0 -55232023.823206902 34966080.247327805 0 34966080.247327805 -75095088.277992249 0 0 0 0 63871261.916352272 -24215231.170713425 0 -24215231.170713425 -48569936.736727715 0 0 0 0 -21373681.567815304 26524240.646393776 0 26524240.646393776 -74105556.982555389 0 0 0 0 28851091.097911358 -11532209.79733181 0 -11532209.79733181 -76090081.186779022 0 0 0 0 11216270.700194359 6695362.7999954224 0 6695362.7999954224 -104985200.55142593 0 0 0 0 -178953.86882019043 28675569.356790543 0 28675569.356790543 -117902564.60971832 0 0 0 0 -85690611.573778152 111348761.00202608 0 111348761.00202608 -139208086.1535244 0 0 0 0 -8077867.0237903595 57889475.318277359 0 57889475.318277359 -130205049.69885302 0 0 0 0 -2309235.657330351 -1784622.3540587814 0 -1784622.3540587814 -2454519.9668113953 0 0 0 0 94869758.234117508 -53243486.456205368 0 -53243486.456205368 4512376.4657613039 0 0 0 0 66073912.078573346 10222777.635376453 0 10222777.635376453 -47527989.231069565 0 0 0 0 73560066.551003933 -113395603.35759926 0 -113395603.35759926 36948884.512909889 0 0 0 0 59148714.261877537 -52475967.736135483 0 -52475967.736135483 -41524380.091319084 0 0 0 0 -79674578.161092997 -141188611.06573963 0 -141188611.06573963 -98141848.499357224 0 0 0 0 -80628278.395755485 -146455331.2294476 0 -146455331.2294476 -44815167.076698303 0 0 0 0 243058216.95222068 156657089.12914562 0 156657089.12914562 -101567307.13231659 0 0 0 0 171101398.43344283 -202385634.61259365 0 -202385634.61259365 -740637638.92765713 0 0 0 0 102559459.98030376 16461635.558442116 0 16461635.558442116 -210424890.51618671 0 0 0 0 103229573.89606428 46656499.65574646 0 46656499.65574646 -14455314.137554169 0 0 0 0 65816934.932417512 -58468610.222646713 0 -58468610.222646713 -6845456.3814697266 0 0 0 0 -2080613.3338716836 -1860651.2145499121 0 -1860651.2145499121 -669943.14589141309 0 0 0 0 -295231051.94009829 -123955450.89313507 0 -123955450.89313507 42566362.367937088 0 0 0 0 -124731983.44008017 34368093.710319519 0 34368093.710319519 54729606.770536423 0 0 0 0 -427909464.50854194 -377298749.72095585 0 -377298749.72095585 -193515771.98139477 0 0 0 0 307815.4946768817 414460.44084353838 0 414460.44084353838 -150460.37921014475 0 0 0 0 181584934.7550126 377293639.84131622 0 377293639.84131622 -353447026.34408569 0 0 0 0 -748709117.26294899 -308625221.70640564 0 -308625221.70640564 -650468384.89334106 0 0 0 0 -414391196.60603416 -59518511.210288048 0 -59518511.210288048 38001394.117506504 0 0 0 0 -1010139.5308864275 -590094.81258153077 0 -590094.81258153077 22081.66613844689 0 0 0 0 41526426.871978283 -223209625.57001686 0 -223209625.57001686 -127081429.44988728 0 0 0 0 -100634054.75781885 -122868752.54693508 0 -122868752.54693508 10405153.137324333 0 0 0 0 33215720.438940793 -179173586.80118465 0 -179173586.80118465 -243530201.15010643 0 0 0 0 18900135.636940598 70298962.644104004 0 70298962.644104004 -189964845.24581814 0 0 0 0 37737165.507904887 4048740.9669604301 0 4048740.9669604301 -45578150.451684952 0 0 0 0 15324125.482710421 -106632315.35063887 0 -106632315.35063887 30586149.922548294 0 0 0 0 18095461.42630747 54514007.116689682 0 54514007.116689682 -52071167.319320679 0 0 0 0 40332620.501605183 32073741.245809555 0 32073741.245809555 -30089104.175970078 0 0 0 0 -16346496.87646234 55007702.136693478 0 55007702.136693478 -12245396.845363617 0 0 0 0 -57110257.149496287 63915301.00826931 0 63915301.00826931 -48384284.557008743 0 0 0 0 1466014.1261156499 14606223.379504204 0 14606223.379504204 -12477529.359564781 0 0 0 0 41990152.100093007 103058432.77157497 0 103058432.77157497 -19538846.514986038 0 0 0 0 1619912.1010872468 1362680.9936492587 0 1362680.9936492587 -604715.99149898253 0 0 0 0 6889142.5887705088 -2780358.6642856598 0 -2780358.6642856598 -9971511.7796468735 0 0 0 0 32064754.880588293 25072839.713981628 0 25072839.713981628 -12474482.945471287 0 0 0 0 43513318.321524173 23920401.849422455 0 23920401.849422455 -40384531.061040878 0 0 0 0 30087890.772469044 2371678.5363588333 0 2371678.5363588333 -12855778.205804825 0 0 0 0 8728603.0976911783 36324137.459787369 0 36324137.459787369 -40480346.427814484 0 0 0 0 75733.045338078518 -13599.285768036731 0 -13599.285768036731 -68339.355396580882 0 0 0 0 -18315534.135972261 8474392.4135322571 0 8474392.4135322571 -11859228.417078018 0 0 0 0 -7102497.4831376672 12799716.612584352 0 12799716.612584352 -12415101.293751717 0 0 0 0 142441.92185610224 -37716.148472253699 0 -37716.148472253699 -145000.40082362574 0 0 0 0 7879210.5134841949 28011403.807837963 0 28011403.807837963 -9930956.76628685 0 0 0 0 -3273240.5544242263 9623875.2758932114 0 9623875.2758932114 -14382477.840755701 0 0 0 0 -10435844.888585865 19418213.663298607 0 19418213.663298607 -5542806.4093847275 0 0 0 0 -23049946.225170434 -547719.42589592934 0 -547719.42589592934 -20223657.963495255 0 0 0 0 44088682.749871701 28498649.442866683 0 28498649.442866683 -15367692.5271492 0 0 0 0 -2977710.2404876351 38481915.742794991 0 38481915.742794991 4100910.3758964539 0 0 0 0 -1100227.4470476508 38912203.684421539 0 38912203.684421539 -22782789.763697624 0 0 0 0 -1743777.1638231874 22304440.688166618 0 22304440.688166618 -13294883.733887672 0 0 0 0 -2716330.5586484075 24814035.833668709 0 24814035.833668709 -753852.43440437317 0 0 0 0 5481358.0405833721 39805748.906867981 0 39805748.906867981 26067554.580608368 0 0 0 0 277514735.61793685 214848268.36013687 0 214848268.36013687 104368410.64538193 0 0 0 0 29079615.400488585 453449.09444618225 0 453449.09444618225 2927326.2562212944 0 0 0 0 -16666745.093620375 26862829.899643421 0 26862829.899643421 -5843127.1389541626 0 0 0 0 -60590593.692646116 -198984152.05007648 0 -198984152.05007648 -265058802.70188332 0 0 0 0 -1117690.808690394 97365.359263911843 0 97365.359263911843 -258811.74862390698 0 0 0 0 -51383429.117671967 80328435.662606239 0 80328435.662606239 23229948.965719223 0 0 0 0 89908097.849538863 -258511443.88243806 0 -258511443.88243806 -737103777.5256424 0 0 0 0 2685311.2231431752 -587807645.32780647 0 -587807645.32780647 -520087407.17398071 0 0 0 0 -586376572.20455837 -77546656.051530838 0 -77546656.051530838 810146713.91316986 0 0 0 0 -6514100.1715232134 109044.6651134491 0 109044.6651134491 -43346328.773973465 0 0 0 0 -3453562.4846795797 5056143.4035606384 0 5056143.4035606384 -41639781.911281109 0 0 0 0 -40763247.961844057 -12971982.055011749 0 -12971982.055011749 -23665266.701201916 0 0 0 0 -2087704.0437975959 -464448.75484871026 0 -464448.75484871026 -1025063.0991496304 0 0 0 0 -4241636.7417420745 -6500041.9967746735 0 -6500041.9967746735 -73628892.729771614 0 0 0 0 -404161386.83983135 239759314.80408478 0 239759314.80408478 224219800.82950187 0 0 0 0 43706787.571462989 -20100258.253110886 0 -20100258.253110886 -123084113.34019256 0 0 0 0 -925416.35008795117 -992138.35319316667 0 -992138.35319316667 -2479032.463408025 0 0 0 0 1371519.6436121464 1807033.7219257355 0 1807033.7219257355 -57373589.089763641 0 0 0 0 -2924230.5375041962 4013454.464881897 0 4013454.464881897 -46851580.071323395 0 0 0 0 -506710.41261100769 10670998.455906868 0 10670998.455906868 -46734997.511792883 0 0 0 0 -7118999.035069257 5906071.4444725513 0 5906071.4444725513 -26558477.278299332 0 0 0 0 -3418047.8125166893 2705075.1332359314 0 2705075.1332359314 -25727145.086112261 0 0 0 0 132301.73477796151 -54788.722557099536 0 -54788.722557099536 -160538.03283744026 0 0 0 0 4330053.336892955 2103059.2967135906 0 2103059.2967135906 -14301443.782814026 0 0 0 0 2101238.1366680861 4048196.1798152924 0 4048196.1798152924 -14918785.174200058 0 0 0 0 -11395867.441147029 8096753.0629911423 0 8096753.0629911423 -9136693.685918808 0 0 0 0 -3868231.1741918325 12535008.799331665 0 12535008.799331665 -24513706.336799756 0 0 0 0 3177639.930961132 1386344.2907209396 0 1386344.2907209396 -16200648.508800507 0 0 0 0 6394402.924310565 3874788.6323945522 0 3874788.6323945522 -19444257.63048172 0 0 0 0 4951775.1982403398 3050301.0025119781 0 3050301.0025119781 -16166561.661712646 0 0 0 0 4612202.4277913421 3414958.656388402 0 3414958.656388402 -15920562.995433807 0 0 0 0 5993006.5039275885 -7974902.3999738693 0 -7974902.3999738693 -1873364.0249471664 0 0 0 0 68719.649149932433 -31971.496531741694 0 -31971.496531741694 -86922.207989500836 0 0 0 0 6886305.7023158073 -5317103.9651117325 0 -5317103.9651117325 -25750906.501828194 0 0 0 0 6959227.5150933266 434325.76041412354 0 434325.76041412354 -37426532.256856918 0 0 0 0 1480013.940230608 937994.67402935028 0 937994.67402935028 -37120592.089038849 0 0 0 0 2795511.6861346364 -885770.55955934525 0 -885770.55955934525 -45063264.42234993 0 0 0 0 1026854.181147337 2826186.1259021759 0 2826186.1259021759 -51969539.247861862 0 0 0 0 -383296.08511856198 10932897.400480032 0 10932897.400480032 -58720357.071445465 0 0 0 0 -2652162.8746282458 3756533.9961643219 0 3756533.9961643219 -49718884.768316269 0 0 0 0 -123469914.12689209 19112319.897949219 0 19112319.897949219 -138682586.47143459 0 0 0 0 1278120.0616072242 -928379.5258166804 0 -928379.5258166804 -5389068.009784108 0 0 0 0 1266377.1344761848 5360215.428519249 0 5360215.428519249 -53168997.108112335 0 0 0 0 1956276.0734472275 3815372.1633872986 0 3815372.1633872986 -40910597.128520966 0 0 0 0 1077582.2361371517 7950393.2649488449 0 7950393.2649488449 -47829645.638847351 0 0 0 0 3263939.6399674416 7698696.3922390938 0 7698696.3922390938 -53451490.694538116 0 0 0 0 -153868932.87989473 167474836.03794479 0 167474836.03794479 -94213800.880443573 0 0 0 0 599073.94342528214 1766213.5508677652 0 1766213.5508677652 -3628321.0273737963 0 0 0 0 -4915180.9542140961 17015233.827533722 0 17015233.827533722 -59356251.183992386 0 0 0 0 -22471705.300632477 34805551.034362793 0 34805551.034362793 -51206891.612117767 0 0 0 0 -80047123.342159927 231085702.97202015 0 231085702.97202015 -194176678.29914856 0 0 0 0 -87084241.653769433 192363412.16192007 0 192363412.16192007 -148257680.4662323 0 0 0 0 -151345937.91370726 159402654.39494133 0 159402654.39494133 -138677304.94316578 0 0 0 0 -40430698.703559756 104130806.40067673 0 104130806.40067673 -146143447.58654594 0 0 0 0 -67615027.701856956 41335812.979974121 0 41335812.979974121 -227923169.99236679 0 0 0 0 521090.89612026606 629125.00124423252 0 629125.00124423252 -1449470.5080080573 0 0 0 0 -66705508.819084644 77967682.76028347 0 77967682.76028347 -126431409.01430631 0 0 0 0 48500151.997905731 -37128724.842489243 0 -37128724.842489243 -185844545.18424606 0 0 0 0 85542902.499909401 38513072.104501724 0 38513072.104501724 -289365496.97265244 0 0 0 0 147421155.94541466 12322768.043828964 0 12322768.043828964 -514458641.97663498 0 0 0 0 55352467.645077229 49968771.626428604 0 49968771.626428604 -285189421.76938057 0 0 0 0 28482003.124654293 91249367.933433533 0 91249367.933433533 -282801552.64753342 0 0 0 0 151631816.29259062 -103150222.9731617 0 -103150222.9731617 -247601532.05991173 0 0 0 0 182758113.05404115 459073033.95941734 0 459073033.95941734 -852210687.69760132 0 0 0 0 124869363.93226945 314385691.19863605 0 314385691.19863605 -432415504.57627106 0 0 0 0 174050348.86414444 387907534.15579891 0 387907534.15579891 -449970952.53200531 0 0 0 0 122758433.66859078 263688762.6002655 0 263688762.6002655 -503644555.42582715 0 0 0 0 26737154.441348195 245753722.94076729 0 245753722.94076729 -365133637.52499771 0 0 0 0 4192501.7258577347 190486259.39066887 0 190486259.39066887 -221503460.93188572 0 0 0 0 39707223.079018474 306675087.79140568 0 306675087.79140568 -277326271.82778168 0 0 0 0 -71975139.857320309 353102353.28563786 0 353102353.28563786 -108212335.19618988 0 0 0 0 -54345449.446096897 372490716.78619194 0 372490716.78619194 -276577633.28219289 0 0 0 0 -194866566.75470638 341252076.86242676 0 341252076.86242676 -106041543.56068802 0 0 0 0 23502499.703123331 577674730.29967308 0 577674730.29967308 -163763000.63959885 0 0 0 0 18561201.669416189 472668782.45437431 0 472668782.45437431 -143452984.54353333 0 0 0 0 36090498.815355062 481653984.43734741 0 481653984.43734741 -458735591.46182585 0 0 0 0 -50537209.251453638 481833509.3711853 0 481833509.3711853 -136580014.449543 0 0 0 0 -51325842.92724371 485192257.3041954 0 485192257.3041954 -36298029.229118347 0 0 0 0 44205488.473536968 563564420.48120689 0 563564420.48120689 -66549637.157871246 0 0 0 0 33993488.999115944 512131934.95696068 0 512131934.95696068 -166338042.52468491 0 0 0 0 -74441771.738041937 469645424.87354183 0 469645424.87354183 44745712.789888382 0 0 0 0 -44485430.185626984 529715409.1336174 0 529715409.1336174 64821952.651699066 0 0 0 0 128012326.5748992 372170378.87203789 0 372170378.87203789 20139961.037205696 0 0 0 0 -153489232.19385332 366929581.51623535 0 366929581.51623535 -26710339.785754204 0 0 0 0 -184814198.94323802 365003460.43606377 0 365003460.43606377 -76577813.856040955 0 0 0 0 -224861307.46249557 364996868.34011078 0 364996868.34011078 -17237640.665130615 0 0 0 0 -154279350.03623909 443530692.5164566 0 443530692.5164566 5968456.3779067993 0 0 0 0 -314003289.44773912 328418866.91028976 0 328418866.91028976 -16181688.95831877 0 0 0 0 -236203409.74131203 340170147.54727936 0 340170147.54727936 -51907768.104103088 0 0 0 0 -293765337.86287308 235865453.73269081 0 235865453.73269081 -12783639.134766579 0 0 0 0 -252277487.78652716 242800955.57205963 0 242800955.57205963 -44543232.648668289 0 0 0 0 -415121669.19523811 223433362.44685555 0 223433362.44685555 -8373317.2436332703 0 0 0 0 -261001675.2070446 106441170.25159645 0 106441170.25159645 -3497365.2457275391 0 0 0 0 -338318098.21093893 147998677.42975235 0 147998677.42975235 -13825910.952045441 0 0 0 0 -208395625.50181103 141191369.2019825 0 141191369.2019825 -42162189.678026199 0 0 0 0 -213996552.75378942 172019747.26091385 0 172019747.26091385 -88898407.441303253 0 0 0 0 -135894814.65854979 240517766.64170837 0 240517766.64170837 -129294035.92950726 0 0 0 0 -137851056.98016071 282497505.26568031 0 282497505.26568031 -179949118.30033445 0 0 0 0 -199277470.48155802 228301098.62907553 0 228301098.62907553 -67152358.415805817 0 0 0 0 -812730191.41786504 -8553334.20353508 0 -8553334.20353508 -505532067.16103458 0 0 0 0 10654399.927163124 621622453.60134888 0 621622453.60134888 -1360411647.6168098 0 0 0 0 275833568.1389755 -186149620.94437432 0 -186149620.94437432 -1493117879.9410229 0 0 0 0 -272242681.6409328 465970579.66410375 0 465970579.66410375 -1276405697.342144 0 0 0 0 272442996.65134084 -293651618.14835954 0 -293651618.14835954 -785377783.86721802 0 0 0 0 42849.073442496694 -278506.34067549801 0 -278506.34067549801 -2122678.4095507581 0 0 0 0 288140929.24737835 107650085.59036255 0 107650085.59036255 -692701766.74052048 0 0 0 0 209300906.36006546 447968996.35236454 0 447968996.35236454 -609189952.01745605 0 0 0 0 349995905.52976441 53898818.035696507 0 53898818.035696507 -1173970011.7913055 0 0 0 0 161938069.83023548 39442014.263935089 0 39442014.263935089 -633147480.23040819 0 0 0 0 195841908.55950451 282377101.33908129 0 282377101.33908129 -766553664.82788658 0 0 0 0 436676985.98668766 84428730.816020012 0 84428730.816020012 -1207781405.3497229 0 0 0 0 -89903561.529816151 -610198361.06389523 0 -610198361.06389523 -926816828.07151222 0 0 0 0 351566.74964138475 702218.55014129728 0 702218.55014129728 -2316246.088035156 0 0 0 0 445470230.7586391 98945595.640054703 0 98945595.640054703 -1558963620.1314774 0 0 0 0 -1090390350.2027516 706512742.89002228 0 706512742.89002228 -292235117.7192955 0 0 0 0 226642966.41445458 502137727.02889323 0 502137727.02889323 -1237757253.3545551 0 0 0 0 -889862170.90631223 -425526922.3316679 0 -425526922.3316679 -449675693.96335983 0 0 0 0 313077046.3418107 118012972.38823509 0 118012972.38823509 -1767254414.1554909 0 0 0 0 179527336.58155346 154828037.37374687 0 154828037.37374687 -646461003.52596855 0 0 0 0 247362347.52877283 -231243199.48758411 0 -231243199.48758411 -986938936.56793404 0 0 0 0 -129553732.51329899 928563047.24919701 0 928563047.24919701 -1314165356.4566717 0 0 0 0 72066778.695565224 519031314.56696129 0 519031314.56696129 -484645663.08172226 0 0 0 0 89989020.449530602 563542036.39998817 0 563542036.39998817 -483565577.14081484 0 0 0 0 -150313338.29155731 547892303.91074181 0 547892303.91074181 -137819728.57116318 0 0 0 0 69572651.239717245 143224981.39744282 0 143224981.39744282 -101300494.08423996 0 0 0 0 519887477.5024271 -62315128.630179405 0 -62315128.630179405 -75145146.73147583 0 0 0 0 331381316.33113194 568190270.50683784 0 568190270.50683784 35401602.089233398 0 0 0 0 278537543.71825218 469236545.14329529 0 469236545.14329529 -134352268.90307617 0 0 0 0 49991328.757444859 433078442.86508751 0 433078442.86508751 171715455.39226532 0 0 0 0 755241253.36228061 313720052.83763409 0 313720052.83763409 -42541888.784080505 0 0 0 0 244260142.98269176 399557650.29249954 0 399557650.29249954 3438295.2415733337 0 0 0 0 126688015.34666729 326862758.82306862 0 326862758.82306862 253036155.77418137 0 0 0 0 255212841.39651066 260378824.24106693 0 260378824.24106693 512100407.49716187 0 0 0 0 725622956.55757666 313084956.12478352 0 313084956.12478352 125405307.2375741 0 0 0 0 75573357.888101935 -12821376.727098465 0 -12821376.727098465 -20557382.349821091 0 0 0 0 226841.29719459021 3908028.5081782178 0 3908028.5081782178 -3166448.2153757196 0 0 0 0 142281.78449674603 463421.78365533147 0 463421.78365533147 -362821.81585310027 0 0 0 0 141024.33237922937 -6679583.9662480354 0 -6679583.9662480354 -42933193.565393448 0 0 0 0 48254019.885594368 142923657.08244324 0 142923657.08244324 -84957520.454170227 0 0 0 0 1266652.7594838298 2121575.2224843916 0 2121575.2224843916 -6266251.8317221962 0 0 0 0 1507122.2494771553 3268177.9159203344 0 3268177.9159203344 -1593015.7261174973 0 0 0 0 12884381.256600022 148308975.24785328 0 148308975.24785328 -173524359.31541109 0 0 0 0 25100872.780698597 -45375609.568611622 0 -45375609.568611622 -24843542.162948608 0 0 0 0 4816130.4640024751 -43784413.860834122 0 -43784413.860834122 53437825.382094383 0 0 0 0 -39123911.320360541 46327207.62539196 0 46327207.62539196 -18110358.576434135 0 0 0 0 -98906328.863007009 1406320.6454882622 0 1406320.6454882622 -49520386.124347687 0 0 0 0 -33513319.014011063 -44559545.265158772 0 -44559545.265158772 76812224.152986526 0 0 0 0 -311372997.43053776 -80441062.004766941 0 -80441062.004766941 268181222.33407211 0 0 0 0 -452621.59676179354 2577943.2085329005 0 2577943.2085329005 -574423.56109708175 0 0 0 0 -179276809.15964079 124611897.67633438 0 124611897.67633438 -179653270.45934105 0 0 0 0 -123886917.41819119 140520789.54642677 0 140520789.54642677 -199527857.18657303 0 0 0 0 -136847321.55185407 106986167.72269297 0 106986167.72269297 -104147387.14762878 0 0 0 0 -277123200.91824365 137247028.47492599 0 137247028.47492599 -146685029.07024384 0 0 0 0 -195784357.72565389 180914031.7034626 0 180914031.7034626 -152969917.04861069 0 0 0 0 -136394336.16325128 100550931.22602952 0 100550931.22602952 -159238581.65210724 0 0 0 0 -89001194.852583051 114245335.95679855 0 114245335.95679855 -179550990.78725815 0 0 0 0 -74762535.578277737 22802142.205664635 0 22802142.205664635 -64923854.150341034 0 0 0 0 27718760.036155581 -43961740.831273079 0 -43961740.831273079 -28441718.799953461 0 0 0 0 -54791635.294507034 47834697.576841682 0 47834697.576841682 -6829182.6819877625 0 0 0 0 -26593399.616805851 40949358.042577744 0 40949358.042577744 -68642311.966094971 0 0 0 0 -53280389.823203295 103754592.03091431 0 103754592.03091431 -150181439.10095215 0 0 0 0 3808696.5593192577 106564853.42932034 0 106564853.42932034 -118968800.71166039 0 0 0 0 1322833333.8370113 406444033.14675903 0 406444033.14675903 -285667533.9643631 0 0 0 0 514104.55174263916 2265259.9277162123 0 2265259.9277162123 -3858884.9693123065 0 0 0 0 556041472.33629704 408948659.98781776 0 408948659.98781776 -13172349.730773926 0 0 0 0 273003894.33572388 382108162.43271637 0 382108162.43271637 73454927.023172379 0 0 0 0 672461000.3232826 30758070.9087286 0 30758070.9087286 -113689128.3729248 0 0 0 0 523863264.97570503 11941579.697161913 0 11941579.697161913 121728026.56310654 0 0 0 0 545431753.80365026 -198591380.91390091 0 -198591380.91390091 -1011269011.5408745 0 0 0 0 1064591688.517909 -357473140.19103146 0 -357473140.19103146 -2200746239.0477791 0 0 0 0 -493750671.30727959 959632978.1140058 0 959632978.1140058 -2151549493.6202164 0 0 0 0 787057341.23012602 -843195183.61642838 0 -843195183.61642838 -1069164629.4261131 0 0 0 0 558046.46100598318 974307.23738028307 0 974307.23738028307 -1885861.0177162308 0 0 0 0 -101140425.08714908 76545213.995483398 0 76545213.995483398 -99061928.905813217 0 0 0 0 -165499563.68200016 176455465.06467056 0 176455465.06467056 -134755240.86266565 0 0 0 0 955347.05066620873 636599.04243730893 0 636599.04243730893 -2291816.1875197478 0 0 0 0 -85284315.747978821 840081481.14875317 0 840081481.14875317 -2200932243.1200938 0 0 0 0 -163466810.72599858 118799563.30805826 0 118799563.30805826 -118805198.07081032 0 0 0 0 102428284.71420631 295034396.31744671 0 295034396.31744671 -618622848.52735901 0 0 0 0 693629.75841734046 240331.91645747982 0 240331.91645747982 -1886129.7207007892 0 0 0 0 -160239057.56134999 185605265.63388062 0 185605265.63388062 -166176230.02349544 0 0 0 0 214373830.18663272 -306449108.67427284 0 -306449108.67427284 -645836911.74899673 0 0 0 0 239270416.47245979 -139138873.96883869 0 -139138873.96883869 -464791533.63817215 0 0 0 0 -336568403.16658092 357996479.40571976 0 357996479.40571976 -260970996.19033432 0 0 0 0 -767521488.07848966 516422965.86383247 0 516422965.86383247 -275030918.24252892 0 0 0 0 -533162989.53197765 267586734.35889721 0 267586734.35889721 -218260500.93642044 0 0 0 0 -558113178.92814326 188264996.57636261 0 188264996.57636261 -48605481.906822205 0 0 0 0 -464973269.98137856 120238928.47462177 0 120238928.47462177 12331479.413799286 0 0 0 0 -394445663.99505448 229196045.50772953 0 229196045.50772953 -38998914.150547028 0 0 0 0 -521963467.2971164 378046916.77418709 0 378046916.77418709 -109762810.99340057 0 0 0 0 -382635673.50640488 286871355.74327469 0 286871355.74327469 -50118677.366329193 0 0 0 0 -332724116.62854195 342379255.7955761 0 342379255.7955761 -18584692.300258636 0 0 0 0 -328102687.72477233 295379340.57314873 0 295379340.57314873 -120402291.26952362 0 0 0 0 -204021236.47164205 418676212.0878334 0 418676212.0878334 -32212862.306118011 0 0 0 0 -345126282.06074822 399775551.41630554 0 399775551.41630554 -11111594.857223511 0 0 0 0 228094025.69168496 277662829.88127327 0 277662829.88127327 -87040942.210817337 0 0 0 0 191474555.43460119 381775859.04100227 0 381775859.04100227 -310102064.44685173 0 0 0 0 -178538099.68116969 510072306.24434662 0 510072306.24434662 -189924526.79825974 0 0 0 0 89416228.863913059 189874986.55604172 0 189874986.55604172 -419625557.38407612 0 0 0 0 -116299569.36101335 572529192.03774548 0 572529192.03774548 -1072339017.1164742 0 0 0 0 726865229.81520486 -139258698.6719532 0 -139258698.6719532 -1063795456.8919344 0 0 0 0 575353685.68895078 277277961.1123538 0 277277961.1123538 -2205944012.3333683 0 0 0 0 -70141765.092034683 519570153.26128864 0 519570153.26128864 -1076712795.1793442 0 0 0 0 -261360013.74549496 1006992374.7529044 0 1006992374.7529044 -2200254803.9092293 0 0 0 0 -597818982.34238398 207770113.5760088 0 207770113.5760088 -265633882.82623863 0 0 0 0 -2199615387.0275965 1074471410.8227596 0 1074471410.8227596 -537286503.87916183 0 0 0 0 -298860237.40930051 -1239573101.5993137 0 -1239573101.5993137 -2200444162.8197861 0 0 0 0 -994950439.93422818 -1222835980.5116577 0 -1222835980.5116577 -1216193007.9851532 0 0 0 0 -2079056.280955021 823739.8341433052 0 823739.8341433052 -3676453.6824177317 0 0 0 0 -455173868.02882296 -902004634.67253876 0 -902004634.67253876 -1264922348.8420944 0 0 0 0 73202345.966220185 -678098519.89808655 0 -678098519.89808655 -1700950733.4759903 0 0 0 0 73785113.138826191 -664937778.42070079 0 -664937778.42070079 -1611380463.6070938 0 0 0 0 87168157.068642497 -286003393.12541962 0 -286003393.12541962 -1232207139.9193382 0 0 0 0 -214179665.35348576 -620697756.2455368 0 -620697756.2455368 -1080850328.6255951 0 0 0 0 -151771367.03279483 -397649907.31176376 0 -397649907.31176376 -508962921.38633728 0 0 0 0 -207663120.22877771 -293779232.75551605 0 -293779232.75551605 -588936066.54885864 0 0 0 0 -47792523.95971781 -546051026.68780613 0 -546051026.68780613 -911825309.62941742 0 0 0 0 -289107.98228022619 -164899.58478210308 0 -164899.58478210308 189543.76747914031 0 0 0 0 -821552982.48838472 147109819.87555218 0 147109819.87555218 270007632.38015747 0 0 0 0 -789394783.43098998 -756704704.27933121 0 -756704704.27933121 -747430578.67935181 0 0 0 0 -660625509.3567884 -490410555.04568863 0 -490410555.04568863 -198275719.93336487 0 0 0 0 -372615269.60936666 21445005.281990051 0 21445005.281990051 304123750.62171555 0 0 0 0 138258797.31870353 145695885.25512314 0 145695885.25512314 -76372697.749603271 0 0 0 0 -698783910.82339382 121500895.71199799 0 121500895.71199799 -19694557.143051147 0 0 0 0 -1757700.484288285 2309231.6298897821 0 2309231.6298897821 -10297971.094579663 0 0 0 0 -1357723.7780842993 2828889.0104407798 0 2828889.0104407798 1887219.5927830227 0 0 0 0 -114557723.40300053 -87561615.461166382 0 -87561615.461166382 -201419526.49814606 0 0 0 0 101771437.85588923 -102307969.76701164 0 -102307969.76701164 -611757027.02088165 0 0 0 0 -114636533.38935551 4209061.0054988861 0 4209061.0054988861 -8967434.8783302307 0 0 0 0 -59937927.648594677 -33526349.05024147 0 -33526349.05024147 17064404.191085815 0 0 0 0 506274.17893592472 2114819.3792244978 0 2114819.3792244978 -2561946.5447066352 0 0 0 0 9251989.2586046457 -4205730.0155334473 0 -4205730.0155334473 -15699555.769447327 0 0 0 0 -4840982.5212715864 8182096.3709754944 0 8182096.3709754944 36656774.760929108 0 0 0 0 -1562730.6322300183 4754721.1916896282 0 4754721.1916896282 -5782858.38165248 0 0 0 0 -301546707.91247272 8248368.2290687561 0 8248368.2290687561 -9695082.9114258289 0 0 0 0 -169509886.89244521 63958575.55432868 0 63958575.55432868 -58004281.772575378 0 0 0 0 -2080328.635587855 3329607.4723077086 0 3329607.4723077086 -4866388.4390769824 0 0 0 0 -25489512.797015369 -12406200.926021576 0 -12406200.926021576 -9703710.4542808533 0 0 0 0 -34971815.636490226 15055755.138320923 0 15055755.138320923 -11949679.196800232 0 0 0 0 9156187.8432149887 2590730.6685333252 0 2590730.6685333252 -25483049.445213318 0 0 0 0 -2602965.1740029454 16161308.402706146 0 16161308.402706146 -40669206.022449493 0 0 0 0 16741455.492845476 -319040842.09643555 0 -319040842.09643555 -709332415.27111053 0 0 0 0 -76287221.433839142 82183085.693477631 0 82183085.693477631 -71485459.440832138 0 0 0 0 -92684.172677905415 191887.75244999677 0 191887.75244999677 -444773.64685235918 0 0 0 0 -49441045.674683854 1089817.4262018204 0 1089817.4262018204 7271859.1083946228 0 0 0 0 -25786932.213102158 -174324675.95708466 0 -174324675.95708466 -1264524793.8854713 0 0 0 0 16733470.332168221 -70449093.294876099 0 -70449093.294876099 -1014003018.1300964 0 0 0 0 114269463.9833858 -403751120.55057526 0 -403751120.55057526 -1317167644.8159981 0 0 0 0 305158645.42158324 -108772403.66546631 0 -108772403.66546631 -1479466829.3747177 0 0 0 0 356755880.80518204 -414701696.52244186 0 -414701696.52244186 -2206773922.6539435 0 0 0 0 259895347.00222299 208433465.5258522 0 208433465.5258522 -2199488173.5835114 0 0 0 0 159917595.11694935 512510447.43588448 0 512510447.43588448 -859647074.86743164 0 0 0 0 371572.20920526789 588739.18396057002 0 588739.18396057002 -2236873.351604607 0 0 0 0 -72656156.280198947 385675605.70721436 0 385675605.70721436 4212128.4404220581 0 0 0 0 -192469751.04236275 -724016405.48549652 0 -724016405.48549652 -2204526532.8541508 0 0 0 0 118163081.01205981 -148953552.60430908 0 -148953552.60430908 -403499445.08997726 0 0 0 0 165663709.05339229 79292406.005638123 0 79292406.005638123 -717613164.01046753 0 0 0 0 194395154.77173024 -68873733.13914299 0 -68873733.13914299 -854166268.29524994 0 0 0 0 179809040.07694927 -101343546.66691208 0 -101343546.66691208 -1046718067.9458752 0 0 0 0 -64301932.527074262 -233771735.87426758 0 -233771735.87426758 -895907223.10881996 0 0 0 0 417970594.49975467 355919350.87630844 0 355919350.87630844 -186608455.30130005 0 0 0 0 134873420.14240804 -163918956.03256035 0 -163918956.03256035 -1246657499.1178665 0 0 0 0 161165937.5595642 -112343273.91621733 0 -112343273.91621733 -897610094.9974556 0 0 0 0 666985602.21595836 -2976070.7488517761 0 -2976070.7488517761 -2204319085.0256882 0 0 0 0 2956.1683846255764 949234.19080289826 0 949234.19080289826 -2093369.8900207765 0 0 0 0 123475548.54281098 35229312.46621418 0 35229312.46621418 -872694643.86776733 0 0 0 0 -15502697.088888049 49922492.903011322 0 49922492.903011322 -793479760.9677887 0 0 0 0 -162574.85108523312 412265.58953776956 0 412265.58953776956 -831533.908761492 0 0 0 0 269541901.70431077 9296172.3038139343 0 9296172.3038139343 -2477403985.2393646 0 0 0 0 52926577.733292833 1190474435.6113243 0 1190474435.6113243 130898894.2929821 0 0 0 0 -75901539.147659302 -276705903.61486435 0 -276705903.61486435 -1361327347.998291 0 0 0 0 -17128748.347760797 -61234670.120391846 0 -61234670.120391846 -242857154.30293274 0 0 0 0 -78467051.616658866 619451701.76742291 0 619451701.76742291 -715219373.73384857 0 0 0 0 94321945.645219564 -83887200.931121826 0 -83887200.931121826 -705028116.31747246 0 0 0 0 1121870.2780367136 481292.93994522095 0 481292.93994522095 -3736440.0127811432 0 0 0 0 -795422.88143697835 842569.53178433515 0 842569.53178433515 -1587396.1488327142 0 0 0 0 -108825281.31133933 174450564.71053934 0 174450564.71053934 -326971950.38617706 0 0 0 0 87429931.361626744 -96479667.720077515 0 -96479667.720077515 -48056595.027099609 0 0 0 0 -158902713.20548201 39173084.51215744 0 39173084.51215744 54692408.204345703 0 0 0 0 -384203.47390818951 190980.73660246842 0 190980.73660246842 -373315.48501904309 0 0 0 0 -225597211.1291213 -92865601.805728912 0 -92865601.805728912 724943.8574180603 0 0 0 0 112015.14981393848 286612.98631084338 0 286612.98631084338 -1412571.6695055515 0 0 0 0 93502568.597571909 -71989077.353363037 0 -71989077.353363037 -872842584.32682419 0 0 0 0 -401842.51530924236 618238.23691116087 0 618238.23691116087 -1126268.5485817771 0 0 0 0 65197258.507445097 -47427183.896434784 0 -47427183.896434784 -841631594.26252747 0 0 0 0 1595459.115696013 361921.98184013367 0 361921.98184013367 -4833007.3938751221 0 0 0 0 1287898.9916114807 -336319.21686172485 0 -336319.21686172485 -6337262.3418121338 0 0 0 0 1412720.1897317171 7285940.8333320618 0 7285940.8333320618 326297.42207717896 0 0 0 0 4993080.4148851223 5211509.4110374451 0 5211509.4110374451 -10374331.953857422 0 0 0 0 -2652304.4950824976 -6973978.5933151245 0 -6973978.5933151245 -15031013.150922775 0 0 0 0 -737750.98144161329 -5673793.903011322 0 -5673793.903011322 -20381038.687664032 0 0 0 0 -9362993.8164581209 -1660923.5011405945 0 -1660923.5011405945 -8122598.3428573608 0 0 0 0 -4239323.9438367635 -2159606.432510376 0 -2159606.432510376 -5983505.6753692627 0 0 0 0 -7232968.5267284214 -5130427.2809829712 0 -5130427.2809829712 -7923054.4410400391 0 0 0 0 -3918314.1347117126 -4384609.9331512451 0 -4384609.9331512451 -4262414.6885299683 0 0 0 0 963941.89477565885 -230038.36591720581 0 -230038.36591720581 -6222135.6082458496 0 0 0 0 343158.19063517451 -2334602.6527309418 0 -2334602.6527309418 -2067043.9134140015 0 0 0 0 1069385.2597375512 -988160.41522979736 0 -988160.41522979736 -5652528.3658733368 0 0 0 0 -238028.66840952635 -4431691.4443397522 0 -4431691.4443397522 -9121974.2403678894 0 0 0 0 19422080.399148941 -28471801.807331085 0 -28471801.807331085 -12542651.99130249 0 0 0 0 320467.24334736541 -6229556.6820616722 0 -6229556.6820616722 -4300326.6078491211 0 0 0 0 -1501404.8796008301 -2267968.3067155685 0 -2267968.3067155685 -1451833.7653140351 0 0 0 0 436092.15248594619 -4336321.5388989449 0 -4336321.5388989449 1157720.8172607422 0 0 0 0 32052.049431682928 -29815.910994324833 0 -29815.910994324833 -365518.69976982661 0 0 0 0 2773540.9534968138 -6721255.2569122314 0 -6721255.2569122314 -5569315.4850006104 0 0 0 0 -1047094.6931324005 -1906489.2917480469 0 -1906489.2917480469 -3971361.1655426025 0 0 0 0 -4366582.2308141589 -3118621.2404022217 0 -3118621.2404022217 -1276261.5653991699 0 0 0 0 -7478036.5628051236 -2489464.3992271423 0 -2489464.3992271423 -2788953.7426147461 0 0 0 0 -4366834.5061457418 -2940670.7208509445 0 -2940670.7208509445 -3663749.9309082031 0 0 0 0 -4264717.5094551295 -4558829.907081604 0 -4558829.907081604 -4920156.4237670898 0 0 0 0 878122.90555484593 -5159435.868637085 0 -5159435.868637085 -5726673.5147247314 0 0 0 0 -36896206.489082456 -10038946.18862915 0 -10038946.18862915 63639396.105873108 0 0 0 0 213863869.598304 -49497477.840127945 0 -49497477.840127945 -30833056.186546326 0 0 0 0 95356285.634257197 70566722.225839615 0 70566722.225839615 104178788.95333862 0 0 0 0 -750777.39820332709 -1234110.2267929614 0 -1234110.2267929614 -1759773.8418092132 0 0 0 0 1221709.2631669044 -361288.86666488647 0 -361288.86666488647 -4248421.6277332306 0 0 0 0 -21507126.234501481 50035389.539415359 0 50035389.539415359 56073692.216598511 0 0 0 0 -5495144.4711766243 -73371667.853126526 0 -73371667.853126526 17283461.021881104 0 0 0 0 15087048.66647926 -53542616.695732594 0 -53542616.695732594 -72428102.494880676 0 0 0 0 31490313.670856953 13301304.562705994 0 13301304.562705994 -70927636.759793282 0 0 0 0 -3039183.1956105232 -52528213.651130676 0 -52528213.651130676 161878556.13582611 0 0 0 0 -13431102.331889629 61026973.610614777 0 61026973.610614777 -135065412.54915619 0 0 0 0 -327518.77290865534 79659.908105254173 0 79659.908105254173 -312282.00527578592 0 0 0 0 -2366486.6210690141 -9113973.2341041565 0 -9113973.2341041565 -2747818.364906311 0 0 0 0 697087.56286048889 -54225623.156051636 0 -54225623.156051636 -79890531.847126007 0 0 0 0 -11438770.887957692 -20596300.194636822 0 -20596300.194636822 32333628.865219116 0 0 0 0 13620.274630079977 -47670.971673578024 0 -47670.971673578024 475957.1440448612 0 0 0 0 1045006.4803309441 -48791.223068237305 0 -48791.223068237305 -7333473.8964500427 0 0 0 0 995248.09413806442 -5883666.9062878415 0 -5883666.9062878415 -2544969.5726423655 0 0 0 0 811691.50893203402 -647139.34965824336 0 -647139.34965824336 -4526747.2865176871 0 0 0 0 -64573740.058413267 30264002.521138191 0 30264002.521138191 50871962.806518555 0 0 0 0 -3744361.9845653772 -16169019.506839752 0 -16169019.506839752 -3530920.1793022156 0 0 0 0 914015.91608265659 -6662815.9412331302 0 -6662815.9412331302 -770971.3486890588 0 0 0 0 -9525964.8951649368 -13819475.411190033 0 -13819475.411190033 3559338.3878440857 0 0 0 0 4287921.1311684251 -19697092.34793663 0 -19697092.34793663 -36783083.681907654 0 0 0 0 -2282596.1239662319 -3247664.7949142456 0 -3247664.7949142456 -5156542.8628807068 0 0 0 0 72539.879411876202 -486347.22455883026 0 -486347.22455883026 -5108751.5259094238 0 0 0 0 -837065.28396143555 -1810169.1529885139 0 -1810169.1529885139 -3918538.5535089225 0 0 0 0 -3031899.4774676263 -3244978.9422683716 0 -3244978.9422683716 -4986786.2993545532 0 0 0 0 -4715437.4176477119 -3531245.3741340637 0 -3531245.3741340637 -3065648.0688858032 0 0 0 0 -784033.36681890488 298389.56787872314 0 298389.56787872314 -4099700.7734870911 0 0 0 0 945749.87894815474 -1206933.6769278459 0 -1206933.6769278459 -3998027.0531720892 0 0 0 0 25940688.580572605 30740487.066612244 0 30740487.066612244 20886206.086856842 0 0 0 0 8913925.7334934473 -11593165.610271454 0 -11593165.610271454 -35070864.953475952 0 0 0 0 4082247.7125921249 -13322017.546287537 0 -13322017.546287537 -17444830.850885391 0 0 0 0 1728537.8129571234 -5211797.1718657576 0 -5211797.1718657576 -8194198.3472423293 0 0 0 0 1506730.7320404053 -2984684.2243041992 0 -2984684.2243041992 -9404621.8768863678 0 0 0 0 -1230562.7800984452 159110.20926755294 0 159110.20926755294 -10306096.239743507 0 0 0 0 1585523.1727037691 -5592742.2403647006 0 -5592742.2403647006 -11012466.624224342 0 0 0 0 -3020808.3448950648 7296.5815238952637 0 7296.5815238952637 -7114950.5551605225 0 0 0 0 -6476863.0102785826 -70501.203750610352 0 -70501.203750610352 -5124592.0683937073 0 0 0 0 -2783133.7228546198 -1436296.7965621948 0 -1436296.7965621948 -5550239.2860336304 0 0 0 0 -4906000.8364160061 -1390215.0171012878 0 -1390215.0171012878 -4038339.4149169922 0 0 0 0 -5250570.5804176331 2950304.6560707092 0 2950304.6560707092 -6270633.082988739 0 0 0 0 -4537407.8710213006 1246501.212228775 0 1246501.212228775 -4704527.1671524048 0 0 0 0 -891090.44028612995 1150440.7701407 0 1150440.7701407 -10330944.339154493 0 0 0 0 -3129806.8797522802 1773002.9389249086 0 1773002.9389249086 -8174932.9841461182 0 0 0 0 5014545.0617201328 24775.280921936035 0 24775.280921936035 -18954738.520454407 0 0 0 0 -1246509.7822921276 -48510.269235610962 0 -48510.269235610962 -8568261.8957366943 0 0 0 0 2019338.8382726908 2525417.9599990845 0 2525417.9599990845 -15926775.19708252 0 0 0 0 -2345227.2498664856 2734736.298828125 0 2734736.298828125 -19710160.739700317 0 0 0 0 4632038.6450653076 123017.77219390869 0 123017.77219390869 -6737743.9031543732 0 0 0 0 2299797.1737294197 -4952042.6569976807 0 -4952042.6569976807 -8150805.6697444916 0 0 0 0 57255967.759624481 -2455258.5375061035 0 -2455258.5375061035 -41464831.096111298 0 0 0 0 2323389.0309258597 -1256499.5981028154 0 -1256499.5981028154 -14313911.012158325 0 0 0 0 -33437.193195789907 256943.40180009231 0 256943.40180009231 -626625.05742547684 0 0 0 0 64216.414190817348 -6487594.208493459 0 -6487594.208493459 -6991917.8408454694 0 0 0 0 14286594.197518826 -9739596.1288561821 0 -9739596.1288561821 -18901902.960582733 0 0 0 0 -546707.69429670251 6612717.3733721431 0 6612717.3733721431 -16251551.268325549 0 0 0 0 2727624.914024353 -6496620.104511261 0 -6496620.104511261 -18802663.784537315 0 0 0 0 6486374.8709259033 -13383788.120407104 0 -13383788.120407104 -20530215.927772522 0 0 0 0 4088015.1322916215 -1926064.1439969996 0 -1926064.1439969996 -11396690.791530604 0 0 0 0 743710.24684174359 -252000.07575909072 0 -252000.07575909072 -963355.87094928697 0 0 0 0 22477982.421783447 5695095.8710403442 0 5695095.8710403442 -28237082.939266205 0 0 0 0 5184816.3668670654 -1284114.7411766052 0 -1284114.7411766052 -54842996.346232414 0 0 0 0 3690265.6292221504 -553819.19717808673 0 -553819.19717808673 -11788812.066676507 0 0 0 0 -3763706.1645584106 5583719.9545154572 0 5583719.9545154572 -49084738.991725922 0 0 0 0 16244574.707466125 -10357156.297962189 0 -10357156.297962189 -47340656.935115814 0 0 0 0 2565762.4143810272 -11625828.308773041 0 -11625828.308773041 -45066954.269454956 0 0 0 0 -1210275.3121604919 -1996171.955701828 0 -1996171.955701828 -40363906.063285828 0 0 0 0 10032534.34022522 -12865088.94758606 0 -12865088.94758606 -30322221.910900116 0 0 0 0 -17005123.702526093 1440339.1954536438 0 1440339.1954536438 -26166235.767459869 0 0 0 0 -9503346.7556762695 -3728819.5253753662 0 -3728819.5253753662 -22877770.520927429 0 0 0 0 -3405215.0728063583 4377808.121421814 0 4377808.121421814 -32969047.629501343 0 0 0 0 -5132724.5642929077 8810097.6565475464 0 8810097.6565475464 -42750897.904657364 0 0 0 0 73569.498500823975 -893887.14142131805 0 -893887.14142131805 -41014062.257995605 0 0 0 0 15514839.101905823 12860955.328924179 0 12860955.328924179 -40498154.672096252 0 0 0 0 -1017750.4315898577 2404521.5446241582 0 2404521.5446241582 398441.94262292609 0 0 0 0 -4468053.906875968 9985064.5474526882 0 9985064.5474526882 -41653128.220199585 0 0 0 0 -4949609.9861183167 15753794.618133545 0 15753794.618133545 -49521696.199516296 0 0 0 0 -4874549.6810264587 17939366.353462219 0 17939366.353462219 -29778629.920539856 0 0 0 0 -9363078.970035553 8528219.2513465881 0 8528219.2513465881 -35353310.985980988 0 0 0 0 -26402362.887119293 40342478.753479004 0 40342478.753479004 -52889169.808097839 0 0 0 0 7049444.4776287079 23402484.112704277 0 23402484.112704277 -53205901.470932007 0 0 0 0 -2539775.9124774933 15614986.379131317 0 15614986.379131317 -36926410.833883286 0 0 0 0 226727.1086359024 14525937.005701065 0 14525937.005701065 -37212194.846168518 0 0 0 0 -828065.19896697998 18793879.774200439 0 18793879.774200439 -49109666.373329639 0 0 0 0 -18372928.752944469 18657211.124620914 0 18657211.124620914 -27276045.029647827 0 0 0 0 39752172.424468458 3425292.4406447411 0 3425292.4406447411 -1376655.3386230469 0 0 0 0 40568409.628060341 12908978.947692871 0 12908978.947692871 -3693416.8022460938 0 0 0 0 7387226.0005655289 79680025.839570999 0 79680025.839570999 -14071025.265451908 0 0 0 0 -382408.76165790681 1847328.5162443588 0 1847328.5162443588 -5173900.7500972003 0 0 0 0 -39306.769717842108 716990.3976976393 0 716990.3976976393 -9135127.1651109792 0 0 0 0 -2897508.3153932095 2759933.4553604126 0 2759933.4553604126 -6516821.3528289795 0 0 0 0 20996410.419498444 -46324006.892004013 0 -46324006.892004013 -13903808.030303955 0 0 0 0 -114769045.87076378 -49783706.508655548 0 -49783706.508655548 37062005.528869629 0 0 0 0 30712191.092399597 10647572.768777847 0 10647572.768777847 -3565951.5616760254 0 0 0 0 970472.70880403544 365024.77174499724 0 365024.77174499724 -7699561.6757006645 0 0 0 0 -1134947.1331558526 2843873.4987354279 0 2843873.4987354279 -6812472.7885360718 0 0 0 0 3153203.7681502402 5543870.5823440552 0 5543870.5823440552 -10184166.606456757 0 0 0 0 -6586794.9338855743 14505819.994243622 0 14505819.994243622 -16597846.426548004 0 0 0 0 593150.90159479342 3513252.422101818 0 3513252.422101818 -6696925.8731451463 0 0 0 0 -9867841.4253234863 5920384.3899536133 0 5920384.3899536133 -9547131.1273651123 0 0 0 0 -10712986.964885712 16682379.331382751 0 16682379.331382751 -11558242.235798359 0 0 0 0 7574003.5755348206 -1058270.1617088318 0 -1058270.1617088318 -14087054.695899963 0 0 0 0 -6307608.0600643158 17125054.044410706 0 17125054.044410706 -20037019.280166626 0 0 0 0 -14404534.742607117 16008945.859535217 0 16008945.859535217 17367354.705345154 0 0 0 0 -3555926.4115625359 6424526.2577392906 0 6424526.2577392906 -4624138.4838249814 0 0 0 0 642455.00686249952 -733078.1528526725 0 -733078.1528526725 -538073.81639792398 0 0 0 0 -196129201.39805293 59116950.201764941 0 59116950.201764941 -25901214.047561646 0 0 0 0 5737654.1298360825 3858977.3550357819 0 3858977.3550357819 111814.81936645508 0 0 0 0 30638174.613062859 5635315.6199798584 0 5635315.6199798584 -1312091.5831604004 0 0 0 0 896495.85838694288 9333396.5961354151 0 9333396.5961354151 -11900463.565058609 0 0 0 0 -276087780.08088589 80266249.613548279 0 80266249.613548279 -18655513.396865845 0 0 0 0 -1235330.6858446598 6022155.0809135437 0 6022155.0809135437 -9185777.4079780579 0 0 0 0 -1515388.1696706638 5106291.0310688019 0 5106291.0310688019 -9517898.3366775513 0 0 0 0 -13827630.86898452 14913306.715805054 0 14913306.715805054 -16971279.459646225 0 0 0 0 -13876058.92384628 3709873.9033664912 0 3709873.9033664912 -5988008.3130111694 0 0 0 0 -14769234.6961229 -1220918.6404190063 0 -1220918.6404190063 -3492412.9614486694 0 0 0 0 -12175395.162956178 4088836.5626411438 0 4088836.5626411438 -6002548.3236198425 0 0 0 0 -6911674.245952487 -1454682.1270217896 0 -1454682.1270217896 -3900546.9738006592 0 0 0 0 -9027240.4145923443 -942351.47174072266 0 -942351.47174072266 -3190708.3506164551 0 0 0 0 -8460456.6409626901 2386018.5340657234 0 2386018.5340657234 -4881929.8731231689 0 0 0 0 -7446921.6981313825 6860582.6110877991 0 6860582.6110877991 -8233531.7959041595 0 0 0 0 -10206753.123826623 2412143.7637138367 0 2412143.7637138367 -4574719.3484420776 0 0 0 0 -13193254.416552097 -193211705.43564987 0 -193211705.43564987 -1053097092.7339172 0 0 0 0 -725678.00676112063 -85995921.529781982 0 -85995921.529781982 -405826067.91929626 0 0 0 0 -144806750.40300244 -34331240.200450897 0 -34331240.200450897 -70723163.109207153 0 0 0 0 76717.647721910282 16815.597555894405 0 16815.597555894405 -511188.3676135391 0 0 0 0 232550697.72952434 -719195739.49455261 0 -719195739.49455261 -2198348346.4995499 0 0 0 0 -157976095.33457696 -453993541.67936325 0 -453993541.67936325 -955244681.51806641 0 0 0 0 -506908229.72474295 -1160155300.39291 0 -1160155300.39291 -708371166.41416168 0 0 0 0 -1244307.1027245321 -641923.17563284002 0 -641923.17563284002 -2266369.9199181721 0 0 0 0 -633859591.2248441 -802348073.987463 0 -802348073.987463 55181655.322311401 0 0 0 0 -82758721.079381019 46403407.288088799 0 46403407.288088799 120335763.70701599 0 0 0 0 -99435639.587138027 135502069.98663616 0 135502069.98663616 -46740186.314285278 0 0 0 0 109519.34942237363 37144.428570197895 0 37144.428570197895 -327219.20078901574 0 0 0 0 -51819652.860430628 102401359.22854233 0 102401359.22854233 -416064896.50592422 0 0 0 0 -18580341.604660928 -55103.040874481201 0 -55103.040874481201 -66516019.219675064 0 0 0 0 -155583884.85090268 -82276249.385158539 0 -82276249.385158539 -90649708.896827698 0 0 0 0 206734069.64117503 19950356.705192566 0 19950356.705192566 -114892941.48634672 0 0 0 0 33498225.298673749 19953860.522331238 0 19953860.522331238 -114481969.97909069 0 0 0 0 136151608.46677101 36759042.560558319 0 36759042.560558319 34988962.714576721 0 0 0 0 457865.63105898694 -350010.50478594378 0 -350010.50478594378 -8708919.826205574 0 0 0 0 256214597.9374789 -83766211.896520615 0 -83766211.896520615 -80297294.257949829 0 0 0 0 -16879357.260226902 9001911.8471546173 0 9001911.8471546173 13752400.255840302 0 0 0 0 23923938.77676262 -14616528.210746765 0 -14616528.210746765 -18743122.49786377 0 0 0 0 407262663.88870788 7385795.7027320862 0 7385795.7027320862 -211616110.41083527 0 0 0 0 452383159.29575396 -287335639.97362518 0 -287335639.97362518 24266379.278129101 0 0 0 0 -1478665.8438634281 -1609190.9685338978 0 -1609190.9685338978 -5138966.840845 0 0 0 0 61773997.569709733 582057585.94269562 0 582057585.94269562 -2201688784.7492142 0 0 0 0 241622661.70011774 -257816343.89901924 0 -257816343.89901924 -2201955025.5141983 0 0 0 0 134663051.20445642 149683611.10062027 0 149683611.10062027 -592379576.01457214 0 0 0 0 -138504285.78178835 -277854377.16303253 0 -277854377.16303253 -325887918.7505188 0 0 0 0 -103390959.37860176 165030985.80032849 0 165030985.80032849 40378000.355667114 0 0 0 0 -162788530.64496756 91575651.500022888 0 91575651.500022888 156078063.20157433 0 0 0 0 -1514088920.2611957 1192042986.5402431 0 1192042986.5402431 -477795341.42747498 0 0 0 0 -348467545.19801652 -613129220.82838058 0 -613129220.82838058 -727682452.53255081 0 0 0 0 -554240.49136345019 1364164.3822618248 0 1364164.3822618248 -2728123.8680897392 0 0 0 0 -98232222.01862748 1398157838.5728607 0 1398157838.5728607 -2201326965.2976274 0 0 0 0 401533561.18735099 506410653.24128151 0 506410653.24128151 -1184075630.6459198 0 0 0 0 295018583.14739174 1254170047.7421188 0 1254170047.7421188 -544916646.74423218 0 0 0 0 -405365611.65261734 1544310820.2543945 0 1544310820.2543945 -665005004.21812057 0 0 0 0 -891313254.67156708 681363328.77598572 0 681363328.77598572 -84231306.875137329 0 0 0 0 -343568502.13433558 552113903.43689346 0 552113903.43689346 -953355319.7278595 0 0 0 0 -568744128.024014 489211201.82232666 0 489211201.82232666 -751598297.64181519 0 0 0 0 -770775496.13733339 757192804.61805725 0 757192804.61805725 -903571709.01047516 0 0 0 0 -132798850.71369763 104614172.52288222 0 104614172.52288222 -1188235854.9114532 0 0 0 0 120788.4786960209 57428.998262237757 0 57428.998262237757 -715023.89086462557 0 0 0 0 3001469.2277094126 -27637679.060935974 0 -27637679.060935974 -10891560.714249134 0 0 0 0 -279636524.49351138 177892550.02993774 0 177892550.02993774 -24727016.445899963 0 0 0 0 -97755240.809001088 -291049451.23324776 0 -291049451.23324776 -467855795.47610474 0 0 0 0 70361666.26155749 73231782.52161026 0 73231782.52161026 58832310.467155457 0 0 0 0 -69231.312251472758 1345319.6504220748 0 1345319.6504220748 -6724123.0671360418 0 0 0 0 453605302.11989546 -20058618.940229416 0 -20058618.940229416 -566887351.35123444 0 0 0 0 856538.04089166422 487224.13031546772 0 487224.13031546772 -1477078.7660843804 0 0 0 0 36699384.169494212 40650373.282137871 0 40650373.282137871 93208809.891494751 0 0 0 0 4810372.119638592 5037980.3170928955 0 5037980.3170928955 -8966136.8034191132 0 0 0 0 512787.15147934022 -2445621.7341898764 0 -2445621.7341898764 -7619571.8514335379 0 0 0 0 10686410.982818991 12762870.379631042 0 12762870.379631042 -9778025.1656265259 0 0 0 0 1377491.2418268998 1485006.5729385428 0 1485006.5729385428 -4090691.9397019446 0 0 0 0 205217306.43197864 114490349.77834606 0 114490349.77834606 -7094519.8614654541 0 0 0 0 165214415.21598673 -278536721.56762695 0 -278536721.56762695 217509030.31361866 0 0 0 0 -70228409.43510884 246308362.47052002 0 246308362.47052002 360214702.91466331 0 0 0 0 26336592.594100922 -22882756.143867493 0 -22882756.143867493 -28294095.180900574 0 0 0 0 -7227351.1744036078 31061894.149417877 0 31061894.149417877 -44712212.851303101 0 0 0 0 -241829122.70018375 -434355492.30076599 0 -434355492.30076599 182633794.99528503 0 0 0 0 -241700.69939660569 431183.43883978203 0 431183.43883978203 -1583772.3477276452 0 0 0 0 -7770120.14271635 -3317754.2659653127 0 -3317754.2659653127 -1002967.2975463867 0 0 0 0 1586851.3452088069 1596984.4537600931 0 1596984.4537600931 -3005640.1914254427 0 0 0 0 1030622.4451811928 -1553608.0538301356 0 -1553608.0538301356 -13609890.342457801 0 0 0 0 13552901.589386951 19388890.298388243 0 19388890.298388243 -30988548.035575867 0 0 0 0 30838791.463087976 6142323.0751419067 0 6142323.0751419067 -56402516.85446167 0 0 0 0 -11341044.813818736 14519297.78324604 0 14519297.78324604 -31964819.67162323 0 0 0 0 -7365346.9634391889 -42896701.863064289 0 -42896701.863064289 -14073062.518508911 0 0 0 0 13272288.518397689 -9433543.9792671204 0 -9433543.9792671204 -14515508.323648453 0 0 0 0 14017166.045875341 -13807085.453422546 0 -13807085.453422546 -56849369.360542297 0 0 0 0 1788337.0435473323 -12458219.741451263 0 -12458219.741451263 -135078.36270713806 0 0 0 0 4048914.7135430276 -6980992.6926264763 0 -6980992.6926264763 -10827674.672424316 0 0 0 0 318250.10898907192 -5547865.0995392017 0 -5547865.0995392017 757819.53933567554 0 0 0 0 -16611483.275123358 -19018137.816192627 0 -19018137.816192627 27723110.965255737 0 0 0 0 -17907.015764539246 -264205.24472733587 0 -264205.24472733587 -525907.6301145982 0 0 0 0 17934555.008627892 -73223027.486002922 0 -73223027.486002922 182393844.09988403 0 0 0 0 -90290.444913667845 -741403.3371349175 0 -741403.3371349175 -76370.339078173041 0 0 0 0 17223605.243537366 -11440184.573854446 0 -11440184.573854446 -17135310.544244766 0 0 0 0 2185050.2677249121 -863861.07961699914 0 -863861.07961699914 -13111924.104230199 0 0 0 0 113062145.95833349 10987317.156469345 0 10987317.156469345 -14243091.151725769 0 0 0 0 177988133.33774027 -22272376.368828058 0 -22272376.368828058 -36803933.282211304 0 0 0 0 68463340.462750673 -15615772.465423584 0 -15615772.465423584 -59403380.187713623 0 0 0 0 67908842.448523998 -13180152.726074219 0 -13180152.726074219 88884853.590545654 0 0 0 0 293913022.17038631 20895887.325622559 0 20895887.325622559 -22827290.41595459 0 0 0 0 -24448409.271641016 42891317.157432556 0 42891317.157432556 -20701822.147555351 0 0 0 0 85822385.816926658 -24182781.457511902 0 -24182781.457511902 -39025850.389183044 0 0 0 0 70914269.052926123 29702365.928676605 0 29702365.928676605 23573821.556022644 0 0 0 0 134346328.1988607 -4546040.6694328785 0 -4546040.6694328785 -712562.17558288574 0 0 0 0 124092823.14015985 -15400703.641239166 0 -15400703.641239166 -12162924.752443314 0 0 0 0 138250002.91381454 -3461215.841999054 0 -3461215.841999054 -3751349.0849456787 0 0 0 0 139010.62932031951 160573.48748674616 0 160573.48748674616 -296308.52098282427 0 0 0 0 152832030.3158083 53923479.503932953 0 53923479.503932953 28396828.867927551 0 0 0 0 12420255.436537638 -34737896.833257675 0 -34737896.833257675 -29937920.807731628 0 0 0 0 28973221.023504078 75911178.62845993 0 75911178.62845993 15595152.533638 0 0 0 0 106646.14705685759 324326.11572925746 0 324326.11572925746 -497424.23940883577 0 0 0 0 22588514.6674546 42322507.847126007 0 42322507.847126007 24831035.631820679 0 0 0 0 37260186.219789624 880079.40073394775 0 880079.40073394775 8268423.8763504028 0 0 0 0 7901803.3198854923 23678862.786617279 0 23678862.786617279 3707631.4433326721 0 0 0 0 29250170.161471307 22589403.620443344 0 22589403.620443344 -85161760.237449646 0 0 0 0 19656468.321008921 57924471.901248932 0 57924471.901248932 -130882714.50559998 0 0 0 0 -51872552.358813047 86606858.093605042 0 86606858.093605042 -85180629.432507753 0 0 0 0 -4520366.2934900522 95963103.103931427 0 95963103.103931427 -162060107.41437531 0 0 0 0 1308341.7768064737 2570794.827960968 0 2570794.827960968 -831369.77310943604 0 0 0 0 32959.117168633034 178877.77627020702 0 178877.77627020702 -268360.08098431677 0 0 0 0 25416273.387489926 52086244.826600075 0 52086244.826600075 -185778809.87437439 0 0 0 0 -55047719.103491068 131632761.64547729 0 131632761.64547729 -150739472.6331768 0 0 0 0 -91696688.935643971 111952573.62741089 0 111952573.62741089 -23780434.486194611 0 0 0 0 121604.17831177088 125206080.05097774 0 125206080.05097774 -178606813.26055908 0 0 0 0 -335823.27359292033 125165219.48675919 0 125165219.48675919 -178598890.17136574 0 0 0 0 -58327589.810841158 -95362999.876605988 0 -95362999.876605988 -123629580.37248421 0 0 0 0 -54049738.527852312 125512755.14225578 0 125512755.14225578 -29614361.169719696 0 0 0 0 47737462.103578523 -19663050.356282711 0 -19663050.356282711 -96784557.977767944 0 0 0 0 -64965921.162660241 -122868658.69114685 0 -122868658.69114685 -116345349.73833466 0 0 0 0 38765.557717122996 -87738.113513760269 0 -87738.113513760269 -430553.39976777136 0 0 0 0 2139892.5134316804 6124746.3815040588 0 6124746.3815040588 -26692361.449512482 0 0 0 0 2014184.1709016669 6978272.0955600739 0 6978272.0955600739 -31511411.724578857 0 0 0 0 3471.0915013505492 5072059.3332824707 0 5072059.3332824707 -24667629.803379059 0 0 0 0 -8050.7176086396585 4445723.2368918927 0 4445723.2368918927 -18485605.944099426 0 0 0 0 64174.275099212609 230380.32007727772 0 230380.32007727772 -146659.13243030757 0 0 0 0 -1150961.8955631349 7626016.0453262329 0 7626016.0453262329 -22165807.901027679 0 0 0 0 -1153471.6658325417 7383554.5417618304 0 7383554.5417618304 -20318148.171081543 0 0 0 0 455307.97019691649 277704.61252414063 0 277704.61252414063 -262691.61140383407 0 0 0 0 -53784064.138566256 155366063.61495209 0 155366063.61495209 -194107184.10763931 0 0 0 0 -71533132.216891274 59860292.184836864 0 59860292.184836864 -126199915.84443665 0 0 0 0 -2010603.9053515047 9874710.2626715899 0 9874710.2626715899 -10360354.167564392 0 0 0 0 -2016549.2803415284 10158155.436187744 0 10158155.436187744 -23840585.965324402 0 0 0 0 2561023.4449599534 10023632.848381042 0 10023632.848381042 -23899303.675924301 0 0 0 0 3733474.7119837739 13324739.320106506 0 13324739.320106506 -35030071.874725342 0 0 0 0 6553844.3388539366 8192681.4577713013 0 8192681.4577713013 -34166327.393540382 0 0 0 0 13654920.769804202 14520589.541980743 0 14520589.541980743 -44655340.718643188 0 0 0 0 -20452134.183296051 24045838.868719101 0 24045838.868719101 41941033.978500366 0 0 0 0 809835.08668603492 -123092.15671089292 0 -123092.15671089292 -1018117.8100260124 0 0 0 0 2713615.2927780114 20801917.791662216 0 20801917.791662216 -19759437.346172333 0 0 0 0 3334926.7605838031 25481956.39522171 0 25481956.39522171 -42878121.057558537 0 0 0 0 -4450508.9280259609 161992685.1119957 0 161992685.1119957 -295691475.36873627 0 0 0 0 773708.92589253478 164133.31147852913 0 164133.31147852913 -547169.38798682578 0 0 0 0 103750184.29601169 99272959.498062134 0 99272959.498062134 -127670290.06833267 0 0 0 0 30369224.176033497 76170126.812667847 0 76170126.812667847 -20920936.519798279 0 0 0 0 222985514.07562 93492873.866193295 0 93492873.866193295 -26126255.166488647 0 0 0 0 261292303.08975172 -179950945.31376648 0 -179950945.31376648 91825913.592140198 0 0 0 0 122627421.67015529 -74930120.948692322 0 -74930120.948692322 -53704591.886169434 0 0 0 0 95761327.501003027 3635341.9912872314 0 3635341.9912872314 -255588549.37081909 0 0 0 0 -68440307.208384514 63934153.5057621 0 63934153.5057621 -129451142.02537537 0 0 0 0 7754546.2281734943 123417090.49714279 0 123417090.49714279 -315644798.59631348 0 0 0 0 -31693289.980991602 23827319.043838501 0 23827319.043838501 -157291291.923913 0 0 0 0 31979794.597349226 -29990800.596549988 0 -29990800.596549988 -145685555.45777893 0 0 0 0 121183755.45298672 -65290170.306213379 0 -65290170.306213379 -73343390.04788208 0 0 0 0 -2452908.2016404867 26081166.1208992 0 26081166.1208992 -127356517.74313354 0 0 0 0 108667621.56178379 -35046390.409179688 0 -35046390.409179688 -69263162.3618927 0 0 0 0 -18699619.809786081 1880203.0898146629 0 1880203.0898146629 81680641.760040283 0 0 0 0 109307081.18087721 -39962275.48336792 0 -39962275.48336792 -31504956.146850586 0 0 0 0 6969169.2117470652 -10987964.909492493 0 -10987964.909492493 -38752769.579086304 0 0 0 0 -3987118.1476710886 -36931793.976810455 0 -36931793.976810455 -37023029.374534607 0 0 0 0 8069549.1964444071 -16423002.158308029 0 -16423002.158308029 -148474319.56578827 0 0 0 0 -476846.20947548747 3331131.9808235168 0 3331131.9808235168 -122921931.95100403 0 0 0 0 597814.54718595615 -411237.82231511176 0 -411237.82231511176 -1744985.8904904388 0 0 0 0 -4498832.0098657459 57324984.113918304 0 57324984.113918304 -200647864.64850235 0 0 0 0 -22906157.119571444 65841780.86769104 0 65841780.86769104 -66136269.272468567 0 0 0 0 -85153866.213521868 -35235837.356302261 0 -35235837.356302261 63439052.270698547 0 0 0 0 49708312.5680902 -1682752.5448875427 0 -1682752.5448875427 -188593044.65471649 0 0 0 0 -38215778.582390547 132956176.76014328 0 132956176.76014328 -187144863.69775391 0 0 0 0 19876137.603155419 28189680.882228851 0 28189680.882228851 -139098803.20806885 0 0 0 0 -9058824.7362092156 -61964590.286338806 0 -61964590.286338806 -100542300.93048859 0 0 0 0 -23136286.188354328 -33524249.16364193 0 -33524249.16364193 -40379360.920471191 0 0 0 0 -7122893.9995069802 2349979.46534729 0 2349979.46534729 -4976073.752202034 0 0 0 0 -47650743.672883622 -37707627.8554039 0 -37707627.8554039 -10329393.422164917 0 0 0 0 161151.52060076519 74399.463885582983 0 74399.463885582983 -748508.96441064775 0 0 0 0 13468825.082627721 -261772.59928226471 0 -261772.59928226471 -13699293.62147522 0 0 0 0 -2383493.5093092322 703451.91716766357 0 703451.91716766357 -8323274.5969543457 0 0 0 0 9162045.4603434801 820170.59375762939 0 820170.59375762939 -11564216.319099426 0 0 0 0 216821.74001294374 2504315.9745864868 0 2504315.9745864868 -6020942.3100128174 0 0 0 0 10485595.094803244 -1040458.0730285645 0 -1040458.0730285645 -6284862.6800460815 0 0 0 0 -5954889.0686393855 -7011607.9895935059 0 -7011607.9895935059 -11944885.688964844 0 0 0 0 6426675.8700047582 -396281.4620513916 0 -396281.4620513916 -8653261.7638778687 0 0 0 0 -6691504.6928761899 -691283.572265625 0 -691283.572265625 -4692818.466217041 0 0 0 0 1507993.816092426 -2753231.7254276276 0 -2753231.7254276276 -11355175.96421814 0 0 0 0 -10126865.991643436 -13575352.861042023 0 -13575352.861042023 -20295598.744628906 0 0 0 0 -13075158.404242262 -1697375.163192749 0 -1697375.163192749 -8933513.7016372681 0 0 0 0 -28934726.467827599 -10061021.298782349 0 -10061021.298782349 -5878933.3907775879 0 0 0 0 -2131704.6475802455 -4135748.4714004993 0 -4135748.4714004993 -14535552.288345337 0 0 0 0 -9245351.6092848033 -13810611.912727356 0 -13810611.912727356 -20238688.599372864 0 0 0 0 -5358869.8827463938 -10377974.811965942 0 -10377974.811965942 -25300552.089271545 0 0 0 0 -9271063.1034955606 -19579885.940513611 0 -19579885.940513611 -29231407.621917725 0 0 0 0 -8854838.2002318986 -6513043.8102531433 0 -6513043.8102531433 -11695532.29460907 0 0 0 0 -7042457.3836400509 -1986140.0360031128 0 -1986140.0360031128 -8296590.2546234131 0 0 0 0 -3557433.286104992 -4538976.3212509155 0 -4538976.3212509155 -18818359.095170975 0 0 0 0 -4258832.2699011285 -7410974.8696174622 0 -7410974.8696174622 -18503908.264877319 0 0 0 0 -1141163.1619937951 -9439431.0829963684 0 -9439431.0829963684 -28947149.260307312 0 0 0 0 2766028.0080901189 -11383934.458395004 0 -11383934.458395004 -41313985.445922852 0 0 0 0 8254891.3230957929 -2081960.276134491 0 -2081960.276134491 -53765066.417079926 0 0 0 0 1839192.0353935733 -16218998.061725616 0 -16218998.061725616 -60289688.436031342 0 0 0 0 2718891.3985795081 -11046797.809940338 0 -11046797.809940338 -43067367.294483185 0 0 0 0 10571626.613218632 10877252.6210289 0 10877252.6210289 -48864948.830131531 0 0 0 0 5481576.7642799988 5138026.5429725647 0 5138026.5429725647 -39035833.937015533 0 0 0 0 8707828.2264945116 1002512.2327156067 0 1002512.2327156067 -34414241.613296509 0 0 0 0 3283607.534740299 -4427581.8583946228 0 -4427581.8583946228 -32408214.929706573 0 0 0 0 3873890.40393693 -4863498.687789917 0 -4863498.687789917 -35992538.350402832 0 0 0 0 77950.251733557321 -4292730.6720924377 0 -4292730.6720924377 -21266119.03956604 0 0 0 0 519396.5779004721 -5796455.7752456665 0 -5796455.7752456665 -24685755.699237823 0 0 0 0 3471321.7178607644 -2030878.2485580444 0 -2030878.2485580444 -28716507.185890198 0 0 0 0 3434583.9734106297 -1580767.3613572121 0 -1580767.3613572121 -27269633.42930603 0 0 0 0 1583867.9319561985 -875734.54090118408 0 -875734.54090118408 -24127007.947410583 0 0 0 0 668972.90053379955 -3077222.2914276123 0 -3077222.2914276123 -22482617.848945618 0 0 0 0 798.90693562902402 -545272.95302581787 0 -545272.95302581787 -21421243.117149353 0 0 0 0 1926942.5594372975 -1612634.8667898178 0 -1612634.8667898178 -25544589.075584412 0 0 0 0 3739.9024451848181 629296.3716468811 0 629296.3716468811 -26395283.317663193 0 0 0 0 3029115.2949205167 417712.6538028717 0 417712.6538028717 -31202470.209537506 0 0 0 0 3291474.819734443 3280601.7227249146 0 3280601.7227249146 -30137986.373672485 0 0 0 0 5393241.0923630809 4733812.8987550735 0 4733812.8987550735 -30180061.325866699 0 0 0 0 2057.333730312112 3750220.8995741797 0 3750220.8995741797 -28853882.682121277 0 0 0 0 8992976.9657127857 -37703124.805927277 0 -37703124.805927277 -112667998.62779534 0 0 0 0 79254787.109066725 -14633212.58061409 0 -14633212.58061409 -171645516.62234497 0 0 0 0 407114.54820905504 1394891.769418329 0 1394891.769418329 -16043552.913648829 0 0 0 0 1207175.6528173625 -653747.34783647209 0 -653747.34783647209 -3693512.4990138076 0 0 0 0 -175290968.42382884 -258190445.60467148 0 -258190445.60467148 62392740.750274658 0 0 0 0 131128777.37578094 -87249892.373016357 0 -87249892.373016357 19569572.229919434 0 0 0 0 21289149.706798971 -5933137.9151668549 0 -5933137.9151668549 -31891608.97869873 0 0 0 0 -285510696.45708621 119913106.5644989 0 119913106.5644989 47643056.024143219 0 0 0 0 421440419.45306301 -17339561.744720459 0 -17339561.744720459 -112144134.42591095 0 0 0 0 -57552065.355423331 40147238.909301758 0 40147238.909301758 -92292954.767631531 0 0 0 0 13000458.079654843 -218273218.55762577 0 -218273218.55762577 -436314377.85620117 0 0 0 0 -238584769.37711638 -310299412.37142015 0 -310299412.37142015 -221720159.18058014 0 0 0 0 131261880.48820348 -21425053.686061576 0 -21425053.686061576 -118877455.74372864 0 0 0 0 5122190.7329844236 74092934.452651978 0 74092934.452651978 -27140248.649345398 0 0 0 0 102525554.24718618 -11459882.190254211 0 -11459882.190254211 -95623818.604347229 0 0 0 0 12999915.636063099 7699401.1432466507 0 7699401.1432466507 -37093289.181446075 0 0 0 0 113570467.67559648 2624947.056098938 0 2624947.056098938 -79800618.507896423 0 0 0 0 4100427.6138151796 -1177723.1249788092 0 -1177723.1249788092 -27638324.708170313 0 0 0 0 4272854.7091848738 3569486.2355854921 0 3569486.2355854921 -12873362.235717628 0 0 0 0 11690354.444252014 4372597.4405632019 0 4372597.4405632019 -44871754.401847839 0 0 0 0 7582250.9000043869 -793002.05425834656 0 -793002.05425834656 -37635107.804788589 0 0 0 0 1612058.7361063957 12916059.6460886 0 12916059.6460886 -60933977.251220703 0 0 0 0 1275123.2974251159 3357745.0084290076 0 3357745.0084290076 -10080187.380767329 0 0 0 0 10962177.831618309 17178950.736129761 0 17178950.736129761 -80110258.375682831 0 0 0 0 4886669.5404686928 -383763.82173919678 0 -383763.82173919678 -16688193.533073425 0 0 0 0 4115906.8459947323 -565900.11347051617 0 -565900.11347051617 -13937225.745748777 0 0 0 0 3662109.7330930233 -1061914.5787582397 0 -1061914.5787582397 -25169372.046592832 0 0 0 0 4209514.0283729136 -759884.4760427475 0 -759884.4760427475 -25210101.77296257 0 0 0 0 2721912.6843924522 4062500.0562210083 0 4062500.0562210083 -12729618.373357773 0 0 0 0 4643539.6637109276 343658.51295701694 0 343658.51295701694 -21296536.405298822 0 0 0 0 4413693.0329664946 -725801.37939453125 0 -725801.37939453125 -10505093.060299873 0 0 0 0 5688167.4945922792 -828403.55463814735 0 -828403.55463814735 -35512757.427352905 0 0 0 0 2806586.4891545773 -1386962.9789094925 0 -1386962.9789094925 -35541837.696437836 0 0 0 0 4881643.6515491121 -1243806.2426288645 0 -1243806.2426288645 -19147482.653507814 0 0 0 0 6140159.6147108674 686316.71033239365 0 686316.71033239365 -35723128.884069443 0 0 0 0 4016484.2298779488 583152.15615081787 0 583152.15615081787 -35718839.285626113 0 0 0 0 5072392.7815110683 4057054.651556015 0 4057054.651556015 -42624124.714170456 0 0 0 0 6176581.5588479042 2690987.2681627274 0 2690987.2681627274 -42520436.434110641 0 0 0 0 6050004.8582341596 187828.91147312522 0 187828.91147312522 -38652265.091358185 0 0 0 0 3734328.6733858585 5354825.4697761536 0 5354825.4697761536 -39743188.761701584 0 0 0 0 17112416.633471727 -536089.51944732666 0 -536089.51944732666 -2850728.6561126709 0 0 0 0 18710875.679398537 1852948.4036026001 0 1852948.4036026001 -1356976.7211761475 0 0 0 0 5595093.464052625 -8197508.1932210941 0 -8197508.1932210941 -15684161.028154973 0 0 0 0 4272835.5467848778 -161519.46226406097 0 -161519.46226406097 -34800310.52703476 0 0 0 0 3057290.5589075089 3995394.1406946182 0 3995394.1406946182 -34642750.944503784 0 0 0 0 -520936.5859463269 -2232691.1460969979 0 -2232691.1460969979 -3055735.0590642579 0 0 0 0 5746294.679942131 -1977814.1087875366 0 -1977814.1087875366 -4983939.875579834 0 0 0 0 3349378.2268309696 810163.91825039499 0 810163.91825039499 -18091821.24949529 0 0 0 0 518434.54188593256 -3345991.2952018352 0 -3345991.2952018352 -4510434.7070052847 0 0 0 0 5640815.5157756805 -3681627.3071136475 0 -3681627.3071136475 -8249155.2178039551 0 0 0 0 5296149.1198220253 1281744.9601287842 0 1281744.9601287842 -28628289.087945938 0 0 0 0 4896351.9253486395 -3418275.7151069641 0 -3418275.7151069641 -8341803.8923339844 0 0 0 0 5233400.519755125 -2366793.62840271 0 -2366793.62840271 -12399749.735534668 0 0 0 0 -160057.63033413887 -3432175.1096076965 0 -3432175.1096076965 -5314088.8768539429 0 0 0 0 4517280.3994963542 -5222182.3183697462 0 -5222182.3183697462 -5879530.6409454346 0 0 0 0 3269047.0537171178 -3646206.0722180605 0 -3646206.0722180605 -16197702.357895099 0 0 0 0 4623961.9097813368 -2632533.7247276306 0 -2632533.7247276306 -6317470.6266937256 0 0 0 0 2386442.4863090687 -8197595.2852700911 0 -8197595.2852700911 -12225810.754563253 0 0 0 0 3211464.1054328424 -4811724.7374606747 0 -4811724.7374606747 -5222461.7419068068 0 0 0 0 1941778.210515856 -5199576.3556529693 0 -5199576.3556529693 -3860499.134685345 0 0 0 0 26402857.77098465 3686393.6328277588 0 3686393.6328277588 21917856.176330566 0 0 0 0 17163038.008572102 -691106.99609375 0 -691106.99609375 -3286596.1712036133 0 0 0 0 2303445.3568457877 -1757743.4691154305 0 -1757743.4691154305 -13085122.686313152 0 0 0 0 11032315.902911574 -1815785.3953933716 0 -1815785.3953933716 -7158576.9940795898 0 0 0 0 -4013068.7398376465 -4985269.5733413696 0 -4985269.5733413696 -21754907.106842041 0 0 0 0 337629.35907643917 2793589.1316736825 0 2793589.1316736825 -18601474.916426897 0 0 0 0 4525690.756321256 5623578.081811808 0 5623578.081811808 -27673062.636416152 0 0 0 0 5635081.487234354 -5222668.6073913574 0 -5222668.6073913574 -29565455.979362488 0 0 0 0 13783858.027521133 3100966.248298645 0 3100966.248298645 -28707658.07610321 0 0 0 0 18586410.614328384 3508727.9533081055 0 3508727.9533081055 -30339060.176116943 0 0 0 0 10931773.247566402 -6717337.3316822052 0 -6717337.3316822052 -31069748.554534912 0 0 0 0 6819550.1345903873 -9652711.6880874634 0 -9652711.6880874634 -24761126.652519226 0 0 0 0 9447901.4547731876 -4333626.1901473999 0 -4333626.1901473999 -30432515.538619995 0 0 0 0 6547053.7380428016 -8216525.594408989 0 -8216525.594408989 -29804453.324829102 0 0 0 0 7038678.4914150238 -7626380.236328125 0 -7626380.236328125 -29401760.979854584 0 0 0 0 8392742.1877994537 -4470891.4801712036 0 -4470891.4801712036 -46860127.496025085 0 0 0 0 4767439.3825930953 -9235711.338508606 0 -9235711.338508606 -33987547.933364868 0 0 0 0 13225387.306490302 12072647.675256729 0 12072647.675256729 -76621505.851676941 0 0 0 0 379420.5471227169 10211806.357826233 0 10211806.357826233 -45240180.849160194 0 0 0 0 3765972.1900963783 3047746.9072647095 0 3047746.9072647095 -30135669.756500244 0 0 0 0 4567622.0619130731 -433190.63530254364 0 -433190.63530254364 -38584176.721313477 0 0 0 0 -1466748.3591372371 -7711928.5666885376 0 -7711928.5666885376 -41346382.57068634 0 0 0 0 9604284.4765342176 -11392437.300294876 0 -11392437.300294876 -65997129.513526917 0 0 0 0 17046355.981275558 5044991.9189682007 0 5044991.9189682007 -63696005.433713436 0 0 0 0 18318702.334392369 -2797012.8983421326 0 -2797012.8983421326 -116526228.48378754 0 0 0 0 -1209178.7152857184 -23809087.814235687 0 -23809087.814235687 -66038802.317771912 0 0 0 0 -8785355.5679477453 14911272.896877289 0 14911272.896877289 -103376416.23031998 0 0 0 0 -21716569.512909412 -47779542.679779053 0 -47779542.679779053 88647298.984855652 0 0 0 0 369145.4042705539 -402807.40140426159 0 -402807.40140426159 -3014166.5736961104 0 0 0 0 44255303.493576035 23023939.258889198 0 23023939.258889198 -132332368.89225769 0 0 0 0 49887911.27469144 -55915626.452719197 0 -55915626.452719197 -48695736.600036621 0 0 0 0 -27164117.704019666 28405624.990791321 0 28405624.990791321 -42461213.822906494 0 0 0 0 -6656729.5683734417 -3891246.067440033 0 -3891246.067440033 -5220694.3917160034 0 0 0 0 8388392.2091314793 49056289.36895752 0 49056289.36895752 -86471991.276893616 0 0 0 0 6326672.5726938248 48933168.202850342 0 48933168.202850342 -33416294.704910278 0 0 0 0 -3673370.5026004314 96258541.308959961 0 96258541.308959961 -74737144.406555176 0 0 0 0 61432809.862608373 68648780.759915352 0 68648780.759915352 -84928153.778488159 0 0 0 0 -61912413.405482531 75518920.46484375 0 75518920.46484375 -43671561.08379364 0 0 0 0 -211344.94483878417 -291520.5604411941 0 -291520.5604411941 -2916669.5255464278 0 0 0 0 325590004.84752178 102178413.22879028 0 102178413.22879028 -605287660.12653351 0 0 0 0 -56802322.022201538 27700619.041671753 0 27700619.041671753 -16022535.604482651 0 0 0 0 394772400.16312301 493744405.85499954 0 493744405.85499954 -428582336.23193359 0 0 0 0 56821969.405762434 334217433.34558868 0 334217433.34558868 76481929.432662964 0 0 0 0 30574231.214535952 -47878005.688316345 0 -47878005.688316345 -76905289.586902618 0 0 0 0 1695391.0242503136 61328159.091139317 0 61328159.091139317 -95024897.622642517 0 0 0 0 -225988410.01492071 -397353632.18489075 0 -397353632.18489075 -170686896.07087708 0 0 0 0 1543183.7679006651 -111414.67498445883 0 -111414.67498445883 -3216297.2754320316 0 0 0 0 371045.70473002549 168478.12033712864 0 168478.12033712864 -5645831.1977795884 0 0 0 0 -41247735.418155193 -136651357.57894897 0 -136651357.57894897 84229947.56124115 0 0 0 0 19890308.536903858 -327937701.57409668 0 -327937701.57409668 -213504390.47777939 0 0 0 0 -54529677.897435188 85448761.047531128 0 85448761.047531128 -86639227.829277039 0 0 0 0 -59719528.968856692 117581772.25914764 0 117581772.25914764 -268651740.32452393 0 0 0 0 -5009019.7564201355 60769366.870475769 0 60769366.870475769 -75549796.715324402 0 0 0 0 4468680.536137104 32652463.415828705 0 32652463.415828705 -27637631.867324829 0 0 0 0 43130031.909662247 17298901.235649109 0 17298901.235649109 -37990968.350334167 0 0 0 0 70146153.028974533 23402182.036003113 0 23402182.036003113 -37947954.539123535 0 0 0 0 32274790.067237854 44245864.562057495 0 44245864.562057495 -26060518.45022583 0 0 0 0 43275509.118091583 44100652.229003906 0 44100652.229003906 -26471951.760162354 0 0 0 0 41999117.416549683 18296157.486404419 0 18296157.486404419 -38515967.06262207 0 0 0 0 19747032.805792093 85999833.22883606 0 85999833.22883606 -128171542.64194489 0 0 0 0 27521111.818869829 71111447.253005981 0 71111447.253005981 -143393522.85119629 0 0 0 0 -94328791.869899035 101697860.92344666 0 101697860.92344666 200618081.24964905 0 0 0 0 137139217.6505146 95206894.389480591 0 95206894.389480591 -586376055.25080109 0 0 0 0 18200224.098442316 92287470.959373474 0 92287470.959373474 -153722697.8370018 0 0 0 0 61237860.79521966 110676399.12588501 0 110676399.12588501 -156508509.24259758 0 0 0 0 28511086.579048395 -24103975.951812744 0 -24103975.951812744 51877125.29536438 0 0 0 0 43954429.014374733 653339096.06303406 0 653339096.06303406 -161643629.18457794 0 0 0 0 87634834.538788319 -515290772.59336853 0 -515290772.59336853 -1037851087.5813599 0 0 0 0 -61342255.754277229 -150119754.24847412 0 -150119754.24847412 -319314575.45549774 0 0 0 0 -131127502.3088274 68254932.878103256 0 68254932.878103256 -35960868.825752258 0 0 0 0 -96467505.031419754 22292251.430244446 0 22292251.430244446 1278781.6832962036 0 0 0 0 -859871.95344238204 1077404.3361634612 0 1077404.3361634612 -112372.39989958704 0 0 0 0 -66141733.021545172 -28136787.531639099 0 -28136787.531639099 -35083528.735290527 0 0 0 0 318580.52424914308 224169.46911139786 0 224169.46911139786 -454126.34724035859 0 0 0 0 4176094.9340245724 46690729.087562561 0 46690729.087562561 -119499871.41647339 0 0 0 0 1202216.0029922724 8541789.6235237122 0 8541789.6235237122 -50894840.930448532 0 0 0 0 47308711.049799338 -29656810.526207924 0 -29656810.526207924 -192995532.9680481 0 0 0 0 42464726.344892025 69722253.703934669 0 69722253.703934669 -151257139.95336914 0 0 0 0 43974606.672043324 66351305.648284912 0 66351305.648284912 -255425620.69342041 0 0 0 0 46198088.666375399 -40484965.542068481 0 -40484965.542068481 -260681885.27087212 0 0 0 0 7507964.0614373684 2036269.9549865723 0 2036269.9549865723 -51831723.369890213 0 0 0 0 935394.52049293439 420397.30061246082 0 420397.30061246082 -2682303.1234312356 0 0 0 0 15059402.514956005 -6666822.9696817398 0 -6666822.9696817398 -7642779.1064910889 0 0 0 0 2584072.1582090259 456827.15811157227 0 456827.15811157227 -4049464.5918884277 0 0 0 0 9119388.9424278848 842405.0309009552 0 842405.0309009552 -2918797.698135376 0 0 0 0 459769.68724729773 463043.33406925946 0 463043.33406925946 -3911245.9873625785 0 0 0 0 848331.53008963133 2210357.1663585491 0 2210357.1663585491 -2958080.8463496044 0 0 0 0 932935.39434063435 4952844.9118785858 0 4952844.9118785858 -5059665.5697174072 0 0 0 0 -22117683.62327981 10675959.905376434 0 10675959.905376434 -1140486.185965538 0 0 0 0 916888.17653334257 1030540.0924567692 0 1030540.0924567692 -1549982.623719573 0 0 0 0 12695309.743220091 -1156538.6047668457 0 -1156538.6047668457 -12576698.634811401 0 0 0 0 1490715.9583611488 2672716.1370925903 0 2672716.1370925903 5399838.2121200562 0 0 0 0 12829703.192474484 4991258.9586868286 0 4991258.9586868286 -6805392.5783157349 0 0 0 0 1794261.9723847061 6549312.4925839901 0 6549312.4925839901 15707449.342285156 0 0 0 0 793196.78667265456 537687.02247236297 0 537687.02247236297 -4572408.3209987096 0 0 0 0 19510135.445328712 34620642.29265976 0 34620642.29265976 -36843397.955230713 0 0 0 0 12928975.381951571 15994904.025654793 0 15994904.025654793 -32166184.647216797 0 0 0 0 -29045243.348736763 25628979.253635406 0 25628979.253635406 -15833807.809761047 0 0 0 0 -258974.01267550659 736603.5661510136 0 736603.5661510136 -5891807.3277453221 0 0 0 0 -8634275.9190130234 21812094.993232727 0 21812094.993232727 -15202771.452396393 0 0 0 0 -9218470.8317331672 7105657.7993125916 0 7105657.7993125916 1953685.6660270691 0 0 0 0 -2351773.5589475632 6718011.700302124 0 6718011.700302124 -13318570.704040527 0 0 0 0 -67225.2848999165 5448931.6014533043 0 5448931.6014533043 -22183826.604073577 0 0 0 0 32275242.573348999 15291819.343940735 0 15291819.343940735 -33938402.117864609 0 0 0 0 18051176.912586212 17007573.302642822 0 17007573.302642822 -25796011.975635529 0 0 0 0 15183605.014984608 7173453.7866821289 0 7173453.7866821289 -24066749.938369751 0 0 0 0 14100693.516530514 11249180.839691162 0 11249180.839691162 -36134536.995639801 0 0 0 0 8258987.1253583431 16194236.776125431 0 16194236.776125431 -20150105.159233093 0 0 0 0 15343501.594307423 18640638.811153412 0 18640638.811153412 -26378821.791334152 0 0 0 0 9481313.468108654 18861598.777014732 0 18861598.777014732 -25108439.126083374 0 0 0 0 19303445.685930252 8325885.861289978 0 8325885.861289978 -23717496.484739304 0 0 0 0 11896900.535690308 1799798.9515151978 0 1799798.9515151978 -28933340.746635437 0 0 0 0 1052379.8115261986 8198964.0332765188 0 8198964.0332765188 -24842697.205571875 0 0 0 0 4072375.7444726056 1188896.4654285572 0 1188896.4654285572 -10872247.022806646 0 0 0 0 22029773.381837845 -880063.38102340698 0 -880063.38102340698 -30343716.021568298 0 0 0 0 39902663.84750843 -44126.176620483398 0 -44126.176620483398 -30794318.753746033 0 0 0 0 365276.17205047607 19390153.111419678 0 19390153.111419678 -74629893.608291626 0 0 0 0 8524437.1040594578 12292117.796714783 0 12292117.796714783 -29443143.128807068 0 0 0 0 4169463.4490725994 22546084.441375732 0 22546084.441375732 -31482032.220077515 0 0 0 0 1792066.549710236 -7172979.3570105154 0 -7172979.3570105154 -14582912.076729609 0 0 0 0 4729865.9520215988 -6434633.0845775604 0 -6434633.0845775604 -34136888.589488983 0 0 0 0 1612730.8804702759 -1482607.1518554688 0 -1482607.1518554688 -6388049.0383529663 0 0 0 0 1405873.6395395049 6625134.8321098862 0 6625134.8321098862 -6481287.6682956535 0 0 0 0 -362399.20357843174 353056.44753657747 0 353056.44753657747 -13789013.673120033 0 0 0 0 4432745.990725196 -1426994.255981354 0 -1426994.255981354 -29175876.074944243 0 0 0 0 10454989.539477348 -6722771.919216156 0 -6722771.919216156 -36512876.859846115 0 0 0 0 82354863.834826633 36788148.572807312 0 36788148.572807312 -12815537.919494629 0 0 0 0 7889936.7807922363 -4261818.9044365883 0 -4261818.9044365883 -27441033.541893005 0 0 0 0 -40806912.054379702 42731641.854545593 0 42731641.854545593 195248960.85620117 0 0 0 0 12680977.025643438 -17149840.993085861 0 -17149840.993085861 -82249810.539955139 0 0 0 0 3073523.9393426776 427677.10217265785 0 427677.10217265785 -12859629.24483959 0 0 0 0 -16084189.73904109 -40340800.23575592 0 -40340800.23575592 -150999175.95451355 0 0 0 0 14124986.921833038 13141100.926021576 0 13141100.926021576 -67127368.460101128 0 0 0 0 -2630173.1104381084 6173485.1182341576 0 6173485.1182341576 -64735917.039440155 0 0 0 0 25742976.344703197 -12977650.447948933 0 -12977650.447948933 -49410138.187999725 0 0 0 0 8165263.7080628872 -2847571.3631944656 0 -2847571.3631944656 -44278143.918830872 0 0 0 0 4787632.0743616372 -11977860.519079417 0 -11977860.519079417 -33848385.784049988 0 0 0 0 8409910.1112594604 -12370210.302261353 0 -12370210.302261353 -36769841.207166672 0 0 0 0 9530828.8478384018 -14837452.139146805 0 -14837452.139146805 -33598436.414573669 0 0 0 0 7535735.3163261414 -12344992.32951355 0 -12344992.32951355 -33859349.998066425 0 0 0 0 1011678.3824457997 122033.45965612959 0 122033.45965612959 -12029146.138172729 0 0 0 0 7383528.3929853439 -13143133.048881531 0 -13143133.048881531 -34157370.084098816 0 0 0 0 362342.96545690671 176622.11578362063 0 176622.11578362063 -4710593.8984402046 0 0 0 0 25621510.256518841 -35992222.272292137 0 -35992222.272292137 -5052821.0903053284 0 0 0 0 76122494.152585983 -20579994.116306305 0 -20579994.116306305 -53939139.009566307 0 0 0 0 35409263.996594429 59301526.885433197 0 59301526.885433197 5790664.2979316711 0 0 0 0 86467823.103001118 37961865.629341125 0 37961865.629341125 -62608118.68548584 0 0 0 0 61819465.215202332 19182693.349340439 0 19182693.349340439 -75844999.748409271 0 0 0 0 14684953.318377018 20950814.069395065 0 20950814.069395065 -34656331.471401215 0 0 0 0 4816019.6923999786 27257023.977878571 0 27257023.977878571 -25642028.56375885 0 0 0 0 4625078.2129173279 18717350.851263046 0 18717350.851263046 -24349658.040126801 0 0 0 0 31160846.256604195 36145263.746055603 0 36145263.746055603 -24175264.562318802 0 0 0 0 12876376.898323059 9527419.3053245544 0 9527419.3053245544 -37621507.787036419 0 0 0 0 37341474.382703304 2641899.1219472885 0 2641899.1219472885 -59350140.87179184 0 0 0 0 45636137.126308918 -4165009.3123378754 0 -4165009.3123378754 -93337141.506942749 0 0 0 0 36987476.664099216 637141.36094665527 0 637141.36094665527 -66552095.477310181 0 0 0 0 36842312.673307419 -27998709.25778389 0 -27998709.25778389 -83319622.033852577 0 0 0 0 28620787.688490987 -24102280.218750477 0 -24102280.218750477 -62840690.844726562 0 0 0 0 26052226.610852242 -15666814.081726074 0 -15666814.081726074 -68556790.396512985 0 0 0 0 14591671.532152176 -13605876.764755249 0 -13605876.764755249 -65878743.067268372 0 0 0 0 17927482.418466926 -2027362.9314332008 0 -2027362.9314332008 -66917852.329212189 0 0 0 0 17953380.157525063 -6039385.2403678894 0 -6039385.2403678894 -62032780.42565918 0 0 0 0 18265196.798476815 -7771498.7895467281 0 -7771498.7895467281 -51589850.761608124 0 0 0 0 5204643.3312587738 -4756984.5580806732 0 -4756984.5580806732 -52254359.941400528 0 0 0 0 25281526.968096733 -34062112.368427277 0 -34062112.368427277 -52347236.195138931 0 0 0 0 7652327.0258073807 -14530795.656574249 0 -14530795.656574249 -35517574.619132996 0 0 0 0 9249452.5011329651 -8812720.0106887817 0 -8812720.0106887817 -131746681.57005119 0 0 0 0 312180.95442941878 302306.4824084267 0 302306.4824084267 -1693049.0504340315 0 0 0 0 2542140.3961992264 -37293821.674015045 0 -37293821.674015045 -4189240.3222923279 0 0 0 0 16169033.738001823 -39939806.34057045 0 -39939806.34057045 -180490168.40198898 0 0 0 0 -120828277.58635712 -32535935.751953125 0 -32535935.751953125 -176666451.95534134 0 0 0 0 -30005691.512072563 -14203560.693099976 0 -14203560.693099976 -61787161.356185913 0 0 0 0 26382.096887399442 -3269338.2336006695 0 -3269338.2336006695 -3222559.0380288903 0 0 0 0 949882.23304888932 586501.90735517349 0 586501.90735517349 -5788176.8856668714 0 0 0 0 2995678.7285785675 2341080.807056427 0 2341080.807056427 -83566016.091854095 0 0 0 0 997211.44424819946 -10746754.717823029 0 -10746754.717823029 -71833182.162948608 0 0 0 0 6698837.8258895874 -21746719.766576767 0 -21746719.766576767 -54263410.852958679 0 0 0 0 488798.31718169339 -2642547.5384961292 0 -2642547.5384961292 -6524241.7944429629 0 0 0 0 -256330.78309726715 -1664393.287563324 0 -1664393.287563324 -9889414.2689170837 0 0 0 0 -3766100.6883964539 -7313292.9121170044 0 -7313292.9121170044 -48039259.513537407 0 0 0 0 394381.40327644348 -1457239.839176178 0 -1457239.839176178 -9237430.2464942932 0 0 0 0 -88628.112843513489 -2096431.9487533569 0 -2096431.9487533569 -9609458.9654312134 0 0 0 0 323050.03231620789 -1649491.8802394867 0 -1649491.8802394867 -9384098.9167556763 0 0 0 0 753418.0272359848 -1515051.5641479492 0 -1515051.5641479492 -9773968.0126953125 0 0 0 0 13387700.661094666 -13289536.929382324 0 -13289536.929382324 -7637762.5322265625 0 0 0 0 5805817.1617240906 -4880874.500869751 0 -4880874.500869751 -7276043.7723236084 0 0 0 0 15276579.284481049 -12318098.42061615 0 -12318098.42061615 -9054984.0138702393 0 0 0 0 15301313.644681215 -11691255.527588129 0 -11691255.527588129 -4635400.8508148193 0 0 0 0 12169466.974620819 -19666497.329209328 0 -19666497.329209328 2418138.8474655151 0 0 0 0 15598975.394014359 -12212220.035421371 0 -12212220.035421371 -7113060.7088012695 0 0 0 0 19303242.480823517 -18322004.238296509 0 -18322004.238296509 1142368.0012207031 0 0 0 0 20644870.997932434 -8404623.1087493896 0 -8404623.1087493896 -8325941.2601928711 0 0 0 0 19198978.422363281 -8839305.4539794922 0 -8839305.4539794922 -3671779.2157287598 0 0 0 0 24453383.707437515 -7549700.1872215271 0 -7549700.1872215271 -8859341.7633666992 0 0 0 0 636836.68932718877 -5309241.513288728 0 -5309241.513288728 -12619011.705035646 0 0 0 0 11208304.656287193 4094695.3194522858 0 4094695.3194522858 -12741234.05921936 0 0 0 0 16393977.272319794 3181815.8557767868 0 3181815.8557767868 -16841715.458374023 0 0 0 0 24844084.499145508 -2719347.5659179688 0 -2719347.5659179688 -22661271.212036133 0 0 0 0 -2157319.4065942606 -1491281.4964134786 0 -1491281.4964134786 3439268.2164283153 0 0 0 0 4400443.7687702775 -17960892.335555732 0 -17960892.335555732 -58764181.381912231 0 0 0 0 28694061.651504517 -13879443.073303223 0 -13879443.073303223 25268299.14994812 0 0 0 0 6414060.4246995244 -7305509.5442513712 0 -7305509.5442513712 -13790387.449026223 0 0 0 0 4567626.6063690186 -13193660.883312225 0 -13193660.883312225 -53983649.971511841 0 0 0 0 -15797743.907457352 -29433747.719745636 0 -29433747.719745636 -49028817.842224121 0 0 0 0 -2197323.7489206791 -24369359.322911739 0 -24369359.322911739 -59757826.412330627 0 0 0 0 -1044966.0155982971 -17349114.384117126 0 -17349114.384117126 -47920467.487258911 0 0 0 0 11553568.923339844 -45918060.23960495 0 -45918060.23960495 -33103737.989112854 0 0 0 0 -21905103.367258072 -23843092.814537048 0 -23843092.814537048 16162954.156616211 0 0 0 0 8263461.8459587097 13810835.336296082 0 13810835.336296082 -21593479.633522034 0 0 0 0 -9601296.0675010681 1136483.362739563 0 1136483.362739563 -30584889.376655579 0 0 0 0 19768117.852270126 8910071.7437553406 0 8910071.7437553406 -35615230.943336487 0 0 0 0 -11091398.188407898 6497194.7110137939 0 6497194.7110137939 -49748823.063772202 0 0 0 0 -9297067.5781936646 -19045414.083618164 0 -19045414.083618164 -35259384.228034973 0 0 0 0 -8242817.9834985733 -16037608.34113121 0 -16037608.34113121 -47675143.063339233 0 0 0 0 5974949.398235321 -1392455.6643028259 0 -1392455.6643028259 -43286257.978561401 0 0 0 0 1572190.8883405649 431822.58789173327 0 431822.58789173327 -12333694.740606703 0 0 0 0 15078522.191314697 -30613.679824829102 0 -30613.679824829102 -45582562.880615234 0 0 0 0 19589460.410102278 2755711.1012024879 0 2755711.1012024879 -43964943.943634033 0 0 0 0 3937141.759404711 -3411391.9819297846 0 -3411391.9819297846 -15220589.987785367 0 0 0 0 14452657.725549698 -10445276.200393677 0 -10445276.200393677 -5998985.9938964844 0 0 0 0 15458973.40448761 -10399739.86907959 0 -10399739.86907959 -7070632.0192489624 0 0 0 0 16246869.390384674 -6590000.3737373352 0 -6590000.3737373352 1689613.9856567383 0 0 0 0 6027966.877212313 -3384431.4006168954 0 -3384431.4006168954 -18479248.640252676 0 0 0 0 4172045.3894729614 -1545855.5891113281 0 -1545855.5891113281 -3495947.9321098328 0 0 0 0 -206315.09003570187 1972474.7820936479 0 1972474.7820936479 -19802199.744378608 0 0 0 0 -3571399.0284428596 -2699939.3866014481 0 -2699939.3866014481 -44249034.850894928 0 0 0 0 2110651.3256964069 -201630.51701557171 0 -201630.51701557171 -11680424.732538089 0 0 0 0 20096192.536324978 -6459763.5772981644 0 -6459763.5772981644 -43767580.196572304 0 0 0 0 199402.95088974526 -1916194.0214090534 0 -1916194.0214090534 -2977866.4071163535 0 0 0 0 2750928.3184320196 -1801589.5478805336 0 -1801589.5478805336 -15863713.936604314 0 0 0 0 386773.27051922493 -287001.61829160713 0 -287001.61829160713 -3261742.1216504034 0 0 0 0 -9458327.0383062363 -9477023.3543300629 0 -9477023.3543300629 -39750378.543357849 0 0 0 0 12637432.700623274 10046514.809720278 0 10046514.809720278 -32621508.006622314 0 0 0 0 6191336.7227611542 1929958.3684501648 0 1929958.3684501648 -54472731.30576539 0 0 0 0 14730407.556915283 -32522866.207004547 0 -32522866.207004547 -87282687.303281784 0 0 0 0 9613698.6002554893 11994468.619354486 0 11994468.619354486 -24152807.795520782 0 0 0 0 -7534250.1374397278 -21152464.005268097 0 -21152464.005268097 -36907348.357727051 0 0 0 0 4010426.9338235855 -7033890.3025398254 0 -7033890.3025398254 -42671796.871728897 0 0 0 0 6284217.2630329132 13432052.068989754 0 13432052.068989754 -16111205.890022278 0 0 0 0 7084.2968546407064 215473.0147364866 0 215473.0147364866 -180651.46406193823 0 0 0 0 21218198.666040659 -7107263.6915283203 0 -7107263.6915283203 -17642246.966888428 0 0 0 0 -11324044.271968603 -4751629.9009513855 0 -4751629.9009513855 10382041.156944275 0 0 0 0 -14385421.083560705 7365091.1263198853 0 7365091.1263198853 -3289168.1124267578 0 0 0 0 22655667.671252251 1174600.3438796997 0 1174600.3438796997 -42328103.938964844 0 0 0 0 -18333879.495655537 -23810384.718345642 0 -23810384.718345642 -50968001.905143738 0 0 0 0 4918547.8569815159 -4784227.5673980713 0 -4784227.5673980713 -54960153.797218323 0 0 0 0 26067328.198009282 -29047217.052790642 0 -29047217.052790642 -39317066.239654541 0 0 0 0 -10455177.774471164 -1996497.9939346313 0 -1996497.9939346313 -25639775.481567383 0 0 0 0 1433602.5623104363 1200296.9649759289 0 1200296.9649759289 -13354496.499655485 0 0 0 0 4889037.9997808933 -13112095.908432007 0 -13112095.908432007 -47521596.733444214 0 0 0 0 -606189.28688955307 -2081034.3108520508 0 -2081034.3108520508 -26895212.862365723 0 0 0 0 1951917.6831986138 716072.81753847376 0 716072.81753847376 -13828511.515513128 0 0 0 0 11175190.565020084 -8974890.3369140625 0 -8974890.3369140625 4317902.445274353 0 0 0 0 2537622.0193562508 4311010.8703079224 0 4311010.8703079224 -13333009.027076721 0 0 0 0 1972483.6079807281 -10035936.847118378 0 -10035936.847118378 92894.123748779297 0 0 0 0 -1353925.6388931274 -3511066.8453369141 0 -3511066.8453369141 -2415411.6765899658 0 0 0 0 -996109.14837479591 2773446.0799484253 0 2773446.0799484253 5771587.5437431335 0 0 0 0 -12510275.503192425 -7866908.8505630493 0 -7866908.8505630493 3796006.1587371826 0 0 0 0 -37554357.442690849 10147455.966911316 0 10147455.966911316 -37364372.039936066 0 0 0 0 -4501499.6580379009 2553234.9349479675 0 2553234.9349479675 -35904608.432571411 0 0 0 0 -3078818.5576825142 -3828952.2741851807 0 -3828952.2741851807 -38208803.653038025 0 0 0 0 714491.88334989548 8698341.1164703369 0 8698341.1164703369 -32250281.842193604 0 0 0 0 -13581452.270918131 3379371.1912765503 0 3379371.1912765503 -14503041.717575073 0 0 0 0 -1665589.6006034613 4874994.4792861938 0 4874994.4792861938 -14438839.071899414 0 0 0 0 -2416152.0822584629 8660521.629940033 0 8660521.629940033 -18975759.92250061 0 0 0 0 5858908.7155413628 1813085.2025146484 0 1813085.2025146484 -27194070.542930603 0 0 0 0 4822453.3855262399 12620368.653975964 0 12620368.653975964 -17616985.483917236 0 0 0 0 10494381.992777199 12026261.583934784 0 12026261.583934784 -22613486.000518799 0 0 0 0 9900837.4259181023 2793093.688873291 0 2793093.688873291 -16304006.041534424 0 0 0 0 -938255.13426804543 -5011208.3278846741 0 -5011208.3278846741 -35457931.41116333 0 0 0 0 1883586.9645433426 4905479.1761627197 0 4905479.1761627197 -29588173.997146606 0 0 0 0 -288481.59535169601 -11126790.483623505 0 -11126790.483623505 -50749838.458282471 0 0 0 0 -7493571.3039402962 -9080129.4745864868 0 -9080129.4745864868 -31005816.326207161 0 0 0 0 298578.23020895966 -1473584.0612225831 0 -1473584.0612225831 -5184520.5340498853 0 0 0 0 -14252745.767230868 -17631082.8452034 0 -17631082.8452034 -36433839.881668091 0 0 0 0 -11182447.91821909 -21462798.319122314 0 -21462798.319122314 -42767201.107158661 0 0 0 0 -1474648.9997210503 -3214652.3218536377 0 -3214652.3218536377 -39432647.347808838 0 0 0 0 -27963858.13509059 -39013113.595245361 0 -39013113.595245361 -44778974.752044678 0 0 0 0 -1439821.4867906868 -2276529.8181977272 0 -2276529.8181977272 -82733675.732528687 0 0 0 0 180675.89858675003 -11952151.441574097 0 -11952151.441574097 -2169383.6188526154 0 0 0 0 -3860465.8107404709 -10188212.72359848 0 -10188212.72359848 11031482.579360962 0 0 0 0 -4806034.5509414673 -5626271.1079330444 0 -5626271.1079330444 388752.40354919434 0 0 0 0 -19683961.338778496 -26798212.002166748 0 -26798212.002166748 -30737408.759757996 0 0 0 0 -5913832.7361285686 -3038138.6692619324 0 -3038138.6692619324 17804757.880630493 0 0 0 0 203593.94293798204 -765943.10834281892 0 -765943.10834281892 -2506341.303038884 0 0 0 0 -7203227.3375177383 -28390839.238460541 0 -28390839.238460541 -57506579.268554688 0 0 0 0 2191663.4953513108 -1330459.6161373705 0 -1330459.6161373705 -14610397.273747079 0 0 0 0 793930.50482273102 -6628851.1252174377 0 -6628851.1252174377 -5523954.2228240967 0 0 0 0 -1074799.933068037 -11493964.510116577 0 -11493964.510116577 -50592214.49200964 0 0 0 0 829513.45922306157 -8858322.6279297601 0 -8858322.6279297601 -4610540.5503892004 0 0 0 0 894480.79056835175 -5985275.3666191101 0 -5985275.3666191101 -9668838.4129190445 0 0 0 0 233936.38044966199 -3758752.7039560936 0 -3758752.7039560936 -9489484.8399086054 0 0 0 0 77129.449308395386 -2065777.2647590637 0 -2065777.2647590637 -4146227.6442871094 0 0 0 0 94125.222675758763 -1075193.0461844616 0 -1075193.0461844616 -1995005.8434100663 0 0 0 0 11044512.507036686 -11382253.337348938 0 -11382253.337348938 -58101952.543638229 0 0 0 0 5786619.7658896446 6021056.8531570435 0 6021056.8531570435 -99654909.853591919 0 0 0 0 1328357.4523511685 190065.18203078397 0 190065.18203078397 -1828579.487507768 0 0 0 0 -642472.51201534271 -12571140.044124603 0 -12571140.044124603 1906680.0108184814 0 0 0 0 -1054519.305622281 -5032664.7533400655 0 -5032664.7533400655 -4186147.4500785619 0 0 0 0 268711.91177216917 -4904338.8072311878 0 -4904338.8072311878 -5382052.1227798462 0 0 0 0 1004994.1877412796 -5487141.0712089539 0 -5487141.0712089539 -5047479.5556163788 0 0 0 0 -918182.56997702224 -8508115.9658305235 0 -8508115.9658305235 -2888904.8492190912 0 0 0 0 3885051.5294532776 -13710362.344509125 0 -13710362.344509125 -1502491.6667022705 0 0 0 0 26063453.143078566 -27083181.409820557 0 -27083181.409820557 5821283.8653488159 0 0 0 0 -9852420.7773709297 -12130094.717559814 0 -12130094.717559814 40557239.35736084 0 0 0 0 -143415.14509009779 -2544454.1037371764 0 -2544454.1037371764 -1047658.138199389 0 0 0 0 17392425.07700491 -15996363.939079285 0 -15996363.939079285 -6123797.3312554359 0 0 0 0 6494141.6681835651 -34205908.255519867 0 -34205908.255519867 32853782.230201721 0 0 0 0 -8277869.2120001316 -14394929.107421875 0 -14394929.107421875 11487808.223525524 0 0 0 0 -5891445.8873654604 -20630643.303859711 0 -20630643.303859711 20582678.934127808 0 0 0 0 -15933087.739052385 -13939851.77307415 0 -13939851.77307415 28113194.91493988 0 0 0 0 -14167983.089086533 -5223039.2454223633 0 -5223039.2454223633 46967160.91632843 0 0 0 0 17224053.823559165 -39453972.006473541 0 -39453972.006473541 31065904.97492981 0 0 0 0 -5381847.2774343491 -31017530.851196289 0 -31017530.851196289 54203517.106910706 0 0 0 0 -8213676.4934368134 -9462076.5945930481 0 -9462076.5945930481 16125031.763511658 0 0 0 0 -3594814.0472657681 -6424458.2936286926 0 -6424458.2936286926 17996105.145332336 0 0 0 0 162708.41194367409 -127170.94787597656 0 -127170.94787597656 21063731.770385742 0 0 0 0 -8778404.993960619 -10837679.659542084 0 -10837679.659542084 23034692.822601318 0 0 0 0 -14497049.54418993 -7435911.4465332031 0 -7435911.4465332031 25305336.984840393 0 0 0 0 -20196580.621626854 175981.2935218811 0 175981.2935218811 17757602.629173279 0 0 0 0 -12647740.6901474 -3399503.065662384 0 -3399503.065662384 17532054.475158691 0 0 0 0 -6816596.8436713219 -5350099.5511474609 0 -5350099.5511474609 13419628.447925568 0 0 0 0 -6572441.3625863492 -1846002.0217785835 0 -1846002.0217785835 6460317.5579681396 0 0 0 0 -1920477.1009087563 2124241.5968551636 0 2124241.5968551636 -6780006.6050415039 0 0 0 0 -12844874.226150036 3463010.4529342651 0 3463010.4529342651 6875743.9644622803 0 0 0 0 -1011633.8518457413 711433.69397926331 0 711433.69397926331 -4786050.8774185181 0 0 0 0 -3358982.0520302057 2853407.0192959309 0 2853407.0192959309 -3055003.6254730225 0 0 0 0 -3319336.3859552369 3987211.5750197172 0 3987211.5750197172 -5836717.9126281738 0 0 0 0 -20286707.359866381 10817130.019481659 0 10817130.019481659 514927.94351959229 0 0 0 0 -12444776.04791975 69977.157234191895 0 69977.157234191895 13809208.736938477 0 0 0 0 -1230743.2341732979 -682002.7144241333 0 -682002.7144241333 -11746584.183830261 0 0 0 0 -22842528.613559246 10967496.292469025 0 10967496.292469025 518950.00329589844 0 0 0 0 -3160136.7832901478 8725769.2561836243 0 8725769.2561836243 -19394566.119544983 0 0 0 0 -8684178.6450676918 13936062.250892639 0 13936062.250892639 -36006167.820850372 0 0 0 0 305620.45552921295 2116903.9734573364 0 2116903.9734573364 -7217833.8755950928 0 0 0 0 -534171.80870819092 1451980.0577964783 0 1451980.0577964783 -7741908.7813720703 0 0 0 0 -6738044.922598362 -24298189.340270996 0 -24298189.340270996 24442575.113838196 0 0 0 0 -11258531.294124126 -21909624.753173828 0 -21909624.753173828 13082108.923797607 0 0 0 0 -24708704.776937008 -30176693.895515442 0 -30176693.895515442 23298758.28061676 0 0 0 0 -39039183.015866756 -1619597.204284668 0 -1619597.204284668 26502924.897435188 0 0 0 0 -9635738.022678256 -14412765.985261917 0 -14412765.985261917 7570550.4809188843 0 0 0 0 -39787896.005948067 210235.10265350342 0 210235.10265350342 3989716.7610549927 0 0 0 0 -56540753.340142548 -22166067.468397617 0 -22166067.468397617 -21126922.820877075 0 0 0 0 -49366259.891753674 32109527.789703369 0 32109527.789703369 -16319206.644706726 0 0 0 0 -75669393.702032566 35729843.233703613 0 35729843.233703613 -36985244.109708786 0 0 0 0 -31927097.617638707 -30257702.803121567 0 -30257702.803121567 10319705.53894043 0 0 0 0 -42336742.483645678 -489810.76113128662 0 -489810.76113128662 3198163.1245651245 0 0 0 0 -15779110.088053465 -13225251.250267029 0 -13225251.250267029 -13744439.897125244 0 0 0 0 -5508160.1012105942 -13906007.526992798 0 -13906007.526992798 5671318.881072998 0 0 0 0 -4049903.2646431923 -31418513.211273193 0 -31418513.211273193 34134325.878387451 0 0 0 0 -17681246.663599044 -24948594.451325417 0 -24948594.451325417 21708973.688827515 0 0 0 0 3187699.0866413116 -33042107.316879272 0 -33042107.316879272 11253904.674110413 0 0 0 0 -13691672.11109075 -32255538.800456047 0 -32255538.800456047 25236423.156341553 0 0 0 0 16663089.594401836 -44114693.052398682 0 -44114693.052398682 20619060.264282227 0 0 0 0 1788944.9916294813 -32374504.581274033 0 -32374504.581274033 32057587.182693481 0 0 0 0 1501642.6943323612 -39200869.582965851 0 -39200869.582965851 30389858.431030273 0 0 0 0 927064.76458311081 -41992065.478546143 0 -41992065.478546143 22435630.29145813 0 0 0 0 21770810.294255018 -35186335.006286621 0 -35186335.006286621 32305373.722137451 0 0 0 0 48727270.64310503 -36822546.275856018 0 -36822546.275856018 22298620.004508972 0 0 0 0 16338664.558650374 -43972974.285121918 0 -43972974.285121918 30673621.086471558 0 0 0 0 16404702.708632946 -26633021.485473633 0 -26633021.485473633 23186906.282043457 0 0 0 0 35743551.228652358 -50111197.568927765 0 -50111197.568927765 36849226.451248169 0 0 0 0 56910087.323486954 -53955877.102916718 0 -53955877.102916718 28320580.498893738 0 0 0 0 -33229749.606224775 -10193000.774860382 0 -10193000.774860382 28517160.175308228 0 0 0 0 45437345.102284193 -34557668.67742157 0 -34557668.67742157 44761720.533920288 0 0 0 0 30338991.640647888 -24897544.192575455 0 -24897544.192575455 -8037531.4696426392 0 0 0 0 56453334.683077812 25388191.18473053 0 25388191.18473053 23795092.036384583 0 0 0 0 -2444521.2213350218 -1625560.7049881611 0 -1625560.7049881611 -320671.91050704941 0 0 0 0 35737334.694313049 -34037193.747245789 0 -34037193.747245789 -17606536.657806396 0 0 0 0 31517188.601719856 -18622787.18012619 0 -18622787.18012619 70071826.526046753 0 0 0 0 -726644.21110442816 -5446759.9875434767 0 -5446759.9875434767 -10300463.338515315 0 0 0 0 58471961.90413475 -75708207.761573792 0 -75708207.761573792 48317178.060798645 0 0 0 0 6573560.0218787193 -6989969.4229774475 0 -6989969.4229774475 -10028043.852043152 0 0 0 0 13159267.987205505 -72209692.290130615 0 -72209692.290130615 72457985.933766842 0 0 0 0 21973606.720674515 -65371837.303031921 0 -65371837.303031921 52818377.855758667 0 0 0 0 985898.36646175385 -16897730.196804047 0 -16897730.196804047 45042037.06325531 0 0 0 0 57295223.445274353 -25690808.78755188 0 -25690808.78755188 44556638.773248196 0 0 0 0 -2662221.9220897094 -1315873.423894627 0 -1315873.423894627 2307334.9158002883 0 0 0 0 -3792161.8881996903 -2833575.5962346382 0 -2833575.5962346382 -841657.5480620563 0 0 0 0 39326320.009792328 -35451136.545360565 0 -35451136.545360565 24982182.63041687 0 0 0 0 5978606.2600126266 -20590943.588050842 0 -20590943.588050842 52183520.923187256 0 0 0 0 84908330.540679932 9910946.4498672485 0 9910946.4498672485 45382180.373153687 0 0 0 0 99049710.872812271 -14414043.392860413 0 -14414043.392860413 26767481.905319214 0 0 0 0 -54014146.716480255 -6042089.3928833008 0 -6042089.3928833008 98880660.657028198 0 0 0 0 -16609211.990393639 -102677644.32625008 0 -102677644.32625008 -25306352.748062134 0 0 0 0 34361911.529010773 -60874726.02835083 0 -60874726.02835083 -59741876.805503845 0 0 0 0 1497107.8002796173 -4778484.199180603 0 -4778484.199180603 -7810069.1965675354 0 0 0 0 -1654565.0338487625 -3205016.8432159424 0 -3205016.8432159424 -8595134.9022026062 0 0 0 0 4462612.8267707825 -3865378.9123535156 0 -3865378.9123535156 -10458307.177574158 0 0 0 0 1302373.5542888641 -1233882.5283966064 0 -1233882.5283966064 -10704985.206766605 0 0 0 0 2982097.9565629959 -1791708.8971633911 0 -1791708.8971633911 -10762935.979164124 0 0 0 0 1282361.2224349976 -2575146.0326156616 0 -2575146.0326156616 -10425626.823948979 0 0 0 0 1262833.7147381306 -2634678.4302568436 0 -2634678.4302568436 -9591078.0959243774 0 0 0 0 -576793.62545776367 -2409370.2416763306 0 -2409370.2416763306 -9608539.5941185951 0 0 0 0 860625.0606430769 -1904248.2658830881 0 -1904248.2658830881 -9796938.0832443237 0 0 0 0 881057.80390760303 -1504464.2892667055 0 -1504464.2892667055 -9785600.3117218018 0 0 0 0 -692224.38605117798 -1300518.8242149353 0 -1300518.8242149353 -9709818.3944168091 0 0 0 0 -911637.01354098273 -4697035.483643828 0 -4697035.483643828 -7112697.0176849999 0 0 0 0 -1883154.62068367 -1264232.6897964478 0 -1264232.6897964478 -9099083.4624099731 0 0 0 0 16036459.887207031 -23317606.289863586 0 -23317606.289863586 -15104159.311126709 0 0 0 0 7994447.4209213257 -79944535.652404785 0 -79944535.652404785 -10663610.844848633 0 0 0 0 -2884167.5535395136 -2181978.6490598992 0 -2181978.6490598992 4601102.9460086003 0 0 0 0 28948904.689476013 -46185845.74520874 0 -46185845.74520874 -52737024.520011902 0 0 0 0 13979634.928056717 -18874474.198833466 0 -18874474.198833466 31647004.985595703 0 0 0 0 49665414.896663666 -31423880.222900391 0 -31423880.222900391 33934300.893493652 0 0 0 0 10262565.439638138 -13289248.311195374 0 -13289248.311195374 64561089.689544678 0 0 0 0 32754267.776599884 -61705840.590087891 0 -61705840.590087891 -6759531.9830322266 0 0 0 0 21912663.725791931 -32014432.001693726 0 -32014432.001693726 1196535.0310974121 0 0 0 0 27798960.204078674 -49980069.750488281 0 -49980069.750488281 -3751982.286277771 0 0 0 0 26685665.398635864 -42757346.934555054 0 -42757346.934555054 -20379690.160614014 0 0 0 0 21976230.330108643 -47092516.035591125 0 -47092516.035591125 15368704.287078857 0 0 0 0 16367400.778739929 -40224763.880386353 0 -40224763.880386353 19879708.045074463 0 0 0 0 21983755.653845549 -34039984.584851742 0 -34039984.584851742 26569908.058532715 0 0 0 0 4731991.3844604492 -50692369.251342773 0 -50692369.251342773 22284622.452682495 0 0 0 0 27810481.34211731 -12038193.922088623 0 -12038193.922088623 -22374417.626747131 0 0 0 0 -12486327.69977951 -13666255.458770752 0 -13666255.458770752 90712487.425140381 0 0 0 0 -20222566.827913284 -30696830.315956116 0 -30696830.315956116 92210458.153106689 0 0 0 0 -36299052.112300873 -60469636.064300537 0 -60469636.064300537 74373512.265441895 0 0 0 0 1056775.2155308984 473738.7045022063 0 473738.7045022063 -2401065.3884582892 0 0 0 0 -1003323.4126586914 -32677059.08682251 0 -32677059.08682251 40243911.359382629 0 0 0 0 11637174.505973816 -40168000.852935791 0 -40168000.852935791 38324467.856384277 0 0 0 0 23358418.176832199 -17850527.592041016 0 -17850527.592041016 3187242.6399765015 0 0 0 0 34669826.23884964 -23102298.628860474 0 -23102298.628860474 -7979932.7290382385 0 0 0 0 20716213.631004333 -12430010.504249573 0 -12430010.504249573 4858839.051902771 0 0 0 0 -6824611.0995776057 -8830883.2724342346 0 -8830883.2724342346 30006542.679840088 0 0 0 0 18873385.381099701 -23363128.002990723 0 -23363128.002990723 37431293.825561523 0 0 0 0 -5177077.8817044832 -5908520.4079001732 0 -5908520.4079001732 -2066844.7747991085 0 0 0 0 73835987.233131409 6236986.6468505859 0 6236986.6468505859 -66730605.528930664 0 0 0 0 38261238.064918518 21725462.818313599 0 21725462.818313599 30770587.388759613 0 0 0 0 17297023.009731293 -20062220.017471313 0 -20062220.017471313 2400698.2010917664 0 0 0 0 24705411.21672821 -20878488.399536133 0 -20878488.399536133 -22674768.185028076 0 0 0 0 30927527.559139252 -51125709.547744751 0 -51125709.547744751 -59153285.456494331 0 0 0 0 -3964492.3007233143 -26782827.44103241 0 -26782827.44103241 25565685.676332474 0 0 0 0 17199254.184713215 -37421503.035665512 0 -37421503.035665512 28920360.102828979 0 0 0 0 -45118782.055114746 -7615647.6831665039 0 -7615647.6831665039 19408700.621383667 0 0 0 0 -4300998.3023052728 -4073594.4803168457 0 -4073594.4803168457 -1378106.5785952322 0 0 0 0 15982898.079308033 -43585647.441184998 0 -43585647.441184998 29874238.442213058 0 0 0 0 -2723742.7706218981 -1472688.9564395938 0 -1472688.9564395938 1880539.5970530584 0 0 0 0 35031513.622125626 -62337058.147094727 0 -62337058.147094727 -10591361.270141602 0 0 0 0 35396517.365665436 -65400158.646133423 0 -65400158.646133423 -41423214.70249939 0 0 0 0 -1854.7598745638973 -1570210.5200881958 0 -1570210.5200881958 -2527016.2816543579 0 0 0 0 -171908.82637527955 -1438059.3827828765 0 -1438059.3827828765 -2607195.1532897949 0 0 0 0 1542826.3831449114 -3012651.6231422424 0 -3012651.6231422424 -2791963.2140655518 0 0 0 0 -182974.32407369837 -2792958.2609481812 0 -2792958.2609481812 -1788360.37940979 0 0 0 0 1534806.8697333161 -4959927.4798164368 0 -4959927.4798164368 539256.21725463867 0 0 0 0 1469392.6147370155 -3648052.632887125 0 -3648052.632887125 -1951915.9502410889 0 0 0 0 1402109.5598178103 -3191616.9462089539 0 -3191616.9462089539 -5089482.1790542603 0 0 0 0 1291.985769797619 -1159316.262752533 0 -1159316.262752533 -14212185.316055298 0 0 0 0 -661478.94462760491 -3553894.4642715454 0 -3553894.4642715454 -4122876.2427215576 0 0 0 0 1081792.8679242947 -4145006.1455335617 0 -4145006.1455335617 -16690445.430053711 0 0 0 0 393972.74111501902 -1760897.198387146 0 -1760897.198387146 -18666895.605178833 0 0 0 0 -373139.69860873441 -2885589.0497169495 0 -2885589.0497169495 -17463141.074462891 0 0 0 0 -5249477.6503723338 -2637623.725769043 0 -2637623.725769043 3680766.7961730957 0 0 0 0 219831.35045829602 -3257756.8026885986 0 -3257756.8026885986 -17920139.471748352 0 0 0 0 5299.4810644071076 -9463.5893203653395 0 -9463.5893203653395 -15523.077804192901 0 0 0 0 3985308.7631149143 -435773.52422332764 0 -435773.52422332764 -3750186.0217819214 0 0 0 0 161396.58712128084 -3023302.4786186218 0 -3023302.4786186218 -19166166.742874146 0 0 0 0 299417.63683795976 -3259248.594171524 0 -3259248.594171524 -19301220.843612671 0 0 0 0 227393.47560348152 -2930577.2679100037 0 -2930577.2679100037 -19506809.768035889 0 0 0 0 260534.95772678079 -3371667.0007171631 0 -3371667.0007171631 -19079345.841339111 0 0 0 0 1196830.7616305482 -3185563.10206604 0 -3185563.10206604 -17779566.596923828 0 0 0 0 -1950202.4590549581 -5992819.1182479858 0 -5992819.1182479858 -18627417.802597046 0 0 0 0 20903.068481684877 -30983.395264286548 0 -30983.395264286548 -49652.354322024621 0 0 0 0 374807.91142491996 52647.914978027344 0 52647.914978027344 -1550727.835483551 0 0 0 0 -1139511.6051107049 530947.21035003662 0 530947.21035003662 -1266950.6643295288 0 0 0 0 -1054097.302378871 -3081196.4384422302 0 -3081196.4384422302 -14398426.964996338 0 0 0 0 -600482.92496697605 74979.6233253479 0 74979.6233253479 -1384057.4259033203 0 0 0 0 11364.443052768704 26161.309760112315 0 26161.309760112315 -179244.85191578418 0 0 0 0 109680.84810509533 2155798.6445083618 0 2155798.6445083618 -3960119.5143432617 0 0 0 0 1310889.6269638082 -5126258.3278837204 0 -5126258.3278837204 1725285.4577178955 0 0 0 0 449562.76889236271 -2048650.599357605 0 -2048650.599357605 1541195.1888461113 0 0 0 0 2104928.3650962189 -1698806.2841491699 0 -1698806.2841491699 -1818631.5269012451 0 0 0 0 2331015.5925551094 -1167781.4298629761 0 -1167781.4298629761 -1549643.5737915039 0 0 0 0 1858270.6492910124 -668090.40518951416 0 -668090.40518951416 -566442.7307434082 0 0 0 0 517295.08118230104 955342.90810394287 0 955342.90810394287 -2026668.1163482666 0 0 0 0 214474.60831717108 -21230.811227228492 0 -21230.811227228492 -843047.18525830656 0 0 0 0 1437633.3586762771 -1747446.9841461182 0 -1747446.9841461182 -809224.92971038818 0 0 0 0 384126.72171255946 1076912.0001783371 0 1076912.0001783371 -1349525.7846984863 0 0 0 0 895824.33203869022 -466621.29102807492 0 -466621.29102807492 -3611045.7057000548 0 0 0 0 194412.8260519208 794589.30116492882 0 794589.30116492882 145639.70937616378 0 0 0 0 1702799.0234311223 1161312.0160903931 0 1161312.0160903931 829612.22914886475 0 0 0 0 2286909.6354730437 4284250.6044259071 0 4284250.6044259071 2543853.0071868896 0 0 0 0 1535043.2751343604 545512.00694900006 0 545512.00694900006 -3239540.6600851044 0 0 0 0 1974743.9571922272 -1161160.1456375122 0 -1161160.1456375122 1128969.467010498 0 0 0 0 243136.18237994611 556084.52708435059 0 556084.52708435059 -780910.90789794922 0 0 0 0 310419.61454607546 -133862.83177185059 0 -133862.83177185059 -920421.44373893738 0 0 0 0 306653.43059580028 333858.02261352539 0 333858.02261352539 -2003968.2326111794 0 0 0 0 106898.65206683427 -220619.1869430542 0 -220619.1869430542 -578066.65227508545 0 0 0 0 -3835322.97715538 -1451217.5077972412 0 -1451217.5077972412 -9296483.3513336182 0 0 0 0 44308.97633906205 -73162.592511840165 0 -73162.592511840165 -99640.245620588772 0 0 0 0 118423.05662105978 -64379.504661560059 0 -64379.504661560059 -372402.74208831787 0 0 0 0 -573545.71462544799 5911.0900802612305 0 5911.0900802612305 -12709178.846221924 0 0 0 0 -2135845.4728100821 -2999804.7033462524 0 -2999804.7033462524 -15947241.415344238 0 0 0 0 -2175522.2486758088 -2483761.588095665 0 -2483761.588095665 -16258724.103530884 0 0 0 0 -7866680.7657547072 -3758788.7144622803 0 -3758788.7144622803 -12087197.851104736 0 0 0 0 -6016006.7192694694 357648.09485626221 0 357648.09485626221 -12738420.494644165 0 0 0 0 2886415.5459098965 -5055046.0863342285 0 -5055046.0863342285 -14289738.664572716 0 0 0 0 -3957041.3896238972 159360.49953269958 0 159360.49953269958 -14666839.052978516 0 0 0 0 -6268018.4792327918 702416.63941001892 0 702416.63941001892 -8425372.5408172607 0 0 0 0 183356.08589001355 308921.57698587887 0 308921.57698587887 9106.821904450655 0 0 0 0 -5159801.7330956645 8625625.6205406189 0 8625625.6205406189 -13354776.185256958 0 0 0 0 -2345456.6495699584 -1998005.9349365234 0 -1998005.9349365234 -2393113.1574859619 0 0 0 0 -3518.4084599460984 34704.631628319621 0 34704.631628319621 5918.8597476352006 0 0 0 0 -2230009.4833061285 179201.14408302307 0 179201.14408302307 2645110.2556915283 0 0 0 0 315629.55274543911 -12007.67179107666 0 -12007.67179107666 -664484.18759918213 0 0 0 0 8663.2976943310496 14043.801870953292 0 14043.801870953292 978.90679652243853 0 0 0 0 11567689.86980316 13560383.53754425 0 13560383.53754425 -568380.33612823486 0 0 0 0 -7096211.1697961818 15074478.581823349 0 15074478.581823349 2188999.1134490967 0 0 0 0 965064.41624120681 -9014.8734072912484 0 -9014.8734072912484 -3963975.2196852565 0 0 0 0 -6848375.7517850399 3272211.8081970215 0 3272211.8081970215 -4735343.920425415 0 0 0 0 -7428227.4202042073 6500151.9151382446 0 6500151.9151382446 -15134803.321075439 0 0 0 0 8703716.1419269741 -5163198.8981628418 0 -5163198.8981628418 -3830617.2842254639 0 0 0 0 -6027136.6933243573 -558164.49671936035 0 -558164.49671936035 -9862973.7364654541 0 0 0 0 -4496830.3512993008 -4009174.7088699341 0 -4009174.7088699341 -3522849.2334899902 0 0 0 0 919095.28201102174 314634.81007511355 0 314634.81007511355 -4303791.9690855183 0 0 0 0 18571393.891796604 11268739.561447144 0 11268739.561447144 -6529032.8968200684 0 0 0 0 -1008836.6286292076 36800532.466457367 0 36800532.466457367 -79762742.456207275 0 0 0 0 3163734.2848150916 4340292.0074768066 0 4340292.0074768066 1712323.9058227539 0 0 0 0 19194616.70277071 -2614590.6526908875 0 -2614590.6526908875 -20710226.83052063 0 0 0 0 22175500.805137634 11248378.982910156 0 11248378.982910156 -26134339.147491455 0 0 0 0 24156854.053033382 26944729.596711159 0 26944729.596711159 -16101834.418136597 0 0 0 0 -10098108.289172649 -37613788.614459991 0 -37613788.614459991 33039114.542915344 0 0 0 0 16094473.365359306 9034151.73828125 0 9034151.73828125 -25355595.618873596 0 0 0 0 -27899.37234601914 -404742.65320798941 0 -404742.65320798941 -457244.59913549572 0 0 0 0 18176314.371076107 14072464.574562073 0 14072464.574562073 -23014909.743736267 0 0 0 0 7876848.3295788765 8583283.207824707 0 8583283.207824707 -23351679.392982483 0 0 0 0 -8757708.256550312 -984016.38311767578 0 -984016.38311767578 -8118984.3414764404 0 0 0 0 1434204.2357478142 -5776834.376953125 0 -5776834.376953125 -26899970.68170166 0 0 0 0 -6463010.7306098938 -9286504.5182952881 0 -9286504.5182952881 16339985.438423157 0 0 0 0 4729435.9800317287 23438332.788909912 0 23438332.788909912 7580161.0916442871 0 0 0 0 -30094402.709979057 8105926.5144195557 0 8105926.5144195557 -11345822.012054443 0 0 0 0 -257681.26369783538 -1396369.8699820377 0 -1396369.8699820377 -1462770.6081038266 0 0 0 0 29853601.796029568 -12235294.605201721 0 -12235294.605201721 -24395696.058288574 0 0 0 0 -9249912.1190299988 -8342613.3775863647 0 -8342613.3775863647 -4613274.657699585 0 0 0 0 5180009.4482336044 -1270604.1782073975 0 -1270604.1782073975 -27609757.697770119 0 0 0 0 18350330.875684738 662052.7643661499 0 662052.7643661499 -10057383.604003906 0 0 0 0 3581303.4203820229 -13467252.313049316 0 -13467252.313049316 -7908574.1893920898 0 0 0 0 -7234461.121670723 -38314774.307556152 0 -38314774.307556152 -24307449.394592285 0 0 0 0 5038211.6217355728 -24917695.243751526 0 -24917695.243751526 -14346329.86240387 0 0 0 0 -17985109.734544754 -42116246.108261108 0 -42116246.108261108 -16106648.561660767 0 0 0 0 5922208.8727641106 -43980037.382667542 0 -43980037.382667542 -73373051.045469284 0 0 0 0 -18582327.413819224 -9714428.2491731644 0 -9714428.2491731644 -21932217.323913574 0 0 0 0 10113492.425257683 -14128838.189743042 0 -14128838.189743042 -63022128.307415009 0 0 0 0 -2608501.9008398056 3060319.5214233398 0 3060319.5214233398 36778199.618041992 0 0 0 0 121238.3847548163 -200944.62918020412 0 -200944.62918020412 -788514.99294376373 0 0 0 0 -12270970.620434284 -9106738.6355743408 0 -9106738.6355743408 76812736.866851807 0 0 0 0 -2260016.8350348473 6624047.7420578003 0 6624047.7420578003 -741755.73010444641 0 0 0 0 3211689.2794084549 -10886131.615184784 0 -10886131.615184784 15385807.721641541 0 0 0 0 35479915.949104309 -71664839.115188599 0 -71664839.115188599 -17346327.53012085 0 0 0 0 -9005937.8714802265 -6109703.8233337402 0 -6109703.8233337402 -6984877.0041618347 0 0 0 0 -19433711.663028359 -31838171.635807037 0 -31838171.635807037 21306056.734375 0 0 0 0 -44597575.066743851 48687605.735290527 0 48687605.735290527 11271914.078868866 0 0 0 0 272190.28285746579 -204468.35615898669 0 -204468.35615898669 -451487.98126344383 0 0 0 0 -81472.570032810094 -650846.17435549013 0 -650846.17435549013 -173430.36660157889 0 0 0 0 3108923.500462532 4138238.5889816284 0 4138238.5889816284 8753231.4420166016 0 0 0 0 -1745997.5887789498 -2068735.0121352822 0 -2068735.0121352822 -1679460.0751661658 0 0 0 0 -12504818.37274909 -4608766.8914604187 0 -4608766.8914604187 3405172.4058532715 0 0 0 0 241949.69655848164 -1059592.8902555048 0 -1059592.8902555048 -3108436.5496909767 0 0 0 0 -5184242.6921491623 1581131.260017395 0 1581131.260017395 -3064368.3841171265 0 0 0 0 2659507.4236559868 -3622655.9976577759 0 -3622655.9976577759 1336294.5660705566 0 0 0 0 -1107796.9425187111 -9560160.0650024414 0 -9560160.0650024414 15563884.234664917 0 0 0 0 -1380217.1308093071 -2835192.0074043274 0 -2835192.0074043274 2795257.1480865479 0 0 0 0 -3108258.245390892 462670.89671325684 0 462670.89671325684 2523401.0706043243 0 0 0 0 -3375854.054513216 -1283180.3984718323 0 -1283180.3984718323 -2984840.4109268188 0 0 0 0 -2059069.4430291653 1385419.0649719238 0 1385419.0649719238 -4079690.21484375 0 0 0 0 -881998.82515335083 123375.47819519043 0 123375.47819519043 -7396676.676940918 0 0 0 0 -612146.01161670685 1064218.1463851929 0 1064218.1463851929 -7036677.3179893494 0 0 0 0 -704312.00754219294 436604.01279973984 0 436604.01279973984 -8197653.0343170166 0 0 0 0 -4201831.3132324219 -3170354.6994390488 0 -3170354.6994390488 -4821381.2925872803 0 0 0 0 517967.16747665405 -280018.80893707275 0 -280018.80893707275 -3075106.0200195312 0 0 0 0 -5382089.0548000336 903096.67692565918 0 903096.67692565918 -4386385.987842083 0 0 0 0 -5960691.8044810295 -2101989.9429931641 0 -2101989.9429931641 -7169649.8934383392 0 0 0 0 -6673195.1322323084 1028158.3511152267 0 1028158.3511152267 -5464092.9940032959 0 0 0 0 -102706.82691830513 -356921.12024568021 0 -356921.12024568021 -314129.69988655299 0 0 0 0 -7498829.5086228848 265233.46008682251 0 265233.46008682251 -3186768.9009017944 0 0 0 0 271758.47622183146 -1228622.5289529259 0 -1228622.5289529259 -2964051.1632365733 0 0 0 0 11311947.356530458 1633754.2179489136 0 1633754.2179489136 -3760845.9091262817 0 0 0 0 16758373.041667119 3808560.9544868469 0 3808560.9544868469 -20408935.444869995 0 0 0 0 10284466.036417082 -12722267.185890198 0 -12722267.185890198 -23440746.705909729 0 0 0 0 -27460379.015138075 21039709.706954956 0 21039709.706954956 39605206.663330078 0 0 0 0 -19203395.625162497 -23686146.918624878 0 -23686146.918624878 -2505184.6479187012 0 0 0 0 -11258606.403552949 -30238509.34173584 0 -30238509.34173584 -37073813.816558838 0 0 0 0 10336081.261695923 9612128.9036979675 0 9612128.9036979675 23253041.131057739 0 0 0 0 26542144.134796057 9287260.6768684387 0 9287260.6768684387 -46792805.422943115 0 0 0 0 664478.75758211035 -580131.11473979056 0 -580131.11473979056 -1613581.7392877378 0 0 0 0 1880243.745972991 -3359882.3318481445 0 -3359882.3318481445 2376786.039024353 0 0 0 0 326746.26766043715 -929067.83643910661 0 -929067.83643910661 -1391902.3494454399 0 0 0 0 388007.94866991043 -750918.83275604248 0 -750918.83275604248 -654176.90975570679 0 0 0 0 -47632.798866861136 -700575.67569740675 0 -700575.67569740675 -1764299.2744951472 0 0 0 0 -24894525.146668926 -29030463.655353546 0 -29030463.655353546 -19488804.74772644 0 0 0 0 47481.19389431092 -333025.541959133 0 -333025.541959133 -795206.34345055092 0 0 0 0 -6314072.7322545052 806573.59736633301 0 806573.59736633301 -1890619.5639076233 0 0 0 0 407749.4611673943 -108752.87288824469 0 -108752.87288824469 -577694.36306156963 0 0 0 0 -2679477.687511161 -2475222.4363670349 0 -2475222.4363670349 -3372831.9111938477 0 0 0 0 -60901883.189794615 -23175879.20615387 0 -23175879.20615387 9351811.0329284668 0 0 0 0 -63096.035728247516 -166876.90051648673 0 -166876.90051648673 -120164.72879037261 0 0 0 0 -761830.06456687674 9049311.8252258301 0 9049311.8252258301 -7417757.7433624268 0 0 0 0 -8361872.1891943291 5145326.5516738892 0 5145326.5516738892 -2344019.7517700195 0 0 0 0 1472432.8142352346 1633244.6038532257 0 1633244.6038532257 -3276540.6343994141 0 0 0 0 1489364.3205274269 -1235645.2929449081 0 -1235645.2929449081 -2446895.2299194336 0 0 0 0 1363892.9439286664 1554964.4607810974 0 1554964.4607810974 -1400958.9448394775 0 0 0 0 -178458.088507876 -585899.11777535686 0 -585899.11777535686 -425204.7418731004 0 0 0 0 2202960.4478171822 -706358.17553138733 0 -706358.17553138733 -4351238.2253417969 0 0 0 0 1906464.7548451778 466934.04827308655 0 466934.04827308655 -4497018.7407836914 0 0 0 0 2060105.3375784904 -736101.18746948242 0 -736101.18746948242 -2897850.5767211914 0 0 0 0 1525360.9185939431 -489117.36623382568 0 -489117.36623382568 -2951016.6158752441 0 0 0 0 1853409.7818384394 283692.7043170929 0 283692.7043170929 -1764327.7392120361 0 0 0 0 -11150609.421122178 -13847264.188667297 0 -13847264.188667297 6001183.8098449707 0 0 0 0 2835717.6243293136 -3733421.9210920334 0 -3733421.9210920334 -6051006.6819152832 0 0 0 0 20507250.445625961 -5147702.5253982544 0 -5147702.5253982544 -28912268.322311401 0 0 0 0 -75526.627052880649 -313534.61370524578 0 -313534.61370524578 -237245.2182040289 0 0 0 0 -13177184.61068587 -5674991.4246826172 0 -5674991.4246826172 1805145.2223052979 0 0 0 0 -4991682.1238015145 -14426838.030380249 0 -14426838.030380249 3006427.7078704834 0 0 0 0 -7724030.3191436082 -8308256.3223419189 0 -8308256.3223419189 7957706.9884109497 0 0 0 0 -11219579.839496002 -10479980.288772583 0 -10479980.288772583 6701091.6570663452 0 0 0 0 1234622.6934300661 -5403095.8796691895 0 -5403095.8796691895 -3754184.5273895264 0 0 0 0 -213784.03412560042 -1022708.4105757419 0 -1022708.4105757419 -794206.84164203703 0 0 0 0 -4094339.1859729961 -3123661.7218666077 0 -3123661.7218666077 125038.47861480713 0 0 0 0 1734071.2219984233 -2240224.9702072144 0 -2240224.9702072144 -3711854.6855773926 0 0 0 0 -1124455.2409698872 -2308801.6539099179 0 -2308801.6539099179 -3223116.0155796744 0 0 0 0 -2163258.9788137972 -1950143.6614456177 0 -1950143.6614456177 -2622176.0822525024 0 0 0 0 -611826.88057145616 -1002596.3102768697 0 -1002596.3102768697 -424709.43164046854 0 0 0 0 645521.9844102388 -237020.50626902143 0 -237020.50626902143 -1272532.4097887352 0 0 0 0 -2439358.5679779649 -5423015.3078918457 0 -5423015.3078918457 -2893306.7367248535 0 0 0 0 1012382.2936364412 -369076.47995376587 0 -369076.47995376587 -861131.06859970093 0 0 0 0 824608.25184583105 -916976.05328464508 0 -916976.05328464508 -1550475.3469085693 0 0 0 0 1597710.237877138 -1223265.6459770203 0 -1223265.6459770203 -1720787.0305328369 0 0 0 0 1637193.3674962819 -1159828.8000831604 0 -1159828.8000831604 -2537111.4479370117 0 0 0 0 2269439.0690226853 -621164.73822021484 0 -621164.73822021484 -2838770.5663299561 0 0 0 0 1874623.929866448 -771096.73048400879 0 -771096.73048400879 -2302686.0363769531 0 0 0 0 2843818.8662638068 50230.473785400391 0 50230.473785400391 -2173040.9983520508 0 0 0 0 33023.572800792943 -82446.825624883175 0 -82446.825624883175 -113647.2988871932 0 0 0 0 2220375.8697997257 -551909.40937805176 0 -551909.40937805176 -4411752.2939758301 0 0 0 0 2070111.5121877864 -1451724.7441253662 0 -1451724.7441253662 -3262137.9588623047 0 0 0 0 1789447.0704356804 -1038968.1564559937 0 -1038968.1564559937 -3056080.0579223633 0 0 0 0 1929981.6650814414 -1704070.8204307556 0 -1704070.8204307556 -1876253.5539855957 0 0 0 0 2395404.3430061592 -1635788.4018115997 0 -1635788.4018115997 -3833898.5659942627 0 0 0 0 2049583.212499423 -2088381.2450866699 0 -2088381.2450866699 -1632544.0353164673 0 0 0 0 2489920.7489042659 -472450.52820205688 0 -472450.52820205688 -3547615.1135787964 0 0 0 0 2265335.9913383834 -2674796.0664825439 0 -2674796.0664825439 -8021151.6052398682 0 0 0 0 3046635.4372867458 -1160432.2566223145 0 -1160432.2566223145 -5087763.6256637573 0 0 0 0 3102024.1149574332 784982.29368209839 0 784982.29368209839 -9124307.9993286133 0 0 0 0 12589153.253084302 2698324.5856018066 0 2698324.5856018066 -8898666.6524009705 0 0 0 0 3905910.5102637969 -3700564.9154014587 0 -3700564.9154014587 -13226532.092407227 0 0 0 0 -387187.14545540698 -5128923.4165859222 0 -5128923.4165859222 -11967715.529159546 0 0 0 0 -6439.4993199829696 -101631.38123455271 0 -101631.38123455271 -440431.3964140676 0 0 0 0 1396401.3996973122 -3738262.2043437958 0 -3738262.2043437958 -11505314.162590027 0 0 0 0 437576.2019057814 -3507459.5589103699 0 -3507459.5589103699 -10978978.783981323 0 0 0 0 1733126.4904082716 -1533442.9372406006 0 -1533442.9372406006 -8236975.4858236313 0 0 0 0 -415680.10462670121 -1346443.3018188477 0 -1346443.3018188477 -8615638.3337535858 0 0 0 0 144882.92341179214 -1283337.6594181061 0 -1283337.6594181061 -11261965.397628784 0 0 0 0 3762.6487584019073 -3224000.4355726098 0 -3224000.4355726098 -13566054.086395264 0 0 0 0 -7059.7778954388878 -3140747.73412323 0 -3140747.73412323 -8739683.940826416 0 0 0 0 -1708.4882315291793 -2430.1568656228483 0 -2430.1568656228483 -2392.8096955344081 0 0 0 0 -478580.43398265634 -2487419.1267242432 0 -2487419.1267242432 -7669769.8827209473 0 0 0 0 483132.86558548687 -1062067.6529369354 0 -1062067.6529369354 -3686798.3462142944 0 0 0 0 -348929.97605138924 -3014008.0269165039 0 -3014008.0269165039 -7936705.063041687 0 0 0 0 -1075.3775315735675 -1246.155855666846 0 -1246.155855666846 -551.47121496498585 0 0 0 0 -1611966.7465343056 -3322225.0471115112 0 -3322225.0471115112 -2667458.788230896 0 0 0 0 -1259.5770841765332 -1194292.568561554 0 -1194292.568561554 -2742275.6126480103 0 0 0 0 -750232.65297844692 -1308613.8995943069 0 -1308613.8995943069 -2635860.9710845947 0 0 0 0 8100093.0573591217 -7809652.0065536499 0 -7809652.0065536499 -51391296.130104065 0 0 0 0 -4004675.9996287972 -22874451.829788208 0 -22874451.829788208 1873787.5678100586 0 0 0 0 8137487.7724775225 -9948055.6868057251 0 -9948055.6868057251 -92926694.058624268 0 0 0 0 1881702.6878655925 -7692730.6478500366 0 -7692730.6478500366 -51166448.434688568 0 0 0 0 -22346079.065073967 -1043194.6907806396 0 -1043194.6907806396 35672412.517623901 0 0 0 0 -14405363.915414691 -46640112.453552246 0 -46640112.453552246 -152472715.11959839 0 0 0 0 -13201276.383233979 -11930008.541473389 0 -11930008.541473389 -50114008.088928223 0 0 0 0 -54134454.913815856 3707699.7745819092 0 3707699.7745819092 -89929680.066169739 0 0 0 0 -10052870.436347425 -3150079.7983398438 0 -3150079.7983398438 -89697229.317466736 0 0 0 0 -73173432.344982207 -37419083.266876221 0 -37419083.266876221 -72359612.141304016 0 0 0 0 -36943430.816154361 -42357364.952957153 0 -42357364.952957153 -72596827.239303589 0 0 0 0 -7172312.7851528376 -6288916.4855575562 0 -6288916.4855575562 -46847196.685302734 0 0 0 0 -4392613.9497774243 -38926504.641548157 0 -38926504.641548157 -27903067.434066772 0 0 0 0 -1020255.7748047709 285184.88730621338 0 285184.88730621338 -46384685.473407745 0 0 0 0 209426.25682711115 -65242.119141783565 0 -65242.119141783565 -385540.63064794242 0 0 0 0 -25637887.13724621 53856288.157875061 0 53856288.157875061 -73665763.558322906 0 0 0 0 25065725.91258207 -14107668.244018555 0 -14107668.244018555 4517309.6219520569 0 0 0 0 11372160.892528087 -64924555.956604958 0 -64924555.956604958 49018529.494255066 0 0 0 0 -1623425.1719483212 -307578.68063735962 0 -307578.68063735962 33633269.292778015 0 0 0 0 1365.0352547542973 -22835179.252794318 0 -22835179.252794318 -710612.66363525391 0 0 0 0 -27944122.166393586 77976460.445922852 0 77976460.445922852 -136459369.97352219 0 0 0 0 17070.846386626177 -23763226.860896591 0 -23763226.860896591 48434829.955177307 0 0 0 0 112761.86299368707 -13615.067672930658 0 -13615.067672930658 -246280.87080547214 0 0 0 0 -184793.26984529794 12216453.44773777 0 12216453.44773777 -135513380.83773804 0 0 0 0 -26112881.864612378 36907602.360057831 0 36907602.360057831 -104407560.19589233 0 0 0 0 -16782.26255032454 -33000.8796004951 0 -33000.8796004951 -314053.38908870518 0 0 0 0 19170539.798477165 6688779.4408111572 0 6688779.4408111572 -93225612.991699219 0 0 0 0 -12413453.96505722 37838132.216621399 0 37838132.216621399 -76693965.344642639 0 0 0 0 -43925970.402974963 46294861.604633331 0 46294861.604633331 -74571155.270278931 0 0 0 0 -9821098.2403083239 19047267.737009525 0 19047267.737009525 -55421331.218612671 0 0 0 0 -12044520.89842632 5760512.3095741272 0 5760512.3095741272 -19859331.117704391 0 0 0 0 -12361.060470074415 -3299631.7200927734 0 -3299631.7200927734 -16638299.982086182 0 0 0 0 4438647.5207408816 6370587.5661354065 0 6370587.5661354065 -46214544.545410156 0 0 0 0 -10695447.891689658 23968982.662597656 0 23968982.662597656 -43903914.10513401 0 0 0 0 -3796624.7623829544 15833597.081920624 0 15833597.081920624 -38028267.712722778 0 0 0 0 -768387.37155607343 18976127.142250061 0 18976127.142250061 -52732480.746994019 0 0 0 0 -12569002.970811456 28423118.053985596 0 28423118.053985596 -47091443.150859833 0 0 0 0 -13947905.298085107 25789301.252748489 0 25789301.252748489 -51839842.737564087 0 0 0 0 -4876438.7645053267 23751966.93888855 0 23751966.93888855 -48995980.009490967 0 0 0 0 -31861747.277141932 37771737.780540466 0 37771737.780540466 -54146524.716659546 0 0 0 0 53365274.652953386 29575567.141784668 0 29575567.141784668 -5099403.0718002319 0 0 0 0 -101629.5043780315 -27626.523497730494 0 -27626.523497730494 -13094.436671983451 0 0 0 0 9524939.8722153008 -74720521.238189697 0 -74720521.238189697 -137560885.90928459 0 0 0 0 29560531.815681338 -39155148.862304688 0 -39155148.862304688 -19123130.239501953 0 0 0 0 68941721.37907964 12197908.178909302 0 12197908.178909302 -85517596.171905518 0 0 0 0 36624905.505105227 -50749466.774333954 0 -50749466.774333954 -136385630.81941223 0 0 0 0 395710.18859019998 -28520.356867086142 0 -28520.356867086142 -489336.20842263848 0 0 0 0 -14973925.365538627 34366528.31350708 0 34366528.31350708 -52934397.141822815 0 0 0 0 -17126083.14849925 29240811.134830475 0 29240811.134830475 -43392639.774108887 0 0 0 0 -4667938.5822950006 22682673.023822784 0 22682673.023822784 -47133792.624740601 0 0 0 0 -9615255.9407280684 20944029.626808167 0 20944029.626808167 -34821844.509332001 0 0 0 0 -588746.26245427132 19252073.251106262 0 19252073.251106262 -55352234.833408356 0 0 0 0 -1973978.3309115767 18124859.393806458 0 18124859.393806458 -40355058.155334473 0 0 0 0 -7358339.0743092895 28588334.973804474 0 28588334.973804474 -49895256.035842896 0 0 0 0 -4511093.7441577017 22934474.841995239 0 22934474.841995239 -39614520.339157104 0 0 0 0 -9171476.6308391094 18069981.037216187 0 18069981.037216187 -37402633.961257935 0 0 0 0 -5207576.6109751463 18737872.031494141 0 18737872.031494141 -40929215.52703476 0 0 0 0 -2259421.4137537181 16723634.625225067 0 16723634.625225067 -39553188.740875244 0 0 0 0 -3289591.2418338656 23323935.819116592 0 23323935.819116592 -46869446.636459351 0 0 0 0 -5545732.4697801471 23735095.801071167 0 23735095.801071167 -44213671.00718689 0 0 0 0 -191846.9930203557 18265616.064857483 0 18265616.064857483 -47078316.185001373 0 0 0 0 -263375.81443405151 14276381.617340088 0 14276381.617340088 -39202044.871400833 0 0 0 0 -2911015.8071662188 19576219.686080933 0 19576219.686080933 -38155690.226104736 0 0 0 0 -1843139.3543849587 9977224.3268737793 0 9977224.3268737793 -28346532.669265747 0 0 0 0 -3786190.6923980713 15937024.212715149 0 15937024.212715149 -26270954.010528564 0 0 0 0 -2671955.8742486238 17841654.084190369 0 17841654.084190369 -35535609.265640259 0 0 0 0 -4038877.4654117227 5237715.3784637451 0 5237715.3784637451 -14604125.259796143 0 0 0 0 455837.44170695543 900904.2253112793 0 900904.2253112793 -10474951.225402832 0 0 0 0 1164798.2428979874 5317276.7279815674 0 5317276.7279815674 -36986373.009231567 0 0 0 0 -5194061.2565145493 6905889.6278610229 0 6905889.6278610229 -12744460.095481873 0 0 0 0 -1921624.8042554259 2252398.629322052 0 2252398.629322052 -11064825.188262939 0 0 0 0 7203002.0689136982 -1526263.4108200073 0 -1526263.4108200073 -8201126.0724487305 0 0 0 0 5893.5132539056212 -523520.05289244372 0 -523520.05289244372 -882713.49336900562 0 0 0 0 2214060.894204706 -4213591.4684333801 0 -4213591.4684333801 -6621246.022857666 0 0 0 0 3745323.4712446332 -3903172.290309906 0 -3903172.290309906 -4656116.8237304688 0 0 0 0 -3528753.725718379 2788407.8025970459 0 2788407.8025970459 -5266758.4225883484 0 0 0 0 -6171094.1566469669 12099077.946472168 0 12099077.946472168 -13513451.707035065 0 0 0 0 -12434175.529663563 5530797.6790313721 0 5530797.6790313721 4575835.6181945801 0 0 0 0 -15497781.425480604 18052466.256706238 0 18052466.256706238 -10715358.524841309 0 0 0 0 -75745.524952270716 -204221.8809381593 0 -204221.8809381593 -69797.782362133265 0 0 0 0 10717471.334322155 -6611229.147977829 0 -6611229.147977829 -12899999.348342896 0 0 0 0 -4865488.8774037361 9013050.3247070312 0 9013050.3247070312 -14080048.472167969 0 0 0 0 -8258206.8143048286 22285781.244819641 0 22285781.244819641 -25316919.665397644 0 0 0 0 -4907240.2459350824 14948785.828502655 0 14948785.828502655 -36092022.97543335 0 0 0 0 -3069655.3362790346 18364305.376014709 0 18364305.376014709 -37382408.101303101 0 0 0 0 -9776666.1826730222 16495744.013758659 0 16495744.013758659 -24989317.567489624 0 0 0 0 -7151653.021553874 9591337.1783981323 0 9591337.1783981323 -305695.93630981445 0 0 0 0 1737421.0255124569 12474462.35559082 0 12474462.35559082 -28294453.912437439 0 0 0 0 -9988232.6504374743 2603390.0148239136 0 2603390.0148239136 7692317.0696334839 0 0 0 0 -801242.33893509198 -1039955.7500854991 0 -1039955.7500854991 -692904.82540690526 0 0 0 0 -527899.547331354 -437732.28232448548 0 -437732.28232448548 -125887.13668511715 0 0 0 0 18293.003585517406 -208025.79889154434 0 -208025.79889154434 15473.08536529541 0 0 0 0 -3497039.577876091 -3003590.3908576965 0 -3003590.3908576965 -2376961.9567737579 0 0 0 0 -1634524.9003062844 -400605.37975025177 0 -400605.37975025177 -2540339.205368042 0 0 0 0 -1035899.3827278501 -1129455.1050018705 0 -1129455.1050018705 -459879.35980150197 0 0 0 0 -850445.22031831741 -1295200.8149490356 0 -1295200.8149490356 -4509702.3172206879 0 0 0 0 -325899.56950576004 93702.844184726477 0 93702.844184726477 509925.52109093219 0 0 0 0 -7851685.1787014902 -8015723.0182523727 0 -8015723.0182523727 4036168.6031188965 0 0 0 0 478705.58382409811 8750950.0096168518 0 8750950.0096168518 -15645832.119239807 0 0 0 0 -20004044.915608048 23606172.660675049 0 23606172.660675049 -27283474.2890625 0 0 0 0 -13750790.746044487 7215065.1110610962 0 7215065.1110610962 -21611112.897781372 0 0 0 0 -11036470.000363469 8625479.174331665 0 8625479.174331665 -14029671.809463501 0 0 0 0 -14766775.230676532 23091810.337669373 0 23091810.337669373 -33555233.77400589 0 0 0 0 -6597075.6831086874 21695430.507659912 0 21695430.507659912 -34767950.503601074 0 0 0 0 -30255466.572258592 45557044.404556274 0 45557044.404556274 -53466040.147884369 0 0 0 0 -8743200.1696937084 20602029.549808502 0 20602029.549808502 -44913707.62600708 0 0 0 0 -22658567.84039247 24835964.114032745 0 24835964.114032745 -45269975.614685059 0 0 0 0 -26333919.124548912 28599620.747577667 0 28599620.747577667 -29499879.157592773 0 0 0 0 -30235323.859865248 57704084.314544678 0 57704084.314544678 -74590358.088745117 0 0 0 0 -23895026.314767838 44656451.534408569 0 44656451.534408569 -48293356.736243248 0 0 0 0 -18921538.370886445 35575213.0794487 0 35575213.0794487 50168706.387802124 0 0 0 0 2342691.9035272598 18492379.896575928 0 18492379.896575928 -118437289.2507019 0 0 0 0 -30785.04111919034 -4914.47561346367 0 -4914.47561346367 -37477.137155335397 0 0 0 0 20170549.524218917 1773880.4693984985 0 1773880.4693984985 -29202725.334518433 0 0 0 0 -17339575.096715569 58649782.193183899 0 58649782.193183899 -31070395.442321777 0 0 0 0 9432191.6831494458 4186380.0349926949 0 4186380.0349926949 -66319409.343185425 0 0 0 0 9082268.6992662027 19591548.350006819 0 19591548.350006819 -43352312.923843384 0 0 0 0 -11880234.261797309 21027466.766796112 0 21027466.766796112 -79182685.755493164 0 0 0 0 -15855778.827944547 1535318.6867427826 0 1535318.6867427826 -106991989.39273071 0 0 0 0 25284190.579050958 -28876370.432703018 0 -28876370.432703018 -230928429.12148285 0 0 0 0 -21703151.183706462 -77426457.060462952 0 -77426457.060462952 -200706623.88026047 0 0 0 0 16187149.218801126 -25424496.547711372 0 -25424496.547711372 -75164453.158966064 0 0 0 0 13087117.21034354 -40911104.463336945 0 -40911104.463336945 -152055665.41407776 0 0 0 0 8949796.2645789087 -14662558.427951813 0 -14662558.427951813 -49953890.746894836 0 0 0 0 11198538.724132597 -57819417.16517067 0 -57819417.16517067 -245844875.36270142 0 0 0 0 12994.287609852036 -98024.126123487949 0 -98024.126123487949 -73053.516218520701 0 0 0 0 7170.907006078487 -152967.29895590618 0 -152967.29895590618 -106743.65808332711 0 0 0 0 -1076174.1480430365 2869669.2026252747 0 2869669.2026252747 -68291600.324226379 0 0 0 0 6455603.494069621 -2521373.1638259888 0 -2521373.1638259888 -87946322.399482727 0 0 0 0 8364573.3970219493 -6290781.1940765381 0 -6290781.1940765381 -67051295.048663139 0 0 0 0 -3129100.6756027043 518658.25087928772 0 518658.25087928772 -41819887.340332031 0 0 0 0 1720894.2275812626 -5868984.7838745117 0 -5868984.7838745117 -34705338.802978516 0 0 0 0 26783498.412047982 7215482.9407424927 0 7215482.9407424927 -84543133.915668488 0 0 0 0 15767650.745172143 5267341.6486434937 0 5267341.6486434937 -54017329.303421021 0 0 0 0 13988081.215582132 871840.8712272644 0 871840.8712272644 -42444631.97454834 0 0 0 0 -16282.844638790819 44775.169718980789 0 44775.169718980789 -148747.28962876461 0 0 0 0 2691908.3285427094 4479525.824508667 0 4479525.824508667 5838512.390045166 0 0 0 0 -3810353.6267655492 14011707.253944397 0 14011707.253944397 -41709800.968635559 0 0 0 0 9520.7397026396357 10240.919653497636 0 10240.919653497636 -41602.004100378603 0 0 0 0 19285338.491555095 22854983.561576843 0 22854983.561576843 -26361722.016338348 0 0 0 0 2635152.9211169481 12022026.294291496 0 12022026.294291496 -46691644.858352661 0 0 0 0 -475713.48565735284 140994.12059301138 0 140994.12059301138 48419.362260829657 0 0 0 0 474109.43241002865 124048.93128506839 0 124048.93128506839 -408640.82912346721 0 0 0 0 -5214037.6774668694 12628417.64415741 0 12628417.64415741 -34813519.734079219 0 0 0 0 -3615725.2607886791 14426697.239631653 0 14426697.239631653 -43600560.873535156 0 0 0 0 6657288.6276935935 4258570.6439361572 0 4258570.6439361572 1277905.8135414124 0 0 0 0 -2048534.1555938721 12029230.286952972 0 12029230.286952972 26142151.647891998 0 0 0 0 31235598.29706955 38741831.514183044 0 38741831.514183044 38862067.752067566 0 0 0 0 40097174.040277302 46256633.6335392 0 46256633.6335392 39061569.090606689 0 0 0 0 45889251.816189647 29892928.263442993 0 29892928.263442993 35701819.755310059 0 0 0 0 -179705.00910808839 -10987.901138402522 0 -10987.901138402522 36205.100131459534 0 0 0 0 46091386.509514183 39410013.948280334 0 39410013.948280334 38303583.935306549 0 0 0 0 -784509.74428525567 -1139253.6851596832 0 -1139253.6851596832 -80896688.230949402 0 0 0 0 -8000581.8463387638 -3948443.9548091888 0 -3948443.9548091888 -43359390.857460022 0 0 0 0 3391979.6935549378 -8034012.9797439575 0 -8034012.9797439575 -69599603.757972717 0 0 0 0 -18261932.973002896 380458.43645477295 0 380458.43645477295 -67922774.587944031 0 0 0 0 800727.10197012126 -59379330.528648376 0 -59379330.528648376 -98449267.01594162 0 0 0 0 -14275198.842927873 -62054046.080055237 0 -62054046.080055237 55906142.047809601 0 0 0 0 -29657432.334735632 -46402183.207489014 0 -46402183.207489014 47877198.626419067 0 0 0 0 12579841.502045304 -22903550.62638855 0 -22903550.62638855 -59818770.395141602 0 0 0 0 -4584.3027356875682 -61502.920835673809 0 -61502.920835673809 -43491.26850170549 0 0 0 0 -5207815.7235723212 11039375.976276398 0 11039375.976276398 -83947169.851882935 0 0 0 0 55314521.324917048 -11121897.616760254 0 -11121897.616760254 -124317821.99473572 0 0 0 0 96619061.244127154 27142731.649501801 0 27142731.649501801 -43168697.176795959 0 0 0 0 48274.584410167809 60738.152650454082 0 60738.152650454082 -683755.66517056525 0 0 0 0 86959862.112129271 -50903344.115440369 0 -50903344.115440369 -77725314.667160034 0 0 0 0 81437401.737623036 -13917178.783454895 0 -13917178.783454895 37147383.388137817 0 0 0 0 8137437.1326981783 -44771821.687206268 0 -44771821.687206268 24768797.045700073 0 0 0 0 14552024.724544495 -30488708.229667664 0 -30488708.229667664 -25018119.001972198 0 0 0 0 44855189.553874075 -17270028.071140289 0 -17270028.071140289 -22769831.079338074 0 0 0 0 59591.871591322575 -47263.374490103684 0 -47263.374490103684 -594614.39153654873 0 0 0 0 -4222.7970963794778 -3690334.2785987854 0 -3690334.2785987854 2720304.7011184692 0 0 0 0 4091.9291658817233 -1894399.8285980225 0 -1894399.8285980225 1466520.0333137512 0 0 0 0 4693144.700896265 -2017487.3835430145 0 -2017487.3835430145 180804.76509094238 0 0 0 0 3455734.657745664 -3669270.6070098877 0 -3669270.6070098877 2300487.6114120483 0 0 0 0 2302269.6451320294 -133287.89741325378 0 -133287.89741325378 -804820.83499908447 0 0 0 0 30058494.312012181 2967754.5394287109 0 2967754.5394287109 -82102903.519794464 0 0 0 0 -16226722.257190295 -29350469.824790955 0 -29350469.824790955 127448796.24893188 0 0 0 0 57408161.47064501 37796529.105819702 0 37796529.105819702 30216530.838989258 0 0 0 0 66273043.886623621 59916977.903381348 0 59916977.903381348 7298911.4039916992 0 0 0 0 14969372.822281688 121005517.43682861 0 121005517.43682861 -49657484.026702881 0 0 0 0 55275558.206991352 27896019.327613831 0 27896019.327613831 35725718.086494446 0 0 0 0 72012101.57531032 50991434.723907471 0 50991434.723907471 12983222.132629395 0 0 0 0 -5237.3053569747435 190193.03329746705 0 190193.03329746705 -472355.96581751108 0 0 0 0 56660340.534779191 34431183.2134552 0 34431183.2134552 31746929.062034607 0 0 0 0 68427893.268556088 31703807.185829163 0 31703807.185829163 29657248.362869263 0 0 0 0 52605118.369803131 39487032.151100159 0 39487032.151100159 26009904.880493164 0 0 0 0 -2758.2844872565693 6036.0922793815844 0 6036.0922793815844 -16018.494214616716 0 0 0 0 -14340594.956284195 -25294233.538116455 0 -25294233.538116455 -82528470.934318542 0 0 0 0 -28020300.634428382 -73604666.849700928 0 -73604666.849700928 -181265302.6885376 0 0 0 0 -12160.886355928333 -27916709.167041779 0 -27916709.167041779 -75252046.256206512 0 0 0 0 -57467.537153266225 -91982.818288002163 0 -91982.818288002163 -180609.07711577415 0 0 0 0 329762.27595893975 -286098.98386096954 0 -286098.98386096954 -237516.14818572998 0 0 0 0 3694273.8633587211 -27006614.231441498 0 -27006614.231441498 -85481670.305419922 0 0 0 0 -47424932.67795217 -9366343.1813430786 0 -9366343.1813430786 -33163803.278213501 0 0 0 0 -10703428.895168781 -13505900.539825439 0 -13505900.539825439 -1277326.9092178345 0 0 0 0 -64834647.588262379 -14997813.998033524 0 -14997813.998033524 -1248613.3771133423 0 0 0 0 -70597379.002010703 9915940.9875831604 0 9915940.9875831604 2499665.9346847534 0 0 0 0 -47109250.348055363 8250066.0395050049 0 8250066.0395050049 2044831.8143692017 0 0 0 0 -75797646.386648774 5129952.8415679932 0 5129952.8415679932 -39623979.738895416 0 0 0 0 -67483966.510478258 -40728809.398265839 0 -40728809.398265839 -72984023.02457428 0 0 0 0 -62558536.882760227 -33481541.040781021 0 -33481541.040781021 -17599482.862792969 0 0 0 0 -48574924.223680496 -8980207.6859893799 0 -8980207.6859893799 -38636693.193885803 0 0 0 0 -35261806.969287872 -52467936.32144165 0 -52467936.32144165 -54094727.889331818 0 0 0 0 -18348485.464791894 -35181519.641681671 0 -35181519.641681671 -48425508.214385986 0 0 0 0 -40719727.459037781 -27643086.523674011 0 -27643086.523674011 -72986389.699447632 0 0 0 0 -19859655.771726847 -50991309.684024811 0 -50991309.684024811 -97339113.706634521 0 0 0 0 -40174547.033753633 -41848641.631145477 0 -41848641.631145477 5817098.8839874268 0 0 0 0 -9470015.0772600174 -42646426.499565125 0 -42646426.499565125 -48336159.047317505 0 0 0 0 -29367567.009407759 -58227620.580604553 0 -58227620.580604553 4139601.4656934738 0 0 0 0 -19400327.990094185 -80767999.85080719 0 -80767999.85080719 34853628.467323303 0 0 0 0 -26025651.775026083 -23850530.201583862 0 -23850530.201583862 -34741647.428901672 0 0 0 0 -34969189.348432779 -51658807.077819824 0 -51658807.077819824 -9096361.2509384155 0 0 0 0 -28894168.170087337 -43976148.383094788 0 -43976148.383094788 -1989610.3477249146 0 0 0 0 -27643862.124376833 -21664746.446666718 0 -21664746.446666718 24155784.58996582 0 0 0 0 5151872.5374839306 -63809134.787721634 0 -63809134.787721634 8913877.7187194824 0 0 0 0 7947040.7545681 -61104323.609092712 0 -61104323.609092712 72558903.241203308 0 0 0 0 31058051.730552256 -38889023.070394516 0 -38889023.070394516 23612526.605361938 0 0 0 0 -36908869.326049514 -104296857.7519201 0 -104296857.7519201 17623976.739898682 0 0 0 0 26066093.436066628 -41138502.497573853 0 -41138502.497573853 29858531.414306641 0 0 0 0 34469256.65853405 -93544667.032073975 0 -93544667.032073975 -7267406.9976158142 0 0 0 0 11273319.039234638 -121153365.44726562 0 -121153365.44726562 -39970987.873214722 0 0 0 0 -47977355.879045725 7777682.1080131531 0 7777682.1080131531 41224817.639938354 0 0 0 0 28463713.874459743 -13071788.969242096 0 -13071788.969242096 3755516.1042709351 0 0 0 0 -554612.10839370079 -223667.58305145986 0 -223667.58305145986 478504.96054593474 0 0 0 0 116404209.27236879 -97974046.729911804 0 -97974046.729911804 33488927.933502197 0 0 0 0 77305783.35988903 -95373428.533416748 0 -95373428.533416748 61842850.165939331 0 0 0 0 27028143.963680387 -47443439.590572357 0 -47443439.590572357 48640889.392715454 0 0 0 0 107768060.99417019 -50215142.325986862 0 -50215142.325986862 28623837.810516357 0 0 0 0 3948643.8963267803 -24457986.59967041 0 -24457986.59967041 41754283.885860443 0 0 0 0 8247310.240675807 -18594912.643270493 0 -18594912.643270493 19882560.205886841 0 0 0 0 -22911197.15809083 -12705751.364765167 0 -12705751.364765167 32471874.933761597 0 0 0 0 35628299.082440495 -40277100.154903412 0 -40277100.154903412 35234232.851074219 0 0 0 0 -7519944.0440688133 -20598761.562721252 0 -20598761.562721252 40920299.149393082 0 0 0 0 -43010466.383376122 -8427586.9701156616 0 -8427586.9701156616 22285555.131637573 0 0 0 0 1404215.9949200153 -11719088.38753891 0 -11719088.38753891 16232193.587036133 0 0 0 0 -35357164.341284275 15726133.319671631 0 15726133.319671631 6649775.143913269 0 0 0 0 -39735408.419364691 4956490.9791259766 0 4956490.9791259766 18060128.564178467 0 0 0 0 -18152946.740428925 2230798.2621765137 0 2230798.2621765137 6839662.3748016357 0 0 0 0 -29109770.368148297 -6253710.9015884399 0 -6253710.9015884399 22331258.886917114 0 0 0 0 -26352004.507193923 3327288.8390579224 0 3327288.8390579224 -10261956.267242432 0 0 0 0 -48997883.278299809 16494356.948310852 0 16494356.948310852 8492398.7685470581 0 0 0 0 -50684764.501233578 12521413.754653931 0 12521413.754653931 1479153.8681640625 0 0 0 0 -63469379.761153698 25742261.244140625 0 25742261.244140625 -10927488.417327881 0 0 0 0 -80828210.32100296 19356153.698471069 0 19356153.698471069 -4422985.050491333 0 0 0 0 -40276242.012078166 2537870.3401355743 0 2537870.3401355743 -24911419.457824707 0 0 0 0 -126493238.21414852 17820517.28742218 0 17820517.28742218 -600392.07397460938 0 0 0 0 -113386130.52437592 16178222.255279541 0 16178222.255279541 -9311985.0516967773 0 0 0 0 -87559609.244251966 -28948.29660987854 0 -28948.29660987854 -14001855.881195068 0 0 0 0 -70109.714540274843 -477157.7527691545 0 -477157.7527691545 -123637.60697905719 0 0 0 0 1217946.3703376502 -10249106.346719027 0 -10249106.346719027 -15986686.344558716 0 0 0 0 -8588.2704389184946 -24984.94916466251 0 -24984.94916466251 -44311.008435170166 0 0 0 0 -62122184.438898563 8733912.2746429443 0 8733912.2746429443 -16631170.824542999 0 0 0 0 -108471954.84164715 -10188377.132461548 0 -10188377.132461548 8004626.4603862762 0 0 0 0 289576.61298466823 -89765.627067523543 0 -89765.627067523543 -2372664.0099072009 0 0 0 0 -52887157.002462029 9857046.1181640625 0 9857046.1181640625 2391755.1206283569 0 0 0 0 -59261425.292333841 14784098.864732742 0 14784098.864732742 6369093.589012146 0 0 0 0 6287934.7802097797 -4648645.8791732788 0 -4648645.8791732788 -1138698.6619186401 0 0 0 0 -49331507.615237504 22449704.043214798 0 22449704.043214798 5469059.8775177002 0 0 0 0 -39650536.350182354 18060821.788096637 0 18060821.788096637 3182949.4670562744 0 0 0 0 -49219422.523296356 16943928.660797119 0 16943928.660797119 8821029.7133407593 0 0 0 0 -52544303.031595111 22044265.151512146 0 22044265.151512146 3582547.6999359131 0 0 0 0 1939269.7949266434 -3091937.6976547241 0 -3091937.6976547241 -7000526.1399745941 0 0 0 0 -8626613.4617090225 -170499.66189575195 0 -170499.66189575195 -481831.0975856781 0 0 0 0 -391833.10050302534 -886910.71669290587 0 -886910.71669290587 -481285.75389592117 0 0 0 0 1643244.4627814293 -3294988.7628097534 0 -3294988.7628097534 1084548.4944534302 0 0 0 0 1841087.4966409616 1346684.6991168857 0 1346684.6991168857 -10747650.161468506 0 0 0 0 -4340219.2323436737 1604708.7255210876 0 1604708.7255210876 3567663.7325258255 0 0 0 0 -2602654.5443788767 -5170846.5767402649 0 -5170846.5767402649 1357028.2902679443 0 0 0 0 -16520687.106786132 10933825.216262817 0 10933825.216262817 -8228602.437084198 0 0 0 0 -5054267.867993176 -6707317.3718910217 0 -6707317.3718910217 -1651357.6108856201 0 0 0 0 -394632.1131401062 -3206718.0789833069 0 -3206718.0789833069 -557984.05424499512 0 0 0 0 22533635.625287771 -4023522.4342422485 0 -4023522.4342422485 -10608656.372280121 0 0 0 0 461032.73514229059 -5695146.699637413 0 -5695146.699637413 1042143.5042419434 0 0 0 0 -11136143.564691782 -10752480.340267181 0 -10752480.340267181 6116585.1923942566 0 0 0 0 -21080470.798461914 16433952.46944809 0 16433952.46944809 -15934846.873548508 0 0 0 0 -18792840.165557921 13539771.818834305 0 13539771.818834305 -28904582.742652893 0 0 0 0 -46139559.231741428 18855273.010604858 0 18855273.010604858 -2478972.7161254883 0 0 0 0 -3328888.1053761989 22310254.457296848 0 22310254.457296848 -13414514.524490356 0 0 0 0 135284.11403085297 55464.660180457635 0 55464.660180457635 -2016650.8063763157 0 0 0 0 -46184518.406970024 11925631.424636841 0 11925631.424636841 6953806.9472694397 0 0 0 0 -57316787.360539317 11895859.024158478 0 11895859.024158478 16878421.515930176 0 0 0 0 -59678246.151642561 -16141300.21188736 0 -16141300.21188736 -38838939.520881653 0 0 0 0 -56525962.053965211 24581128.607858658 0 24581128.607858658 -5514370.9649200439 0 0 0 0 53911.61378295497 53203.086623712676 0 53203.086623712676 -1552704.4130154029 0 0 0 0 30683368.971581459 7396650.8016471863 0 7396650.8016471863 -58016672.066886902 0 0 0 0 -121645787.70227528 -49297183.293081284 0 -49297183.293081284 30103742.949920654 0 0 0 0 -162677688.73524332 -196115209.41490555 0 -196115209.41490555 -204000339.65466309 0 0 0 0 415.81128987867123 11939.176056465367 0 11939.176056465367 -636495.02502506971 0 0 0 0 -59254253.19073379 -87906072.120912552 0 -87906072.120912552 -217019356.68571472 0 0 0 0 -69502375.255358577 -83082616.000326157 0 -83082616.000326157 -117238285.80867767 0 0 0 0 -44926179.139799356 41024816.079071045 0 41024816.079071045 -21896616.612174034 0 0 0 0 30959206.545776308 4524636.3446936607 0 4524636.3446936607 -27002335.118400574 0 0 0 0 -80269485.589477658 123757644.6121788 0 123757644.6121788 -149248198.21808624 0 0 0 0 -79690797.965545535 12506239.906593323 0 12506239.906593323 33939760.652679443 0 0 0 0 -45910732.204228967 71156148.767345428 0 71156148.767345428 -118445835.96864319 0 0 0 0 -19971858.033880949 28620567.248504639 0 28620567.248504639 -158249298.87106323 0 0 0 0 -27980242.227130055 3290737.5902900696 0 3290737.5902900696 -158306469.69931602 0 0 0 0 10767723.951259255 61952353.627994537 0 61952353.627994537 -399949942.78127289 0 0 0 0 -96027764.721900702 -150784936.51171303 0 -150784936.51171303 -311693030.2299118 0 0 0 0 -196814720.96189082 -83242981.811222076 0 -83242981.811222076 -201079594.82782757 0 0 0 0 -28711812.323199868 -63318600.010391235 0 -63318600.010391235 -228534799.44519997 0 0 0 0 -18490048.984883428 -108212662.77256584 0 -108212662.77256584 -312143206.93354034 0 0 0 0 -35490046.672393084 -114153942.35131836 0 -114153942.35131836 -211923246.10266399 0 0 0 0 17294462.409712672 -72236605.767406464 0 -72236605.767406464 -350335849.55647659 0 0 0 0 -35613229.08316958 -157359186.16858673 0 -157359186.16858673 -426694052.71362305 0 0 0 0 -91299872.238680422 3615869.9587097168 0 3615869.9587097168 -399836489.85400391 0 0 0 0 -56750314.419503212 -65222274.462934494 0 -65222274.462934494 -296473961.07333374 0 0 0 0 -4043663.9247310646 -68585136.536483407 0 -68585136.536483407 -290289394.25439453 0 0 0 0 17736869.584879398 -95317144.627681732 0 -95317144.627681732 -339405636.53470612 0 0 0 0 950293.69737410545 -66672599.995635986 0 -66672599.995635986 -379721740.16104889 0 0 0 0 -15485588.846052051 -153995864.5368309 0 -153995864.5368309 -314785617.09349823 0 0 0 0 2030319.0850065947 -76932679.722118378 0 -76932679.722118378 -413443838.89541626 0 0 0 0 -23613694.767498314 -41260473.127754211 0 -41260473.127754211 -297998809.84635925 0 0 0 0 -67907870.55135268 38829648.817604065 0 38829648.817604065 -442452136.66603088 0 0 0 0 8714738.0532057285 -56049491.501377106 0 -56049491.501377106 -373726717.60992432 0 0 0 0 -45149168.089596391 -39680789.488670349 0 -39680789.488670349 -231398931.26768112 0 0 0 0 -46708042.317224383 -55268163.904254913 0 -55268163.904254913 -199339524.24860382 0 0 0 0 -65690238.633951187 3974896.581993103 0 3974896.581993103 -299267913.33279872 0 0 0 0 -88691199.709888458 -43580641.416549683 0 -43580641.416549683 -211188277.53820801 0 0 0 0 -95324289.582067013 -9215949.6752700806 0 -9215949.6752700806 -177667141.16134644 0 0 0 0 -79581904.270148128 -43780526.313694477 0 -43780526.313694477 -133690841.48147583 0 0 0 0 -80379459.077544972 4316753.7444047332 0 4316753.7444047332 -147793742.25717163 0 0 0 0 -69664229.222172141 -34812743.50030899 0 -34812743.50030899 -97087529.791599274 0 0 0 0 -67699653.401739597 4978072.1324081421 0 4978072.1324081421 -69765628.855712891 0 0 0 0 -21694874.542197347 -68505768.362098694 0 -68505768.362098694 -188435954.34617615 0 0 0 0 -50225010.334136486 -46784693.909477234 0 -46784693.909477234 -143188863.30634403 0 0 0 0 -18391577.11483264 -54991441.523189545 0 -54991441.523189545 -151363774.39782715 0 0 0 0 956805.66108465195 -52941249.329658508 0 -52941249.329658508 -151169243.79014587 0 0 0 0 -30376915.106401324 -51713695.478263855 0 -51713695.478263855 -142959479.93226624 0 0 0 0 -31385870.899047136 -41419706.414222717 0 -41419706.414222717 -99176607.860183716 0 0 0 0 -61983751.288482904 -49729005.397232056 0 -49729005.397232056 -87648187.227806091 0 0 0 0 -86434209.180419207 -13035714.491516113 0 -13035714.491516113 -88011653.075084686 0 0 0 0 -49499262.397308588 -41787508.860538483 0 -41787508.860538483 -130026750.39353943 0 0 0 0 -49799397.723943591 -60089938.432994843 0 -60089938.432994843 -191531788.51620483 0 0 0 0 -89378523.681531429 -34913199.404624939 0 -34913199.404624939 -131148359.16648293 0 0 0 0 -81682172.229115963 -52496140.227210999 0 -52496140.227210999 -191613320.54148865 0 0 0 0 -86532349.011964083 -52094939.848800659 0 -52094939.848800659 -176844300.44049072 0 0 0 0 -123292276.02789676 -21562368.112426758 0 -21562368.112426758 -202061775.15895844 0 0 0 0 -88977850.674737573 -14310634.348396301 0 -14310634.348396301 -284365566.32223511 0 0 0 0 -97733620.316218138 -85557752.487747192 0 -85557752.487747192 -257013788.4944458 0 0 0 0 -64660680.296249151 -101994094.48390198 0 -101994094.48390198 -249824276.8729248 0 0 0 0 -9275642.1898350716 -97923347.393737793 0 -97923347.393737793 -299315077.9956665 0 0 0 0 -36883415.725732327 -61014113.042961121 0 -61014113.042961121 -190082051.36190796 0 0 0 0 8315170.5088187456 -66781549.010263443 0 -66781549.010263443 -224293589.63276672 0 0 0 0 6199997.0626524687 -77392493.788928986 0 -77392493.788928986 -273902097.3510437 0 0 0 0 -68094174.765687704 -165976641.32584 0 -165976641.32584 -435768505.97859192 0 0 0 0 -27680490.544162273 -82087738.121826172 0 -82087738.121826172 -296245656.49053574 0 0 0 0 42174705.466116667 -56822116.372497559 0 -56822116.372497559 -418948909.75457764 0 0 0 0 -184291122.04201591 -10649606.058769226 0 -10649606.058769226 -284488259.07089329 0 0 0 0 -203642811.06084466 -71682457.557098389 0 -71682457.557098389 -258081296.23755646 0 0 0 0 -420516684.90949929 13143821.803199768 0 13143821.803199768 -334800934.57686043 0 0 0 0 -151458478.95390463 -27832992.077342987 0 -27832992.077342987 -329911099.6211853 0 0 0 0 -112646274.28199524 278375453.7557106 0 278375453.7557106 -299933958.3109436 0 0 0 0 -86715031.624098539 86381353.656909943 0 86381353.656909943 -694321591.92547607 0 0 0 0 -97356148.711535513 -221763274.31230545 0 -221763274.31230545 -797997044.95396423 0 0 0 0 -22220487.870392919 -232851671.85573196 0 -232851671.85573196 -446808684.19985199 0 0 0 0 33364109.005999088 13542039.02015686 0 13542039.02015686 -366948446.31169128 0 0 0 0 33036854.432469964 -12536179.628051758 0 -12536179.628051758 -479595362.92284584 0 0 0 0 25112001.060723186 5123589.3886871338 0 5123589.3886871338 -344306771.11816406 0 0 0 0 -6880287.2621145248 120236801.66773224 0 120236801.66773224 -362912202.74876404 0 0 0 0 13656294.559809685 62707667.058120728 0 62707667.058120728 -236995315.27215576 0 0 0 0 47097968.978848934 8595607.5323791504 0 8595607.5323791504 -288712321.56575775 0 0 0 0 16187595.800016522 67386569.333740234 0 67386569.333740234 -240041591.39160156 0 0 0 0 33281060.307181001 18138048.384011269 0 18138048.384011269 -295282670.07899475 0 0 0 0 71302385.044781685 -39087186.193260193 0 -39087186.193260193 -261273406.18310452 0 0 0 0 46110514.263499737 3843322.2890777588 0 3843322.2890777588 -216066656.56846619 0 0 0 0 39235744.255343437 -45548134.414535522 0 -45548134.414535522 -213402445.66757965 0 0 0 0 47087506.034096241 -27343886.285476685 0 -27343886.285476685 -175648594.02157974 0 0 0 0 69265209.159033298 -66739028.160980225 0 -66739028.160980225 -214609050.71495819 0 0 0 0 56875567.060992718 -4535715.6379356384 0 -4535715.6379356384 -256659907.97843933 0 0 0 0 70405302.773601532 -49158030.062755585 0 -49158030.062755585 -285274548.48872375 0 0 0 0 102831809.8313508 -54287701.383392334 0 -54287701.383392334 -289434708.55186462 0 0 0 0 90495631.068505526 -56486547.149269104 0 -56486547.149269104 -284198497.36128235 0 0 0 0 76200144.930540085 -46663944.390975952 0 -46663944.390975952 -282284972.13404846 0 0 0 0 71080418.015382767 -57517843.497047424 0 -57517843.497047424 -305295378.82237625 0 0 0 0 58122190.338840961 -41304327.590209961 0 -41304327.590209961 -303957397.2706604 0 0 0 0 41827982.477811575 -50885478.961501598 0 -50885478.961501598 -304269671.98069763 0 0 0 0 65641983.190104485 -34330856.028282166 0 -34330856.028282166 -345159078.48651886 0 0 0 0 66820884.768655539 -24705416.351169586 0 -24705416.351169586 -293728921.12117004 0 0 0 0 -67631582.042558998 -100779575.54949236 0 -100779575.54949236 -96869017.306800842 0 0 0 0 -72131422.190105438 -169289187.15779877 0 -169289187.15779877 -94000417.3502841 0 0 0 0 80214088.983076572 -95171116.475948334 0 -95171116.475948334 -278274003.64368439 0 0 0 0 85983998.639122009 -130783366.97264767 0 -130783366.97264767 -314335452.5088501 0 0 0 0 101998167.275213 -59467285.886440277 0 -59467285.886440277 -318035926.13366699 0 0 0 0 59912369.595571041 -208172455.52349091 0 -208172455.52349091 -473238806.75018311 0 0 0 0 -113718386.35416698 -268613316.89031601 0 -268613316.89031601 -253512556.84693146 0 0 0 0 -117809027.49471903 -167229403.80056822 0 -167229403.80056822 21961896.018783569 0 0 0 0 108201587.80984271 -164689391.06723595 0 -164689391.06723595 -859097827.16132355 0 0 0 0 150845223.42090082 -20938499.435565948 0 -20938499.435565948 -406574627.75647736 0 0 0 0 70942600.261771202 15371996.024536133 0 15371996.024536133 -289311239.49951077 0 0 0 0 92711143.369962215 -38694811.492427826 0 -38694811.492427826 -294591153.80928802 0 0 0 0 99183613.123736858 -29410843.791778564 0 -29410843.791778564 -285630896.49458313 0 0 0 0 73313510.724398613 -12802778.552787781 0 -12802778.552787781 -166967795.12287903 0 0 0 0 76424294.781466961 -45046369.708984375 0 -45046369.708984375 -152518509.81863403 0 0 0 0 26826371.664558887 -21296547.339302063 0 -21296547.339302063 -90864160.839736938 0 0 0 0 42185016.117997169 -45634939.581443787 0 -45634939.581443787 -106164565.9726305 0 0 0 0 -8537175.0428909734 -34459343.002360165 0 -34459343.002360165 -48456094.381477356 0 0 0 0 -11752287.929450512 45861227.367916107 0 45861227.367916107 -116818463.4203186 0 0 0 0 62323601.779541731 -54697182.209976196 0 -54697182.209976196 -236964272.36675262 0 0 0 0 60383214.106757402 -55012745.122848511 0 -55012745.122848511 -213703645.9526825 0 0 0 0 46527879.567783833 -79552291.034175873 0 -79552291.034175873 -294388582.67089844 0 0 0 0 56576810.515274048 -55546588.364585876 0 -55546588.364585876 -237055108.61755371 0 0 0 0 83448544.33286953 -62019822.071899414 0 -62019822.071899414 -292545589.39808655 0 0 0 0 86834395.730773449 -52840916.296775818 0 -52840916.296775818 -269485325.45137024 0 0 0 0 83679562.779465914 -48545894.632759094 0 -48545894.632759094 -254446943.84030914 0 0 0 0 96648172.47018671 -40495307.844413757 0 -40495307.844413757 -262376891.41851807 0 0 0 0 72939569.377980977 -29470089.114392519 0 -29470089.114392519 -185473202.42971802 0 0 0 0 71616404.825359583 -50463699.519676208 0 -50463699.519676208 -174677593.17557526 0 0 0 0 91293418.849765301 -15814978.722640991 0 -15814978.722640991 -239370209.94813538 0 0 0 0 85551085.286077499 -55018755.52394104 0 -55018755.52394104 -122269964.00801849 0 0 0 0 67021108.271907985 -23192280.576202393 0 -23192280.576202393 -140182965.25718689 0 0 0 0 50185909.961255074 -51962769.12651062 0 -51962769.12651062 -143640253.10939026 0 0 0 0 40911145.152505517 -30925156.200683594 0 -30925156.200683594 -120816236.71017456 0 0 0 0 25803579.69242239 -62091682.509620667 0 -62091682.509620667 -223056758.63145447 0 0 0 0 29029893.37272954 -47854102.999507904 0 -47854102.999507904 -172743477.53645325 0 0 0 0 2903194.1769912243 -39277536.071296692 0 -39277536.071296692 -107697642.42051697 0 0 0 0 34685398.467465878 -52496831.132408142 0 -52496831.132408142 -173098500.23815346 0 0 0 0 15254415.745789528 -41611916.219512939 0 -41611916.219512939 -107838599.47034597 0 0 0 0 15722020.526299238 -31103358.95142746 0 -31103358.95142746 -60260189.63482666 0 0 0 0 49179902.773999214 -39451663.245269775 0 -39451663.245269775 -118868966.66614723 0 0 0 0 45571343.352863193 -39913813.458827972 0 -39913813.458827972 -79999447.689208984 0 0 0 0 33913544.154162169 -25757086.931102753 0 -25757086.931102753 -11607185.727203369 0 0 0 0 -7629414.9494842291 -30276783.575656891 0 -30276783.575656891 10780251.284347534 0 0 0 0 37597892.677936554 -29225495.513114929 0 -29225495.513114929 -60184363.307512283 0 0 0 0 -30510145.97358194 -61103518.815121651 0 -61103518.815121651 72774360.876281738 0 0 0 0 -1016344.5155777931 -31411617.012329102 0 -31411617.012329102 9852160.8876838684 0 0 0 0 3089106.2119581699 -16019277.246982574 0 -16019277.246982574 66333616.133300781 0 0 0 0 87586406.918304682 -15431971.30947113 0 -15431971.30947113 -10067540.662719727 0 0 0 0 -48351699.2039814 -37442210.463340759 0 -37442210.463340759 138536949.35868835 0 0 0 0 36080830.818933964 -3046802.0991973877 0 -3046802.0991973877 71357587.685096741 0 0 0 0 49871199.526754975 41571466.158254623 0 41571466.158254623 137279171.49942017 0 0 0 0 -6628669.6380400658 9076492.4919891357 0 9076492.4919891357 138331042.95556784 0 0 0 0 -6478593.7058320045 6526126.3270874023 0 6526126.3270874023 177561898.1179657 0 0 0 0 -50650022.25500679 -71696522.150146484 0 -71696522.150146484 67223286.923782349 0 0 0 0 147641083.87861896 -55347855.390228271 0 -55347855.390228271 78492836.401763916 0 0 0 0 164841234.21673489 -105929721.34230232 0 -105929721.34230232 64772145.77166748 0 0 0 0 64467849.589279175 -106272395.445755 0 -106272395.445755 149016363.66189575 0 0 0 0 102172715.59078979 -100933712.4324646 0 -100933712.4324646 149734075.86965179 0 0 0 0 385831850.80129242 -124109136.30937958 0 -124109136.30937958 96917078.923252106 0 0 0 0 134534482.05191326 -77020363.658294678 0 -77020363.658294678 59735220.179794312 0 0 0 0 77356388.426267147 -11570036.677429199 0 -11570036.677429199 24935349.041354179 0 0 0 0 202172512.07180023 -1505165.0971603394 0 -1505165.0971603394 25409043.76272583 0 0 0 0 140664369.87763047 -46082102.374397278 0 -46082102.374397278 -24131149.353027344 0 0 0 0 96052200.784432411 -76485810.322143555 0 -76485810.322143555 18271011.565811157 0 0 0 0 145879603.86379576 -61965846.57220459 0 -61965846.57220459 22325429.318328857 0 0 0 0 87336830.394080639 -87714656.062812805 0 -87714656.062812805 62547723.088348389 0 0 0 0 89663877.311308384 -50820650.880439758 0 -50820650.880439758 -14942598.841400146 0 0 0 0 74410199.495663881 -58007888.67940712 0 -58007888.67940712 -46192583.976791382 0 0 0 0 96999237.835956991 -71699523.107098579 0 -71699523.107098579 -41821198.662780762 0 0 0 0 79989962.95545578 -17683433.667144775 0 -17683433.667144775 -68646093.689529419 0 0 0 0 76688189.763555527 -50394932.49835968 0 -50394932.49835968 -50661416.991882324 0 0 0 0 88941757.156026781 -30533180.018136024 0 -30533180.018136024 -27979379.609069824 0 0 0 0 71493607.955768585 -26842149.057907104 0 -26842149.057907104 -125081963.40635681 0 0 0 0 62175818.517524719 -44433792.505168915 0 -44433792.505168915 -100530577.39199829 0 0 0 0 82830305.750272274 -28761842.438461304 0 -28761842.438461304 -94655658.318817139 0 0 0 0 62562010.053917885 -30716122.41544342 0 -30716122.41544342 -93328013.636863708 0 0 0 0 62274970.167795658 -71135449.19682312 0 -71135449.19682312 -54655959.810890198 0 0 0 0 36508575.411377907 -48389544.582832336 0 -48389544.582832336 -28833796.828689575 0 0 0 0 15984875.385788441 -66963355.395412445 0 -66963355.395412445 23319812.319046021 0 0 0 0 6536532.2460451126 -33559134.687232971 0 -33559134.687232971 -19791849.658782959 0 0 0 0 24979265.15205431 -55888145.598182678 0 -55888145.598182678 -25342817.260705948 0 0 0 0 5510150.7255063057 -23311753.451467276 0 -23311753.451467276 101461.82320404053 0 0 0 0 6849467.6830706596 -36778251.819847107 0 -36778251.819847107 57873743.491394043 0 0 0 0 5212818.5648941994 -33649962.922990799 0 -33649962.922990799 55393440.001968384 0 0 0 0 63560231.650692463 -83596203.596763611 0 -83596203.596763611 26450519.12020874 0 0 0 0 21547399.423946381 -64455876.178863525 0 -64455876.178863525 51471384.606918335 0 0 0 0 66747797.379494429 -84802962.472305298 0 -84802962.472305298 4350225.9893798828 0 0 0 0 92158596.763867378 -88645587.142822266 0 -88645587.142822266 26915653.644187927 0 0 0 0 20426306.38360548 -70467285.262756348 0 -70467285.262756348 24397677.700088501 0 0 0 0 41329513.774255753 -89667142.165527344 0 -89667142.165527344 83435100.370574951 0 0 0 0 64608047.806762695 -93965170.703369141 0 -93965170.703369141 84228330.716285706 0 0 0 0 -266526.3374004364 -42332567.100982666 0 -42332567.100982666 120620335.71200562 0 0 0 0 -27904796.791857719 -30483146.558685303 0 -30483146.558685303 156310747.19537354 0 0 0 0 49188336.328916073 -119667384.3367157 0 -119667384.3367157 231009039.02716064 0 0 0 0 8840395.6570396423 -52833265.396972656 0 -52833265.396972656 128083211.74447632 0 0 0 0 -25726222.927216053 -59189211.088813782 0 -59189211.088813782 231882280.40219116 0 0 0 0 -32776266.246329308 -49109834.282272339 0 -49109834.282272339 236303077.67156982 0 0 0 0 -888678.98177483748 -8001086.9689386133 0 -8001086.9689386133 -5604562.0824755449 0 0 0 0 -6549414.1090497971 -17197238.884336472 0 -17197238.884336472 22271215.325481415 0 0 0 0 17956347.791713715 -24144315.823659897 0 -24144315.823659897 -5083172.6127853394 0 0 0 0 12060743.152104378 -13814517.212898254 0 -13814517.212898254 6940477.3780670166 0 0 0 0 -21514723.780066073 1867468.5453863144 0 1867468.5453863144 36821853.362854004 0 0 0 0 -13476926.054472923 -26084413.741981506 0 -26084413.741981506 11167609.541027069 0 0 0 0 -17663272.566370726 -44332561.435513496 0 -44332561.435513496 -11062355.266616821 0 0 0 0 -2065115.8297815323 -21035425.363174438 0 -21035425.363174438 1889569.7308883667 0 0 0 0 -13730889.121893406 -50063904.012438774 0 -50063904.012438774 -74596769.019012451 0 0 0 0 9211240.3316926956 -32570813.405170441 0 -32570813.405170441 -13052087.835891724 0 0 0 0 -3926039.8805341721 -23711362.19071579 0 -23711362.19071579 2061062.8877639771 0 0 0 0 9936370.5358858109 -16650814.246490479 0 -16650814.246490479 -22114933.100448608 0 0 0 0 8882613.3430466652 -19072613.940006256 0 -19072613.940006256 4509521.6072845459 0 0 0 0 14926758.213593245 -30902020.628470421 0 -30902020.628470421 -6496795.5815887451 0 0 0 0 10946640.594481468 144350151.20668793 0 144350151.20668793 117267600.8608489 0 0 0 0 -61032615.322598159 -129249679.53811646 0 -129249679.53811646 85877809.279769897 0 0 0 0 21525588.498455524 -47269262.449752808 0 -47269262.449752808 -162063944.87588501 0 0 0 0 -920246.55917793908 -520617.62505254708 0 -520617.62505254708 7975.6433613151312 0 0 0 0 12505002.087772608 -128494936.24797821 0 -128494936.24797821 -16293852.535583496 0 0 0 0 -17613897.660432816 -224869225.08053589 0 -224869225.08053589 -212843392.25284195 0 0 0 0 -91933656.206072807 -195643017.49763489 0 -195643017.49763489 6867221.8808441162 0 0 0 0 -37156572.799053289 -109937075.13385534 0 -109937075.13385534 95429960.173492432 0 0 0 0 -224375837.61996174 -332289668.10337067 0 -332289668.10337067 6644608.038772583 0 0 0 0 -118886482.93556303 -133960035.37585068 0 -133960035.37585068 265771377.02993774 0 0 0 0 -330777704.49346203 -77638696.691417694 0 -77638696.691417694 543945296.02157593 0 0 0 0 309144515.16589403 218442235.80497742 0 218442235.80497742 244381149.13473511 0 0 0 0 -652889.41134169931 -7974664.443084361 0 -7974664.443084361 -12963174.227199204 0 0 0 0 135099217.72741342 -228753004.36685562 0 -228753004.36685562 -208887004.30052185 0 0 0 0 332403688.94059038 193058547.84317017 0 193058547.84317017 123325281.75959778 0 0 0 0 179845071.21313 -184507508.72494507 0 -184507508.72494507 236535728.7288208 0 0 0 0 77878027.564908028 -144846492.18240356 0 -144846492.18240356 296034269.79474258 0 0 0 0 779759.40459411172 -1027277.3335914612 0 -1027277.3335914612 -2299010.8265638622 0 0 0 0 4889869.1431026459 -44663889.407512665 0 -44663889.407512665 -50828759.223121643 0 0 0 0 194196280.11640549 -115876293.8616333 0 -115876293.8616333 -24722149.208473206 0 0 0 0 -9392715.5943851471 313490727.4552803 0 313490727.4552803 221965134.30591583 0 0 0 0 -186585608.85153961 -165402369.62505341 0 -165402369.62505341 301651243.06340027 0 0 0 0 -188261680.24741936 -186157596.27101135 0 -186157596.27101135 152955477.77743077 0 0 0 0 -168915276.14849854 -38801892.577188492 0 -38801892.577188492 39318985.012901306 0 0 0 0 -155470052.55400085 11988185.042949677 0 11988185.042949677 145567995.47767091 0 0 0 0 -154778969.62337685 22818932.538234711 0 22818932.538234711 269964208.58989906 0 0 0 0 -10112377.733197212 -36366542.614862442 0 -36366542.614862442 37694621.152488708 0 0 0 0 -196078730.44588852 -58779477.583625793 0 -58779477.583625793 7196271.1453742981 0 0 0 0 -160930574.3273716 49463527.387151718 0 49463527.387151718 -64571037.978988647 0 0 0 0 -172299549.67444229 34241374.053592682 0 34241374.053592682 10637236.20639801 0 0 0 0 -180894148.60837317 -15490757.87752533 0 -15490757.87752533 -117944904.32151031 0 0 0 0 -487149705.49727488 -239205667.44610977 0 -239205667.44610977 79974076.299484253 0 0 0 0 -121017065.55029733 -197754863.02888197 0 -197754863.02888197 87767843.675476074 0 0 0 0 -120372526.90436077 -14141472.372398376 0 -14141472.372398376 33389399.214672089 0 0 0 0 383485570.62260628 -402070784.00915146 0 -402070784.00915146 -68430547.183334351 0 0 0 0 -4242582.9456262589 -198809115.2093277 0 -198809115.2093277 44799319.720016479 0 0 0 0 -119551944.41278362 -516502735.18429565 0 -516502735.18429565 85492278.493133545 0 0 0 0 -217535076.34438229 -425848136.69866943 0 -425848136.69866943 51459210.552822113 0 0 0 0 -176264788.89429808 -402810128.9659729 0 -402810128.9659729 17871390.135910034 0 0 0 0 -703633899.62455654 -451209888.9903183 0 -451209888.9903183 25164652.562591553 0 0 0 0 -1319711.553157483 -675041.63531439193 0 -675041.63531439193 663439.27023909613 0 0 0 0 29192027.091215312 -263952506.41763687 0 -263952506.41763687 13272328.454116821 0 0 0 0 -250853405.3853302 363863425.58454895 0 363863425.58454895 539069725.63565063 0 0 0 0 132392231.97745609 -735515437.47444153 0 -735515437.47444153 332041682.30944061 0 0 0 0 244180912.16548577 -704208978.91956329 0 -704208978.91956329 24420316.913208008 0 0 0 0 -113181255.30520964 -564878083.05176544 0 -564878083.05176544 386449473.5662384 0 0 0 0 -110768751.27429187 -654542053.8585434 0 -654542053.8585434 -11494589.676849365 0 0 0 0 9025199.3126568794 -100370616.46037292 0 -100370616.46037292 838867271.87683868 0 0 0 0 -91911550.242692947 -81208476.327953339 0 -81208476.327953339 68805761.284477234 0 0 0 0 -69535989.766716003 -14896605.220901489 0 -14896605.220901489 203795434.21026421 0 0 0 0 -119818051.28869489 -871935948.46491098 0 -871935948.46491098 -170872159.02911377 0 0 0 0 -10903551.569221497 40339449.401420593 0 40339449.401420593 123432548.77412415 0 0 0 0 -17707027.626832008 -7641039.9947509766 0 -7641039.9947509766 28436217.658576965 0 0 0 0 10939814.99464488 1284867.2384128571 0 1284867.2384128571 15576595.810150146 0 0 0 0 -425564.77215091931 -4634109.3983151577 0 -4634109.3983151577 898379.97704250365 0 0 0 0 -205918.36442344752 -7336334.3303190507 0 -7336334.3303190507 -5688400.7163856728 0 0 0 0 33346942.683223724 32215364.028963089 0 32215364.028963089 43704405.419937134 0 0 0 0 -160672814.41428661 -427104908.11073303 0 -427104908.11073303 305273619.26843643 0 0 0 0 168074264.53038383 116923050.2844429 0 116923050.2844429 -319909501.86985779 0 0 0 0 -36311101.224826336 -33016567.768215179 0 -33016567.768215179 -52316558.869819641 0 0 0 0 -15388089.148747444 -49140312.895713806 0 -49140312.895713806 -102591578.15344238 0 0 0 0 -88760.522672296502 1030118.3038704619 0 1030118.3038704619 -2807060.0909015308 0 0 0 0 29286990.645806789 -32163897.448562622 0 -32163897.448562622 2701465.6294250488 0 0 0 0 3147136.1649261345 -5406047.5043703821 0 -5406047.5043703821 -13315642.518358074 0 0 0 0 129389812.88314152 -20244156.579292297 0 -20244156.579292297 -46988021.765640259 0 0 0 0 31312001.58415556 -44093871.324310303 0 -44093871.324310303 -8130376.3513717651 0 0 0 0 -137172836.82768297 -121120980.30968475 0 -121120980.30968475 -43567720.772918701 0 0 0 0 -337546176.81855822 -209777170.79259109 0 -209777170.79259109 -56846574.814292908 0 0 0 0 -51930633.086847544 -185431959.06581879 0 -185431959.06581879 -145716366.81614685 0 0 0 0 -90088008.936042786 -153708728.27667236 0 -153708728.27667236 -157919815.90447235 0 0 0 0 1667672.8319377899 -164881367.28516388 0 -164881367.28516388 -162026144.65995789 0 0 0 0 -125034027.36978531 -192925800.97508621 0 -192925800.97508621 -199492064.65563202 0 0 0 0 -41234231.15055418 -176575248.96042061 0 -176575248.96042061 -195278461.84088135 0 0 0 0 -262885647.58049774 15144123.044212341 0 15144123.044212341 700558697.05094147 0 0 0 0 18839105.696330547 -55260937.082378387 0 -55260937.082378387 -295822497.96920013 0 0 0 0 -497000.4558713981 1378534.1839657445 0 1378534.1839657445 -606952.16473990818 0 0 0 0 -83406270.560329437 -160980026.20963287 0 -160980026.20963287 -184351288.6151886 0 0 0 0 -30028909.227333069 -162328638.09028053 0 -162328638.09028053 -471089895.81726074 0 0 0 0 -85772773.631298065 -147562180.93507195 0 -147562180.93507195 -260117163.79394531 0 0 0 0 -207424024.30801964 -94640739.275192261 0 -94640739.275192261 -157276022.20062256 0 0 0 0 -171988219.38328171 -260221512.55789948 0 -260221512.55789948 -360872838.74120331 0 0 0 0 -359465418.3099041 -213530533.16841125 0 -213530533.16841125 -143159263.1361084 0 0 0 0 147824815.88318634 45907525.546487808 0 45907525.546487808 7221999.9234619141 0 0 0 0 12315080.173066843 6058847.5647543138 0 6058847.5647543138 -50582307.680178851 0 0 0 0 -166135644.97899723 -150130072.11130524 0 -150130072.11130524 -145176489.43026733 0 0 0 0 137191278.43463182 63410823.265517712 0 63410823.265517712 10309810.763336182 0 0 0 0 -183097845.19868279 -120211224.69865417 0 -120211224.69865417 -181704025.68942261 0 0 0 0 178878893.74020004 60113102.669193268 0 60113102.669193268 2396011.5103912354 0 0 0 0 293644908.14903831 289928274.8602562 0 289928274.8602562 203512339.24161148 0 0 0 0 11713878.463260651 -60487005.373876572 0 -60487005.373876572 114740116.44715881 0 0 0 0 182976190.33947897 38153949.007219315 0 38153949.007219315 -5796066.6740112305 0 0 0 0 -141111995.82215095 -78328018.540622711 0 -78328018.540622711 -37634027.193069458 0 0 0 0 -55235027.049579799 -201304056.78844452 0 -201304056.78844452 -114707566.74789429 0 0 0 0 133544845.43788695 -162366144.08167267 0 -162366144.08167267 -202081007.73204041 0 0 0 0 208851463.28018028 -163808073.94470978 0 -163808073.94470978 -231926717.556427 0 0 0 0 144657204.47508526 62509830.335853577 0 62509830.335853577 -48195973.152086258 0 0 0 0 418166699.19762325 -482940.24209594727 0 -482940.24209594727 -214889873.18049622 0 0 0 0 264530008.27745819 357642900.88703918 0 357642900.88703918 47177821.051574707 0 0 0 0 147721023.38236237 171771697.75499725 0 171771697.75499725 -138588993.21601868 0 0 0 0 1113948.7650692118 210403.11280687852 0 210403.11280687852 -1388570.9858306181 0 0 0 0 11404381.821015615 8083560.4019023692 0 8083560.4019023692 -52464910.135283202 0 0 0 0 538030817.36442995 -257175120.97463989 0 -257175120.97463989 -193515046.73706055 0 0 0 0 481172963.7980504 -187210926.2117157 0 -187210926.2117157 -276701540.00750732 0 0 0 0 437738959.27514237 -435800015.80903244 0 -435800015.80903244 95968627.387664795 0 0 0 0 66568787.495574951 107810519.87653351 0 107810519.87653351 -77804997.764335632 0 0 0 0 60338170.142036438 -69980318.140625 0 -69980318.140625 350410781.6137619 0 0 0 0 126377137.68280411 113658034.10196304 0 113658034.10196304 -93928780.444068909 0 0 0 0 131320149.54267883 119131186.59798431 0 119131186.59798431 -116979398.6257019 0 0 0 0 156627127.57427979 177028598.23029709 0 177028598.23029709 -190029049.35360718 0 0 0 0 129744425.20321655 112309588.91089249 0 112309588.91089249 -143645939.92909622 0 0 0 0 126914311.71483231 157759719.91612244 0 157759719.91612244 -321394465.75247955 0 0 0 0 -22130505.844277382 211608444.40392303 0 211608444.40392303 -185693549.52862549 0 0 0 0 192990348.17553139 50569834.524276733 0 50569834.524276733 -65680510.257568359 0 0 0 0 1445592.9315148634 -2800187.8893219391 0 -2800187.8893219391 -8073720.900818184 0 0 0 0 64964813.820779085 -65053466.151514053 0 -65053466.151514053 -68024521.476921082 0 0 0 0 -147179655.69180012 -265968438.73496246 0 -265968438.73496246 -138349324.27167511 0 0 0 0 -398592858.23280835 -167161436.38479614 0 -167161436.38479614 -145487506.64251518 0 0 0 0 -68706485.378704071 -178881049.99252319 0 -178881049.99252319 -147070564.86047363 0 0 0 0 239171235.27715695 -301975177.68393707 0 -301975177.68393707 -334894296.08563232 0 0 0 0 22170651.195561826 -463682639.51150703 0 -463682639.51150703 -230013086.02731323 0 0 0 0 210102489.12035751 -246789027.21142578 0 -246789027.21142578 -60495740.031188965 0 0 0 0 109013230.37712622 380562374.27366638 0 380562374.27366638 484150865.56527901 0 0 0 0 -76641318.874652386 -87367883.966278076 0 -87367883.966278076 -102471700.06044006 0 0 0 0 168100085.52558637 -154013063.84968567 0 -154013063.84968567 563645414.44265747 0 0 0 0 182498917.79461813 -163482244.36902046 0 -163482244.36902046 -129817944.75610352 0 0 0 0 187729278.59286714 469923189.48059082 0 469923189.48059082 63020985.175888062 0 0 0 0 -83125660.392444372 -594804612.92818451 0 -594804612.92818451 -1147225905.2966003 0 0 0 0 -326866337.778934 -343682749.86650848 0 -343682749.86650848 -279398673.44621277 0 0 0 0 -1275777894.3549442 -646579242.30835724 0 -646579242.30835724 -135209386.79337311 0 0 0 0 48251740.80829525 243428595.16536713 0 243428595.16536713 -344038022.78353119 0 0 0 0 395352.62869667698 -1113984.2549946131 0 -1113984.2549946131 -2757033.3896079436 0 0 0 0 -476053230.86476612 -610447946.81663895 0 -610447946.81663895 -479140951.0165329 0 0 0 0 -64008765.069753647 537351009.01985931 0 537351009.01985931 -1451995355.8377457 0 0 0 0 -87159931.449520111 -306974350.68112183 0 -306974350.68112183 262561902.51203156 0 0 0 0 -844167904.03902936 114676270.33559418 0 114676270.33559418 55163426.097076416 0 0 0 0 274312328.87097168 17813763.602565765 0 17813763.602565765 -82099424.790542603 0 0 0 0 545012185.3221066 722214052.33258057 0 722214052.33258057 -164308351.70474243 0 0 0 0 683030893.08159304 418411751.12846375 0 418411751.12846375 -169274204.56933594 0 0 0 0 8892890.9862102289 11729253.553669712 0 11729253.553669712 -49546088.507564805 0 0 0 0 717637270.38665724 375236859.11192322 0 375236859.11192322 -418682453.44813538 0 0 0 0 524074676.63461208 153771973.30473328 0 153771973.30473328 -542965377.22013092 0 0 0 0 8940462.9647245407 224325229.73175049 0 224325229.73175049 -392714413.43249512 0 0 0 0 575437651.35434747 613320021.47203922 0 613320021.47203922 -521493794.68655396 0 0 0 0 219254819.65420222 296861974.55737305 0 296861974.55737305 -820597451.33326721 0 0 0 0 174366442.91141838 578659513.590065 0 578659513.590065 -432427675.51370239 0 0 0 0 236335642.54140472 22586582.79763031 0 22586582.79763031 -51272434.54460907 0 0 0 0 210184218.07798386 -15433892.841365814 0 -15433892.841365814 -5536187.4352645874 0 0 0 0 656318472.88275242 250807438.96905708 0 250807438.96905708 1437469207.4008789 0 0 0 0 626359739.93789959 220143982.50938797 0 220143982.50938797 -80365807.352165222 0 0 0 0 3832091.2879058504 1416609.3140929937 0 1416609.3140929937 -4978705.1141922623 0 0 0 0 7632408.026320084 2721447.8188914303 0 2721447.8188914303 -53206302.759369977 0 0 0 0 174169065.61862659 234282383.75039673 0 234282383.75039673 84839825.20223999 0 0 0 0 9433857.9244399071 310237222.20261383 0 310237222.20261383 573336496.99439621 0 0 0 0 -49099739.744026929 52756709.148448229 0 52756709.148448229 129116931.2232666 0 0 0 0 -222259744.38196659 -124042198.22006226 0 -124042198.22006226 4369291.9991569519 0 0 0 0 147944819.36907578 6062924.3354606628 0 6062924.3354606628 -150517112.52511406 0 0 0 0 43667645.989285469 -19444203.302397728 0 -19444203.302397728 -202706658.3511734 0 0 0 0 101584927.96069717 46286505.291984558 0 46286505.291984558 -129014802.7227478 0 0 0 0 150111723.86184692 36967350.994777679 0 36967350.994777679 -144929245.64964104 0 0 0 0 109912930.69632149 11929313.515286446 0 11929313.515286446 -85725720.697006226 0 0 0 0 166221342.68637085 -12587185.874198914 0 -12587185.874198914 -10135633.828094482 0 0 0 0 291118267.43709564 -67536205.24955368 0 -67536205.24955368 -51794501.777122498 0 0 0 0 221955441.84467697 9576219.6029510498 0 9576219.6029510498 -107781629.81002808 0 0 0 0 180997032.93186188 -2490443.0879402161 0 -2490443.0879402161 -73017693.334060669 0 0 0 0 233116769.4319458 -21488424.592819214 0 -21488424.592819214 -96231777.111968994 0 0 0 0 172832386.47480774 -26177958.898864746 0 -26177958.898864746 -122418043.5891037 0 0 0 0 187590705.49422741 -73281486.746715546 0 -73281486.746715546 -47382973.303215027 0 0 0 0 191237532.42337418 -63964293.614379883 0 -63964293.614379883 -26830497.008987427 0 0 0 0 176712331.2474556 -34697719.527340889 0 -34697719.527340889 -94333489.391464233 0 0 0 0 208023848.65362549 -33926954.052032471 0 -33926954.052032471 -104305420.10053635 0 0 0 0 101377156.32292366 -55782936.53556633 0 -55782936.53556633 -82410913.484632492 0 0 0 0 79718877.269034386 40211283.687068224 0 40211283.687068224 -188110962.38286209 0 0 0 0 13631001.810001373 24717902.581029892 0 24717902.581029892 -155728236.63729095 0 0 0 0 -25746530.564956665 92865969.609661579 0 92865969.609661579 -185453831.54944992 0 0 0 0 -113386313.42561913 -10189893.901628494 0 -10189893.901628494 -241758605.75330162 0 0 0 0 -213549494.95057869 -89762817.965913773 0 -89762817.965913773 -182379093.0850296 0 0 0 0 44096584.69962883 926456.85585546494 0 926456.85585546494 -302383797.1483078 0 0 0 0 -444276430.95990515 -449706972.59140205 0 -449706972.59140205 -456358138.02955246 0 0 0 0 -130133535.10044575 -167434950.58326912 0 -167434950.58326912 -210873744.79347992 0 0 0 0 -813713838.86823654 -259646435.27364922 0 -259646435.27364922 -4721689.3210718632 0 0 0 0 -143027575.76614571 -51392003.071552277 0 -51392003.071552277 -32162473.88489151 0 0 0 0 -961411.95224216022 -949057.9285017075 0 -949057.9285017075 -389238.64540097862 0 0 0 0 6125322.7041168213 159981900.68021202 0 159981900.68021202 -669939466.96378326 0 0 0 0 -18049377.060000896 -387860793.98873901 0 -387860793.98873901 -844833280.46369743 0 0 0 0 -829432889.65103579 -115590397.22402382 0 -115590397.22402382 -191988414.57185745 0 0 0 0 52428720.972267151 -49809458.434230804 0 -49809458.434230804 -720790455.88552094 0 0 0 0 -320447596.90240479 144486873.48087215 0 144486873.48087215 231813054.10612106 0 0 0 0 -134212.87803195696 1762044.2816433199 0 1762044.2816433199 -1111921.4406438442 0 0 0 0 74124250.85745883 -100871516.00426674 0 -100871516.00426674 -217410280.23561859 0 0 0 0 3604209.1185321808 -26993086.379432678 0 -26993086.379432678 -68006102.479259491 0 0 0 0 3512390.4248847961 -21313325.79549408 0 -21313325.79549408 -71804849.537923813 0 0 0 0 6093000.3235530853 62705358.394794464 0 62705358.394794464 20677531.413930893 0 0 0 0 -32287146.61734581 477874.11490821838 0 477874.11490821838 52298690.348453522 0 0 0 0 64127051.755847931 154799006.83672142 0 154799006.83672142 166897652.58399296 0 0 0 0 107215863.67365646 41153698.180006027 0 41153698.180006027 9791099.132434845 0 0 0 0 -90050748.203151703 28495637.535513401 0 28495637.535513401 40750626.588691711 0 0 0 0 25439546.086159229 -55207624.397168159 0 -55207624.397168159 -122348418.31036758 0 0 0 0 20245718.689880371 142613494.72715569 0 142613494.72715569 -139538186.81853294 0 0 0 0 185993.62603998277 1101942.2379980274 0 1101942.2379980274 -727676.19563462213 0 0 0 0 183196061.85119438 10502729.757263184 0 10502729.757263184 -281115903.53953934 0 0 0 0 -67375674.828494608 -22453887.72649765 0 -22453887.72649765 -103491217.10042572 0 0 0 0 -65758864.421987653 16300497.947807312 0 16300497.947807312 -2084470.9237613678 0 0 0 0 -29920142.904663801 -12006192.338853836 0 -12006192.338853836 -70717461.616922379 0 0 0 0 303119.60110121046 165709.99803816341 0 165709.99803816341 -900767.63936992362 0 0 0 0 -39474465.164334297 -39069558.964246273 0 -39069558.964246273 -28812666.640651703 0 0 0 0 -75576057.820319295 -102901609.32008743 0 -102901609.32008743 -172977088.55008698 0 0 0 0 -100579801.90290022 -166739540.47409058 0 -166739540.47409058 -209445075.35978508 0 0 0 0 21570267.624200583 -78389164.230607986 0 -78389164.230607986 -234900709.48466396 0 0 0 0 -4979883.4680495262 -67855190.936485291 0 -67855190.936485291 -104967704.39716339 0 0 0 0 20526778.205676556 -53012147.115753174 0 -53012147.115753174 -42129708.510948181 0 0 0 0 -35343046.078792572 68911861.228912354 0 68911861.228912354 -80086651.788967133 0 0 0 0 4575079.4700803757 -256765572.51804733 0 -256765572.51804733 -355366171.24143505 0 0 0 0 35691309.342934132 -14143747.749403 0 -14143747.749403 -491136501.98871613 0 0 0 0 -87132858.388939977 -251489153.61100769 0 -251489153.61100769 -275000684.81880188 0 0 0 0 -238622.28150866041 1423849.0091401916 0 1423849.0091401916 -948222.97391282674 0 0 0 0 -251330504.01764369 -148017413.08544922 0 -148017413.08544922 60030599.550106049 0 0 0 0 19945.541497041471 674920.20481081121 0 674920.20481081121 -505956.63979767822 0 0 0 0 -119406893.7695632 -310432260.72215366 0 -310432260.72215366 -368052042.18309402 0 0 0 0 -25764190.80993557 -230517061.6409874 0 -230517061.6409874 -290812068.96728706 0 0 0 0 -52142735.786026299 -110018191.2946949 0 -110018191.2946949 -189969670.91112518 0 0 0 0 -247572727.54666972 -202754519.6552124 0 -202754519.6552124 -184698392.76743186 0 0 0 0 -127639576.76560366 -126746347.51538849 0 -126746347.51538849 -136806843.95128441 0 0 0 0 -127504889.5378148 -106496007.99018669 0 -106496007.99018669 -241932741.22353363 0 0 0 0 -163481040.25561166 -191595699.16231918 0 -191595699.16231918 -198532027.45227051 0 0 0 0 -123743113.30645365 -173589835.28183556 0 -173589835.28183556 -194570653.20949745 0 0 0 0 -199847681.16275936 -174022506.30439568 0 -174022506.30439568 -191713002.45841217 0 0 0 0 -136543794.22877312 -197557821.91751575 0 -197557821.91751575 -233365765.41625595 0 0 0 0 -131739906.72544861 -50360670.83937645 0 -50360670.83937645 -60388510.888851166 0 0 0 0 4776957.2077118158 -89828162.696567535 0 -89828162.696567535 -163216464.40747833 0 0 0 0 -28014456.790500164 -8249555.6514091492 0 -8249555.6514091492 -57949164.254673004 0 0 0 0 -10935954.717944145 -33765788.421005249 0 -33765788.421005249 -69485881.513347626 0 0 0 0 50107533.357040405 -2064472.5864601135 0 -2064472.5864601135 -99478543.022865295 0 0 0 0 24566372.251599312 -9551630.8210067749 0 -9551630.8210067749 -97980825.294521332 0 0 0 0 109406232.38157892 483756.25212240219 0 483756.25212240219 -128700105.23125458 0 0 0 0 158872968.38749504 144224603.42752457 0 144224603.42752457 25671413.972141266 0 0 0 0 179735934.39185524 13378701.815208435 0 13378701.815208435 -75809635.93056488 0 0 0 0 55390572.711248398 80139222.549080849 0 80139222.549080849 59803792.839256287 0 0 0 0 31331940.386141777 19838748.795001984 0 19838748.795001984 -43952826.280982971 0 0 0 0 49604761.800526619 13013183.790363312 0 13013183.790363312 -61618374.592014313 0 0 0 0 72422798.876160622 5229284.2775173187 0 5229284.2775173187 -151211281.86833191 0 0 0 0 -16091421.02682662 -89682377.79777813 0 -89682377.79777813 -209064813.18222809 0 0 0 0 -113815887.04574978 -106322442.66749573 0 -106322442.66749573 -115463661.22319794 0 0 0 0 19600292.774110794 84179196.212818146 0 84179196.212818146 -152985833.76005363 0 0 0 0 -108984616.79883623 117888541.41248703 0 117888541.41248703 -428817521.71868896 0 0 0 0 -126292071.91264009 -171806076.18650818 0 -171806076.18650818 -256756745.44863129 0 0 0 0 -245937914.68693683 -220915645.1211977 0 -220915645.1211977 -254684282.7208786 0 0 0 0 50136343.966283798 -64936882.788719177 0 -64936882.788719177 -109612312.1662674 0 0 0 0 39729920.412394524 114989466.2164402 0 114989466.2164402 78900191.167682648 0 0 0 0 1028208.0142470021 110139.20046301 0 110139.20046301 -1204076.4629191831 0 0 0 0 182757943.20241547 96780180.199020386 0 96780180.199020386 -69111035.060600281 0 0 0 0 111564938.60845184 49020565.263954163 0 49020565.263954163 8428554.3958320618 0 0 0 0 56285698.472862244 45372483.373191833 0 45372483.373191833 10001585.229393005 0 0 0 0 19230315.176979065 62080482.79624176 0 62080482.79624176 34209322.182006836 0 0 0 0 153048489.16706657 86164203.493341446 0 86164203.493341446 18513506.141563416 0 0 0 0 1764199.4093442522 327782.78851016611 0 327782.78851016611 -2231388.6684468426 0 0 0 0 102966131.3965683 85261555.89969635 0 85261555.89969635 29029880.183235168 0 0 0 0 54179153.779342651 82823091.583480835 0 82823091.583480835 29634604.523635864 0 0 0 0 137282766.52004647 66343462.115305185 0 66343462.115305185 4618783.1688079834 0 0 0 0 37560599.840125084 -10077879.738458633 0 -10077879.738458633 36260363.336578369 0 0 0 0 -15571274.749874592 -11638004.242977142 0 -11638004.242977142 -14023138.903892517 0 0 0 0 30703706.177052498 51568598.814956665 0 51568598.814956665 -28594254.293456078 0 0 0 0 24848814.51870966 29774214.644813538 0 29774214.644813538 -81037919.31312561 0 0 0 0 25349314.360745907 66164694.951851845 0 66164694.951851845 -63762154.582496643 0 0 0 0 4515977.4706077576 46928628.734161377 0 46928628.734161377 -71078169.547216415 0 0 0 0 48066658.103596687 80430500.095149994 0 80430500.095149994 -59291877.173530579 0 0 0 0 43508174.864736557 46905865.730350494 0 46905865.730350494 -56001321.446685314 0 0 0 0 75304892.235860825 45878576.764965057 0 45878576.764965057 -85703513.706377029 0 0 0 0 88750935.55718708 64176172.378910065 0 64176172.378910065 -62155865.648612976 0 0 0 0 33681284.143645763 92814869.11995697 0 92814869.11995697 155245808.71031189 0 0 0 0 98818313.53613472 59412314.863285065 0 59412314.863285065 -60475694.889307022 0 0 0 0 68421943.1351614 95023019.514486313 0 95023019.514486313 25148409.261497498 0 0 0 0 15710757.061620712 33253522.51997757 0 33253522.51997757 45287469.877403259 0 0 0 0 11479313.731666565 37410110.84557724 0 37410110.84557724 13842227.620269775 0 0 0 0 -1519652.1773522957 3988913.2153864671 0 3988913.2153864671 12608444.504528416 0 0 0 0 15586203.075586319 35936579.104442596 0 35936579.104442596 12603749.570323944 0 0 0 0 -78358304.265273333 39458067.031906366 0 39458067.031906366 -67677443.236907959 0 0 0 0 11548945.50154563 7631266.7204999663 0 7631266.7204999663 -38865364.315497786 0 0 0 0 26042927.804127216 58992772.306964874 0 58992772.306964874 -134168537.17658997 0 0 0 0 20157281.083650589 222015083.27069092 0 222015083.27069092 -63059061.164810181 0 0 0 0 107350842.07491112 80079191.402679443 0 80079191.402679443 69780643.169395447 0 0 0 0 78536.81572829932 1465331.6512780078 0 1465331.6512780078 3349713.0103572272 0 0 0 0 75323288.209598541 54303013.205070496 0 54303013.205070496 -171772561.47061539 0 0 0 0 -54230138.257633209 152806504.92313766 0 152806504.92313766 -69236402.470588684 0 0 0 0 -125728732.79857349 31179424.013755798 0 31179424.013755798 241194665.39533997 0 0 0 0 106304721.27140045 -5737530.3553543091 0 -5737530.3553543091 -67178598.755233765 0 0 0 0 -55895159.873178482 112811896.90883827 0 112811896.90883827 -36568613.962593079 0 0 0 0 12945838.640821636 5445799.8356000688 0 5445799.8356000688 -47030724.319500104 0 0 0 0 -208581340.13853979 -131820406.2921164 0 -131820406.2921164 22769878.86391449 0 0 0 0 224251213.79942322 87615286.954238892 0 87615286.954238892 -89563454.998062134 0 0 0 0 245370847.12599564 -33568892.466423035 0 -33568892.466423035 -77804617.485015869 0 0 0 0 -154115285.83117676 -40407582.005157471 0 -40407582.005157471 -71967124.649425507 0 0 0 0 -73014910.555109024 5422207.2993659973 0 5422207.2993659973 -46832573.44777298 0 0 0 0 -157162236.5553627 7328262.0636634827 0 7328262.0636634827 -63395691.511686325 0 0 0 0 -151288324.75773048 16911525.962093353 0 16911525.962093353 -54404810.527304173 0 0 0 0 -140073008.42316055 24586652.214706421 0 24586652.214706421 -70015829.025192261 0 0 0 0 -140576720.92684937 34203708.178035736 0 34203708.178035736 -51705093.228538513 0 0 0 0 -105454891.69334412 38271314.689863205 0 38271314.689863205 -49782802.334310532 0 0 0 0 -7178537.5555336755 -773910.76453700848 0 -773910.76453700848 -11851571.741931193 0 0 0 0 91984225.375382185 -36793914.873871803 0 -36793914.873871803 -301319235.1935215 0 0 0 0 29695412.818637848 7582643.4762706757 0 7582643.4762706757 -323544194.65403986 0 0 0 0 12766161.113575935 53250002.734519958 0 53250002.734519958 -209789819.51339722 0 0 0 0 -30927982.890835285 -42600540.489152908 0 -42600540.489152908 -192497401.29116058 0 0 0 0 13315112.576280594 -34361447.915382385 0 -34361447.915382385 -311844563.79483795 0 0 0 0 45134630.879835606 176763936.40187454 0 176763936.40187454 -416769484.61413574 0 0 0 0 -225511.02317935647 -529680.97745263483 0 -529680.97745263483 -327168.41206961684 0 0 0 0 72120106.89603281 -171736278.27262688 0 -171736278.27262688 -657250638.55998611 0 0 0 0 -61241612.493276596 -249412708.6981082 0 -249412708.6981082 -125226971.51195145 0 0 0 0 -78484981.220560074 -361704293.08588219 0 -361704293.08588219 -514715058.23328018 0 0 0 0 20045572.897092819 -22208799.960191727 0 -22208799.960191727 43941857.940484524 0 0 0 0 33716832.014849663 10009037.949245453 0 10009037.949245453 52416766.313438416 0 0 0 0 10799067.314968485 16074415.399855029 0 16074415.399855029 -36988174.332322672 0 0 0 0 527192.39646964613 -942133.06561047584 0 -942133.06561047584 -7155925.5078372015 0 0 0 0 117874905.31090069 5117554.7692222595 0 5117554.7692222595 -60259294.900026321 0 0 0 0 -19725927.646074891 107712554.66783023 0 107712554.66783023 26466845.882415771 0 0 0 0 8337315.9150507869 19040603.18299574 0 19040603.18299574 -22118151.655335099 0 0 0 0 -18222221.835945606 -120756831.27608585 0 -120756831.27608585 64794172.00585556 0 0 0 0 68531342.643890381 -8347759.7980976105 0 -8347759.7980976105 -396531777.78743744 0 0 0 0 -3674639.2078821887 4511407.9479783103 0 4511407.9479783103 5556450.7930298541 0 0 0 0 -280014825.79612923 -80893830.371044159 0 -80893830.371044159 -714006370.79655457 0 0 0 0 -270019396.39340305 -265213984.5736742 0 -265213984.5736742 -241641207.66100311 0 0 0 0 -11837462.843784332 51921851.832698822 0 51921851.832698822 -33041661.120592117 0 0 0 0 -103870914.65040231 19410010.983962059 0 19410010.983962059 36608068.4895401 0 0 0 0 -220758607.52145576 -179778203.76320553 0 -179778203.76320553 -111638403.74913025 0 0 0 0 16561595.171351433 -19420399.491973877 0 -19420399.491973877 -39217611.949222565 0 0 0 0 3573097.1367778778 -212633902.72797394 0 -212633902.72797394 -343750453.94562912 0 0 0 0 -68702129.438051701 -103157113.90907097 0 -103157113.90907097 -92110624.018932343 0 0 0 0 93911005.867809296 -92827138.007123947 0 -92827138.007123947 -220259911.33916092 0 0 0 0 99680132.474112809 -33077831.984070301 0 -33077831.984070301 -571871393.94977951 0 0 0 0 -776696.67917091306 200878.47143762652 0 200878.47143762652 -299383.74530195538 0 0 0 0 -676088.53548395634 -44535020.146826982 0 -44535020.146826982 31329864.322473526 0 0 0 0 -39340377.086495399 -17903085.654830933 0 -17903085.654830933 26324647.40165329 0 0 0 0 -693667.7785415384 58325.441483240575 0 58325.441483240575 446484.3373452425 0 0 0 0 -25647751.25603199 26550057.814706802 0 26550057.814706802 34217008.261909485 0 0 0 0 -809797.11274170876 -1348096.5599479675 0 -1348096.5599479675 1131285.067276001 0 0 0 0 -228304.06154959276 470062.49526515882 0 470062.49526515882 -320252.74333076738 0 0 0 0 -35375836.57378602 10548569.695018768 0 10548569.695018768 39004930.154922485 0 0 0 0 -33982.218557357788 399925.52347564697 0 399925.52347564697 2018340.1077728271 0 0 0 0 -1304573.5914832945 -667506.70212553162 0 -667506.70212553162 -321620.95176814124 0 0 0 0 -111895.72211551666 -571593.88379669189 0 -571593.88379669189 1048588.1552541256 0 0 0 0 29016011.501813889 -10302210.495464325 0 -10302210.495464325 42982791.705501556 0 0 0 0 -895360.80740793201 -1697467.8913055998 0 -1697467.8913055998 -156215.77693815343 0 0 0 0 -32208151.602133751 -61553296.670783997 0 -61553296.670783997 89879387.851257324 0 0 0 0 2179621.1844949722 629487.74663925171 0 629487.74663925171 -6829075.2066688538 0 0 0 0 -149050.11266613565 589945.26409438159 0 589945.26409438159 -306701.56296558771 0 0 0 0 31063705.503068209 -38690445.289776802 0 -38690445.289776802 8209983.891456604 0 0 0 0 -12460159.802360773 -69285791.895082474 0 -69285791.895082474 -19824642.490127563 0 0 0 0 6106686.0422010422 -3026859.2558479309 0 -3026859.2558479309 -65625050.832324982 0 0 0 0 -74968250.551657915 8253716.3942871094 0 8253716.3942871094 -895571.73742294312 0 0 0 0 -43479453.028899789 -33118414.188669205 0 -33118414.188669205 -191169182.22025299 0 0 0 0 -47424738.301210999 -43180478.61741972 0 -43180478.61741972 -90369258.208992004 0 0 0 0 -468223.09054051014 -1178838.6586463419 0 -1178838.6586463419 -726506.75351904146 0 0 0 0 45941270.54146862 20246036.687067032 0 20246036.687067032 -26910139.873527527 0 0 0 0 13137655.400402613 14637785.017741665 0 14637785.017741665 -53272713.443202972 0 0 0 0 30577673.836237907 -73938007.257713318 0 -73938007.257713318 -25093805.835220337 0 0 0 0 99154333.08999896 -54287455.533267021 0 -54287455.533267021 -27473341.710067749 0 0 0 0 -108304656.95011923 122429806.63815832 0 122429806.63815832 57795129.319915771 0 0 0 0 34131529.832691431 67274588.269454956 0 67274588.269454956 -107536245.64010429 0 0 0 0 -97891686.080878019 9652669.2537822723 0 9652669.2537822723 -76172029.264060974 0 0 0 0 1188805.0030529499 113154619.76078415 0 113154619.76078415 22517846.153694153 0 0 0 0 140974211.29815722 106445290.03085709 0 106445290.03085709 11187839.885314941 0 0 0 0 93507355.620999813 186686064.84972382 0 186686064.84972382 65843000.239377499 0 0 0 0 -105693169.71810102 305601552.55665779 0 305601552.55665779 -81828191.115345001 0 0 0 0 8341393.8384947628 18026716.918906048 0 18026716.918906048 -25392884.248036996 0 0 0 0 74379744.355164051 124365513.95608711 0 124365513.95608711 53113223.781188965 0 0 0 0 89655462.173429012 124100285.95246124 0 124100285.95246124 -42723275.101593018 0 0 0 0 113034367.15757561 137153585.96117401 0 137153585.96117401 33485802.839067459 0 0 0 0 247786810.46202374 -129513803.93151665 0 -129513803.93151665 -274179457.82367325 0 0 0 0 -142375248.05204582 -155362702.96769333 0 -155362702.96769333 -275832963.06566763 0 0 0 0 59114863.365152836 136727487.95659447 0 136727487.95659447 -268545679.88890839 0 0 0 0 -59657895.55287075 -173044502.32975483 0 -173044502.32975483 -446640349.39742279 0 0 0 0 -589360.29402279109 124679.84261315409 0 124679.84261315409 159874.39601583034 0 0 0 0 -7523425.4376621246 -11198651.662063599 0 -11198651.662063599 55717252.211742401 0 0 0 0 -26183536.609650135 16687871.272819519 0 16687871.272819519 -134247344.75635147 0 0 0 0 -84029656.829352379 -16209268.938697815 0 -16209268.938697815 15369261.671749115 0 0 0 0 -69859819.020078659 1622774.305973053 0 1622774.305973053 16930141.364554644 0 0 0 0 -105529.44322220399 -1240417.308943958 0 -1240417.308943958 -1792074.011233652 0 0 0 0 -24309186.550082207 37262414.479681492 0 37262414.479681492 -29655097.714797974 0 0 0 0 -626411681.42603683 232489658.0040741 0 232489658.0040741 -4429841.4685974121 0 0 0 0 -106064506.92974949 -454153607.91373825 0 -454153607.91373825 -114233432.98304081 0 0 0 0 9039927.2267482467 16610699.148576345 0 16610699.148576345 -26396603.754427932 0 0 0 0 20434314.698709488 158208325.92883492 0 158208325.92883492 196364441.32294464 0 0 0 0 -38083286.843214989 -5656686.0066184998 0 -5656686.0066184998 -77441654.797992706 0 0 0 0 446404.21943175793 6994177.1322040558 0 6994177.1322040558 96424766.252120972 0 0 0 0 71576430.522644401 114584269.24900627 0 114584269.24900627 41587633.356233597 0 0 0 0 -33848279.661846161 -22758464.885626793 0 -22758464.885626793 -35696206.040694714 0 0 0 0 -35636818.442596436 -22339818.688288689 0 -22339818.688288689 -17522778.533496857 0 0 0 0 -28186735.368520737 -30895535.64204216 0 -30895535.64204216 -32160424.099311829 0 0 0 0 -18679216.576820374 -30257949.991535664 0 -30257949.991535664 -68132646.278678894 0 0 0 0 -7948957.1213474274 -17518505.139751434 0 -17518505.139751434 -70969871.790477753 0 0 0 0 -10276790.303780437 -30337827.416793466 0 -30337827.416793466 -104705164.09617996 0 0 0 0 -34334574.373901844 -51439286.010843277 0 -51439286.010843277 -82878190.523593903 0 0 0 0 -1445069.4416699235 -3210464.5536775561 0 -3210464.5536775561 -4899838.8626345387 0 0 0 0 -71709674.501093864 -53090291.42113018 0 -53090291.42113018 -36674167.515474319 0 0 0 0 31038118.593380928 19937297.940078735 0 19937297.940078735 -20355328.519504547 0 0 0 0 -29360051.635875702 -12923398.921548843 0 -12923398.921548843 -12756040.53786087 0 0 0 0 19968001.979866028 -1994067.7521362305 0 -1994067.7521362305 16669297.536346436 0 0 0 0 19149400.734733582 -11586146.481437683 0 -11586146.481437683 13439958.597673416 0 0 0 0 19315167.847358704 -14020973.018230438 0 -14020973.018230438 2908704.8501739502 0 0 0 0 19927399.640335083 4445396.310256958 0 4445396.310256958 -4861014.5817985535 0 0 0 0 18489942.93913269 9063051.9336776733 0 9063051.9336776733 8400969.9424819946 0 0 0 0 19108898.454963684 10350080.936244965 0 10350080.936244965 2642140.3145065308 0 0 0 0 5201077.3402929604 -2197480.5553909242 0 -2197480.5553909242 -30870281.05292511 0 0 0 0 20119955.286705017 6092889.5748023987 0 6092889.5748023987 -18296451.104557037 0 0 0 0 5145725.0059509277 -3815106.0045928955 0 -3815106.0045928955 -3540993.3843688965 0 0 0 0 17540235.358219147 -8251598.4774093628 0 -8251598.4774093628 -15791681.183197021 0 0 0 0 -15870138.49358654 4631114.5291290283 0 4631114.5291290283 -28012804.650131226 0 0 0 0 -15007738.76965332 7701203.2820014954 0 7701203.2820014954 -18237952.6159935 0 0 0 0 -19117683.424461842 21241620.943033218 0 21241620.943033218 -27741583.971630096 0 0 0 0 7978410.6509437561 -439323.36968612671 0 -439323.36968612671 -18044607.331161499 0 0 0 0 -15648440.836425781 13022471.025856018 0 13022471.025856018 -17926881.190389231 0 0 0 0 -44275280.689781189 -25922668.199075699 0 -25922668.199075699 16139243.727912903 0 0 0 0 38352484.387861013 -14271152.976766348 0 -14271152.976766348 -17546373.826908112 0 0 0 0 -52999526.702741623 -30704.788543701172 0 -30704.788543701172 20976909.625303268 0 0 0 0 -77931238.58205986 -4918598.8670215607 0 -4918598.8670215607 21104119.168104172 0 0 0 0 -70025851.202291489 1082683.8735609055 0 1082683.8735609055 15718027.65984726 0 0 0 0 -72574616.442337632 -30447187.884659767 0 -30447187.884659767 -14247000.455600739 0 0 0 0 -630563.38378270599 -542804.03293688037 0 -542804.03293688037 551817.75672419742 0 0 0 0 -92646768.459888399 -20243718.165278912 0 -20243718.165278912 -110616273.77724075 0 0 0 0 -85718385.494234085 35918174.565998077 0 35918174.565998077 -16605975.187721252 0 0 0 0 -37007463.855937004 34783857.234096527 0 34783857.234096527 -70500889.70539093 0 0 0 0 -139260949.863801 60897924.018381596 0 60897924.018381596 111405425.0046196 0 0 0 0 -63825045.685454369 -18358514.477607727 0 -18358514.477607727 -9318472.2866096497 0 0 0 0 -425168.794530852 -756094.33507911861 0 -756094.33507911861 190726.85539717413 0 0 0 0 -25541049.028579712 -28400736.555948257 0 -28400736.555948257 -61333534.006352186 0 0 0 0 -35108844.185783386 -81580.940855026245 0 -81580.940855026245 799601.868724823 0 0 0 0 -19140968.768776417 -2612505.0401473045 0 -2612505.0401473045 7624783.229057312 0 0 0 0 -8808791.5410251617 -7352220.9152040482 0 -7352220.9152040482 1005078.8803939819 0 0 0 0 -18067733.641608238 -11772849.626936913 0 -11772849.626936913 13519222.894813538 0 0 0 0 12941688.976264954 -17024885.781451225 0 -17024885.781451225 -6395642.9528923035 0 0 0 0 8891431.6145458221 -25850503.430051804 0 -25850503.430051804 -15206237.659240723 0 0 0 0 -15823098.047635078 -30320716.00889349 0 -30320716.00889349 -20714950.223529816 0 0 0 0 -5956640.2470493317 -17874438.821931839 0 -17874438.821931839 -5305679.4215011597 0 0 0 0 -676649.95438766479 -21648775.836902618 0 -21648775.836902618 -24898360.686100006 0 0 0 0 -17987949.428255081 -9723484.8354310989 0 -9723484.8354310989 -18263109.470020294 0 0 0 0 2901432.345451355 -14242319.614328384 0 -14242319.614328384 -10241989.732765198 0 0 0 0 19938514.553218842 -11805947.220500946 0 -11805947.220500946 -14329192.384663343 0 0 0 0 -1090892.7566633224 -2509852.928653717 0 -2509852.928653717 -2080162.7245063782 0 0 0 0 -640132.709914051 -3989036.9061490768 0 -3989036.9061490768 -6451850.1226502266 0 0 0 0 32153680.341096878 -10567170.309082508 0 -10567170.309082508 -10993266.013912201 0 0 0 0 25255112.976631165 -20842522.485677719 0 -20842522.485677719 -8571463.576965332 0 0 0 0 -3371545.6433555037 -845791.3326400019 0 -845791.3326400019 -1964486.2680241847 0 0 0 0 -16999278.091499329 -7544535.6712551117 0 -7544535.6712551117 -20056111.690923691 0 0 0 0 -7110712.9066801891 -4052986.2079290329 0 -4052986.2079290329 -2530692.0577316056 0 0 0 0 19096809.179273605 -13787952.286911964 0 -13787952.286911964 -1308199.1005516052 0 0 0 0 10637956.392076492 50487707.965245008 0 50487707.965245008 153332856.67635298 0 0 0 0 -4463548.3072128296 8812424.6581470966 0 8812424.6581470966 135640470.26976633 0 0 0 0 10027246.570988178 -24440539.139112711 0 -24440539.139112711 -4142823.4249763489 0 0 0 0 -6966415.8544926858 -6918581.5451982478 0 -6918581.5451982478 -6554951.8036003076 0 0 0 0 -14144909.574007034 -9511105.6374373436 0 -9511105.6374373436 -19475896.787910938 0 0 0 0 -1142598.485963013 -2822304.8244418693 0 -2822304.8244418693 -1574065.4651168911 0 0 0 0 -5423286.6844846457 -974738.10921022855 0 -974738.10921022855 -248508.12543827947 0 0 0 0 -12592735.148142815 -66955018.046822309 0 -66955018.046822309 10719425.660389006 0 0 0 0 -6285316.0901738424 313837.50276565179 0 313837.50276565179 -1722565.4506440889 0 0 0 0 -12524859.437877655 -9479890.0976743698 0 -9479890.0976743698 -10740210.520402908 0 0 0 0 -23326915.059448242 -18190252.952974319 0 -18190252.952974319 -13601190.290243626 0 0 0 0 -24536443.176446915 -11071510.619879723 0 -11071510.619879723 -21054314.51061821 0 0 0 0 -34651116.33588028 -2732695.7981796265 0 -2732695.7981796265 4344947.1864452362 0 0 0 0 -18681231.503917694 -14895913.24141407 0 -14895913.24141407 -7734031.8828210831 0 0 0 0 -13263717.598060369 3290047.0478194356 0 3290047.0478194356 -4165401.1250495911 0 0 0 0 -15876802.458085299 -18823921.526055932 0 -18823921.526055932 -28174630.855361938 0 0 0 0 -1813392.1305548176 353375.96180089284 0 353375.96180089284 1366321.9116649255 0 0 0 0 -1605500.2826662064 -2581049.8901319504 0 -2581049.8901319504 9273560.3275947571 0 0 0 0 -1575072.7281852984 -3219657.8651452144 0 -3219657.8651452144 -1704273.6457202416 0 0 0 0 2336441.0117480755 10020266.710693359 0 10020266.710693359 -17447989.935008526 0 0 0 0 19387140.27176559 -9333123.8069620132 0 -9333123.8069620132 -11327398.340206146 0 0 0 0 -3260061.4680137634 2740453.420539856 0 2740453.420539856 19030478.869949341 0 0 0 0 24998601.083663464 23604860.467262268 0 23604860.467262268 3001614.7970485687 0 0 0 0 -8427376.2345077395 -7944744.7596945763 0 -7944744.7596945763 -2088277.9891929626 0 0 0 0 12483427.777923107 -342687.52030944824 0 -342687.52030944824 -6648060.5478610992 0 0 0 0 613648.04638792528 521100.82447143923 0 521100.82447143923 -229986.91842122097 0 0 0 0 12392838.221017599 -949193.34509658813 0 -949193.34509658813 -2270620.8256034851 0 0 0 0 10888576.75224638 -29478586.963607788 0 -29478586.963607788 17968496.965730667 0 0 0 0 -11425939.896137714 25742388.6792202 0 25742388.6792202 -28037614.909236073 0 0 0 0 24198464.263501048 -8145365.1689190865 0 -8145365.1689190865 -31445989.759492874 0 0 0 0 1098551.2079992294 -17929098.415366173 0 -17929098.415366173 -43512425.016950607 0 0 0 0 -30496951.395417213 -7703695.9711780548 0 -7703695.9711780548 -4737332.1022338867 0 0 0 0 -645252.16352208843 -38668.43750228826 0 -38668.43750228826 647143.86180387437 0 0 0 0 -50953511.108190536 10150054.724217415 0 10150054.724217415 16721213.315006256 0 0 0 0 -9247771.3907485008 -45571334.889633179 0 -45571334.889633179 36171182.097141266 0 0 0 0 7170052.2366509438 -7379042.885884285 0 -7379042.885884285 -10053751.035270691 0 0 0 0 -9007957.6975259781 6559052.909034729 0 6559052.909034729 35479692.920532733 0 0 0 0 -1003727.2419458949 -89340.180907139555 0 -89340.180907139555 1062971.4510019356 0 0 0 0 -18832691.058542371 -12862530.01639843 0 -12862530.01639843 39123199.18434906 0 0 0 0 44931810.748813987 -45883261.736734867 0 -45883261.736734867 21104349.897146225 0 0 0 0 11171911.528146744 13247806.285366058 0 13247806.285366058 -24027091.729405403 0 0 0 0 -33700449.085117817 -21921390.988348007 0 -21921390.988348007 4069804.3872871399 0 0 0 0 -63157522.189812183 20278754.338043213 0 20278754.338043213 4615154.5985774994 0 0 0 0 -974554.55224125949 -829904.03467630316 0 -829904.03467630316 862308.65317451116 0 0 0 0 -58984997.662652969 35079422.340978622 0 35079422.340978622 12072501.44568634 0 0 0 0 -17707631.84333992 348196.22372245789 0 348196.22372245789 -66455832.510126114 0 0 0 0 -986605.79679446516 -1703755.7539571235 0 -1703755.7539571235 203423.05264996737 0 0 0 0 -34716905.192839384 -4992966.589466095 0 -4992966.589466095 6962352.7286224365 0 0 0 0 11424319.369940042 3219752.8195390701 0 3219752.8195390701 20948363.065279007 0 0 0 0 -36258264.939031839 -4458319.7551722527 0 -4458319.7551722527 31181773.555358887 0 0 0 0 -24313394.486502171 17950281.299724579 0 17950281.299724579 14421131.401767731 0 0 0 0 -331839.03585656767 -99693.220082472079 0 -99693.220082472079 557662.7760003563 0 0 0 0 41297242.914401457 -56791382.061000824 0 -56791382.061000824 40626351.257513046 0 0 0 0 -9540947.7864963338 -16215376.201512814 0 -16215376.201512814 44072852.06978035 0 0 0 0 10371280.575365383 -926344.42113685608 0 -926344.42113685608 -7220465.1956348419 0 0 0 0 62432802.263858914 -4468456.6936640739 0 -4468456.6936640739 -23439448.868282318 0 0 0 0 -1874828.7360037658 -3404170.5249367086 0 -3404170.5249367086 -1149552.3700910695 0 0 0 0 -32144578.843497038 -33501849.928113937 0 -33501849.928113937 8187242.3555727005 0 0 0 0 -64651393.26286298 -94948466.162438393 0 -94948466.162438393 -39633567.216362 0 0 0 0 -161735907.45845997 -97902564.637887955 0 -97902564.637887955 47181429.17634964 0 0 0 0 -16651520.294379354 -71600178.363999367 0 -71600178.363999367 -36812051.382026672 0 0 0 0 59315195.502910614 282250.43776512146 0 282250.43776512146 -30497494.453756332 0 0 0 0 -16329163.405091047 -59483053.123505592 0 -59483053.123505592 -75940930.860610962 0 0 0 0 -96080.683323874837 392195.44453200232 0 392195.44453200232 254128.67395598534 0 0 0 0 128609782.84737301 46757703.339258194 0 46757703.339258194 -98230693.902426243 0 0 0 0 7444302.797200799 27484687.207874298 0 27484687.207874298 42184169.296447754 0 0 0 0 37004832.196399331 50282600.762011528 0 50282600.762011528 30564670.838813782 0 0 0 0 -22178920.000085171 -19178014.847540855 0 -19178014.847540855 50386475.803085327 0 0 0 0 -57033614.232990146 190087785.257267 0 190087785.257267 -22688391.768057823 0 0 0 0 -165451831.00025219 93496072.279657364 0 93496072.279657364 20504965.179649353 0 0 0 0 34009786.551702023 20567524.845851898 0 20567524.845851898 -5380330.7525291443 0 0 0 0 42761936.185751915 -2429581.4200706482 0 -2429581.4200706482 5391234.2814254761 0 0 0 0 69210647.076473475 19651078.389482498 0 19651078.389482498 -10430942.412384033 0 0 0 0 -229179.70610153268 440532.88516174722 0 440532.88516174722 63729.306326278951 0 0 0 0 -11061912.923282266 318916.3926692009 0 318916.3926692009 7821664.3784675598 0 0 0 0 -117650279.01103306 70038289.214466095 0 70038289.214466095 11790850.675403595 0 0 0 0 -334734274.00902784 724009.2054271698 0 724009.2054271698 -8773591.837436676 0 0 0 0 -287887072.11263245 191202669.55907536 0 191202669.55907536 -13500758.559141159 0 0 0 0 -83912300.295458972 130314208.40805626 0 130314208.40805626 -311095482.44979095 0 0 0 0 -162664402.62493658 -85138844.194186211 0 -85138844.194186211 -228285368.17747498 0 0 0 0 -947741.87205467303 -464516.9392256788 0 -464516.9392256788 -118367.15098633245 0 0 0 0 -161891502.98046207 228529384.92861176 0 228529384.92861176 -469066220.20910645 0 0 0 0 -210956822.43205929 -176382240.53223801 0 -176382240.53223801 60104183.136518478 0 0 0 0 -82754384.901363492 -195951819.48114014 0 -195951819.48114014 -252036602.85519505 0 0 0 0 -147436737.26904261 -66226610.954688787 0 -66226610.954688787 85264965.939386368 0 0 0 0 -1883659.9281680994 -1225997.547902653 0 -1225997.547902653 -1094399.6418684926 0 0 0 0 -131750028.54468322 176770326.22153282 0 176770326.22153282 -189268038.81388855 0 0 0 0 28966204.697069883 109136463.01846027 0 109136463.01846027 -111875646.67061806 0 0 0 0 -128435978.01297045 84491671.093153954 0 84491671.093153954 -131193187.86394119 0 0 0 0 -4890371.5112333298 58681253.603273392 0 58681253.603273392 -187067167.56032011 0 0 0 0 41085329.29964304 -34322692.909576416 0 -34322692.909576416 -75603367.60843277 0 0 0 0 -20245412.480271339 46904411.58211422 0 46904411.58211422 -128516170.00950241 0 0 0 0 67973396.78395462 -16376552.860202789 0 -16376552.860202789 -133608276.13361168 0 0 0 0 34412582.455682755 22395732.934446335 0 22395732.934446335 -154670872.78745079 0 0 0 0 159813469.67557144 -33030686.066146851 0 -33030686.066146851 -132022747.45951557 0 0 0 0 47020714.347467184 -88581812.40318346 0 -88581812.40318346 -72595137.070846558 0 0 0 0 27228868.834771156 -46947321.061115265 0 -46947321.061115265 -77982185.337955475 0 0 0 0 6389488.5237207413 -72776184.875526428 0 -72776184.875526428 -61437998.857021332 0 0 0 0 32516901.042668819 -59733594.250203133 0 -59733594.250203133 -60431432.567329407 0 0 0 0 6191042.7739257812 -56982481.927520752 0 -56982481.927520752 -41012062.161991119 0 0 0 0 26412683.724956512 -36425894.041023254 0 -36425894.041023254 -48471984.973694801 0 0 0 0 -53013650.107725143 -113007539.12293243 0 -113007539.12293243 -67619895.779043913 0 0 0 0 -627861.57645463524 -252990.99439779669 0 -252990.99439779669 712764.11977786012 0 0 0 0 16859294.828819275 283179558.65700531 0 283179558.65700531 -366922076.68101501 0 0 0 0 -14913926.229320526 -73390247.122848511 0 -73390247.122848511 -45657037.518447876 0 0 0 0 196030032.26809049 -37053070.782437325 0 -37053070.782437325 -34354398.530075073 0 0 0 0 373178.14684438473 -267152.37861244846 0 -267152.37861244846 -1246814.4097534735 0 0 0 0 13836491.382111073 -95694579.653774261 0 -95694579.653774261 -74013068.53736496 0 0 0 0 166690762.27594662 22940980.306116104 0 22940980.306116104 2920529.656999588 0 0 0 0 -410008.87409340986 -2832606.1492859805 0 -2832606.1492859805 -3819223.2302898765 0 0 0 0 122434435.10352802 -4015851.955904007 0 -4015851.955904007 -10373923.623523712 0 0 0 0 108906134.5013237 -76505905.101898193 0 -76505905.101898193 -50665535.525172234 0 0 0 0 292809.83612346649 -1327709.1838130951 0 -1327709.1838130951 -9323634.1003952026 0 0 0 0 153542.23943161964 -1803052.7363767624 0 -1803052.7363767624 -7747622.7102279663 0 0 0 0 734291.09959122539 -1116888.1488134861 0 -1116888.1488134861 -9229356.0712356567 0 0 0 0 11882156.895968437 -77912552.66109848 0 -77912552.66109848 -146236075.85955143 0 0 0 0 21101636.751065731 74002892.5748806 0 74002892.5748806 -233770083.04267502 0 0 0 0 38733997.170053005 -25221858.922086716 0 -25221858.922086716 -35715950.03027916 0 0 0 0 180085286.19589376 -73434730.711366653 0 -73434730.711366653 -116704882.79241753 0 0 0 0 224188502.65682125 -61771594.696872711 0 -61771594.696872711 -68875087.685661316 0 0 0 0 26758333.733765125 -38576180.253919601 0 -38576180.253919601 -44946680.105316162 0 0 0 0 133602492.54963255 -142303120.51131439 0 -142303120.51131439 59184179.883354187 0 0 0 0 -58861608.404151917 -33929980.497253418 0 -33929980.497253418 -23474315.619039059 0 0 0 0 -115547074.25820732 12385549.875072479 0 12385549.875072479 -33218271.882331848 0 0 0 0 12323381.821640015 28800476.727235794 0 28800476.727235794 13406415.572223663 0 0 0 0 -35874543.988124847 -19596623.797412872 0 -19596623.797412872 18395320.725752592 0 0 0 0 -383333.78419511765 137882.49885689933 0 137882.49885689933 638817.77306716144 0 0 0 0 245483531.73132217 -117183576.30392092 0 -117183576.30392092 64819367.622436523 0 0 0 0 -666328.03216846008 -2453820.1339078457 0 -2453820.1339078457 -3397374.3219893947 0 0 0 0 -3572536.5210857391 4597222.6840324402 0 4597222.6840324402 -11607174.774238586 0 0 0 0 -11679710.903927803 9553602.2283191681 0 9553602.2283191681 -14994661.995117188 0 0 0 0 -3949072.0275707245 4252628.2934093475 0 4252628.2934093475 -11732264.662395477 0 0 0 0 245469117.20413202 -116835433.60185474 0 -116835433.60185474 108127563.50455093 0 0 0 0 253411970.51708698 -322734266.64014435 0 -322734266.64014435 77791812.944725513 0 0 0 0 1753292.9848108292 -514946.52570152283 0 -514946.52570152283 -9626027.8836212158 0 0 0 0 3328888.8138647079 -70754.768371582031 0 -70754.768371582031 -11623991.07440567 0 0 0 0 602653.66020727158 966925.15915679932 0 966925.15915679932 -11311001.190055847 0 0 0 0 -3960190.9992103577 3350246.8453502655 0 3350246.8453502655 -10317184.001548767 0 0 0 0 -1179202.7760744095 417498.03406715393 0 417498.03406715393 -7886146.2427253723 0 0 0 0 4425732.918680191 3346726.5178260803 0 3346726.5178260803 -19027117.733894348 0 0 0 0 -2488594.1019406319 5690627.8983383179 0 5690627.8983383179 -14840057.721862793 0 0 0 0 966778.94822049141 1810291.6990194321 0 1810291.6990194321 -13051590.706893921 0 0 0 0 1343050.4402675629 2477101.3665504456 0 2477101.3665504456 -12345817.64906311 0 0 0 0 6379832.4258871078 -522476.44457244873 0 -522476.44457244873 -14870441.865543365 0 0 0 0 5028693.1531357765 -3039602.9222984314 0 -3039602.9222984314 -11449921.782566071 0 0 0 0 2312144.7156214714 -1156286.3735351562 0 -1156286.3735351562 -11303032.470397949 0 0 0 0 4329067.8553102612 -2102560.4554874897 0 -2102560.4554874897 -12335788.554763794 0 0 0 0 6973265.1805307269 -4014428.4548158646 0 -4014428.4548158646 -13121150.520309448 0 0 0 0 7723094.4106960297 -6674966.3098392487 0 -6674966.3098392487 -9224244.0563011169 0 0 0 0 12705202.133832932 -4287387.0272293091 0 -4287387.0272293091 -18025962.838013649 0 0 0 0 3751714.5604944229 1289273.7187576294 0 1289273.7187576294 -15909515.413116455 0 0 0 0 2294114.2957339287 3058456.0071754456 0 3058456.0071754456 -17918669.118587494 0 0 0 0 8375539.0292124748 2342621.323102951 0 2342621.323102951 -25097546.360031128 0 0 0 0 18150296.052892685 -6984707.6523323059 0 -6984707.6523323059 -19528133.145301819 0 0 0 0 14484643.161371231 -9261950.427822113 0 -9261950.427822113 -20082502.467720032 0 0 0 0 -976735.2107194938 -6639936.2380426973 0 -6639936.2380426973 -12098924.43290982 0 0 0 0 19733986.583385468 -17427441.72567749 0 -17427441.72567749 -13080192.378139496 0 0 0 0 118306136.46371931 -120004272.40952396 0 -120004272.40952396 40722699.607093811 0 0 0 0 -946382.51655353606 -2161840.0332139414 0 -2161840.0332139414 -2614703.0350630507 0 0 0 0 -11747684.993912697 12858451.213716507 0 12858451.213716507 -23904221.937927246 0 0 0 0 -9985246.2209472656 6812341.2336807251 0 6812341.2336807251 -26497303.019303322 0 0 0 0 1572117.9502506256 7254712.7983093262 0 7254712.7983093262 -25149232.619998932 0 0 0 0 -8208211.5451726913 10774834.766794205 0 10774834.766794205 -26128352.936069489 0 0 0 0 9369429.1210522652 -19791856.635332108 0 -19791856.635332108 -26983119.77217865 0 0 0 0 10453675.245381713 2303934.5888528824 0 2303934.5888528824 -40988452.463310242 0 0 0 0 -41591882.145893574 40214831.182132721 0 40214831.182132721 -58336914.188098907 0 0 0 0 4810040.5930123329 -8417578.07995224 0 -8417578.07995224 -50734653.96301651 0 0 0 0 3551182.2272062302 -21844428.388471603 0 -21844428.388471603 -86787363.909332275 0 0 0 0 -21871976.936494827 -18198632.297683716 0 -18198632.297683716 -72025013.414472103 0 0 0 0 -1403845.1314441522 -1592342.2063291781 0 -1592342.2063291781 -881374.6103834305 0 0 0 0 87644832.673251152 -49644309.015930176 0 -49644309.015930176 -358775305.3205986 0 0 0 0 -32527387.811913013 101207333.70404053 0 101207333.70404053 -216781899.67090607 0 0 0 0 619214601.9075582 -388631175.73273468 0 -388631175.73273468 32892936.032066345 0 0 0 0 -17361546.49139595 -462423435.57640457 0 -462423435.57640457 116507550.4138751 0 0 0 0 -970818.81631661602 257162.83695976529 0 257162.83695976529 1297934.0987728201 0 0 0 0 209082273.17647564 122557755.93629891 0 122557755.93629891 43821891.613327026 0 0 0 0 -681268850.84359276 144358959.02173424 0 144358959.02173424 248601597.32562256 0 0 0 0 -162933848.84772637 370609868.492733 0 370609868.492733 136127504.38958359 0 0 0 0 -1270613788.8794746 -1046667555.343399 0 -1046667555.343399 -1259601511.8844299 0 0 0 0 -987728.87693377701 150034.57901504077 0 150034.57901504077 1040732.3536585644 0 0 0 0 -53467735.542352833 287094319.93756449 0 287094319.93756449 198199373.72171783 0 0 0 0 87044956.83300519 348515218.77152729 0 348515218.77152729 -318543662.88072205 0 0 0 0 353830520.55278981 280104238.10949135 0 280104238.10949135 -104073602.96095276 0 0 0 0 331797219.23945045 318994990.17418671 0 318994990.17418671 293989547.41838074 0 0 0 0 21711733.966174662 -241758095.91418457 0 -241758095.91418457 360249498.54898071 0 0 0 0 53874452.72329694 -256332684.57814789 0 -256332684.57814789 -110394437.56494331 0 0 0 0 894248629.0402565 1307025474.4052124 0 1307025474.4052124 314212511.88488007 0 0 0 0 -99093357.678738594 -497870231.7765274 0 -497870231.7765274 -415922115.34907532 0 0 0 0 -526645622.55488372 119004227.37975311 0 119004227.37975311 -168231862.07691193 0 0 0 0 -2556623.7521173786 963322.98893118277 0 963322.98893118277 -3194538.670799355 0 0 0 0 -95221131.066649437 -261023992.05628586 0 -261023992.05628586 -761652611.60266352 0 0 0 0 185327850.07296562 275962183.32701492 0 275962183.32701492 -597425303.77120113 0 0 0 0 -147184738.82157636 -12793648.690413475 0 -12793648.690413475 -143469538.69683838 0 0 0 0 -313314245.52018619 -109476500.49244499 0 -109476500.49244499 -108687702.91337204 0 0 0 0 34286584.189956754 -26463004.129225373 0 -26463004.129225373 -419667468.38082504 0 0 0 0 -106420862.07421923 -156501561.94031143 0 -156501561.94031143 -364346936.7645359 0 0 0 0 -722588711.8107512 -390246791.08705902 0 -390246791.08705902 -219038621.70765305 0 0 0 0 -273434806.17726636 -8199068.7900047302 0 -8199068.7900047302 -11289884.30884552 0 0 0 0 -230101673.15217483 57295538.373662949 0 57295538.373662949 45504318.066837311 0 0 0 0 -419100168.62651271 40057773.614250183 0 40057773.614250183 62267264.042907715 0 0 0 0 -166498416.47683281 129700338.69082737 0 129700338.69082737 60008988.101482391 0 0 0 0 -177247917.19274282 -49894469.641365051 0 -49894469.641365051 -35153824.642379761 0 0 0 0 -162478421.13522816 12551940.801933289 0 12551940.801933289 -19970000.477436066 0 0 0 0 -112589422.80288649 26594169.572471619 0 26594169.572471619 -25929570.859025002 0 0 0 0 -120530777.86215401 -33400647.864746094 0 -33400647.864746094 -37988600.117801189 0 0 0 0 -112123522.18417025 66338538.97869873 0 66338538.97869873 56943062.567685127 0 0 0 0 -105820415.98836672 65339182.999109268 0 65339182.999109268 43977343.236980438 0 0 0 0 -127628099.62332594 138777037.10143852 0 138777037.10143852 22127039.920443416 0 0 0 0 -158849773.47875544 89029081.162028074 0 89029081.162028074 16931036.5431633 0 0 0 0 -152040813.8419494 136439515.6221981 0 136439515.6221981 41764394.41986084 0 0 0 0 -14337731.352535248 102876651.99536514 0 102876651.99536514 9183990.1798667908 0 0 0 0 -27829612.785611391 14736215.789464474 0 14736215.789464474 6061511.6758728027 0 0 0 0 -151722543.74288785 18118445.734362602 0 18118445.734362602 19483068.529132843 0 0 0 0 98428624.206944108 23059738.41245842 0 23059738.41245842 -3195409.0895233154 0 0 0 0 -62412356.841228366 41367557.443149567 0 41367557.443149567 -5115652.4382781982 0 0 0 0 138181536.03251076 204599803.11078453 0 204599803.11078453 -17670082.276927948 0 0 0 0 -134009017.49831975 178827161.54356766 0 178827161.54356766 -3441707.3148651123 0 0 0 0 -170831384.22987428 139058859.02703857 0 139058859.02703857 41452971.870107174 0 0 0 0 
</DataArray>
<DataArray type="Float64" Name="cross_section_updated" format="ascii">
1 1 1 1 1 0.050197847853644249 1 1 1 1 1 1 1 0.047811772742010802 1 1 1 1 0.044485061083868217 1 1 0.048246901266594103 1 1 1 1 0.038103556809183287 1 1 1 1 0.051078856747326894 1 1 1 1 1 1 1 1 1 1 1 1 1 0.049780562179965335 1 1 0.050033556062608939 1 1 1 1 1 0.048228888760678115 1 1 1 1 1 1 1 0.038750283061529757 1 1 1 1 0.050593634916552339 1 1 1 1 1 1 1 1 1 0.051169256925041179 1 1 0.050340601547120181 1 1 0.049331418997696608 1 1 1 1 0.047063075181811798 1 1 1 1 1 1 1 0.050049424209584858 0.050006380862421873 0.049923982027369952 1 1 0.050094712125516423 1 1 1 1 1 0.050000981180139611 1 1 1 1 1 1 1 1 1 1 1 1 1 0.049988795651768302 1 1 1 0.047713490348243404 1 1 1 1 1 1 0.04902422038406324 1 1 1 1 1 1 1 1 1 1 1 1 1 1 1 1 1 1 1 1 1 1 1 1 1 0.050080573096121794 1 1 1 0.049238922870622398 1 1 0.049418584428941037 1 1 1 1 1 1 1 1 1 1 1 0.049188840341579193 1 1 1 1 1 1 1 1 0.048054099627421083 1 1 1 1 1 1 1 1 0.047761329410713073 1 1 1 1 1 1 1 1 1 0.049738396694779113 1 1 1 1 1 1 1 1 1 1 1 1 1 1 1 1 1 1 1 1 1 1 1 0.050001519874997853 1 1 1 0.039605463996036358 1 0.050037882015585386 1 0.043216925236986822 1 1 0.0486303255586919 1 1 1 0.047099150174204088 1 0.051062433698255513 1 0.050528934591148537 1 0.043351760333061248 0.050537313120639395 1 0.050300655137716553 1 1 0.050384386721262726 1 0.049636222754403901 1 1 1 0.046947659875803766 1 0.047539097870079858 0.049861627232151116 1 1 0.049744064221672372 1 1 1 0.048307473867414637 1 0.049822768813832082 0.049246022754538134 0.049299976266891726 1 0.049895500166447115 1 1 1 0.049980164158462237 1 0.048922476881028236 0.048476506725168581 0.050287169979994266 1 1 0.048980488721843705 0.048485562547017864 1 1 1 1 0.047371120008950045 1 0.050238456732252509 1 1 0.048233365901758599 1 1 1 0.049823502737975665 1 0.049039376469156265 0.049324289776468612 0.04966159442891184 1 1 1 0.050274174923225619 1 0.048710971996637792 0.047128029326639398 0.05044094445359492 0.049195747319093243 1 1 1 0.047084915156512072 0.049999972139300491 1 1 0.049081357168256123 0.047591747514267868 0.050336818529012381 1 0.050504593346796342 1 1 1 1 0.04999684004537034 1 1 1 1 1 1 1 0.049525503266516162 1 1 1 1 1 1 0.048520464739475563 0.049999488524792024 1 1 1 0.049764395189499433 1 1 1 0.049972856921111704 1 0.050295509092366061 1 0.051608269410367974 0.044330808283274951 1 1 1 1 0.050410325180520209 1 1 0.04475761383699832 1 1 1 1 0.049987907783680535 1 0.050005837337797059 1 1 1 1 1 0.047460783412938211 0.047221562281808696 1 1 1 1 1 1 1 1 0.049702762786601878 1 1 1 0.050423210449039788 1 1 0.045074950733621319 1 0.050003515735821388 1 1 1 1 1 1 1 1 1 1 1 0.045113882600578289 1 0.048988254705493194 1 0.045819710081764754 1 1 1 0.049213822135952198 1 0.049993308131469294 1 0.048958801980936453 1 1 1 1 1 1 0.046847915311431079 1 0.046052699802822429 1 1 1 0.046730315596598446 1 1 1 0.043360839048657403 1 0.048532810280254725 0.048363285750695532 1 1 1 1 0.043586133012008213 1 1 1 1 0.047133601958145657 0.04842677211275203 1 1 0.05059456818891947 1 0.047430011676414183 1 0.050129420907726381 0.050044631136526962 1 1 1 0.049949618198847953 1 1 1 1 0.046185825764824925 1 1 1 1 1 1 1 1 1 1 1 0.049998447562829479 1 1 1 1 0.048330008712574743 1 1 1 0.04794482432166125 1 0.048344030253534835 0.047088944470543972 0.05000100256818938 1 1 1 0.046872849445392474 0.040765331069791022 1 0.04019681928608046 1 1 0.050244746456564633 1 1 1 1 0.039500930354654983 1 1 1 1 1 1 1 1 1 1 1 0.038866968630193316 0.0394023337528151 1 1 0.047964531124100297 1 1 1 0.049990685820818989 1 1 1 1 1 1 0.036118871082360553 1 1 1 0.053223264826873118 1 1 1 0.04497304273747478 1 1 1 1 1 1 1 1 1 1 1 0.03606195339409525 1 1 1 0.036120452197604819 1 1 1 1 1 1 1 0.049801984262534682 1 1 1 1 1 0.049458217026711333 1 1 1 1 1 1 1 1 1 1 1 1 1 1 1 1 1 1 1 0.050195830810296757 1 1 1 1 0.050033980409616166 1 1 0.049983195085352136 1 1 1 1 1 1 1 0.049891129263469711 1 1 1 1 1 1 1 1 0.050002002188465344 1 0.04968087304537866 1 1 0.049907454726658237 1 1 1 0.050009103961735669 1 1 0.050369019156497684 1 1 1 0.047600228877703668 1 0.04602259710469752 1 1 0.049998652976356549 1 0.052172660267593693 1 1 1 1 1 1 1 1 1 1 1 1 1 1 1 1 1 1 1 1 1 1 0.049899007432825576 1 0.050150577635354333 1 0.050050786824585511 1 1 1 1 1 1 1 1 1 1 1 1 1 1 1 0.049949334844978113 1 1 1 1 1 1 1 1 1 0.04994967258784748 1 1 1 1 1 1 1 1 1 1 1 1 1 1 1 1 1 1 1 1 1 1 1 1 1 1 1 1 1 0.050002245293222933 1 1 0.049999932860040772 1 1 1 0.050208503908356232 0.04862536893867353 1 0.048923648785963079 1 1 1 1 1 0.049951638752649304 1 1 1 1 1 0.049700371905834179 1 1 1 1 1 1 1 1 1 1 1 1 1 1 1 1 1 1 1 1 1 1 1 1 1 1 1 1 1 1 1 1 1 1 1 1 1 1 1 1 1 1 1 1 1 1 1 1 1 0.04994290635240229 1 1 1 1 1 1 1 1 1 1 1 1 1 1 1 0.049261169393169192 1 1 1 1 0.049722511005953401 1 1 1 1 1 1 1 1 1 1 1 1 1 1 1 1 1 1 1 1 1 1 1 1 1 1 1 0.04459333629370936 1 1 0.048400117641652293 1 0.047970978971536384 0.049751771265233849 0.054401131892229629 0.038714544841654139 1 1 0.049984963173407101 1 1 1 1 1 1 1 1 1 1 1 1 1 1 1 1 1 0.047942851882293858 1 1 0.052234830528249572 1 0.048821023847479578 1 1 1 1 0.045126309362309776 1 0.050189855469519894 1 1 1 1 0.049874852427936767 1 1 1 0.046230303786836076 1 1 1 1 1 0.049997362716359767 1 0.049878124598761134 1 1 0.04829504974810786 0.046846204119445289 1 0.050663272592485133 1 1 1 1 1 1 1 1 1 1 1 0.037435332622454673 1 1 1 0.037647591772271637 1 1 1 0.048799566705788215 1 1 0.038345764874901905 0.050162919050398658 0.050052258634382743 1 1 1 1 1 1 1 1 1 1 1 0.04997226454549715 1 1 1 1 1 1 1 1 0.038698347748749737 0.041567293168337641 0.039089276988502564 1 1 1 1 1 1 1 1 0.04319085082817796 0.049965295097842963 1 1 1 0.050683634000942682 1 1 0.049268948652641018 1 1 1 1 1 1 1 1 1 1 1 0.049760323509284665 1 1 1 1 1 1 1 1 0.049776250238982821 1 1 1 1 1 1 1 1 1 1 0.05003796961839363 1 0.031902249986561895 0.053563996290770646 0.049122890397266639 1 1 1 1 1 1 1 0.035545897701453319 0.043308705391029642 1 0.04879769203858024 1 1 1 1 1 0.049784661701566986 1 0.050026555636680382 0.04910954031094196 1 1 1 0.049392353322536858 1 0.049703115805191739 1 1 1 1 0.049966777239796638 1 1 1 1 1 1 1 1 1 1 1 1 1 1 1 1 1 0.05036988292448398 1 1 1 0.049295792706053582 1 1 1 1 1 0.050112463490679049 1 1 1 1 1 1 0.049491411653885903 1 0.049806030086556312 1 1 1 1 1 1 1 1 0.049277928006828356 1 1 1 0.034988922481214026 1 1 1 1 1 1 1 1 1 1 1 1 1 1 1 1 1 1 1 1 1 1 1 1 1 0.048706249827936629 0.044697877450564159 0.046230019192257152 1 1 1 1 0.046247658371731531 1 1 1 1 0.046800499572063697 1 1 1 1 1 1 1 0.04987547377092455 1 1 1 1 1 1 1 1 0.049704292449960996 1 1 1 1 1 1 1 1 1 1 1 1 0.049185384552345647 1 1 1 1 1 1 0.050133895672671396 1 1 1 1 1 1 1 1 0.041192500920977718 1 1 1 0.047627032456307145 1 1 1 1 1 1 1 1 1 1 1 1 0.049828818679036463 1 1 1 1 1 1 1 1 1 1 1 1 1 1 1 1 1 1 1 1 1 1 1 1 1 1 1 1 1 1 1 1 1 1 1 1 1 1 1 1 1 1 1 1 1 1 1 0.049818018889606061 1 1 1 1 1 1 1 1 1 1 1 1 1 1 1 1 1 1 1 1 1 1 1 1 0.049853422882984957 1 1 1 1 1 1 1 1 1 1 0.050027533775518954 1 1 0.049592672305783556 1 1 1 1 1 1 1 1 1 0.050106630865124117 1 0.050201072120435314 1 1 1 1 0.049391561319974048 1 1 0.049995738913126121 1 0.049928110428928286 1 1 1 1 1 0.049472076188611727 1 1 1 1 1 1 1 1 0.050683319980528219 1 1 1 1 1 1 1 1 1 1 1 1 1 1 0.049167294636882901 1 0.049743336057396864 0.049951357654106285 1 1 1 1 1 0.049978002027486979 1 1 1 1 1 1 1 1 1 1 1 1 1 1 1 0.049073918208289991 1 1 1 1 1 1 1 1 1 1 1 1 1 1 1 1 0.049542429761272599 1 1 1 1 1 0.047055906626586888 0.050032977935608687 1 1 0.047639764589887827 1 1 1 1 1 1 1 1 1 1 0.049052918033426686 1 1 1 1 1 1 1 1 1 0.049320005921201414 1 0.034846476765920918 1 1 1 1 1 0.050546999791833129 1 1 1 1 0.033046410582467808 1 1 1 0.051948164195485105 1 1 1 0.035298465976066694 1 1 0.048804391414482617 1 1 1 1 1 1 1 1 1 1 1 1 1 1 1 1 0.049671218864867091 1 1 1 1 1 1 1 0.050528963296574747 1 1 1 1 1 1 1 1 1 1 1 1 1 1 1 1 1 1 1 1 1 1 1 1 1 1 1 0.043647002784335871 1 1 1 1 0.04960688823535564 1 1 1 0.043161543447396145 1 1 1 1 1 1 1 1 1 0.042750100572331459 1 0.050000969465975535 1 1 1 1 1 1 1 1 1 1 1 1 1 1 1 1 1 1 0.050005517569044748 0.045591635425224944 1 1 1 0.049987413362562329 1 1 0.04731774501991852 1 1 0.049397301125762488 1 1 1 0.049651445659395943 1 1 0.049757387622373347 1 1 1 1 1 1 1 1 1 1 1 1 1 1 1 1 1 1 1 1 0.049193875420668526 1 0.048848616236447491 1 1 1 1 1 1 1 1 1 1 1 0.047040474682073397 1 0.045878425674244112 1 1 1 0.019232487966338092 1 1 1 1 1 0.050092700781338838 1 1 1 1 1 1 0.05546457892803737 1 1 1 1 1 1 1 1 1 1 1 0.056310127571990796 1 1 1 1 1 1 1 1 0.020817449365147851 1 1 1 0.030782344584708854 1 1 0.057179977608552424 1 1 1 1 1 0.043901279495425813 1 1 1 1 1 1 1 1 1 0.049887033341550001 1 1 0.036855091723832153 1 0.042927078433190269 1 0.045657282282446976 0.043709689567754735 0.049283166915510629 1 0.050012024176396934 1 1 1 1 1 1 0.033820250390366832 1 1 1 1 1 1 0.049693090976027934 1 1 1 1 1 1 1 0.037042498577816295 1 1 1 1 0.040424535272693317 1 1 1 1 1 0.036746066516898233 1 0.049997599131485826 1 1 1 1 1 1 1 1 1 1 0.049172179176679889 1 1 1 1 1 1 1 0.046960284964747398 1 1 1 1 1 1 1 0.049998484337382992 1 0.04877293580678993 1 1 1 1 1 1 1 1 0.044509992177724861 1 1 1 0.04136132369794801 0.049964767788729388 1 1 1 1 1 0.045541706553191584 0.049937733493653838 1 0.046286001105035952 1 1 0.051548047426504082 1 1 0.047078102315267129 1 1 1 1 1 1 1 1 0.043231494266229881 1 1 1 1 1 0.03500366751662564 1 1 1 1 0.037331620107865872 1 1 0.039082313984943773 1 1 1 1 1 1 1 1 1 1 1 1 1 1 1 1 1 1 1 1 1 1 1 1 1 1 1 1 1 1 1 1 1 1 1 1 1 1 1 1 1 0.049904797267261422 1 1 0.049877847032367431 1 1 1 1 1 0.049596118718456414 1 1 1 1 0.049736759005757664 1 1 1 1 1 1 1 1 1 1 1 1 1 1 1 1 1 1 1 1 1 1 1 1 0.049594434080679282 1 1 1 0.049809880395446135 1 1 1 1 1 1 0.0499640221045176 1 1 1 1 1 1 1 1 1 1 1 0.03720578386446044 1 0.045903136019594372 0.05005860254264103 1 1 0.046277763757981247 1 1 1 1 1 1 1 1 1 1 1 0.039935255782203194 1 1 0.04868144529888218 1 1 1 1 1 1 1 1 1 1 1 1 1 1 1 0.042500944254175964 1 1 1 1 1 1 1 0.050059776195288085 1 0.049662188555885022 1 1 1 1 0.043823484358023745 1 0.049648787056334333 1 1 1 1 1 1 1 1 1 0.050510932778234874 1 1 1 1 1 1 1 1 1 1 1 1 1 1 1 1 1 0.04663615464527459 1 1 1 1 1 1 1 1 1 1 1 1 1 1 1 1 1 1 1 1 1 1 1 1 1 0.050052163135865871 0.050094488734571174 1 1 1 1 1 1 1 1 1 1 1 0.049963528941396822 1 1 1 1 0.05012759822392733 1 1 1 1 0.050112034717556382 1 1 1 1 1 1 1 1 0.051471960303033838 1 1 1 1 1 1 1 1 1 0.050493719759883586 1 1 1 1 1 1 1 1 1 1 1 1 1 1 1 1 1 1 1 1 0.045555262283036427 1 1 1 1 1 1 1 1 1 1 1 1 1 1 0.036512564218987319 1 0.049944369630708724 1 1 1 1 1 1 1 1 0.036856520315296987 1 1 0.049908391735226321 1 1 1 1 1 1 1 1 1 1 1 1 1 1 1 1 1 1 1 1 1 1 1 1 1 1 1 1 1 1 1 1 1 1 1 1 0.049823028120580662 1 1 0.049968712105419623 1 1 1 1 0.046583317009447588 1 0.052223414826635561 1 1 0.051841316320917041 1 0.049390588334527627 1 1 1 1 1 0.049732206714878643 1 1 1 1 1 1 1 1 1 1 1 1 0.049918779310257039 1 1 1 0.045894620785710355 1 1 1 1 1 1 1 1 1 0.047742908979635588 1 1 1 1 0.048112504511834055 0.047250091010148161 1 1 1 1 1 1 1 1 0.049959761468678913 1 1 1 1 1 0.042249223837842458 1 1 1 0.042807922032233478 1 1 1 0.046699542356206353 1 1 1 1 0.036303774759728097 1 1 1 1 1 1 1 1 1 1 1 1 1 1 0.04560065477605868 1 1 1 1 1 1 0.046178246298256141 1 0.043508769587676646 0.049998519302292252 1 0.035109341507487409 1 0.049862702736975024 1 1 1 1 0.049870477577589389 1 1 1 1 0.049704699132994759 1 1 1 1 1 1 1 1 1 0.049721592848418317 1 1 1 1 1 1 1 1 1 1 1 1 1 1 0.0493799744680673 1 1 1 0.049854193299482354 1 1 1 0.049611724093495915 1 0.050006240863440646 1 1 1 1 1 1 1 1 1 1 1 1 1 1 1 1 0.049572902068234836 1 1 1 1 1 1 0.048638685253157551 1 1 1 1 1 1 1 1 1 1 1 1 1 1 1 1 1 1 0.046804214005578895 1 1 1 1 1 1 1 1 1 1 1 1 1 1 1 1 1 1 1 1 1 1 1 1 1 1 1 1 1 1 1 1 1 1 0.050481277625322778 1 1 1 1 0.050095348722235145 1 1 1 1 1 1 1 0.047174167512041787 1 1 1 1 1 1 1 1 1 0.050775443660666567 1 1 0.045101954485148643 1 1 1 1 1 0.050032072798669329 1 1 1 0.049791258161261925 1 1 0.047762407201728821 1 1 1 1 1 1 1 1 1 1 1 1 1 1 1 1 1 1 1 1 0.05171334874917248 1 1 1 1 1 1 1 1 1 1 0.045228583915311704 0.053388513026585996 1 0.046956290234293513 1 1 1 1 1 0.046745718387654733 1 1 1 1 0.047060251185679663 1 1 1 1 1 0.050048720000075507 1 0.050019559741283914 1 1 0.051299827806008114 1 1 1 1 1 1 1 1 0.050420914516190393 1 1 1 1 1 1 0.05005212291711314 1 1 1 1 1 1 0.050094760636353257 1 1 1 1 0.051050014845365005 1 1 0.048231964184021175 1 0.050921465816405026 1 1 0.049945325926810238 1 1 1 1 1 1 0.048973909975949068 1 1 1 1 0.049928968346309943 1 1 1 1 1 1 1 1 0.043844020861329852 0.051859421358769489 1 1 1 1 1 1 1 1 0.046755416433364921 1 1 1 1 1 1 0.048496088946102113 1 1 1 1 1 1 1 0.050529077761374962 1 1 1 0.048874613349316483 1 1 1 1 1 1 1 1 1 1 1 1 0.046883205999521511 1 1 1 1 0.046450714553644273 1 1 0.050594046092395456 1 1 1 1 0.048111354872993346 1 1 1 0.049967486614671881 0.047033726349843832 1 1 1 0.049847496648422043 1 1 1 0.045761241545620578 1 1 1 1 1 1 1 1 1 0.04564312510065259 1 1 1 0.050000900056452142 1 1 1 1 1 1 1 1 1 1 1 1 0.046361729433637706 1 0.04998827010902511 1 1 0.048461536645126341 1 1 0.049037039561322215 1 1 1 1 1 1 1 0.050002980561941628 1 1 1 1 1 0.04997959852086873 1 0.049196671598484926 1 1 1 0.048591790122103441 0.050307442947576615 1 0.04840978188339453 0.046302560615601958 1 0.048167040753077997 1 1 1 1 1 1 0.049720133626093566 1 0.041843913104779265 1 1 1 1 1 1 1 1 1 1 1 1 1 0.049963312847544739 1 1 0.047184702446180608 1 0.049115139784202719 1 1 0.043410309200982419 1 1 1 0.04864849177644396 0.051498590539071611 1 1 0.042577726716034929 1 1 1 1 1 1 1 1 1 1 1 1 1 1 1 1 1 1 1 1 1 1 1 0.048845736203797847 0.049935686170345613 1 0.050541484111696858 1 0.049922616519790401 1 1 0.049998754282759857 0.045110235181783302 1 1 0.050001255149701537 1 1 0.049375579158402239 1 1 0.045185296021361503 1 0.04940147845713605 1 1 1 1 0.049956273790115788 1 1 1 1 0.04963200545833691 1 0.048902353877970921 0.047495094624057189 1 0.047377316548556703 1 1 0.049299964497544542 0.04921674016950274 1 1 1 0.049931243333024206 1 1 1 1 0.047424017368943631 0.049797274589545165 1 1 1 1 1 0.049414965436651304 1 1 1 1 1 1 1 1 1 1 1 0.04939884673478933 1 0.047834808231593307 1 0.04687564136366431 1 1 0.049998420849269747 1 0.04759894010726002 1 1 1 1 1 1 1 1 0.049604720084072997 1 1 0.048381472708076828 1 1 1 1 0.04983836243313574 1 1 1 1 1 1 1 1 1 1 1 1 0.049115514897145211 1 1 1 1 1 1 1 1 1 1 1 0.050102397957122354 1 1 1 1 1 1 0.049025842778074195 1 0.049050883351423095 1 1 0.050096177198721635 1 1 1 1 1 1 1 1 1 1 1 1 1 1 1 1 1 0.049982134483474813 0.048965188484187322 1 1 1 0.050241965785600952 1 1 0.049548819695657019 1 1 1 1 1 1 1 1 1 1 1 1 1 1 1 1 1 1 1 1 1 1 1 1 1 0.050043035661361028 0.051442402591943964 1 1 1 1 1 1 1 1 1 1 1 0.053126192496360955 1 1 1 1 1 1 1 1 1 1 1 1 1 1 1 1 1 1 1 1 1 1 1 1 1 1 1 1 1 1 1 1 1 0.049994933423632204 1 1 1 1 1 0.050068236769805416 1 1 0.049789491977994593 1 1 0.051676469058991668 0.037321861010982893 1 1 1 1 1 1 1 1 1 1 1 1 1 0.037793910393659355 1 1 0.049927931587153626 1 1 1 1 1 1 0.049994350155222751 1 1 0.038967517969268631 1 1 1 1 1 1 1 1 1 1 1 1 1 0.044839373938483647 1 1 1 1 1 1 1 0.049946065042625616 1 1 1 1 1 1 1 1 1 1 1 1 0.048078727641701638 1 1 0.049052884863627445 1 1 1 1 1 1 1 1 1 1 1 1 1 1 1 1 1 1 1 1 0.046017409197331847 1 1 0.047613605712851337 1 0.046689007748248378 1 1 1 0.050353040701227855 1 1 0.050291710112374571 1 0.049117629795884687 1 1 1 0.049445134765421284 1 1 1 1 0.050004066190934407 1 1 1 1 1 1 1 0.050001564273434447 1 1 1 0.050361345753450769 1 1 1 1 1 1 1 1 1 1 1 1 0.04868979898782113 1 1 1 1 1 1 1 1 0.050433333120790978 1 1 1 1 1 1 1 1 1 1 1 0.050118298826552915 1 1 1 1 1 1 1 1 1 1 1 1 1 1 1 1 1 1 1 0.051297460123607856 0.049697874248598436 1 1 1 0.049886135824665528 1 1 1 1 1 1 1 1 1 1 1 1 0.049828335030381095 1 1 1 1 1 1 1 1 1 0.049519953410124891 1 1 1 1 1 1 1 1 1 1 1 1 1 1 1 1 0.050227792712927134 1 0.049898600321876985 1 1 1 1 1 0.050064863116057429 1 1 1 1 0.05001201051254732 1 1 1 0.050006807796425995 1 1 1 0.049805539312798339 1 1 1 1 1 1 1 1 1 0.049983561622798225 1 1 1 0.049985262752845809 1 1 0.049988481388835215 1 1 1 1 1 1 0.049992619132803895 1 1 1 1 1 1 1 1 0.050010414345849206 1 1 1 0.049996070119600618 1 1 1 1 1 1 1 1 1 1 1 1 1 1 1 1 1 1 1 1 1 1 1 1 1 1 1 0.049824139412630614 1 1 1 1 1 1 1 0.049938618495305898 1 1 1 1 1 1 1 1 1 1 1 1 1 1 1 1 1 1 1 1 1 1 1 1 1 0.049493122645511915 1 0.049828781923565532 1 1 1 1 1 1 0.049190739215593179 1 1 1 0.049694195353976491 1 1 0.049112737093139638 1 1 1 1 1 1 1 1 1 1 1 1 0.043948742824956775 1 1 1 1 1 0.044484724315617327 1 1 1 1 1 1 1 1 1 1 1 1 1 0.049526398493646789 1 1 1 0.049709481486265979 1 1 1 1 1 1 1 1 1 1 1 1 0.049159255700116068 0.045222017591040685 1 1 1 1 0.043579727158290865 1 1 1 1 1 1 1 1 1 0.049899965099207647 0.053150121220171112 1 1 1 1 1 0.054229315531090498 1 1 1 1 1 0.050024301015718815 1 1 1 1 1 0.050002633492413733 1 0.044797149961008073 1 1 1 1 0.05049579540512681 1 0.048442620220629992 1 0.045550954938699838 0.050010347481369247 1 1 1 1 1 1 1 0.049966873755518164 0.050090916637476383 1 1 1 1 1 1 0.049999566740436159 0.04983677669748645 0.050009971082407255 1 0.048108572836349506 0.047917205805419485 1 1 1 0.048973687496870505 1 1 1 1 1 0.047672557708406921 0.050066808974828764 0.049999949242980984 1 0.045981392920250483 1 1 1 0.050022418865004234 1 0.051180071945439214 0.049833644981846989 1 1 1 1 1 1 1 0.050291705275482421 0.048735031203017379 1 1 0.049586587965531392 0.050502844742148605 0.046969645131275196 1 1 1 1 1 1 1 1 1 1 1 1 1 1 1 1 1 1 1 1 1 1 1 1 1 1 1 1 1 1 1 1 1 1 1 1 1 1 1 1 0.049975999191799618 1 1 1 1 1 1 1 1 1 1 0.04964523605137932 1 1 1 1 1 1 0.048962745207165363 1 1 0.048383246998048454 1 1 1 1 1 1 1 1 1 1 1 1 1 0.048010580030977815 1 0.045224572197712268 1 1 1 1 0.050162678834642975 1 1 1 0.049972703239992249 1 1 0.050935660368160482 1 1 1 0.049999581794637732 1 1 0.045841639121751473 1 1 1 1 1 0.046523088902992962 1 1 1 1 1 1 1 0.048512424320505329 1 1 1 1 1 1 1 0.049952020237168077 1 1 0.049257153847240609 1 1 1 1 0.0497354482432142 1 0.049560863561760142 1 1 1 1 1 0.049220142185641004 1 1 1 1 0.049678660047673046 1 1 1 1 1 1 0.049060655769563678 0.050561249972177313 1 1 1 1 1 0.047662575726227403 1 1 0.045256503912619844 1 1 1 1 1 1 1 1 1 1 0.050195519339099895 1 1 1 1 1 1 1 1 1 1 1 1 1 1 1 1 1 1 0.050085725616592622 1 1 1 1 1 1 0.05000705031765601 1 1 1 1 1 1 1 0.044140018949485244 0.049972159726519166 1 1 1 1 0.049987438910647969 1 1 1 1 1 1 1 0.04714917376349325 1 1 0.049931133051879663 1 0.050193064210892813 0.048137383556903612 0.051204983509097912 1 1 1 1 1 1 0.049862637318748723 1 1 1 1 1 0.04999838764975615 1 1 1 1 0.050526100739041416 1 1 1 0.047828009839515892 1 1 1 0.048205571102819478 1 1 1 1 1 1 1 1 1 1 1 1 1 1 1 1 1 1 1 1 1 1 1 1 1 0.043721283148209895 1 1 1 1 1 1 1 0.048627135225423265 1 0.042770038140032683 1 1 1 1 1 1 0.048521752344212112 1 1 0.049476403911961106 1 1 1 0.050035779832109301 1 1 0.045819476243578405 1 1 1 1 1 0.051612574738196401 1 1 1 0.050473546624753174 0.048178867100630657 1 1 1 1 1 1 1 1 1 1 1 1 0.049305029634632701 1 1 1 1 1 1 1 1 1 0.048340701495244151 1 1 1 1 1 0.050002779697393342 0.049718982557910033 1 1 1 1 1 1 1 1 1 0.04993844157371078 1 1 1 1 1 1 1 1 0.049259076743241245 1 1 1 1 1 1 1 1 1 1 1 1 1 1 1 1 1 1 0.050262321690496076 1 1 1 1 0.050623667443946842 1 0.049585176014075819 1 0.049258567028560366 1 1 1 1 1 1 1 1 1 1 1 1 1 1 1 1 1 0.048524907104576041 1 1 1 1 1 0.050310163065321482 1 1 1 0.048548497238317077 0.050440654768279018 1 1 1 1 1 0.049791215746729844 1 1 1 1 0.049735113474098813 1 1 1 1 1 1 1 1 0.049530725207886317 1 1 1 1 1 1 1 0.049682903456116215 1 1 1 1 1 1 1 1 1 0.049981454742233117 1 1 1 1 1 1 1 1 1 1 1 1 1 1 1 1 1 1 0.049921611393713969 1 1 1 1 1 1 1 1 1 1 1 1 1 0.050118986388619224 1 1 1 1 1 1 0.049950830895901487 1 1 0.050014344226248592 1 1 0.049889716477329926 1 1 1 1 1 1 1 1 1 1 1 1 1 1 1 1 1 1 1 1 1 1 1 1 1 1 0.049977892908402058 1 0.052756919579703333 1 0.049999279758762769 0.046402660472734572 1 1 1 0.052441030304912539 1 1 1 1 1 1 1 1 1 0.049757059115469349 0.050354816203772301 1 0.03966695674180129 1 1 1 1 1 1 1 1 1 1 1 1 1 1 0.050002856120196039 1 0.04438018993299573 0.048174560616738887 1 0.046156758582063757 1 1 1 1 1 1 1 1 1 0.040287137879363805 0.050245273363916362 1 1 1 1 1 1 1 1 1 1 1 1 1 1 1 1 1 1 1 1 1 1 0.049181157038326137 1 1 1 1 1 0.050150108950673046 1 1 1 1 1 0.050498763993153922 1 1 1 0.047491708127833585 1 1 1 1 1 1 1 1 1 0.049952800654458347 1 1 1 1 0.040120459982203822 1 1 1 1 1 1 0.040742267340306011 1 1 1 1 1 1 1 0.049886697228841738 1 1 1 1 0.042323595613364295 1 1 1 1 1 1 1 1 1 1 0.049971163721449677 1 1 1 1 0.047162093894354162 1 1 1 0.047383445189039697 1 1 1 1 1 0.049855991306309619 1 1 1 1 1 1 1 1 1 1 1 1 1 1 0.049531210489801636 0.044587786720408119 1 1 0.045950857039986498 1 1 1 1 1 1 1 0.049784218700713916 1 1 1 1 1 1 0.049690801064191131 1 1 1 1 1 1 1 1 1 1 1 1 1 1 1 1 1 1 1 1 1 1 1 0.049283613533801826 1 1 1 1 1 1 1 1 0.049753732382187256 1 1 1 1 0.049289752385769756 1 1 1 1 1 0.049148670303364485 1 0.049993834391995243 1 0.048163820458474282 1 1 1 1 1 1 1 0.04999086372533916 1 1 1 0.050921389958211313 1 1 1 1 1 0.049827583330098464 1 1 1 1 1 0.049980236741955765 1 0.049999788069269108 1 1 0.05001118203403912 1 0.048948432794068623 1 1 1 1 1 0.049789996462793425 1 1 1 0.049570439210585807 1 1 1 1 1 1 1 1 1 1 0.049974145325496697 1 1 1 1 1 1 1 1 1 1 1 1 1 1 1 1 1 1 1 1 1 1 0.049930182633594722 1 1 1 1 1 1 1 1 1 1 1 1 1 1 1 1 1 1 0.04985964729428248 1 1 1 0.049877782004163547 1 1 1 1 1 1 0.051092979765093596 1 1 1 0.050661472213954242 0.048972756147164495 1 0.051044957598445975 1 0.049273455282963258 0.050920677380776561 1 0.05123006298058784 1 1 0.050001664994079612 1 1 0.049915535123851905 0.05001280197906801 1 1 1 1 1 1 1 1 0.050004473401353694 1 0.050000795525866143 1 1 1 1 1 1 1 1 1 1 1 1 1 1 1 1 1 1 1 1 1 1 0.047837392774868523 1 1 1 1 1 1 1 1 0.047530849597240507 1 1 0.049973391411188159 1 1 0.047266289237767586 0.04996621283458088 1 1 0.049986419374378602 1 1 1 1 1 1 1 1 1 1 1 1 1 1 1 1 1 1 1 1 1 1 1 1 1 1 1 1 1 1 1 1 1 1 1 1 1 1 1 0.050358089782098645 1 0.050720794677078726 1 1 1 1 1 1 1 1 1 1 1 1 1 1 1 1 1 1 1 1 1 1 1 1 1 1 1 1 1 1 1 1 1 1 1 1 1 1 1 1 0.049984349926466283 1 1 0.05004356771061691 1 1 1 1 1 0.049808056118310531 1 0.049832200490359461 1 1 0.048866901614234681 1 1 1 1 1 1 0.048152024016506742 1 1 1 1 1 1 1 1 1 1 1 0.050061377016056854 1 1 0.044166649504735506 0.050163085608011214 1 0.04962004947947328 1 1 0.046677900955179777 1 1 1 1 0.049998116076611442 1 1 1 1 1 1 1 1 1 0.049995900837498199 1 0.041485134761933926 1 1 1 1 1 1 1 0.05009542607422262 1 0.041415472717602736 1 1 1 1 1 1 1 1 1 0.049602931782280493 1 0.040550084034215748 1 1 1 1 1 1 1 1 1 1 0.048756532478761994 1 1 1 0.042552260738707631 1 1 0.050001238495675206 1 1 0.050184362701726985 1 1 1 1 0.050108237907494635 1 1 1 0.049938885581428449 1 1 1 1 1 1 1 1 1 1 1 1 1 1 0.050036418282296692 1 1 1 1 1 1 0.050257729630199532 1 0.049740288366474643 1 0.049108433852421599 1 1 1 0.050056284240272822 1 1 1 1 1 1 1 1 0.048982483386878509 1 1 1 1 1 0.050008399496078819 1 1 0.048684798108719514 1 1 1 1 1 1 1 1 1 0.049284021267420264 1 1 1 0.049699268048544576 1 1 1 1 1 1 0.049055018132286063 1 1 1 1 1 1 1 1 1 1 1 1 1 1 1 1 1 1 1 1 1 1 1 1 1 1 1 1 1 1 1 0.050089388019408501 1 1 1 1 1 0.050154461221742441 1 1 0.049111353480579809 0.049831279010285688 1 1 1 1 0.050579742059628001 1 1 1 1 1 0.049057928889968377 1 1 1 1 1 1 1 1 1 1 1 1 1 1 1 1 0.050083746404878171 1 1 1 1 1 1 1 1 0.049955436575589235 0.049874585080060388 1 1 1 1 1 1 0.049840939961873193 1 1 1 1 0.05004535951971141 1 1 1 1 1 1 1 1 1 1 1 1 1 1 1 1 1 1 1 1 1 1 1 1 0.049895739834551735 1 1 0.049890098220021412 1 1 1 1 1 1 1 1 1 1 1 1 1 1 1 1 1 1 1 1 1 1 1 1 1 1 1 0.04998863706029183 1 0.049925779361358273 1 1 1 1 1 0.049849028459057337 1 1 1 1 1 1 1 1 1 1 1 1 1 1 1 1 1 1 1 1 0.050044382143188355 0.049743080276264937 1 0.050005746375830086 1 1 1 1 1 1 1 1 1 1 1 1 1 1 1 1 0.04999398097010483 1 1 1 0.049996041840873508 1 1 1 1 1 1 1 1 1 1 1 1 1 0.049923249097699053 1 1 1 1 1 1 1 1 1 1 1 1 1 1 1 1 1 1 1 1 1 1 0.050236087376241544 1 1 1 1 1 1 1 1 1 1 1 1 1 0.048214350663681751 1 0.048520746347896729 1 1 0.050909339218527187 0.043939061606362746 1 1 1 1 1 1 1 1 1 1 1 1 1 1 1 1 1 1 1 1 0.048346327471812896 1 1 0.036846107653548697 1 1 1 0.049847703780175098 1 1 1 1 1 1 0.039035042856237441 1 1 1 0.050208003911685069 1 1 1 1 1 1 1 1 0.050003553668709594 1 1 0.053312560511767165 1 1 0.045164999139809675 1 0.044709881542844651 1 1 1 1 0.051421940359864263 0.050803906069931452 1 1 0.048357869740629257 0.050865632361411527 1 1 0.051971843053115821 1 1 1 1 0.048938464838745983 1 1 0.051011557172606165 0.046928888470512686 1 0.050009912548659469 1 1 1 1 1 1 1 1 1 1 1 1 1 1 1 1 1 1 1 1 0.048850438687990369 1 1 1 1 0.049614008440126367 1 1 1 1 0.049847691569519861 0.048290153381050749 1 1 1 1 1 1 1 1 1 1 1 1 0.049427407623750648 1 1 1 0.044227063135495626 1 1 1 1 1 1 1 0.045793009535467027 1 1 1 0.048541298584493672 1 1 0.049630476340827151 0.048818222502503131 1 1 1 0.047413581293766452 1 1 1 0.049609202319041992 1 1 1 1 1 1 1 1 1 1 1 1 1 1 1 1 1 1 0.050032650488294125 1 1 1 1 1 1 1 1 1 1 1 1 1 1 1 1 1 1 0.049942092607521402 0.050109882465476631 1 1 1 1 1 0.050186225159390752 0.049835777328313818 1 0.050234095443333175 1 1 1 1 1 1 1 1 1 0.049506953200066317 1 1 1 0.049898032758606187 1 1 1 1 1 1 1 1 1 1 1 1 1 1 0.048830185514559102 1 1 1 1 1 1 1 0.050604328630014961 1 1 0.050267031688441724 1 1 1 1 1 1 0.044762421494860469 1 1 1 1 0.044252140404721849 1 1 1 1 1 1 0.048958399934062542 1 1 1 1 1 1 1 1 0.049962495060389543 0.045399824046534851 1 1 1 0.050362909719063043 0.047347720986717953 1 1 1 1 1 0.0501151796697865 1 1 1 1 1 1 0.048921923196716038 1 1 1 1 0.050142564287373605 1 1 1 1 1 0.049654482884757781 1 1 1 1 0.048289996767736779 1 1 1 1 1 1 1 1 1 1 1 1 1 1 1 1 1 1 1 1 1 1 1 1 1 0.04988179314475201 1 1 1 1 0.05137392206275767 1 0.045821548238007853 1 0.05295667850088933 1 1 0.044436872504379145 1 1 0.048015770241975654 1 1 0.050300026548110909 1 1 1 1 1 1 0.043839510010891855 1 1 0.046826583323618498 1 0.04982681194649935 0.048807584099859448 0.047911724685044427 1 1 0.052166400999505411 1 0.050276851890808688 0.050705081951485868 1 1 1 0.049584226091505076 1 0.049982643618932031 1 1 1 1 1 1 0.049022536550673929 1 1 1 0.050020387690906928 1 1 1 1 1 1 1 0.048131639570315021 1 1 1 0.050986451003346416 1 0.037968308669700503 0.038981513407111403 1 1 1 1 1 1 1 0.04984068450114118 1 1 1 1 1 1 1 1 0.049944076072411428 0.050306399923739566 1 1 1 1 0.051175141672915855 1 1 0.051068820405889219 1 1 1 0.050000010512611298 1 1 1 0.05059043887917495 0.049755094307411436 1 1 1 1 0.049946645116740671 1 1 1 1 1 0.050368746814731531 0.050478344320206994 1 1 1 1 1 1 1 1 1 1 1 1 1 1 1 1 1 1 1 1 1 1 1 1 1 1 1 1 1 1 1 0.049860684284217374 1 1 1 0.050035108302552728 1 1 1 1 1 1 1 1 1 1 1 1 1 1 1 0.050032884153524276 1 0.049878085914743651 0.050223057218490103 1 1 0.050100289772434074 1 1 1 1 1 1 1 1 1 1 1 1 1 1 1 1 1 1 1 1 1 1 1 0.049695872638470001 1 1 0.050524552244318524 0.050031128980978834 1 1 1 1 1 1 1 0.050376300752542749 1 1 1 0.049546659049231605 1 1 1 1 0.049911991583977813 0.049970178676219668 1 1 1 1 1 1 1 0.050808670174866712 1 1 1 1 0.050399231022469362 1 1 1 1 0.050086906082480794 1 1 1 1 1 1 1 1 1 1 1 1 1 1 1 1 1 1 1 0.049655102383723733 1 1 1 1 1 1 1 1 1 1 1 1 1 1 1 1 0.048947969101843881 1 1 1 0.049634120154332571 1 1 1 1 1 1 1 1 1 0.050094536398757425 1 1 1 1 1 1 1 1 1 1 1 1 1 1 1 1 1 1 1 1 1 0.050166666330430418 1 1 1 1 1 1 1 1 1 1 1 1 1 1 1 1 1 0.050490174022595674 1 1 1 1 1 0.04999151967761245 1 1 1 1 1 1 1 1 1 1 1 1 1 1 1 1 1 1 1 1 1 1 1 1 1 1 1 0.04992691750777966 1 1 0.045289148529822215 1 1 1 0.045129708466305492 1 1 1 1 1 1 1 1 1 1 1 1 1 1 1 0.040349852188420535 1 0.05216800671987798 1 1 1 1 1 1 1 1 1 0.042284905823003378 1 1 1 1 1 1 1 1 1 0.048756455531058687 0.045122219402109649 1 1 1 1 1 1 1 1 1 1 1 1 1 1 1 1 1 1 1 1 1 1 1 1 1 1 1 1 1 1 1 1 1 1 1 1 1 1 1 1 1 1 1 1 1 1 1 1 1 1 1 1 1 1 1 1 1 1 1 1 1 1 1 1 1 1 1 1 1 1 1 0.048580568030336627 1 1 1 1 1 1 0.046363739007150073 1 1 1 1 1 1 1 1 1 0.048405483915854391 1 0.04653962650787212 1 1 1 1 1 1 1 1 1 1 1 1 1 1 1 1 1 1 1 1 1 1 1 1 1 1 1 1 1 1 1 1 1 1 0.049764422743605784 1 1 1 0.05009597595581234 0.050203608839598665 1 1 1 1 1 1 1 1 1 1 1 1 1 1 1 1 1 1 1 1 1 1 0.049999786606532287 0.050651244250288621 1 1 1 1 1 1 1 1 0.050650615754235503 1 1 1 1 1 1 0.05079755147072882 1 1 1 1 1 0.049854223870350725 1 1 1 1 0.04995425869576342 1 1 1 0.040307078057028753 1 1 1 0.042417806899461383 1 1 0.045523858708255163 1 1 1 1 1 1 1 1 1 1 1 1 1 0.050032808824854474 1 1 1 1 1 1 1 1 0.049556716597621731 1 1 1 1 1 1 1 1 1 1 1 0.047696859071980298 1 1 1 0.049190368379429292 1 1 1 1 0.050291436110397603 1 1 1 1 1 1 1 1 0.051163230806253984 1 0.04505523735922401 1 1 0.051690558380355606 1 1 1 1 1 0.04548951776710361 1 1 1 1 1 1 1 1 1 1 1 1 0.049491261895048475 1 1 1 1 1 1 1 1 1 0.050615291317088362 1 1 1 1 1 1 0.048650699711927273 1 1 1 1 1 1 1 0.049270231905109679 1 1 1 1 1 0.048761493800158158 1 1 1 1 1 1 1 1 1 1 1 1 1 1 1 1 1 1 1 1 1 1 1 1 1 1 1 1 1 1 1 1 1 1 1 1 1 1 1 1 1 1 1 1 1 1 1 0.048640686267470541 1 0.046528646137907255 1 1 1 1 1 1 1 1 1 1 1 1 1 1 0.050216427876176237 1 1 1 1 1 1 1 1 1 1 1 1 1 1 1 0.049674585451963897 1 1 0.049036839027578369 1 0.048257421978424891 1 1 1 1 1 0.047242859183095912 1 1 1 1 1 1 1 1 1 1 1 1 1 1 1 1 1 1 1 1 0.045226889391598663 1 1 1 1 1 1 1 1 1 1 1 0.044551746317149976 1 0.049979648640251992 1 1 0.044093630422207208 1 0.053973609849212005 1 1 1 1 1 1 1 0.049920418678359779 1 0.038099247220035472 1 1 1 1 0.035417294303638616 1 1 1 1 0.049946131005251346 0.047113582898458073 1 1 0.042762887942817233 1 1 1 1 1 1 1 1 1 1 1 1 1 1 1 1 0.049028299738377669 1 1 1 1 1 1 1 1 1 1 1 1 1 1 0.047164706925340596 1 0.049947134952248819 1 1 1 1 1 1 1 0.038430407423047479 1 0.033899823672868541 1 1 1 1 1 1 1 1 1 0.049917826177055521 0.040360150252687049 1 1 1 0.040704324071464473 1 1 1 1 0.054436181860271694 1 0.046374037709605603 1 1 0.049036341161731861 1 0.06256879349609025 0.055331951421321454 0.050820591242111815 1 1 0.05000978418379063 1 1 1 0.05783641548641847 0.044349378538319405 0.045116435059481215 1 1 1 1 1 1 1 1 1 1 1 0.046644262235416366 1 1 1 1 1 1 0.037978003735938196 1 1 1 0.050242309514806932 1 1 1 1 1 1 1 1 0.048043552980061889 1 1 1 0.049344013078547723 1 1 1 1 1 1 1 1 1 1 1 1 1 1 1 1 1 1 1 1 1 1 1 1 1 1 1 1 1 1 1 1 1 1 1 1 1 1 1 1 1 1 1 1 1 1 1 1 1 1 1 1 1 1 1 1 1 1 1 1 0.050020936560872017 1 1 1 1 1 0.050344914582969497 1 1 1 1 0.050150650435511993 1 1 1 0.052727401529599711 1 1 1 1 1 1 1 1 1 1 1 1 1 1 1 1 1 1 1 1 1 1 1 1 1 1 1 1 1 1 1 1 1 1 1 1 1 1 1 1 0.04985333746545953 1 1 0.049605256791083213 1 1 1 1 1 1 1 0.050007260097668919 1 1 1 1 1 1 1 1 1 1 1 0.050023868136737211 1 1 0.049998040565643345 1 0.050326786864557577 1 1 1 0.04944914675928519 1 1 1 1 1 1 1 1 0.049961620074625498 1 1 1 1 0.049977045717646974 1 1 1 1 0.049145916064974558 1 0.050320251047465236 1 1 1 1 1 1 1 1 1 1 1 1 0.049223247643356151 1 0.04913797186337731 1 1 1 1 1 1 1 1 1 1 1 1 1 0.050071862268217915 1 1 1 1 1 1 1 1 1 0.05013362870337483 1 1 1 0.05006176643515689 1 1 1 1 1 1 1 1 1 1 1 1 1 1 1 1 1 1 1 1 1 1 1 1 1 1 1 1 1 1 1 1 1 1 1 0.0500359220922591 1 1 0.049992735846139953 1 1 1 1 0.049914027373710368 1 1 1 1 1 1 1 1 1 1 1 1 1 1 1 0.049869480709081364 1 1 1 1 1 1 1 1 1 0.049716032096480553 1 0.049908799398249479 1 1 1 1 1 1 1 0.049960384519765172 1 1 1 1 1 1 1 1 1 1 1 1 1 1 0.048157885709783396 1 1 1 1 1 1 1 1 1 1 1 0.045031079421402234 1 1 1 1 1 1 1 1 1 1 1 1 1 1 1 1 1 1 1 1 1 1 1 0.050123797622139268 1 0.049911053674671302 1 1 1 1 1 1 0.050087285513898634 1 0.048077256485847181 1 1 1 0.051195350949440249 1 1 1 0.044078247314764195 1 1 1 0.052324776543789496 1 1 0.046236105163729835 1 1 1 1 1 1 1 0.04871218816893725 1 1 1 1 1 1 1 0.042801521354198985 1 1 1 1 1 1 1 1 1 1 1 1 1 0.049269200527649146 1 1 1 1 1 1 1 1 0.044546962374209298 1 1 1 1 1 1 1 1 1 1 1 1 1 1 1 1 1 1 1 1 0.042948498962647241 1 1 1 1 1 1 1 1 1 1 1 1 1 1 1 1 1 1 1 1 1 1 1 1 1 1 1 1 1 1 1 1 1 1 1 1 1 1 1 1 1 1 1 1 1 1 1 1 1 1 0.049638812004099024 1 0.048174762547991481 1 1 1 0.050241478616446178 1 1 0.049991602098875168 0.047499583961442014 1 0.049038509768887607 1 1 1 1 1 1 1 1 1 1 1 1 1 1 1 1 1 1 1 1 1 1 1 1 1 1 1 1 1 1 1 1 1 1 1 0.049884535260013879 1 1 1 1 0.049686435305462927 1 1 0.084874740971727633 1 1 1 0.050036577471721938 1 1 1 1 0.049432006920374735 1 0.050007095873870887 0.050070767565626971 1 1 1 1 0.049976208816395404 1 1 1 0.049535401525701406 1 1 1 0.050060017090373068 1 1 1 1 1 1 0.049998887525913215 1 1 1 1 1 1 1 1 1 1 1 1 1 1 1 1 1 1 1 1 0.049755484188795093 1 1 1 1 1 1 1 1 1 1 1 1 1 1 1 1 1 1 0.049880363885073817 1 1 0.049678036152585356 1 1 0.048460998199546107 1 1 1 1 1 1 1 1 1 1 1 0.049521273519213239 1 1 1 1 0.049235976276795788 1 1 1 1 0.050312052895864753 1 1 1 0.049784570467847046 1 1 1 1 1 1 1 1 1 1 1 1 1 1 1 1 1 1 1 1 1 1 1 1 1 0.049949371228122395 1 1 1 1 1 1 1 1 0.049784544030868419 1 1 1 0.049622150464818347 1 1 1 1 1 1 1 1 1 1 1 1 1 1 1 1 1 1 1 1 1 1 1 1 0.051739299162760696 1 1 1 0.050183528772199504 1 1 1 1 1 1 1 1 0.051700749804045876 1 1 0.045601750385953502 1 1 1 1 0.048383349759688193 1 1 1 1 1 1 1 0.05075291403299842 1 0.046395096839293923 1 1 0.045108933975670243 1 1 0.051159791545725759 0.050012032876087201 1 1 1 1 1 1 1 1 1 1 1 1 1 1 1 1 1 1 1 1 1 0.050000715731946949 1 1 1 1 0.050327533249583591 1 1 1 1 1 1 1 1 1 1 1 1 1 0.050794652037477933 1 1 0.049968636565097743 1 1 1 1 1 1 1 1 1 1 1 1 1 1 1 1 1 1 1 1 1 1 1 1 1 1 1 1 1 1 1 1 1 1 1 1 1 1 1 1 1 1 1 1 1 1 1 1 1 1 1 1 1 1 1 1 1 1 1 1 1 1 1 1 1 1 1 1 1 1 1 1 1 1 1 1 1 1 1 1 1 1 1 1 1 1 1 1 1 1 1 1 1 1 1 1 1 1 1 1 1 1 1 1 1 1 1 1 1 1 1 1 1 1 1 1 1 1 1 1 1 1 1 1 1 1 1 1 0.048768309056600227 1 1 1 1 1 1 1 0.050155239911564072 1 1 1 1 1 1 1 1 1 0.05085732501605613 1 0.048125101700726619 1 1 1 0.048968862660037249 1 1 0.047820746271038717 1 1 1 1 1 1 1 1 1 1 1 1 1 1 1 1 1 1 1 1 1 1 1 1 1 1 1 1 1 1 1 1 1 1 1 1 1 0.048895083394195196 1 1 0.050118382661142449 0.045689753254510496 1 1 0.050200486797513488 1 1 0.048501850461354974 1 1 1 0.048017034641378215 1 1 1 1 1 1 1 1 1 0.04713453061168503 1 1 1 1 1 1 0.049278752088870274 1 1 1 1 1 1 1 1 1 1 1 1 1 1 1 1 1 1 1 1 1 1 1 1 1 1 1 1 1 1 1 0.050880803551083341 1 1 1 1 1 1 1 1 1 1 1 1 1 1 1 1 1 1 1 1 1 1 1 1 1 1 1 1 1 1 1 1 1 1 1 1 1 1 1 1 1 1 1 1 1 1 0.046353155457794289 1 0.045496702297660646 1 1 1 1 0.049971719644412479 1 1 1 1 0.0425482995120623 1 1 1 1 0.050121380799280996 1 1 1 1 1 1 1 1 0.043450545671114185 1 1 0.049707075679521678 1 0.050274148002050198 1 1 1 1 0.051858297490276484 1 1 0.041456623766717118 0.053070234670823523 1 1 1 1 1 1 0.049949251426708877 1 1 1 1 1 1 1 1 1 1 0.041225245479590708 0.050077927378461118 1 1 1 1 1 0.049917535936974837 1 1 0.04185199864732949 1 1 1 1 0.045866980866721065 1 1 0.049121685968066077 1 1 1 1 1 1 1 1 1 1 1 1 1 1 1 1 1 1 1 1 1 1 1 1 1 1 1 1 1 0.044620997505516569 1 0.047762726364413373 1 1 1 1 1 1 1 1 1 1 1 1 1 0.050012295927903627 1 1 1 1 0.048755751606002179 0.049959650825587232 1 1 1 1 1 1 1 1 1 1 1 1 1 1 1 1 1 1 1 1 1 1 1 1 1 1 1 1 1 1 1 1 1 1 1 1 1 1 1 1 1 1 0.050025005729399628 1 1 1 0.050012709801496025 1 1 1 1 1 1 1 1 1 1 1 1 1 1 1 1 1 1 1 1 0.048189248428914262 1 1 0.048460300556898935 1 1 1 1 1 1 1 1 1 0.048325075959355368 1 1 1 1 1 0.045861548591623738 1 1 1 1 1 0.049995970920358124 1 0.050000020221304439 1 1 1 1 1 1 1 1 1 1 1 1 1 0.050821206444301825 1 1 1 0.050174136268759731 0.046871036380868231 1 1 1 1 1 1 1 1 0.045973174162500227 1 1 0.047992591436660348 1 1 0.050045801675125554 0.049095967947634774 1 1 1 1 1 0.049009948392489761 1 1 1 1 1 1 1 0.049566279860476001 1 1 0.049177223694447582 0.048441154939385223 1 1 1 1 1 1 0.050074373442122525 0.049962197762429064 1 1 1 0.050016574470393725 1 1 1 1 1 1 1 0.050048261179227199 1 1 1 1 1 1 1 1 1 1 1 1 1 1 1 1 1 1 1 1 1 1 1 1 1 1 0.029167556873520913 1 1 1 1 1 1 1 0.05025956764115453 1 1 1 1 1 1 1 1 1 1 1 0.034422089560880255 1 1 1 1 1 1 1 1 0.051133612814953801 1 1 1 1 1 1 1 1 1 1 1 1 1 1 1 1 0.049189065781711949 1 1 1 0.050609879632626455 1 1 1 1 1 0.047152356578298416 1 1 1 1 1 1 1 1 1 1 1 1 1 1 0.049011931912054253 1 1 1 1 0.047205673666862208 1 1 0.04581565365900972 1 1 1 1 1 0.050076499145709163 1 1 1 1 1 1 1 1 1 1 1 1 1 1 0.050288161363029417 1 0.0551847128293141 1 1 1 0.04420311703334058 1 0.038862763799793934 1 0.05795308898418295 1 1 1 1 1 1 0.050027507867857549 0.02651234772635086 1 1 1 1 1 1 0.028042811848796066 1 0.050500600963543731 1 1 1 1 1 1 1 1 1 1 1 1 1 1 1 1 1 0.0551583318978624 1 1 1 0.050035639557360068 0.053318274582698333 1 1 1 1 1 0.051929436302422707 1 1 0.050043769549449911 0.050657992258875829 1 1 1 1 1 1 1 1 1 1 1 1 1 1 1 1 1 1 1 1 1 1 1 1 1 1 1 1 1 1 1 1 1 1 1 1 1 1 1 1 1 1 1 1 0.04265061677968128 1 1 0.0516854689342372 0.050286909211112521 0.050291264920818507 1 1 1 1 1 1 0.050089816773060375 1 1 1 1 1 1 1 1 1 0.050084636904244126 1 1 1 0.043291920356627107 1 1 1 1 1 1 1 1 1 1 1 1 1 1 1 1 1 1 1 1 0.045155912844990903 1 1 1 1 0.048243932630508912 1 1 1 1 1 1 1 1 1 1 1 1 1 1 1 1 1 1 1 1 1 1 1 1 1 1 1 1 1 1 1 1 1 1 0.048483786429220341 1 0.049370697861320381 1 1 1 1 1 1 1 1 0.048410875106500023 1 1 1 0.045470611298112806 1 0.049040177245179645 1 1 1 1 1 1 1 1 0.040795993979138849 1 1 1 1 0.047110381955175251 1 1 1 1 0.042677456057481029 1 1 1 1 1 1 1 0.042232334436309624 1 1 1 1 0.046541703247721056 1 1 1 1 1 1 1 1 1 1 1 1 1 1 1 1 1 1 1 1 1 1 1 1 1 1 1 1 1 1 1 1 1 1 1 1 1 1 1 1 1 1 1 1 1 1 0.049247320848958498 1 1 1 1 0.048019357081547191 0.046249858876442534 1 1 0.045597637855158316 0.04888282720537715 1 1 1 1 1 1 1 1 1 1 1 1 1 1 1 1 1 1 1 0.04937086239152786 1 1 1 0.048370377490633928 0.048894143435032879 1 1 1 1 1 1 1 1 1 1 1 1 1 1 1 1 1 1 1 1 1 1 1 1 1 1 1 0.049384069291992877 1 1 1 1 1 1 1 0.048974698200881239 1 1 1 1 1 1 1 1 1 1 1 1 1 1 1 0.048453879176098578 1 1 1 1 1 1 1 1 0.049429393347145613 1 0.049676001512663236 0.048542648908184036 1 1 1 1 1 1 1 1 1 1 1 1 0.050523733182327356 1 1 1 1 1 1 1 1 1 1 1 1 1 1 1 1 1 1 0.05376451036350479 1 1 1 0.054521559574184884 1 1 1 1 1 1 1 1 0.051569703877451661 1 1 1 1 1 1 1 1 1 1 1 1 1 1 1 0.050006701790341584 1 1 1 0.049831415181937184 1 1 1 1 1 1 1 1 1 1 1 1 1 1 1 1 1 1 1 1 1 1 1 1 1 1 1 1 1 1 1 1 1 0.048951379564716457 1 0.04956662895938535 1 1 1 1 1 1 1 1 0.050139207863530044 1 1 1 1 1 1 1 1 1 0.048404709024702827 1 1 0.051587051194397354 1 1 1 1 1 0.050826955374612043 1 1 1 1 0.049958513278627867 1 1 1 1 0.052998964210278748 1 1 1 0.052871007118754844 1 0.04220476906758016 1 1 0.04179279224918396 1 1 1 1 1 1 1 1 1 1 1 1 1 1 0.050167998689156723 1 1 0.048651095738882558 1 0.050266027685158234 1 1 1 0.04628486704628762 1 1 0.047566308904277807 1 1 1 1 0.041509456058696582 1 0.051036514836790989 1 1 1 1 1 1 0.050336215846266158 1 0.049811312541942203 1 1 1 1 1 0.050166041863131283 1 1 1 1 0.040879437317884529 1 1 1 1 1 1 0.050757016277291636 1 1 1 1 1 1 1 1 1 1 1 1 1 1 1 1 1 1 1 1 1 1 1 1 1 1 1 1 1 1 1 1 1 0.049861961717007845 0.050007202403125617 1 1 1 1 1 1 1 1 1 1 0.052113727247011125 1 1 0.040342901072853432 0.051605142420910452 1 0.050015264318397333 1 1 1 1 1 1 1 0.052908459899524161 1 1 1 1 1 1 1 1 1 1 1 1 0.047201718883360042 1 1 1 1 0.049065787697973942 1 1 1 1 1 1 1 1 1 1 1 1 0.046987540592002969 1 1 1 1 1 1 1 1 1 1 1 1 1 1 1 1 1 0.047772607090865449 1 1 1 1 1 0.049430695507577581 1 1 1 0.046787937145368261 1 1 1 1 1 1 0.047512062340265213 1 0.046416077019360173 1 1 1 0.048234527280982542 1 1 1 1 1 1 1 1 1 0.045017570516141032 1 1 0.050037481004334923 1 1 1 1 1 1 1 0.049013244198742881 1 1 1 1 1 1 1 1 1 1 1 1 1 0.050524420669601937 1 1 0.049122443109600795 1 1 1 1 1 1 0.049989701509308808 1 1 1 1 1 1 0.043926332964521995 1 1 1 1 1 1 1 0.041361673904824918 1 1 1 1 1 1 1 1 1 1 1 1 1 1 1 1 1 1 1 1 1 1 0.048913375155930652 1 1 1 1 1 1 1 1 1 1 0.053551522457674222 1 1 1 1 0.055147419039495479 0.044364738046461905 1 1 1 1 0.045546285629110117 1 1 1 1 1 1 1 1 1 0.046699375459349858 1 1 1 1 1 1 1 1 1 1 1 0.047436533082061937 1 1 1 0.050411558296250436 1 1 1 0.049143024770132784 1 1 1 1 1 1 1 1 1 1 1 1 0.051771082443023954 1 1 1 1 1 0.050014483014576422 1 1 0.050014245890120171 1 1 1 1 1 1 1 1 1 1 1 1 1 1 0.049128042426431234 1 1 1 1 1 1 1 0.048293399395747665 1 1 1 0.049142842961902411 1 1 1 1 1 0.049992312885275884 1 1 1 1 1 1 1 1 1 0.049992550009732135 1 1 1 1 1 1 1 1 0.050877003528830352 1 1 1 1 1 0.049683841687333072 1 1 1 1 1 1 1 0.049896401860619645 1 1 1 1 1 1 1 1 1 1 1 1 1 1 1 1 1 1 1 1 1 1 1 1 1 1 1 1 1 1 1 1 1 1 1 1 1 1 1 1 1 1 1 1 1 1 1 1 0.048289119003845936 1 1 1 1 1 1 1 0.048097395304433271 1 1 1 1 1 1 1 1 1 1 1 1 1 1 1 1 1 1 1 1 1 1 0.047089232206018357 0.050262443186656812 1 1 0.044830643905484857 0.052272169448191699 1 1 1 1 1 1 1 0.050598078058453004 1 1 1 1 1 1 1 1 1 1 1 1 1 1 0.046715219502670574 1 1 1 1 1 1 1 1 0.048409682223196721 1 1 0.049659279473954508 1 1 1 0.049472632461477373 1 1 1 1 1 1 1 1 1 1 1 1 1 1 1 1 1 1 1 1 1 1 1 1 1 1 1 1 0.046865349656870947 1 1 1 1 1 1 1 1 0.050173580207704099 1 1 1 1 1 1 0.041370037559579631 0.051000371150808063 1 1 1 1 0.050462767118608899 1 1 0.044659074666058805 1 1 0.045125006713976172 1 1 1 1 1 1 0.049795066664534655 1 1 1 1 1 1 1 1 0.049668045981303061 1 1 1 1 1 1 1 1 1 1 1 0.049233085653462405 1 1 0.049564513546748824 1 1 1 1 1 1 1 0.048862599933180872 1 1 1 0.049598223053471106 1 0.04962335664604365 1 0.049296269703645354 1 1 1 1 1 1 1 1 1 1 1 1 1 1 1 1 1 0.0470490535687378 1 0.050001291352179747 1 1 1 1 1 1 1 1 1 1 0.047977445120669981 1 1 1 1 1 1 1 0.049809200116066252 1 1 1 0.050008641257962679 1 0.049162590353971511 0.050450116223068872 1 1 0.054070347999437343 1 1 1 1 0.046517442551652688 1 1 1 0.050891323094497537 1 1 1 0.049778126283979936 1 0.048861608333254647 0.041156885856783808 1 1 1 1 1 1 0.049383654369634246 1 1 1 1 1 1 1 1 0.040772973482669089 0.050000930630802194 0.046887929215381041 1 0.035468327223868029 1 1 0.052952293739139768 0.049999609368925932 1 1 0.052797052102491693 1 1 1 1 1 1 1 1 1 1 1 0.049905170087954531 1 1 1 1 1 1 1 1 1 1 1 1 1 0.045452375163438023 0.043087899069387661 1 1 1 1 0.044088888714616387 1 1 1 0.04946228937545015 1 1 1 1 1 0.045274254817164863 0.049996752530945855 1 1 1 0.051357102371546587 1 1 1 1 1 1 1 1 1 1 1 1 1 1 1 0.04984443642827012 1 1 1 0.047992165350331177 1 1 1 0.049906722920719584 1 1 1 1 1 1 0.045264004980893315 1 1 1 1 1 0.045689285672415814 1 1 1 1 1 1 1 1 0.047727601695083839 1 1 1 1 1 1 1 1 1 0.049762314637310082 1 1 1 1 0.044567230696764458 1 0.050158790322023042 1 1 0.044170477587695142 1 0.050144855808745933 1 1 1 1 1 1 0.049628344912483621 1 0.050032594228209951 0.039356943748233106 1 1 1 1 1 1 1 1 0.053222567831606504 1 0.050074181817827634 1 0.050000139877900307 1 0.039697002568874651 1 1 1 1 1 1 1 1 1 1 1 0.049854553146588196 1 1 1 0.049651436108189152 1 1 1 1 1 1 1 1 0.049796882961600973 1 1 1 1 1 1 1 1 1 0.049937593186900858 1 1 1 1 0.050153079250389941 1 1 0.050435157368796682 1 1 1 1 1 1 1 1 1 0.050381778009089301 1 1 1 0.050562335368161959 1 1 1 1 1 1 1 1 1 1 1 1 1 1 1 1 1 1 1 0.050002954661515872 1 1 1 1 1 1 1 1 1 1 0.049715504585617958 1 1 1 1 1 1 1 1 1 1 1 1 1 1 1 1 1 1 1 1 1 1 1 1 1 1 1 1 1 1 1 1 1 1 1 1 1 1 1 1 1 1 1 1 1 0.037410400185555907 0.050189087407444238 1 1 1 1 1 1 1 1 1 1 1 1 1 0.029638517239920614 0.053645966661838976 1 1 1 0.051680527703765453 1 1 0.044642957751877523 1 1 1 0.042203093070240054 1 1 1 0.036113079733432474 1 1 1 1 1 1 1 1 0.051037110856216407 1 1 0.048417479464297503 1 0.042126938063356337 0.048328234517038569 1 1 1 1 1 1 0.040910381298420312 1 0.051568016927930081 0.048687170683509369 0.04975326858302876 1 1 0.046101335267139665 1 1 0.043882291552663988 0.043422177286600243 1 1 1 1 1 1 1 1 1 1 1 1 1 1 1 1 1 1 1 1 1 0.049715377605148617 1 1 1 1 1 1 1 1 1 0.048811793130531259 1 1 1 1 1 1 1 0.051039796073478846 0.04974572012829942 1 1 1 1 1 1 1 1 1 1 1 1 1 1 1 1 1 1 1 1 1 1 1 0.0489855602993364 1 0.050029465816655551 1 1 1 1 1 1 1 0.049196610376254238 1 1 1 0.047518450729144915 0.050414428159004945 1 1 0.050237098668247354 1 1 1 1 0.047157135699717731 1 1 1 0.047483261797637788 1 1 1 0.031388484581849355 1 1 1 1 1 1 1 1 1 0.028496654918159954 0.053128824603895744 1 1 1 1 1 0.045168420892551117 1 1 0.052922602591246065 0.039436674516774226 0.02857125917764905 1 1 1 1 1 0.050976159785012312 1 1 1 1 1 1 1 1 1 0.050428763248726562 1 0.050182105687687856 1 1 1 1 1 1 1 1 1 1 1 1 1 1 1 1 1 1 1 1 1 1 1 1 0.050265840688374488 1 1 1 1 0.051544034122308485 0.050784533285389448 1 1 1 0.051004953014139209 1 1 1 1 1 1 1 1 1 1 1 1 1 1 1 1 0.039708284301493826 1 1 1 0.049977941200838337 1 1 0.056682036555894662 1 1 1 1 1 1 1 1 1 1 1 1 1 0.051256477225505012 1 1 0.04076269429058936 1 1 1 0.054508919387192226 1 0.034347405697968542 1 0.049960980317575801 1 0.048429809102579005 0.041432131095750224 0.049989460906656624 1 1 1 1 1 1 1 1 0.05007209327388748 1 1 1 1 1 1 1 1 0.044500231265976332 1 1 0.04896090719570291 1 1 1 1 1 1 1 1 1 1 1 1 1 1 1 1 1 1 1 1 1 0.050379133581054919 1 1 1 1 1 1 1 1 1 1 0.050254216305340063 1 0.050282471310057614 1 1 0.049512680193097153 1 0.04990716657994565 1 0.049996111421363891 1 1 0.049966880164186628 1 0.043940890354474765 1 1 0.050632789776572928 1 1 1 0.050055147770735761 1 1 1 1 1 1 1 1 1 1 1 1 1 1 1 1 1 1 1 1 1 1 1 1 1 1 1 1 1 1 1 1 1 1 1 1 1 1 1 1 1 1 1 1 1 1 1 1 1 1 1 1 1 1 1 1 1 1 1 1 1 0.047602874811855322 1 1 0.040426840408801124 1 1 1 1 1 1 0.050224913320067413 0.045898870231266577 1 1 1 1 1 1 1 1 1 1 1 1 1 1 1 1 1 1 0.042556917316157239 1 1 1 0.049866900590155305 1 1 1 1 1 1 1 1 1 1 1 1 1 1 1 1 0.050068094076691216 1 1 1 1 1 1 1 0.042422111146405608 1 1 1 1 1 1 1 1 0.044500126016391667 1 0.049844270600080162 1 1 1 1 1 1 1 1 1 1 1 1 1 1 1 1 0.050005624404077402 1 1 1 1 1 1 1 0.050021211734572295 1 1 1 1 0.04999499024627739 1 1 1 1 1 1 1 0.04998611997563758 1 1 0.048444377987792803 0.049921810831795366 1 1 0.050796740643421781 1 1 1 1 1 1 0.05004628917717828 1 1 1 1 1 1 1 1 1 0.049934902187350333 1 1 0.049991387990640651 1 1 0.049997484344350217 1 1 0.047932118558198976 1 1 1 1 1 0.047497195731101907 1 1 1 1 1 1 1 1 0.049955748987490056 1 1 1 1 1 1 1 0.049896263467707924 1 1 1 1 1 1 1 1 1 1 1 1 0.050093930625890806 1 1 1 1 1 1 1 0.049968730900394769 0.050005391904932486 1 0.047303743251716122 1 0.047814531137885551 1 1 1 1 1 1 1 1 1 1 1 1 1 1 1 0.049996293243651867 1 0.047964164140538321 1 1 1 1 1 1 1 1 0.050621502126197399 1 0.049177564958954277 1 0.048778330187470437 1 0.050099495098231819 1 0.050011258202746559 1 1 0.049946632621094653 1 1 1 1 1 0.049810900950377907 1 1 1 1 1 1 1 1 0.050032480317429837 1 1 1 1 1 0.050097872597746243 1 1 0.047294539069572018 1 0.050332006728978418 0.049085330659384231 1 1 1 1 1 1 1 1 0.050000061430133524 1 1 1 1 1 1 1 1 1 1 1 1 1 0.050010797716009761 1 1 1 1 1 1 1 0.050000318245191723 1 1 1 0.050000319305146285 1 1 1 1 1 1 1 1 1 1 1 1 1 1 1 1 1 0.049929563355943778 1 1 1 1 1 1 1 0.049966661301275403 1 1 0.049989233574681838 1 1 1 1 1 1 1 1 1 1 1 1 1 1 1 0.049948590541145366 1 1 1 1 0.050015182025706539 1 1 1 1 1 1 1 1 1 1 1 1 1 1 1 1 1 1 1 1 1 1 1 1 1 0.049426876638273477 1 1 1 1 1 1 0.049988957020424607 1 1 1 1 1 1 1 1 1 0.048634460073525392 0.049642321858395858 1 1 1 0.04933334334180732 1 0.050007339585837238 1 1 1 1 1 1 1 1 1 1 1 1 1 1 1 0.049977039382920301 1 1 1 1 1 1 1 1 1 1 1 1 0.049996105507007324 0.049983646256053067 1 1 1 1 1 1 1 1 0.04996544221353006 1 1 0.049999513090481028 1 1 0.049594341119674125 0.05019645606920297 1 1 1 1 1 1 1 0.049870483782538472 1 1 1 1 1 1 1 1 1 0.04998754074904576 1 1 1 0.049459816769971861 1 1 1 1 1 0.049559756543819403 1 1 1 1 1 1 1 1 1 1 1 1 0.04958276789799853 1 1 1 0.049985900017220697 1 1 1 0.049992835624113385 1 1 1 1 1 1 1 1 1 1 1 1 1 1 1 1 1 1 1 1 1 1 1 1 1 1 1 1 1 1 1 1 0.050077312475686531 1 1 1 1 1 1 1 1 1 1 1 1 1 1 1 1 1 1 1 1 1 1 1 1 0.049943216915638154 1 0.04999634431604328 1 1 0.048130962656818613 1 1 1 1 1 1 1 1 1 0.049807996996580367 1 1 1 1 1 1 1 1 1 1 1 1 1 1 0.048399765230221166 1 1 1 1 0.048766886548164412 1 1 1 0.049495315299343867 1 1 1 1 1 1 1 1 1 1 1 1 1 1 1 1 1 1 1 1 1 1 1 1 1 1 1 1 1 1 1 1 1 1 1 1 1 1 1 1 1 1 1 1 1 1 1 1 1 1 1 1 1 1 1 1 1 1 1 1 1 1 1 1 1 1 1 1 1 1 1 1 1 1 1 1 1 1 1 1 1 1 1 1 1 1 1 1 1 1 1 1 1 1 1 1 1 1 1 1 1 1 1 1 1 1 1 1 1 1 1 1 1 1 1 1 1 1 1 1 1 1 1 1 1 1 1 1 1 1 1 1 1 1 1 1 1 1 1 1 1 1 1 1 1 1 1 1 1 1 1 1 1 1 1 1 1 1 1 1 1 1 1 1 1 1 1 1 1 1 1 1 1 1 1 1 1 1 1 1 1 1 1 1 1 1 1 1 1 0.048112852225842911 1 1 1 1 1 1 1 1 1 1 1 1 1 1 1 1 0.049220550159674456 1 1 1 1 1 1 1 1 0.037172654105423884 1 1 1 1 0.050450863448570658 1 1 1 1 1 1 1 1 1 1 1 1 1 1 1 1 1 1 1 1 1 1 0.049333374270182785 1 1 1 1 1 1 1 1 1 1 1 1 1 0.051247760574481632 0.048745304376862461 1 1 1 1 1 0.050059861436488579 1 0.040133444659460143 1 1 1 1 1 1 1 1 1 1 1 0.04980311757600047 1 1 1 1 1 1 1 0.017952786244418251 1 1 1 1 1 1 1 1 1 1 1 1 1 1 1 0.049682315502248754 0.015265317470018724 1 1 1 1 1 1 1 1 1 1 1 1 0.043959872833532372 1 1 1 1 1 1 1 1 1 1 1 1 1 1 1 1 0.047955379828128364 1 1 1 1 1 1 1 0.0140364712535818 1 1 1 1 1 1 1 1 1 1 0.050192829825392637 0.01774844686640957 1 1 1 1 1 1 1 1 1 1 1 1 1 1 1 1 1 1 1 1 1 1 1 1 1 1 1 1 1 1 0.048982064904929859 1 1 1 1 1 0.049022865756010885 1 1 1 1 1 1 1 1 1 1 0.049581544471157431 1 1 1 1 0.049960578277702165 1 1 1 1 1 1 1 1 1 1 0.049112852946884049 1 0.049671531662030609 1 1 1 1 1 1 1 1 1 1 1 1 1 1 1 1 1 1 1 1 1 1 1 1 1 1 1 1 1 1 1 0.049805528551917701 1 1 1 1 1 0.049487844054166452 1 1 1 1 1 1 1 1 1 1 1 1 1 1 1 1 1 1 0.0494300836431084 1 1 0.023750281339431641 1 1 1 0.049808430469460756 1 1 1 1 1 0.020621934765151867 1 1 1 1 1 1 1 1 1 1 0.044190359511778451 1 1 1 1 1 1 0.049555611281200618 1 1 1 1 1 0.060261756111276425 0.050272731749458226 1 1 0.0347772143476981 1 1 0.04953414770827301 1 1 1 1 1 1 1 1 1 1 0.049483126401815479 1 1 0.049680795027141719 1 1 0.049993104967003411 1 1 0.048696979683879225 1 1 0.049238872857946425 1 1 0.050098407146792437 1 1 1 1 1 1 0.049013634215142765 1 1 1 1 1 1 1 1 1 1 1 0.034698092849950679 1 1 1 1 1 1 1 0.049738804699892045 1 1 1 1 0.049348242265351817 1 1 1 0.03586855102812303 1 1 1 1 1 1 1 1 1 1 1 0.048024657731776617 1 1 1 1 1 1 1 1 1 1 1 1 1 1 1 1 1 1 1 1 1 1 1 1 0.049959876114458963 1 1 1 1 1 0.049872794848752858 1 1 1 1 1 1 1 1 1 1 1 1 1 1 0.047391857969032884 1 1 0.048707370647814267 1 0.04281092294811225 1 1 1 1 0.03915016710531672 1 0.050201387106020373 0.049196204395448195 1 0.04722646857897634 1 1 1 1 1 1 1 0.049991753657745649 1 0.0475038005821629 1 1 1 1 1 1 0.050683081721554085 1 1 1 1 1 1 0.049974349637732368 1 1 1 1 0.049959462818085804 1 1 1 1 1 0.049949577623767769 1 1 0.049541175591562819 1 1 1 1 0.050013444406144025 1 1 1 1 0.047841985826307956 1 1 1 1 1 1 0.050237683706046914 1 1 1 1 1 1 1 1 1 0.049999854272888368 1 1 1 1 1 1 0.049258630715688076 1 1 1 1 0.047899412631455154 1 1 1 1 1 1 1 1 1 1 1 1 1 1 1 1 0.049918497570865097 1 1 1 0.050231033240034979 1 1 0.045889856446051064 1 1 1 1 1 1 1 1 1 1 1 1 1 1 1 1 0.050188451150613066 1 0.04629452430071497 1 1 1 1 1 1 1 1 1 1 1 1 1 1 1 1 1 1 1 1 1 1 1 1 1 1 0.038534981933096693 1 1 0.04678875423590096 1 1 1 1 1 1 1 1 1 1 0.047877322164740693 1 1 1 1 0.0502843290381014 1 1 1 1 0.05009587788748833 1 1 1 1 1 1 1 1 1 0.048082162992372321 1 1 1 1 1 1 1 1 1 1 1 1 1 1 1 1 1 1 1 1 1 1 1 1 1 1 1 1 
</DataArray>
</CellData>
</Piece>
</UnstructuredGrid>
</VTKFile>
