<?xml version="1.0"?>
<VTKFile type="UnstructuredGrid" version="0.1" byte_order="LittleEndian">
<UnstructuredGrid>
<Piece NumberOfPoints="26844" NumberOfCells="9473">
<Points>
<DataArray type="Float64" NumberOfComponents="3" format="ascii">
-0.5 -0.5 0 -0.4646202970524127 -0.47450967910536629 0 -0.37839327844103138 -0.5 0 -0.5 -0.5 0 -0.4646202970524127 -0.47450967910536629 0 -0.49999999999999939 -0.46224005665092499 0 -0.4646202970524127 -0.47450967910536629 0 -0.43768100674537191 -0.46004029744547431 0 -0.47871216822681523 -0.45005021672891682 0 -0.43768100674537191 -0.46004029744547431 0 -0.45742433645363101 -0.43786037680690831 0 -0.47871216822681523 -0.45005021672891682 0 -0.43768100674537191 -0.46004029744547431 0 -0.45742433645363101 -0.43786037680690831 0 -0.43576333370280912 -0.44129895133621838 0 -0.45742433645363101 -0.43786037680690831 0 -0.47871216822681523 -0.45005021672891682 0 -0.47871216822681523 -0.45005021672891682 0 -0.5 -0.43228250189906309 0 -0.47381363781305458 -0.43238996341236879 0 -0.4646202970524127 -0.47450967910536629 0 -0.47871216822681523 -0.45005021672891682 0 -0.49999999999999939 -0.46224005665092499 0 -0.45742433645363101 -0.43786037680690831 0 -0.47871216822681523 -0.45005021672891682 0 -0.47381363781305458 -0.43238996341236879 0 -0.47871216822681523 -0.45005021672891682 0 -0.49999999999999939 -0.46224005665092499 0 -0.47871216822681523 -0.45005021672891682 0 -0.49999999999999939 -0.46224005665092499 0 -0.5 -0.43228250189906309 0 -0.5 -0.43228250189906309 0 -0.47441721215399091 -0.41161434893752902 0 -0.5 -0.40232494714720141 0 -0.5 -0.43228250189906309 0 -0.47441721215399091 -0.41161434893752902 0 -0.47381363781305458 -0.43238996341236879 0 -0.5 -0.40232494714720141 0 -0.48419956130454811 -0.38804043774805119 0 -0.5 -0.37236739239533939 0 -0.47441721215399091 -0.41161434893752902 0 -0.5 -0.40232494714720141 0 -0.48419956130454811 -0.38804043774805119 0 -0.47441721215399091 -0.41161434893752902 0 -0.48419956130454811 -0.38804043774805119 0 -0.45754348929793898 -0.39427264029310688 0 -0.48419956130454811 -0.38804043774805119 0 -0.45754348929793898 -0.39427264029310688 0 -0.48419956130454811 -0.38804043774805119 0 -0.45754348929793898 -0.39427264029310688 0 -0.46650518769805832 -0.36367487795397552 0 -0.45754348929793898 -0.39427264029310688 0 -0.44148962219302279 -0.38138251725045069 0 -0.46650518769805832 -0.36367487795397552 0 -0.47441721215399091 -0.41161434893752902 0 -0.45754348929793898 -0.39427264029310688 0 -0.45157575422031299 -0.40818327970169649 0 -0.45754348929793898 -0.39427264029310688 0 -0.43088741729132979 -0.4005048428381619 0 -0.45754348929793898 -0.39427264029310688 0 -0.45157575422031299 -0.40818327970169649 0 -0.43088741729132979 -0.4005048428381619 0 -0.45754348929793898 -0.39427264029310688 0 -0.44148962219302279 -0.38138251725045069 0 -0.43088741729132979 -0.4005048428381619 0 -0.45742433645363101 -0.43786037680690831 0 -0.47381363781305458 -0.43238996341236879 0 -0.45575262785512249 -0.42160798551961198 0 -0.47441721215399091 -0.41161434893752902 0 -0.47381363781305458 -0.43238996341236879 0 -0.45575262785512249 -0.42160798551961198 0 -0.47441721215399091 -0.41161434893752902 0 -0.45575262785512249 -0.42160798551961198 0 -0.45157575422031299 -0.40818327970169649 0 -0.45575262785512249 -0.42160798551961198 0 -0.43927802450318321 -0.41291658092007272 0 -0.43613650468044679 -0.4256705368848997 0 -0.45575262785512249 -0.42160798551961198 0 -0.45157575422031299 -0.40818327970169649 0 -0.43927802450318321 -0.41291658092007272 0 -0.45157575422031299 -0.40818327970169649 0 -0.43927802450318321 -0.41291658092007272 0 -0.43088741729132979 -0.4005048428381619 0 -0.45742433645363101 -0.43786037680690831 0 -0.43613650468044679 -0.4256705368848997 0 -0.43576333370280912 -0.44129895133621838 0 -0.45742433645363101 -0.43786037680690831 0 -0.43613650468044679 -0.4256705368848997 0 -0.45742433645363101 -0.43786037680690831 0 -0.45575262785512249 -0.42160798551961198 0 -0.43613650468044679 -0.4256705368848997 0 -0.42262651926962502 -0.43289615401210962 0 -0.43613650468044679 -0.4256705368848997 0 -0.42396383045893038 -0.41618313454099609 0 -0.42262651926962502 -0.43289615401210962 0 -0.43613650468044679 -0.4256705368848997 0 -0.43576333370280912 -0.44129895133621838 0 -0.43927802450318321 -0.41291658092007272 0 -0.42396383045893038 -0.41618313454099609 0 -0.43088741729132979 -0.4005048428381619 0 -0.43927802450318321 -0.41291658092007272 0 -0.43613650468044679 -0.4256705368848997 0 -0.42396383045893038 -0.41618313454099609 0 -0.43927802450318321 -0.41291658092007272 0 -0.43088741729132979 -0.4005048428381619 0 -0.42396383045893038 -0.41618313454099609 0 -0.406540338328441 -0.42289661130944511 0 -0.40973290954423253 -0.4054507769948596 0 -0.42396383045893038 -0.41618313454099609 0 -0.43088741729132979 -0.4005048428381619 0 -0.40973290954423253 -0.4054507769948596 0 -0.42262651926962502 -0.43289615401210962 0 -0.406540338328441 -0.42289661130944511 0 -0.4044741733462125 -0.44352827950914181 0 -0.42262651926962502 -0.43289615401210962 0 -0.42396383045893038 -0.41618313454099609 0 -0.406540338328441 -0.42289661130944511 0 -0.43088741729132979 -0.4005048428381619 0 -0.41627841541260002 -0.37889459457140101 0 -0.44148962219302279 -0.38138251725045069 0 -0.43088741729132979 -0.4005048428381619 0 -0.41627841541260002 -0.37889459457140101 0 -0.43088741729132979 -0.4005048428381619 0 -0.40973290954423253 -0.4054507769948596 0 -0.41627841541260002 -0.37889459457140101 0 -0.43088741729132979 -0.4005048428381619 0 -0.40973290954423253 -0.4054507769948596 0 -0.40973290954423253 -0.4054507769948596 0 -0.41627841541260002 -0.37889459457140101 0 -0.39626706838329923 -0.39504545103964511 0 -0.41627841541260002 -0.37889459457140101 0 -0.39188034863555288 -0.37964509591507889 0 -0.39626706838329923 -0.39504545103964511 0 -0.40973290954423253 -0.4054507769948596 0 -0.39626706838329923 -0.39504545103964511 0 -0.38857840179713488 -0.41039671115155663 0 -0.39188034863555288 -0.37964509591507889 0 -0.39626706838329923 -0.39504545103964511 0 -0.37474971554337089 -0.39783367767580391 0 -0.39626706838329923 -0.39504545103964511 0 -0.38857840179713488 -0.41039671115155663 0 -0.37474971554337089 -0.39783367767580391 0 -0.39188034863555288 -0.37964509591507889 0 -0.3795751283023639 -0.37049916240697423 0 -0.36747219157488098 -0.37991114783798341 0 -0.39188034863555288 -0.37964509591507889 0 -0.36747219157488098 -0.37991114783798341 0 -0.37474971554337089 -0.39783367767580391 0 -0.406540338328441 -0.42289661130944511 0 -0.38986619555451091 -0.42892461164800721 0 -0.4044741733462125 -0.44352827950914181 0 -0.40973290954423253 -0.4054507769948596 0 -0.38857840179713488 -0.41039671115155663 0 -0.406540338328441 -0.42289661130944511 0 -0.40973290954423253 -0.4054507769948596 0 -0.38857840179713488 -0.41039671115155663 0 -0.406540338328441 -0.42289661130944511 0 -0.38857840179713488 -0.41039671115155663 0 -0.38986619555451091 -0.42892461164800721 0 -0.38857840179713488 -0.41039671115155663 0 -0.38986619555451091 -0.42892461164800721 0 -0.37052375847279517 -0.4189845139465414 0 -0.38857840179713488 -0.41039671115155663 0 -0.37052375847279517 -0.4189845139465414 0 -0.37474971554337089 -0.39783367767580391 0 -0.38986619555451091 -0.42892461164800721 0 -0.37663782750341551 -0.44942816039535788 0 -0.37052375847279517 -0.4189845139465414 0 -0.38986619555451091 -0.42892461164800721 0 -0.37663782750341551 -0.44942816039535788 0 -0.4044741733462125 -0.44352827950914181 0 -0.4646202970524127 -0.47450967910536629 0 -0.43768100674537191 -0.46004029744547431 0 -0.37839327844103138 -0.5 0 -0.37663782750341551 -0.44942816039535788 0 -0.4044741733462125 -0.44352827950914181 0 -0.40508035653271018 -0.46487132243105073 0 -0.37663782750341551 -0.44942816039535788 0 -0.40508035653271018 -0.46487132243105073 0 -0.37839327844103138 -0.5 0 -0.43768100674537191 -0.46004029744547431 0 -0.40508035653271018 -0.46487132243105073 0 -0.37839327844103138 -0.5 0 -0.43768100674537191 -0.46004029744547431 0 -0.40508035653271018 -0.46487132243105073 0 -0.42494830136497042 -0.45002739153170063 0 -0.42262651926962502 -0.43289615401210962 0 -0.42494830136497042 -0.45002739153170063 0 -0.43576333370280912 -0.44129895133621838 0 -0.43768100674537191 -0.46004029744547431 0 -0.42494830136497042 -0.45002739153170063 0 -0.43576333370280912 -0.44129895133621838 0 -0.4044741733462125 -0.44352827950914181 0 -0.40508035653271018 -0.46487132243105073 0 -0.42494830136497042 -0.45002739153170063 0 -0.42262651926962502 -0.43289615401210962 0 -0.4044741733462125 -0.44352827950914181 0 -0.42494830136497042 -0.45002739153170063 0 -0.45237957687253721 -0.26935139155030108 0 -0.43333417593093548 -0.2586373813461017 0 -0.45552237441803523 -0.23859464828652599 0 -0.45237957687253721 -0.26935139155030108 0 -0.4391741251006836 -0.28760337166462002 0 -0.43333417593093548 -0.2586373813461017 0 -0.45237957687253721 -0.26935139155030108 0 -0.46217991615613491 -0.27842729230381991 0 -0.45654823437425313 -0.28698755605114262 0 -0.45237957687253721 -0.26935139155030108 0 -0.46217991615613491 -0.27842729230381991 0 -0.46932686742336582 -0.27190841780417557 0 -0.46217991615613491 -0.27842729230381991 0 -0.46932686742336582 -0.27190841780417557 0 -0.46907208869110228 -0.28539579446217173 0 -0.45237957687253721 -0.26935139155030108 0 -0.46858961573933577 -0.25532911961135868 0 -0.45552237441803523 -0.23859464828652599 0 -0.45237957687253721 -0.26935139155030108 0 -0.46858961573933577 -0.25532911961135868 0 -0.46932686742336582 -0.27190841780417557 0 -0.48548706001004782 -0.26105870567385769 0 -0.48159881645759078 -0.2398053104504039 0 -0.46858961573933577 -0.25532911961135868 0 -0.48548706001004782 -0.26105870567385769 0 -0.48159881645759078 -0.2398053104504039 0 -0.46858961573933577 -0.25532911961135868 0 -0.48548706001004782 -0.26105870567385769 0 -0.46932686742336582 -0.27190841780417557 0 -0.48548706001004782 -0.26105870567385769 0 -0.5 -0.25253717338789178 0 -0.49162629692451459 -0.28032159952941271 0 -0.48548706001004782 -0.26105870567385769 0 -0.5 -0.25253717338789178 0 -0.49133908895997408 -0.24547410279280971 0 -0.5 -0.25253717338789178 0 -0.49162629692451459 -0.28032159952941271 0 -0.5 -0.28249472813975368 0 -0.5 -0.25253717338789178 0 -0.49162629692451459 -0.28032159952941271 0 -0.48548706001004782 -0.26105870567385769 0 -0.48937530356250469 -0.28231210089731162 0 -0.48548706001004782 -0.26105870567385769 0 -0.49162629692451459 -0.28032159952941271 0 -0.48937530356250469 -0.28231210089731162 0 -0.48548706001004782 -0.26105870567385769 0 -0.4781633170935371 -0.27887358124042988 0 -0.48937530356250469 -0.28231210089731162 0 -0.48548706001004782 -0.26105870567385769 0 -0.4781633170935371 -0.27887358124042988 0 -0.46932686742336582 -0.27190841780417557 0 -0.4781633170935371 -0.27887358124042988 0 -0.46932686742336582 -0.27190841780417557 0 -0.46907208869110228 -0.28539579446217173 0 -0.4781633170935371 -0.27887358124042988 0 -0.46907208869110228 -0.28539579446217173 0 -0.47674846037348378 -0.29293850117152381 0 -0.47674846037348378 -0.29293850117152381 0 -0.48937530356250469 -0.28231210089731162 0 -0.48325259384902919 -0.30810602567093348 0 -0.46907208869110228 -0.28539579446217173 0 -0.47674846037348378 -0.29293850117152381 0 -0.46669599242428728 -0.29888834631941191 0 -0.4781633170935371 -0.27887358124042988 0 -0.47674846037348378 -0.29293850117152381 0 -0.48937530356250469 -0.28231210089731162 0 -0.49162629692451459 -0.28032159952941271 0 -0.48937530356250469 -0.28231210089731162 0 -0.48325259384902919 -0.30810602567093348 0 -0.49162629692451459 -0.28032159952941271 0 -0.49326365666037342 -0.29578132674371632 0 -0.48325259384902919 -0.30810602567093348 0 -0.49162629692451459 -0.28032159952941271 0 -0.48325259384902919 -0.30810602567093348 0 -0.49162629692451459 -0.28032159952941271 0 -0.49326365666037342 -0.29578132674371632 0 -0.5 -0.28249472813975368 0 -0.49326365666037342 -0.29578132674371632 0 -0.5 -0.31245228289161581 0 -0.48325259384902919 -0.30810602567093348 0 -0.49326365666037342 -0.29578132674371632 0 -0.5 -0.28249472813975368 0 -0.5 -0.31245228289161581 0 -0.48325259384902919 -0.30810602567093348 0 -0.46157168229978052 -0.31157211566903242 0 -0.46669599242428728 -0.29888834631941191 0 -0.47674846037348378 -0.29293850117152381 0 -0.48325259384902919 -0.30810602567093348 0 -0.46669599242428728 -0.29888834631941191 0 -0.46157168229978052 -0.31157211566903242 0 -0.46669599242428728 -0.29888834631941191 0 -0.45242673620783108 -0.29949996581819921 0 -0.46907208869110228 -0.28539579446217173 0 -0.46669599242428728 -0.29888834631941191 0 -0.45654823437425313 -0.28698755605114262 0 -0.46217991615613491 -0.27842729230381991 0 -0.46907208869110228 -0.28539579446217173 0 -0.45654823437425313 -0.28698755605114262 0 -0.46669599242428728 -0.29888834631941191 0 -0.45654823437425313 -0.28698755605114262 0 -0.45242673620783108 -0.29949996581819921 0 -0.45654823437425313 -0.28698755605114262 0 -0.4391741251006836 -0.28760337166462002 0 -0.45242673620783108 -0.29949996581819921 0 -0.45237957687253721 -0.26935139155030108 0 -0.45654823437425313 -0.28698755605114262 0 -0.4391741251006836 -0.28760337166462002 0 -0.4391741251006836 -0.28760337166462002 0 -0.44066645989002418 -0.30980293482883919 0 -0.45242673620783108 -0.29949996581819921 0 -0.46157168229978052 -0.31157211566903242 0 -0.44066645989002418 -0.30980293482883919 0 -0.45242673620783108 -0.29949996581819921 0 -0.44066645989002418 -0.30980293482883919 0 -0.45021607318057238 -0.32571494917304189 0 -0.42604991738628251 -0.32732592944489702 0 -0.46157168229978052 -0.31157211566903242 0 -0.44066645989002418 -0.30980293482883919 0 -0.45021607318057238 -0.32571494917304189 0 -0.45021607318057238 -0.32571494917304189 0 -0.447913415553231 -0.34398331410998628 0 -0.42604991738628251 -0.32732592944489702 0 -0.45021607318057238 -0.32571494917304189 0 -0.47487889077354373 -0.33589045181245458 0 -0.447913415553231 -0.34398331410998628 0 -0.46157168229978052 -0.31157211566903242 0 -0.45021607318057238 -0.32571494917304189 0 -0.47487889077354373 -0.33589045181245458 0 -0.48325259384902919 -0.30810602567093348 0 -0.47487889077354373 -0.33589045181245458 0 -0.48325259384902919 -0.30810602567093348 0 -0.48832094659974751 -0.32467351999765459 0 -0.47487889077354373 -0.33589045181245458 0 -0.48325259384902919 -0.30810602567093348 0 -0.46157168229978052 -0.31157211566903242 0 -0.47487889077354373 -0.33589045181245458 0 -0.5 -0.31245228289161581 0 -0.48832094659974751 -0.32467351999765459 0 -0.5 -0.34240983764347771 0 -0.5 -0.31245228289161581 0 -0.48325259384902919 -0.30810602567093348 0 -0.48832094659974751 -0.32467351999765459 0 -0.48832094659974751 -0.32467351999765459 0 -0.5 -0.34240983764347771 0 -0.47487889077354373 -0.33589045181245458 0 -0.47487889077354373 -0.33589045181245458 0 -0.48601192667240611 -0.35738861501940827 0 -0.46650518769805832 -0.36367487795397552 0 -0.47487889077354373 -0.33589045181245458 0 -0.46650518769805832 -0.36367487795397552 0 -0.5 -0.34240983764347771 0 -0.48601192667240611 -0.35738861501940827 0 -0.5 -0.37236739239533939 0 -0.5 -0.34240983764347771 0 -0.47487889077354373 -0.33589045181245458 0 -0.48601192667240611 -0.35738861501940827 0 -0.48419956130454811 -0.38804043774805119 0 -0.48601192667240611 -0.35738861501940827 0 -0.5 -0.37236739239533939 0 -0.48419956130454811 -0.38804043774805119 0 -0.48601192667240611 -0.35738861501940827 0 -0.46650518769805832 -0.36367487795397552 0 -0.47487889077354373 -0.33589045181245458 0 -0.46650518769805832 -0.36367487795397552 0 -0.447913415553231 -0.34398331410998628 0 -0.447913415553231 -0.34398331410998628 0 -0.43647853485496102 -0.36191838296006151 0 -0.42964887574503757 -0.34545344150269242 0 -0.46650518769805832 -0.36367487795397552 0 -0.447913415553231 -0.34398331410998628 0 -0.43647853485496102 -0.36191838296006151 0 -0.44148962219302279 -0.38138251725045069 0 -0.46650518769805832 -0.36367487795397552 0 -0.43647853485496102 -0.36191838296006151 0 -0.41627841541260002 -0.37889459457140101 0 -0.43647853485496102 -0.36191838296006151 0 -0.41702368239780602 -0.35429245482092281 0 -0.44148962219302279 -0.38138251725045069 0 -0.41627841541260002 -0.37889459457140101 0 -0.43647853485496102 -0.36191838296006151 0 -0.43647853485496102 -0.36191838296006151 0 -0.42964887574503757 -0.34545344150269242 0 -0.41702368239780602 -0.35429245482092281 0 -0.41702368239780602 -0.35429245482092281 0 -0.40166941353386848 -0.35728434630464129 0 -0.40261576908179242 -0.33160012200536598 0 -0.42964887574503757 -0.34545344150269242 0 -0.41702368239780602 -0.35429245482092281 0 -0.41886818038395418 -0.33966935537676118 0 -0.41627841541260002 -0.37889459457140101 0 -0.41702368239780602 -0.35429245482092281 0 -0.40166941353386848 -0.35728434630464129 0 -0.41627841541260002 -0.37889459457140101 0 -0.40166941353386848 -0.35728434630464129 0 -0.39188034863555288 -0.37964509591507889 0 -0.38588860964257599 -0.35767678826282329 0 -0.40166941353386848 -0.35728434630464129 0 -0.41627841541260002 -0.37889459457140101 0 -0.39188034863555288 -0.37964509591507889 0 -0.40166941353386848 -0.35728434630464129 0 -0.3795751283023639 -0.37049916240697423 0 -0.38588860964257599 -0.35767678826282329 0 -0.36975610216518279 -0.35761364486880648 0 -0.39188034863555288 -0.37964509591507889 0 -0.3795751283023639 -0.37049916240697423 0 -0.38588860964257599 -0.35767678826282329 0 -0.38588860964257599 -0.35767678826282329 0 -0.38920776837260568 -0.34084478321592387 0 -0.36975610216518279 -0.35761364486880648 0 -0.38920776837260568 -0.34084478321592387 0 -0.37451977029219902 -0.34279340023776222 0 -0.36975610216518279 -0.35761364486880648 0 -0.38920776837260568 -0.34084478321592387 0 -0.36975610216518279 -0.35761364486880648 0 -0.38588860964257599 -0.35767678826282329 0 -0.40166941353386848 -0.35728434630464129 0 -0.38920776837260568 -0.34084478321592387 0 -0.40166941353386848 -0.35728434630464129 0 -0.38706041165513699 -0.33567409803788167 0 -0.40166941353386848 -0.35728434630464129 0 -0.38920776837260568 -0.34084478321592387 0 -0.38706041165513699 -0.33567409803788167 0 -0.40166941353386848 -0.35728434630464129 0 -0.40261576908179242 -0.33160012200536598 0 -0.38706041165513699 -0.33567409803788167 0 -0.38920776837260568 -0.34084478321592387 0 -0.38706041165513699 -0.33567409803788167 0 -0.37451977029219902 -0.34279340023776222 0 -0.38706041165513699 -0.33567409803788167 0 -0.37583369017639562 -0.33291748271410221 0 -0.37529215475831568 -0.32176185567935739 0 -0.38706041165513699 -0.33567409803788167 0 -0.37583369017639562 -0.33291748271410221 0 -0.37451977029219902 -0.34279340023776222 0 -0.38706041165513699 -0.33567409803788167 0 -0.37529215475831568 -0.32176185567935739 0 -0.38820785576577888 -0.30890778918980932 0 -0.40261576908179242 -0.33160012200536598 0 -0.38820785576577888 -0.30890778918980932 0 -0.40261576908179242 -0.33160012200536598 0 -0.41086028825992887 -0.31044534303576721 0 -0.38820785576577888 -0.30890778918980932 0 -0.40261576908179242 -0.33160012200536598 0 -0.38706041165513699 -0.33567409803788167 0 -0.38820785576577888 -0.30890778918980932 0 -0.42604991738628251 -0.32732592944489702 0 -0.42623416932239461 -0.3001543029911628 0 -0.41086028825992887 -0.31044534303576721 0 -0.40261576908179242 -0.33160012200536598 0 -0.42604991738628251 -0.32732592944489702 0 -0.41086028825992887 -0.31044534303576721 0 -0.41702368239780602 -0.35429245482092281 0 -0.40261576908179242 -0.33160012200536598 0 -0.41702368239780602 -0.35429245482092281 0 -0.40261576908179242 -0.33160012200536598 0 -0.41886818038395418 -0.33966935537676118 0 -0.40261576908179242 -0.33160012200536598 0 -0.41886818038395418 -0.33966935537676118 0 -0.42604991738628251 -0.32732592944489702 0 -0.447913415553231 -0.34398331410998628 0 -0.42964887574503757 -0.34545344150269242 0 -0.42604991738628251 -0.32732592944489702 0 -0.42964887574503757 -0.34545344150269242 0 -0.41886818038395418 -0.33966935537676118 0 -0.42604991738628251 -0.32732592944489702 0 -0.44066645989002418 -0.30980293482883919 0 -0.42604991738628251 -0.32732592944489702 0 -0.42623416932239461 -0.3001543029911628 0 -0.4391741251006836 -0.28760337166462002 0 -0.44066645989002418 -0.30980293482883919 0 -0.42623416932239461 -0.3001543029911628 0 -0.4391741251006836 -0.28760337166462002 0 -0.42623416932239461 -0.3001543029911628 0 -0.41475660282637988 -0.28735033372337893 0 -0.41475660282637988 -0.28735033372337893 0 -0.41086028825992887 -0.31044534303576721 0 -0.39434577641029411 -0.28434674714688152 0 -0.42623416932239461 -0.3001543029911628 0 -0.41475660282637988 -0.28735033372337893 0 -0.41086028825992887 -0.31044534303576721 0 -0.41086028825992887 -0.31044534303576721 0 -0.38820785576577888 -0.30890778918980932 0 -0.39434577641029411 -0.28434674714688152 0 -0.38820785576577888 -0.30890778918980932 0 -0.37379994244976539 -0.28621545637425272 0 -0.38820785576577888 -0.30890778918980932 0 -0.39434577641029411 -0.28434674714688152 0 -0.37379994244976539 -0.28621545637425272 0 -0.39434577641029411 -0.28434674714688152 0 -0.38226827304843758 -0.2676208008401868 0 -0.40733351661381012 -0.26296002758792381 0 -0.41475660282637988 -0.28735033372337893 0 -0.39434577641029411 -0.28434674714688152 0 -0.40733351661381012 -0.26296002758792381 0 -0.39434577641029411 -0.28434674714688152 0 -0.38226827304843758 -0.2676208008401868 0 -0.37379994244976539 -0.28621545637425272 0 -0.38226827304843758 -0.2676208008401868 0 -0.37689435143581329 -0.23953105354072601 0 -0.38226827304843758 -0.2676208008401868 0 -0.39388116613615021 -0.25190835773597248 0 -0.37689435143581329 -0.23953105354072601 0 -0.38226827304843758 -0.2676208008401868 0 -0.39388116613615021 -0.25190835773597248 0 -0.40733351661381012 -0.26296002758792381 0 -0.39388116613615021 -0.25190835773597248 0 -0.40733351661381012 -0.26296002758792381 0 -0.40902852344653989 -0.23752154897505351 0 -0.40733351661381012 -0.26296002758792381 0 -0.43333417593093548 -0.2586373813461017 0 -0.40902852344653989 -0.23752154897505351 0 -0.41475660282637988 -0.28735033372337893 0 -0.40733351661381012 -0.26296002758792381 0 -0.43333417593093548 -0.2586373813461017 0 -0.4391741251006836 -0.28760337166462002 0 -0.41475660282637988 -0.28735033372337893 0 -0.43333417593093548 -0.2586373813461017 0 -0.32278184928711828 -0.25631580099049511 0 -0.32345714441085321 -0.28125640928874479 0 -0.30917164110633011 -0.26737166832851089 0 -0.33979855736527159 -0.26522928386501032 0 -0.34837764817689609 -0.28422029474397592 0 -0.32345714441085321 -0.28125640928874479 0 -0.32278184928711828 -0.25631580099049511 0 -0.33979855736527159 -0.26522928386501032 0 -0.32345714441085321 -0.28125640928874479 0 -0.32278184928711828 -0.25631580099049511 0 -0.33979855736527159 -0.26522928386501032 0 -0.34498411581773852 -0.24083079074313951 0 -0.3593920291337519 -0.26352312355869612 0 -0.34498411581773852 -0.24083079074313951 0 -0.33979855736527159 -0.26522928386501032 0 -0.3593920291337519 -0.26352312355869612 0 -0.34498411581773852 -0.24083079074313951 0 -0.38226827304843758 -0.2676208008401868 0 -0.3593920291337519 -0.26352312355869612 0 -0.37689435143581329 -0.23953105354072601 0 -0.3593920291337519 -0.26352312355869612 0 -0.37379994244976539 -0.28621545637425272 0 -0.3593920291337519 -0.26352312355869612 0 -0.34837764817689609 -0.28422029474397592 0 -0.37379994244976539 -0.28621545637425272 0 -0.38226827304843758 -0.2676208008401868 0 -0.3593920291337519 -0.26352312355869612 0 -0.37379994244976539 -0.28621545637425272 0 -0.33979855736527159 -0.26522928386501032 0 -0.3593920291337519 -0.26352312355869612 0 -0.34837764817689609 -0.28422029474397592 0 -0.34837764817689609 -0.28422029474397592 0 -0.37379994244976539 -0.28621545637425272 0 -0.36086055482921892 -0.30764560006882002 0 -0.38820785576577888 -0.30890778918980932 0 -0.37379994244976539 -0.28621545637425272 0 -0.36086055482921892 -0.30764560006882002 0 -0.34837764817689609 -0.28422029474397592 0 -0.36086055482921892 -0.30764560006882002 0 -0.33352134422392299 -0.29881408396563691 0 -0.36086055482921892 -0.30764560006882002 0 -0.33352134422392299 -0.29881408396563691 0 -0.33829347011679822 -0.31848098185014129 0 -0.34837764817689609 -0.28422029474397592 0 -0.33352134422392299 -0.29881408396563691 0 -0.32345714441085321 -0.28125640928874479 0 -0.33352134422392299 -0.29881408396563691 0 -0.32345714441085321 -0.28125640928874479 0 -0.30999659452928707 -0.3068939168385254 0 -0.33352134422392299 -0.29881408396563691 0 -0.33829347011679822 -0.31848098185014129 0 -0.30999659452928707 -0.3068939168385254 0 -0.33829347011679822 -0.31848098185014129 0 -0.31023869473647142 -0.32963524990182319 0 -0.30999659452928707 -0.3068939168385254 0 -0.32571674798407568 -0.3404475987392872 0 -0.33829347011679822 -0.31848098185014129 0 -0.31023869473647142 -0.32963524990182319 0 -0.32571674798407568 -0.3404475987392872 0 -0.33829347011679822 -0.31848098185014129 0 -0.32571674798407568 -0.3404475987392872 0 -0.34367468369338289 -0.33477075744516538 0 -0.33829347011679822 -0.31848098185014129 0 -0.32571674798407568 -0.3404475987392872 0 -0.34367468369338289 -0.33477075744516538 0 -0.34705026532419098 -0.35370806137460342 0 -0.36086055482921892 -0.30764560006882002 0 -0.33829347011679822 -0.31848098185014129 0 -0.36070223043122263 -0.3326786531017511 0 -0.37529215475831568 -0.32176185567935739 0 -0.36086055482921892 -0.30764560006882002 0 -0.36070223043122263 -0.3326786531017511 0 -0.37529215475831568 -0.32176185567935739 0 -0.38820785576577888 -0.30890778918980932 0 -0.36086055482921892 -0.30764560006882002 0 -0.37583369017639562 -0.33291748271410221 0 -0.37451977029219902 -0.34279340023776222 0 -0.36070223043122263 -0.3326786531017511 0 -0.37583369017639562 -0.33291748271410221 0 -0.37529215475831568 -0.32176185567935739 0 -0.36070223043122263 -0.3326786531017511 0 -0.37451977029219902 -0.34279340023776222 0 -0.36070223043122263 -0.3326786531017511 0 -0.36040334573765481 -0.34578907241394091 0 -0.34367468369338289 -0.33477075744516538 0 -0.33829347011679822 -0.31848098185014129 0 -0.36070223043122263 -0.3326786531017511 0 -0.34367468369338289 -0.33477075744516538 0 -0.36070223043122263 -0.3326786531017511 0 -0.36040334573765481 -0.34578907241394091 0 -0.34367468369338289 -0.33477075744516538 0 -0.34705026532419098 -0.35370806137460342 0 -0.36040334573765481 -0.34578907241394091 0 -0.34705026532419098 -0.35370806137460342 0 -0.36040334573765481 -0.34578907241394091 0 -0.36975610216518279 -0.35761364486880648 0 -0.37451977029219902 -0.34279340023776222 0 -0.36040334573765481 -0.34578907241394091 0 -0.36975610216518279 -0.35761364486880648 0 -0.3795751283023639 -0.37049916240697423 0 -0.36975610216518279 -0.35761364486880648 0 -0.36747219157488098 -0.37991114783798341 0 -0.36975610216518279 -0.35761364486880648 0 -0.35030443595775951 -0.37438250652168892 0 -0.36747219157488098 -0.37991114783798341 0 -0.36975610216518279 -0.35761364486880648 0 -0.35030443595775951 -0.37438250652168892 0 -0.34705026532419098 -0.35370806137460342 0 -0.36975610216518279 -0.35761364486880648 0 -0.35030443595775951 -0.37438250652168892 0 -0.35030443595775951 -0.37438250652168892 0 -0.33172223090455649 -0.36839836107506058 0 -0.34705026532419098 -0.35370806137460342 0 -0.35030443595775951 -0.37438250652168892 0 -0.33172223090455649 -0.36839836107506058 0 -0.32571674798407568 -0.3404475987392872 0 -0.34705026532419098 -0.35370806137460342 0 -0.33172223090455649 -0.36839836107506058 0 -0.32571674798407568 -0.3404475987392872 0 -0.31314002585135309 -0.36241421562843312 0 -0.32571674798407568 -0.3404475987392872 0 -0.31314002585135309 -0.36241421562843312 0 -0.299037949816506 -0.35142202038049569 0 -0.32571674798407568 -0.3404475987392872 0 -0.33172223090455649 -0.36839836107506058 0 -0.31314002585135309 -0.36241421562843312 0 -0.33172223090455649 -0.36839836107506058 0 -0.31314002585135309 -0.36241421562843312 0 -0.33172223090455649 -0.36839836107506058 0 -0.31314002585135309 -0.36241421562843312 0 -0.31754744474825458 -0.38456455009503382 0 -0.31314002585135309 -0.36241421562843312 0 -0.30031532439312097 -0.38481395545552849 0 -0.31314002585135309 -0.36241421562843312 0 -0.29772354404975249 -0.36845887866070592 0 -0.30031532439312097 -0.38481395545552849 0 -0.31314002585135309 -0.36241421562843312 0 -0.29772354404975249 -0.36845887866070592 0 -0.28873159933626241 -0.35455381510161588 0 -0.31314002585135309 -0.36241421562843312 0 -0.28873159933626241 -0.35455381510161588 0 -0.31314002585135309 -0.36241421562843312 0 -0.299037949816506 -0.35142202038049569 0 -0.28873159933626241 -0.35455381510161588 0 -0.299037949816506 -0.35142202038049569 0 -0.28873159933626241 -0.35455381510161588 0 -0.2794031614945609 -0.3416936433091417 0 -0.29772354404975249 -0.36845887866070592 0 -0.28873159933626241 -0.35455381510161588 0 -0.27942074175300319 -0.3660188322086344 0 -0.29772354404975249 -0.36845887866070592 0 -0.27942074175300319 -0.3660188322086344 0 -0.28190264272752058 -0.38538975805663328 0 -0.27942074175300319 -0.3660188322086344 0 -0.26466211208253593 -0.37406575303563838 0 -0.26432317282117163 -0.34669341457479869 0 -0.26466211208253593 -0.37406575303563838 0 -0.26432317282117163 -0.34669341457479869 0 -0.24661303657540459 -0.36278533327391421 0 -0.26466211208253593 -0.37406575303563838 0 -0.24314747969797831 -0.38421358159876701 0 -0.24661303657540459 -0.36278533327391421 0 -0.26432317282117163 -0.34669341457479869 0 -0.24661303657540459 -0.36278533327391421 0 -0.2399147463060807 -0.33883301404798161 0 -0.28873159933626241 -0.35455381510161588 0 -0.26432317282117163 -0.34669341457479869 0 -0.28873159933626241 -0.35455381510161588 0 -0.26432317282117163 -0.34669341457479869 0 -0.2794031614945609 -0.3416936433091417 0 -0.28873159933626241 -0.35455381510161588 0 -0.27942074175300319 -0.3660188322086344 0 -0.26432317282117163 -0.34669341457479869 0 -0.2794031614945609 -0.3416936433091417 0 -0.25917634004144369 -0.32650961297594971 0 -0.2857098346518494 -0.32711181747059931 0 -0.26432317282117163 -0.34669341457479869 0 -0.2794031614945609 -0.3416936433091417 0 -0.25917634004144369 -0.32650961297594971 0 -0.26432317282117163 -0.34669341457479869 0 -0.25917634004144369 -0.32650961297594971 0 -0.2399147463060807 -0.33883301404798161 0 -0.26432317282117163 -0.34669341457479869 0 -0.2399147463060807 -0.33883301404798161 0 -0.25917634004144369 -0.32650961297594971 0 -0.2857098346518494 -0.32711181747059931 0 -0.27238171948719292 -0.30280161456070298 0 -0.2857098346518494 -0.32711181747059931 0 -0.27238171948719292 -0.30280161456070298 0 -0.299037949816506 -0.35142202038049569 0 -0.2857098346518494 -0.32711181747059931 0 -0.299037949816506 -0.35142202038049569 0 -0.2794031614945609 -0.3416936433091417 0 -0.2857098346518494 -0.32711181747059931 0 -0.32571674798407568 -0.3404475987392872 0 -0.299037949816506 -0.35142202038049569 0 -0.31023869473647142 -0.32963524990182319 0 -0.299037949816506 -0.35142202038049569 0 -0.2857098346518494 -0.32711181747059931 0 -0.31023869473647142 -0.32963524990182319 0 -0.2857098346518494 -0.32711181747059931 0 -0.31023869473647142 -0.32963524990182319 0 -0.30999659452928707 -0.3068939168385254 0 -0.30999659452928707 -0.3068939168385254 0 -0.29124652373958371 -0.30188089571611582 0 -0.29323999470335621 -0.28093585951753319 0 -0.32345714441085321 -0.28125640928874479 0 -0.30999659452928707 -0.3068939168385254 0 -0.29323999470335621 -0.28093585951753319 0 -0.29124652373958371 -0.30188089571611582 0 -0.27238171948719292 -0.30280161456070298 0 -0.29323999470335621 -0.28093585951753319 0 -0.2857098346518494 -0.32711181747059931 0 -0.29124652373958371 -0.30188089571611582 0 -0.27238171948719292 -0.30280161456070298 0 -0.2857098346518494 -0.32711181747059931 0 -0.30999659452928707 -0.3068939168385254 0 -0.29124652373958371 -0.30188089571611582 0 -0.27238171948719292 -0.30280161456070298 0 -0.25905360432253632 -0.27849141165080649 0 -0.2408612766284427 -0.30573436528148151 0 -0.25917634004144369 -0.32650961297594971 0 -0.27238171948719292 -0.30280161456070298 0 -0.2408612766284427 -0.30573436528148151 0 -0.27238171948719292 -0.30280161456070298 0 -0.25905360432253632 -0.27849141165080649 0 -0.29323999470335621 -0.28093585951753319 0 -0.27238171948719292 -0.30280161456070298 0 -0.25905360432253632 -0.27849141165080649 0 -0.25905360432253632 -0.27849141165080649 0 -0.27208501949394792 -0.25518223783841448 0 -0.29323999470335621 -0.28093585951753319 0 -0.25905360432253632 -0.27849141165080649 0 -0.24572548915787959 -0.25418120874090999 0 -0.25905360432253632 -0.27849141165080649 0 -0.27208501949394792 -0.25518223783841448 0 -0.24572548915787959 -0.25418120874090999 0 -0.27208501949394792 -0.25518223783841448 0 -0.29323999470335621 -0.28093585951753319 0 -0.29720757602399273 -0.25097860351727069 0 -0.29323999470335621 -0.28093585951753319 0 -0.30917164110633011 -0.26737166832851089 0 -0.29720757602399273 -0.25097860351727069 0 -0.32345714441085321 -0.28125640928874479 0 -0.29323999470335621 -0.28093585951753319 0 -0.30917164110633011 -0.26737166832851089 0 -0.32278184928711828 -0.25631580099049511 0 -0.30917164110633011 -0.26737166832851089 0 -0.29720757602399273 -0.25097860351727069 0 -0.37839327844103138 -0.5 0 -0.33737774795201719 -0.47442718049827293 0 -0.30373429414885311 -0.5 0 -0.33077018042708889 -0.44659981008250049 0 -0.33737774795201719 -0.47442718049827293 0 -0.30387355834257629 -0.47205094325691782 0 -0.33077018042708889 -0.44659981008250049 0 -0.33737774795201719 -0.47442718049827293 0 -0.35558636848995928 -0.46102300645048122 0 -0.33077018042708889 -0.44659981008250049 0 -0.31795071961062049 -0.43256156452041722 0 -0.30401282253629952 -0.44526859636629812 0 -0.33077018042708889 -0.44659981008250049 0 -0.30401282253629952 -0.44526859636629812 0 -0.30387355834257629 -0.47205094325691782 0 -0.33737774795201719 -0.47442718049827293 0 -0.30373429414885311 -0.5 0 -0.30387355834257629 -0.47205094325691782 0 -0.37663782750341551 -0.44942816039535788 0 -0.37839327844103138 -0.5 0 -0.35558636848995928 -0.46102300645048122 0 -0.37839327844103138 -0.5 0 -0.33737774795201719 -0.47442718049827293 0 -0.35558636848995928 -0.46102300645048122 0 -0.33077018042708889 -0.44659981008250049 0 -0.35558636848995928 -0.46102300645048122 0 -0.35475280812624332 -0.43465988127627481 0 -0.37663782750341551 -0.44942816039535788 0 -0.35558636848995928 -0.46102300645048122 0 -0.35475280812624332 -0.43465988127627481 0 -0.37663782750341551 -0.44942816039535788 0 -0.35475280812624332 -0.43465988127627481 0 -0.37663782750341551 -0.44942816039535788 0 -0.37052375847279517 -0.4189845139465414 0 -0.35475280812624332 -0.43465988127627481 0 -0.37052375847279517 -0.4189845139465414 0 -0.3535618626278727 -0.41082014811930218 0 -0.37474971554337089 -0.39783367767580391 0 -0.37052375847279517 -0.4189845139465414 0 -0.3535618626278727 -0.41082014811930218 0 -0.35475280812624332 -0.43465988127627481 0 -0.3535618626278727 -0.41082014811930218 0 -0.35475280812624332 -0.43465988127627481 0 -0.3328677887490713 -0.41989160215719162 0 -0.35475280812624332 -0.43465988127627481 0 -0.3328677887490713 -0.41989160215719162 0 -0.36747219157488098 -0.37991114783798341 0 -0.37474971554337089 -0.39783367767580391 0 -0.35322882541192069 -0.39216945381017948 0 -0.3535618626278727 -0.41082014811930218 0 -0.37474971554337089 -0.39783367767580391 0 -0.35322882541192069 -0.39216945381017948 0 -0.3535618626278727 -0.41082014811930218 0 -0.35322882541192069 -0.39216945381017948 0 -0.33886496998907278 -0.40199291431152973 0 -0.35030443595775951 -0.37438250652168892 0 -0.36747219157488098 -0.37991114783798341 0 -0.35030443595775951 -0.37438250652168892 0 -0.35322882541192069 -0.39216945381017948 0 -0.33441977677856782 -0.38807632839476952 0 -0.35030443595775951 -0.37438250652168892 0 -0.36747219157488098 -0.37991114783798341 0 -0.35322882541192069 -0.39216945381017948 0 -0.35030443595775951 -0.37438250652168892 0 -0.33441977677856782 -0.38807632839476952 0 -0.35030443595775951 -0.37438250652168892 0 -0.33172223090455649 -0.36839836107506058 0 -0.33441977677856782 -0.38807632839476952 0 -0.33441977677856782 -0.38807632839476952 0 -0.33886496998907278 -0.40199291431152973 0 -0.31853511759937592 -0.40177015026784962 0 -0.35322882541192069 -0.39216945381017948 0 -0.33441977677856782 -0.38807632839476952 0 -0.33886496998907278 -0.40199291431152973 0 -0.31853511759937592 -0.40177015026784962 0 -0.31754744474825458 -0.38456455009503382 0 -0.31038999851945048 -0.39360656555771789 0 -0.33441977677856782 -0.38807632839476952 0 -0.31853511759937592 -0.40177015026784962 0 -0.31754744474825458 -0.38456455009503382 0 -0.33441977677856782 -0.38807632839476952 0 -0.31853511759937592 -0.40177015026784962 0 -0.31853511759937592 -0.40177015026784962 0 -0.31038999851945048 -0.39360656555771789 0 -0.31098276937189939 -0.4051233230381085 0 -0.33172223090455649 -0.36839836107506058 0 -0.33441977677856782 -0.38807632839476952 0 -0.31754744474825458 -0.38456455009503382 0 -0.33077018042708889 -0.44659981008250049 0 -0.35475280812624332 -0.43465988127627481 0 -0.3328677887490713 -0.41989160215719162 0 -0.33886496998907278 -0.40199291431152973 0 -0.31853511759937592 -0.40177015026784962 0 -0.3328677887490713 -0.41989160215719162 0 -0.3535618626278727 -0.41082014811930218 0 -0.33886496998907278 -0.40199291431152973 0 -0.3328677887490713 -0.41989160215719162 0 -0.3328677887490713 -0.41989160215719162 0 -0.30415208673002259 -0.41848624947567847 0 -0.31098276937189939 -0.4051233230381085 0 -0.3328677887490713 -0.41989160215719162 0 -0.31098276937189939 -0.4051233230381085 0 -0.31853511759937592 -0.40177015026784962 0 -0.3328677887490713 -0.41989160215719162 0 -0.31098276937189939 -0.4051233230381085 0 -0.33077018042708889 -0.44659981008250049 0 -0.3328677887490713 -0.41989160215719162 0 -0.31795071961062049 -0.43256156452041722 0 -0.3328677887490713 -0.41989160215719162 0 -0.31795071961062049 -0.43256156452041722 0 -0.30415208673002259 -0.41848624947567847 0 -0.31795071961062049 -0.43256156452041722 0 -0.30415208673002259 -0.41848624947567847 0 -0.30401282253629952 -0.44526859636629812 0 -0.30415208673002259 -0.41848624947567847 0 -0.28479916250060577 -0.4312991812690295 0 -0.30401282253629952 -0.44526859636629812 0 -0.30415208673002259 -0.41848624947567847 0 -0.30401282253629952 -0.44526859636629812 0 -0.30415208673002259 -0.41848624947567847 0 -0.28786761659552668 -0.40731658445440821 0 -0.31098276937189939 -0.4051233230381085 0 -0.30415208673002259 -0.41848624947567847 0 -0.28786761659552668 -0.40731658445440821 0 -0.28479916250060577 -0.4312991812690295 0 -0.28786761659552668 -0.40731658445440821 0 -0.28479916250060577 -0.4312991812690295 0 -0.27335914722238108 -0.41753810728484231 0 -0.31754744474825458 -0.38456455009503382 0 -0.30031532439312097 -0.38481395545552849 0 -0.31038999851945048 -0.39360656555771789 0 -0.31314002585135309 -0.36241421562843312 0 -0.31754744474825458 -0.38456455009503382 0 -0.30031532439312097 -0.38481395545552849 0 -0.28786761659552668 -0.40731658445440821 0 -0.30031532439312097 -0.38481395545552849 0 -0.31038999851945048 -0.39360656555771789 0 -0.28786761659552668 -0.40731658445440821 0 -0.31038999851945048 -0.39360656555771789 0 -0.31098276937189939 -0.4051233230381085 0 -0.28786761659552668 -0.40731658445440821 0 -0.30031532439312097 -0.38481395545552849 0 -0.28190264272752058 -0.38538975805663328 0 -0.29772354404975249 -0.36845887866070592 0 -0.30031532439312097 -0.38481395545552849 0 -0.28190264272752058 -0.38538975805663328 0 -0.26466211208253593 -0.37406575303563838 0 -0.28190264272752058 -0.38538975805663328 0 -0.26550754814675248 -0.39576508302658758 0 -0.27942074175300319 -0.3660188322086344 0 -0.26466211208253593 -0.37406575303563838 0 -0.28190264272752058 -0.38538975805663328 0 -0.28786761659552668 -0.40731658445440821 0 -0.28190264272752058 -0.38538975805663328 0 -0.26550754814675248 -0.39576508302658758 0 -0.28786761659552668 -0.40731658445440821 0 -0.26550754814675248 -0.39576508302658758 0 -0.26550754814675248 -0.39576508302658758 0 -0.24655262103297629 -0.40208434163336743 0 -0.24314747969797831 -0.38421358159876701 0 -0.26550754814675248 -0.39576508302658758 0 -0.25601905339957792 -0.41718157880897111 0 -0.24655262103297629 -0.40208434163336743 0 -0.26550754814675248 -0.39576508302658758 0 -0.24314747969797831 -0.38421358159876701 0 -0.26466211208253593 -0.37406575303563838 0 -0.26550754814675248 -0.39576508302658758 0 -0.24314747969797831 -0.38421358159876701 0 -0.28479916250060577 -0.4312991812690295 0 -0.27335914722238108 -0.41753810728484231 0 -0.26121924869550861 -0.43918187090680699 0 -0.28786761659552668 -0.40731658445440821 0 -0.26550754814675248 -0.39576508302658758 0 -0.27335914722238108 -0.41753810728484231 0 -0.26550754814675248 -0.39576508302658758 0 -0.27335914722238108 -0.41753810728484231 0 -0.25601905339957792 -0.41718157880897111 0 -0.25601905339957792 -0.41718157880897111 0 -0.26121924869550861 -0.43918187090680699 0 -0.23449546600356311 -0.43774481449174257 0 -0.27335914722238108 -0.41753810728484231 0 -0.25601905339957792 -0.41718157880897111 0 -0.26121924869550861 -0.43918187090680699 0 -0.28479916250060577 -0.4312991812690295 0 -0.26121924869550861 -0.43918187090680699 0 -0.27965668334797228 -0.4652512662553413 0 -0.26121924869550861 -0.43918187090680699 0 -0.27965668334797228 -0.4652512662553413 0 -0.23483274627990861 -0.4669223628361302 0 -0.28479916250060577 -0.4312991812690295 0 -0.27965668334797228 -0.4652512662553413 0 -0.30401282253629952 -0.44526859636629812 0 -0.27965668334797228 -0.4652512662553413 0 -0.30401282253629952 -0.44526859636629812 0 -0.30387355834257629 -0.47205094325691782 0 -0.30401282253629952 -0.44526859636629812 0 -0.30387355834257629 -0.47205094325691782 0 -0.27965668334797228 -0.4652512662553413 0 -0.30373429414885311 -0.5 0 -0.30387355834257629 -0.47205094325691782 0 -0.30373429414885311 -0.5 0 -0.30387355834257629 -0.47205094325691782 0 -0.27965668334797228 -0.4652512662553413 0 -0.25848948192509852 -0.5 0 -0.23483274627990861 -0.4669223628361302 0 -0.27965668334797228 -0.4652512662553413 0 -0.30373429414885311 -0.5 0 -0.25848948192509852 -0.5 0 -0.23483274627990861 -0.4669223628361302 0 -0.1646692998925067 -0.5 0 -0.18740998102895451 -0.45391125447392 0 -0.25848948192509852 -0.5 0 -0.23483274627990861 -0.4669223628361302 0 -0.1646692998925067 -0.5 0 -0.26121924869550861 -0.43918187090680699 0 -0.23449546600356311 -0.43774481449174257 0 -0.23483274627990861 -0.4669223628361302 0 -0.23449546600356311 -0.43774481449174257 0 -0.23483274627990861 -0.4669223628361302 0 -0.21375513640424551 -0.44977245160919838 0 -0.23483274627990861 -0.4669223628361302 0 -0.21375513640424551 -0.44977245160919838 0 -0.18740998102895451 -0.45391125447392 0 -0.21375513640424551 -0.44977245160919838 0 -0.19498666227383571 -0.42834192123633369 0 -0.21375513640424551 -0.44977245160919838 0 -0.18740998102895451 -0.45391125447392 0 -0.19498666227383571 -0.42834192123633369 0 -0.1646692998925067 -0.5 0 -0.1311211295485811 -0.46058297344932858 0 -0.097376397031216366 -0.5 0 -0.1646692998925067 -0.5 0 -0.18740998102895451 -0.45391125447392 0 -0.1612366650392727 -0.45148988104527321 0 -0.18740998102895451 -0.45391125447392 0 -0.1612366650392727 -0.45148988104527321 0 -0.17451680510550771 -0.4249078350944695 0 -0.1612366650392727 -0.45148988104527321 0 -0.1311211295485811 -0.46058297344932858 0 -0.1463323005545861 -0.42600496530423221 0 -0.1311211295485811 -0.46058297344932858 0 -0.1463323005545861 -0.42600496530423221 0 -0.1181477960036645 -0.42710209551399492 0 -0.1646692998925067 -0.5 0 -0.1612366650392727 -0.45148988104527321 0 -0.1311211295485811 -0.46058297344932858 0 -0.15184862394324419 -0.39559248381207129 0 -0.15798378097704391 -0.40394694591823782 0 -0.15744971401301569 -0.38548086049060459 0 -0.15184862394324419 -0.39559248381207129 0 -0.14162295602231831 -0.40657889358206067 0 -0.15798378097704391 -0.40394694591823782 0 -0.14201326416125479 -0.39466125094266957 0 -0.15184862394324419 -0.39559248381207129 0 -0.14162295602231831 -0.40657889358206067 0 -0.14201326416125479 -0.39466125094266957 0 -0.15184862394324419 -0.39559248381207129 0 -0.15744971401301569 -0.38548086049060459 0 -0.14881959710070999 -0.38601714360934841 0 -0.15152631255754639 -0.37871730401179399 0 -0.15744971401301569 -0.38548086049060459 0 -0.14201326416125479 -0.39466125094266957 0 -0.15744971401301569 -0.38548086049060459 0 -0.14201326416125479 -0.39466125094266957 0 -0.14881959710070999 -0.38601714360934841 0 -0.15744971401301569 -0.38548086049060459 0 -0.15152631255754639 -0.37871730401179399 0 -0.15744971401301569 -0.38548086049060459 0 -0.15527764869299951 -0.38135469327952282 0 -0.15152631255754639 -0.37871730401179399 0 -0.15744971401301569 -0.38548086049060459 0 -0.15152631255754639 -0.37871730401179399 0 -0.14428909767102319 -0.38520915899232538 0 -0.13726351982990259 -0.38045473602252272 0 -0.14201326416125479 -0.39466125094266957 0 -0.14428909767102319 -0.38520915899232538 0 -0.13726351982990259 -0.38045473602252272 0 -0.14201326416125479 -0.39466125094266957 0 -0.14881959710070999 -0.38601714360934841 0 -0.14428909767102319 -0.38520915899232538 0 -0.14881959710070999 -0.38601714360934841 0 -0.15152631255754639 -0.37871730401179399 0 -0.14428909767102319 -0.38520915899232538 0 -0.14201326416125479 -0.39466125094266957 0 -0.13726351982990259 -0.38045473602252272 0 -0.12842500622326711 -0.39529102959748541 0 -0.13726351982990259 -0.38045473602252272 0 -0.12842500622326711 -0.39529102959748541 0 -0.12745748852889849 -0.36706492520902351 0 -0.12842500622326711 -0.39529102959748541 0 -0.12745748852889849 -0.36706492520902351 0 -0.14201326416125479 -0.39466125094266957 0 -0.12842500622326711 -0.39529102959748541 0 -0.1265768143094938 -0.40384164139473461 0 -0.14201326416125479 -0.39466125094266957 0 -0.1265768143094938 -0.40384164139473461 0 -0.14162295602231831 -0.40657889358206067 0 -0.14201326416125479 -0.39466125094266957 0 -0.1265768143094938 -0.40384164139473461 0 -0.12902958039563359 -0.41508280467006481 0 -0.1463323005545861 -0.42600496530423221 0 -0.14162295602231831 -0.40657889358206067 0 -0.1265768143094938 -0.40384164139473461 0 -0.12902958039563359 -0.41508280467006481 0 -0.14162295602231831 -0.40657889358206067 0 -0.1463323005545861 -0.42600496530423221 0 -0.1181477960036645 -0.42710209551399492 0 -0.12902958039563359 -0.41508280467006481 0 -0.1463323005545861 -0.42600496530423221 0 -0.1181477960036645 -0.42710209551399492 0 -0.1463323005545861 -0.42600496530423221 0 -0.16376276869514089 -0.41544278429510212 0 -0.15798378097704391 -0.40394694591823782 0 -0.1463323005545861 -0.42600496530423221 0 -0.14162295602231831 -0.40657889358206067 0 -0.15798378097704391 -0.40394694591823782 0 -0.16376276869514089 -0.41544278429510212 0 -0.17451680510550771 -0.4249078350944695 0 -0.17621818814342591 -0.406911390863469 0 -0.16376276869514089 -0.41544278429510212 0 -0.17621818814342591 -0.406911390863469 0 -0.15798378097704391 -0.40394694591823782 0 -0.1463323005545861 -0.42600496530423221 0 -0.17451680510550771 -0.4249078350944695 0 -0.1612366650392727 -0.45148988104527321 0 -0.1463323005545861 -0.42600496530423221 0 -0.17451680510550771 -0.4249078350944695 0 -0.1463323005545861 -0.42600496530423221 0 -0.16376276869514089 -0.41544278429510212 0 -0.17451680510550771 -0.4249078350944695 0 -0.18740998102895451 -0.45391125447392 0 -0.17451680510550771 -0.4249078350944695 0 -0.19498666227383571 -0.42834192123633369 0 -0.17451680510550771 -0.4249078350944695 0 -0.17621818814342591 -0.406911390863469 0 -0.19498666227383571 -0.42834192123633369 0 -0.17621818814342591 -0.406911390863469 0 -0.19498666227383571 -0.42834192123633369 0 -0.17621818814342591 -0.406911390863469 0 -0.19016676416244091 -0.39266351829727048 0 -0.19530973086103229 -0.4098147074524483 0 -0.17621818814342591 -0.406911390863469 0 -0.1755927761104715 -0.38952330680594621 0 -0.19016676416244091 -0.39266351829727048 0 -0.17621818814342591 -0.406911390863469 0 -0.15798378097704391 -0.40394694591823782 0 -0.15744971401301569 -0.38548086049060459 0 -0.17621818814342591 -0.406911390863469 0 -0.15744971401301569 -0.38548086049060459 0 -0.17621818814342591 -0.406911390863469 0 -0.15744971401301569 -0.38548086049060459 0 -0.1755927761104715 -0.38952330680594621 0 -0.15744971401301569 -0.38548086049060459 0 -0.177938528406723 -0.37329571961686542 0 -0.15744971401301569 -0.38548086049060459 0 -0.1755927761104715 -0.38952330680594621 0 -0.177938528406723 -0.37329571961686542 0 -0.15744971401301569 -0.38548086049060459 0 -0.16346185171254879 -0.37083825098592388 0 -0.177938528406723 -0.37329571961686542 0 -0.15527764869299951 -0.38135469327952282 0 -0.15744971401301569 -0.38548086049060459 0 -0.16346185171254879 -0.37083825098592388 0 -0.1755927761104715 -0.38952330680594621 0 -0.19016676416244091 -0.39266351829727048 0 -0.177938528406723 -0.37329571961686542 0 -0.20267183096179531 -0.38031136218267869 0 -0.19016676416244091 -0.39266351829727048 0 -0.177938528406723 -0.37329571961686542 0 -0.19016676416244091 -0.39266351829727048 0 -0.20533404419714649 -0.39923935079890982 0 -0.19530973086103229 -0.4098147074524483 0 -0.20267183096179531 -0.38031136218267869 0 -0.19016676416244091 -0.39266351829727048 0 -0.20533404419714649 -0.39923935079890982 0 -0.20267183096179531 -0.38031136218267869 0 -0.20533404419714649 -0.39923935079890982 0 -0.2241660555881419 -0.39511857287555852 0 -0.20533404419714649 -0.39923935079890982 0 -0.21436026593760049 -0.41934028283439401 0 -0.2241660555881419 -0.39511857287555852 0 -0.20267183096179531 -0.38031136218267869 0 -0.2241660555881419 -0.39511857287555852 0 -0.22078741124920409 -0.37266208017094649 0 -0.19498666227383571 -0.42834192123633369 0 -0.19530973086103229 -0.4098147074524483 0 -0.21436026593760049 -0.41934028283439401 0 -0.17621818814342591 -0.406911390863469 0 -0.19498666227383571 -0.42834192123633369 0 -0.19530973086103229 -0.4098147074524483 0 -0.20533404419714649 -0.39923935079890982 0 -0.19530973086103229 -0.4098147074524483 0 -0.21436026593760049 -0.41934028283439401 0 -0.21375513640424551 -0.44977245160919838 0 -0.19498666227383571 -0.42834192123633369 0 -0.21436026593760049 -0.41934028283439401 0 -0.23449546600356311 -0.43774481449174257 0 -0.21375513640424551 -0.44977245160919838 0 -0.21436026593760049 -0.41934028283439401 0 -0.23449546600356311 -0.43774481449174257 0 -0.21436026593760049 -0.41934028283439401 0 -0.2345682100966785 -0.41577130427069242 0 -0.21436026593760049 -0.41934028283439401 0 -0.2345682100966785 -0.41577130427069242 0 -0.2241660555881419 -0.39511857287555852 0 -0.25601905339957792 -0.41718157880897111 0 -0.2345682100966785 -0.41577130427069242 0 -0.24655262103297629 -0.40208434163336743 0 -0.25601905339957792 -0.41718157880897111 0 -0.23449546600356311 -0.43774481449174257 0 -0.2345682100966785 -0.41577130427069242 0 -0.24314747969797831 -0.38421358159876701 0 -0.22078741124920409 -0.37266208017094649 0 -0.2241660555881419 -0.39511857287555852 0 -0.24314747969797831 -0.38421358159876701 0 -0.22078741124920409 -0.37266208017094649 0 -0.2345682100966785 -0.41577130427069242 0 -0.2241660555881419 -0.39511857287555852 0 -0.24655262103297629 -0.40208434163336743 0 -0.2241660555881419 -0.39511857287555852 0 -0.24655262103297629 -0.40208434163336743 0 -0.24314747969797831 -0.38421358159876701 0 -0.24314747969797831 -0.38421358159876701 0 -0.24661303657540459 -0.36278533327391421 0 -0.22078741124920409 -0.37266208017094649 0 -0.24661303657540459 -0.36278533327391421 0 -0.22078741124920409 -0.37266208017094649 0 -0.2290537982399232 -0.35504959783039391 0 -0.22078741124920409 -0.37266208017094649 0 -0.2290537982399232 -0.35504959783039391 0 -0.2104099157550865 -0.35398428355216599 0 -0.22291143805720551 -0.3445740470146253 0 -0.2290537982399232 -0.35504959783039391 0 -0.2399147463060807 -0.33883301404798161 0 -0.22291143805720551 -0.3445740470146253 0 -0.2290537982399232 -0.35504959783039391 0 -0.2104099157550865 -0.35398428355216599 0 -0.24661303657540459 -0.36278533327391421 0 -0.2290537982399232 -0.35504959783039391 0 -0.2399147463060807 -0.33883301404798161 0 -0.25917634004144369 -0.32650961297594971 0 -0.2399147463060807 -0.33883301404798161 0 -0.23164046890080769 -0.32269942158694209 0 -0.25917634004144369 -0.32650961297594971 0 -0.23164046890080769 -0.32269942158694209 0 -0.2408612766284427 -0.30573436528148151 0 -0.23164046890080769 -0.32269942158694209 0 -0.2408612766284427 -0.30573436528148151 0 -0.2139367057669308 -0.31038058762557069 0 -0.23164046890080769 -0.32269942158694209 0 -0.21550631979098989 -0.33097261352116453 0 -0.2139367057669308 -0.31038058762557069 0 -0.2399147463060807 -0.33883301404798161 0 -0.21550631979098989 -0.33097261352116453 0 -0.2399147463060807 -0.33883301404798161 0 -0.23164046890080769 -0.32269942158694209 0 -0.21550631979098989 -0.33097261352116453 0 -0.22291143805720551 -0.3445740470146253 0 -0.2399147463060807 -0.33883301404798161 0 -0.21550631979098989 -0.33097261352116453 0 -0.22291143805720551 -0.3445740470146253 0 -0.21550631979098989 -0.33097261352116453 0 -0.2104099157550865 -0.35398428355216599 0 -0.21550631979098989 -0.33097261352116453 0 -0.19475429980254461 -0.3417759151899783 0 -0.2104099157550865 -0.35398428355216599 0 -0.21550631979098989 -0.33097261352116453 0 -0.19109789327589891 -0.32311221299434728 0 -0.2139367057669308 -0.31038058762557069 0 -0.21550631979098989 -0.33097261352116453 0 -0.19109789327589891 -0.32311221299434728 0 -0.21550631979098989 -0.33097261352116453 0 -0.19109789327589891 -0.32311221299434728 0 -0.19475429980254461 -0.3417759151899783 0 -0.19109789327589891 -0.32311221299434728 0 -0.19475429980254461 -0.3417759151899783 0 -0.1766972627932013 -0.33145538584348427 0 -0.19475429980254461 -0.3417759151899783 0 -0.19842734280043009 -0.36111057874312602 0 -0.17183298288936311 -0.34737158741631241 0 -0.19475429980254461 -0.3417759151899783 0 -0.19842734280043009 -0.36111057874312602 0 -0.2104099157550865 -0.35398428355216599 0 -0.20267183096179531 -0.38031136218267869 0 -0.19842734280043009 -0.36111057874312602 0 -0.177938528406723 -0.37329571961686542 0 -0.19842734280043009 -0.36111057874312602 0 -0.177938528406723 -0.37329571961686542 0 -0.22078741124920409 -0.37266208017094649 0 -0.19842734280043009 -0.36111057874312602 0 -0.2104099157550865 -0.35398428355216599 0 -0.22078741124920409 -0.37266208017094649 0 -0.19842734280043009 -0.36111057874312602 0 -0.20267183096179531 -0.38031136218267869 0 -0.22078741124920409 -0.37266208017094649 0 -0.19842734280043009 -0.36111057874312602 0 -0.19842734280043009 -0.36111057874312602 0 -0.2104099157550865 -0.35398428355216599 0 -0.25905360432253632 -0.27849141165080649 0 -0.22746079315295251 -0.26801808164491669 0 -0.23654480027928321 -0.28626923173092611 0 -0.25905360432253632 -0.27849141165080649 0 -0.24572548915787959 -0.25418120874090999 0 -0.22746079315295251 -0.26801808164491669 0 -0.24572548915787959 -0.25418120874090999 0 -0.22746079315295251 -0.26801808164491669 0 -0.2194820807083955 -0.2410457306411897 0 -0.22746079315295251 -0.26801808164491669 0 -0.23654480027928321 -0.28626923173092611 0 -0.21593276833715341 -0.28782118281014729 0 -0.23654480027928321 -0.28626923173092611 0 -0.2408612766284427 -0.30573436528148151 0 -0.21593276833715341 -0.28782118281014729 0 -0.25905360432253632 -0.27849141165080649 0 -0.23654480027928321 -0.28626923173092611 0 -0.2408612766284427 -0.30573436528148151 0 -0.2408612766284427 -0.30573436528148151 0 -0.2139367057669308 -0.31038058762557069 0 -0.21593276833715341 -0.28782118281014729 0 -0.19109789327589891 -0.32311221299434728 0 -0.2139367057669308 -0.31038058762557069 0 -0.1885815076682926 -0.29194372955934222 0 -0.1885815076682926 -0.29194372955934222 0 -0.21593276833715341 -0.28782118281014729 0 -0.20362082134153531 -0.26761653508082389 0 -0.2139367057669308 -0.31038058762557069 0 -0.1885815076682926 -0.29194372955934222 0 -0.21593276833715341 -0.28782118281014729 0 -0.22746079315295251 -0.26801808164491669 0 -0.21593276833715341 -0.28782118281014729 0 -0.20362082134153531 -0.26761653508082389 0 -0.1885815076682926 -0.29194372955934222 0 -0.20362082134153531 -0.26761653508082389 0 -0.17929629225986071 -0.26537536453079619 0 -0.20362082134153531 -0.26761653508082389 0 -0.19353546529803431 -0.25092477054889167 0 -0.17929629225986071 -0.26537536453079619 0 -0.20362082134153531 -0.26761653508082389 0 -0.19353546529803431 -0.25092477054889167 0 -0.2194820807083955 -0.2410457306411897 0 -0.22746079315295251 -0.26801808164491669 0 -0.20362082134153531 -0.26761653508082389 0 -0.2194820807083955 -0.2410457306411897 0 -0.1598800789205613 -0.2574499834318103 0 -0.17929629225986071 -0.26537536453079619 0 -0.17411854579824529 -0.24561384076853379 0 -0.19353546529803431 -0.25092477054889167 0 -0.17929629225986071 -0.26537536453079619 0 -0.17411854579824529 -0.24561384076853379 0 -0.1885815076682926 -0.29194372955934222 0 -0.17929629225986071 -0.26537536453079619 0 -0.16357521374998291 -0.27886412341227063 0 -0.1598800789205613 -0.2574499834318103 0 -0.17929629225986071 -0.26537536453079619 0 -0.16357521374998291 -0.27886412341227063 0 -0.1885815076682926 -0.29194372955934222 0 -0.16357521374998291 -0.27886412341227063 0 -0.16262310749277739 -0.30350985728499158 0 -0.16357521374998291 -0.27886412341227063 0 -0.16262310749277739 -0.30350985728499158 0 -0.1492822051863322 -0.2892935462321195 0 -0.19109789327589891 -0.32311221299434728 0 -0.1885815076682926 -0.29194372955934222 0 -0.16262310749277739 -0.30350985728499158 0 -0.16262310749277739 -0.30350985728499158 0 -0.14347861286515501 -0.30339919822216099 0 -0.14438139481608861 -0.32151187466090603 0 -0.16262310749277739 -0.30350985728499158 0 -0.14347861286515501 -0.30339919822216099 0 -0.1492822051863322 -0.2892935462321195 0 -0.14347861286515501 -0.30339919822216099 0 -0.12552245314016119 -0.31061271643209981 0 -0.14438139481608861 -0.32151187466090603 0 -0.14347861286515501 -0.30339919822216099 0 -0.12552245314016119 -0.31061271643209981 0 -0.1316245602957036 -0.28935392659676562 0 -0.14347861286515501 -0.30339919822216099 0 -0.1316245602957036 -0.28935392659676562 0 -0.1492822051863322 -0.2892935462321195 0 -0.1316245602957036 -0.28935392659676562 0 -0.1492822051863322 -0.2892935462321195 0 -0.14312985983068621 -0.26998359069244782 0 -0.16357521374998291 -0.27886412341227063 0 -0.1492822051863322 -0.2892935462321195 0 -0.14312985983068621 -0.26998359069244782 0 -0.1598800789205613 -0.2574499834318103 0 -0.16357521374998291 -0.27886412341227063 0 -0.14312985983068621 -0.26998359069244782 0 -0.1316245602957036 -0.28935392659676562 0 -0.12813396522728221 -0.2720619467070895 0 -0.1165975752287217 -0.27960024499076203 0 -0.1316245602957036 -0.28935392659676562 0 -0.14312985983068621 -0.26998359069244782 0 -0.12813396522728221 -0.2720619467070895 0 -0.14312985983068621 -0.26998359069244782 0 -0.12813396522728221 -0.2720619467070895 0 -0.1302529782539105 -0.2574551599198891 0 -0.14312985983068621 -0.26998359069244782 0 -0.1302529782539105 -0.2574551599198891 0 -0.1435921376365851 -0.2488794523189842 0 -0.12813396522728221 -0.2720619467070895 0 -0.1302529782539105 -0.2574551599198891 0 -0.1190648525273891 -0.26391681133558309 0 -0.1598800789205613 -0.2574499834318103 0 -0.14312985983068621 -0.26998359069244782 0 -0.1435921376365851 -0.2488794523189842 0 -0.15772613495959209 -0.35540641461467909 0 -0.17183298288936311 -0.34737158741631241 0 -0.16017462122618481 -0.32945813594983542 0 -0.15772613495959209 -0.35540641461467909 0 -0.17183298288936311 -0.34737158741631241 0 -0.17387736815373139 -0.36160451027538132 0 -0.15772613495959209 -0.35540641461467909 0 -0.16346185171254879 -0.37083825098592388 0 -0.17387736815373139 -0.36160451027538132 0 -0.15527764869299951 -0.38135469327952282 0 -0.15772613495959209 -0.35540641461467909 0 -0.16346185171254879 -0.37083825098592388 0 -0.15527764869299951 -0.38135469327952282 0 -0.15772613495959209 -0.35540641461467909 0 -0.16346185171254879 -0.37083825098592388 0 -0.17387736815373139 -0.36160451027538132 0 -0.177938528406723 -0.37329571961686542 0 -0.19842734280043009 -0.36111057874312602 0 -0.17387736815373139 -0.36160451027538132 0 -0.177938528406723 -0.37329571961686542 0 -0.19842734280043009 -0.36111057874312602 0 -0.17183298288936311 -0.34737158741631241 0 -0.17387736815373139 -0.36160451027538132 0 -0.19842734280043009 -0.36111057874312602 0 -0.17183298288936311 -0.34737158741631241 0 -0.19475429980254461 -0.3417759151899783 0 -0.17183298288936311 -0.34737158741631241 0 -0.1766972627932013 -0.33145538584348427 0 -0.19109789327589891 -0.32311221299434728 0 -0.16262310749277739 -0.30350985728499158 0 -0.1766972627932013 -0.33145538584348427 0 -0.16262310749277739 -0.30350985728499158 0 -0.1766972627932013 -0.33145538584348427 0 -0.16017462122618481 -0.32945813594983542 0 -0.16262310749277739 -0.30350985728499158 0 -0.16017462122618481 -0.32945813594983542 0 -0.17183298288936311 -0.34737158741631241 0 -0.1766972627932013 -0.33145538584348427 0 -0.16017462122618481 -0.32945813594983542 0 -0.15772613495959209 -0.35540641461467909 0 -0.16017462122618481 -0.32945813594983542 0 -0.15772613495959209 -0.35540641461467909 0 -0.16017462122618481 -0.32945813594983542 0 -0.14601993164036731 -0.3418954843038261 0 -0.16017462122618481 -0.32945813594983542 0 -0.14601993164036731 -0.3418954843038261 0 -0.14438139481608861 -0.32151187466090603 0 -0.16262310749277739 -0.30350985728499158 0 -0.16017462122618481 -0.32945813594983542 0 -0.14438139481608861 -0.32151187466090603 0 -0.12552245314016119 -0.31061271643209981 0 -0.14438139481608861 -0.32151187466090603 0 -0.1264899708345299 -0.3388388208205616 0 -0.12552245314016119 -0.31061271643209981 0 -0.1264899708345299 -0.3388388208205616 0 -0.14601993164036731 -0.3418954843038261 0 -0.14438139481608861 -0.32151187466090603 0 -0.1264899708345299 -0.3388388208205616 0 -0.1264899708345299 -0.3388388208205616 0 -0.1437184813401142 -0.36416080887926833 0 -0.12745748852889849 -0.36706492520902351 0 -0.1264899708345299 -0.3388388208205616 0 -0.12745748852889849 -0.36706492520902351 0 -0.14601993164036731 -0.3418954843038261 0 -0.1264899708345299 -0.3388388208205616 0 -0.1437184813401142 -0.36416080887926833 0 -0.15772613495959209 -0.35540641461467909 0 -0.14601993164036731 -0.3418954843038261 0 -0.1437184813401142 -0.36416080887926833 0 -0.15527764869299951 -0.38135469327952282 0 -0.15152631255754639 -0.37871730401179399 0 -0.15772613495959209 -0.35540641461467909 0 -0.15152631255754639 -0.37871730401179399 0 -0.13726351982990259 -0.38045473602252272 0 -0.1437184813401142 -0.36416080887926833 0 -0.15152631255754639 -0.37871730401179399 0 -0.15772613495959209 -0.35540641461467909 0 -0.1437184813401142 -0.36416080887926833 0 -0.13726351982990259 -0.38045473602252272 0 -0.1437184813401142 -0.36416080887926833 0 -0.12745748852889849 -0.36706492520902351 0 -0.12745748852889849 -0.36706492520902351 0 -0.1056841013569676 -0.35777903291983038 0 -0.1049450282071967 -0.37653896495002498 0 -0.1056841013569676 -0.35777903291983038 0 -0.08879324549641826 -0.3735290353886549 0 -0.086980870925062445 -0.35248020501942012 0 -0.1056841013569676 -0.35777903291983038 0 -0.08879324549641826 -0.3735290353886549 0 -0.1049450282071967 -0.37653896495002498 0 -0.1056841013569676 -0.35777903291983038 0 -0.098427508910216024 -0.33853345103682458 0 -0.086980870925062445 -0.35248020501942012 0 -0.1264899708345299 -0.3388388208205616 0 -0.12745748852889849 -0.36706492520902351 0 -0.1056841013569676 -0.35777903291983038 0 -0.1264899708345299 -0.3388388208205616 0 -0.1056841013569676 -0.35777903291983038 0 -0.098427508910216024 -0.33853345103682458 0 -0.12552245314016119 -0.31061271643209981 0 -0.1264899708345299 -0.3388388208205616 0 -0.1003086033244143 -0.31932764370574418 0 -0.1003086033244143 -0.31932764370574418 0 -0.098427508910216024 -0.33853345103682458 0 -0.085607162941926995 -0.32501940759034442 0 -0.1264899708345299 -0.3388388208205616 0 -0.1003086033244143 -0.31932764370574418 0 -0.098427508910216024 -0.33853345103682458 0 -0.098427508910216024 -0.33853345103682458 0 -0.083142700690847393 -0.33702835082286542 0 -0.086980870925062445 -0.35248020501942012 0 -0.098427508910216024 -0.33853345103682458 0 -0.083142700690847393 -0.33702835082286542 0 -0.085607162941926995 -0.32501940759034442 0 -0.083142700690847393 -0.33702835082286542 0 -0.085607162941926995 -0.32501940759034442 0 -0.06744778676931161 -0.32227800633196108 0 -0.1003086033244143 -0.31932764370574418 0 -0.074646596703585311 -0.30853503342972349 0 -0.1003086033244143 -0.31932764370574418 0 -0.085607162941926995 -0.32501940759034442 0 -0.074646596703585311 -0.30853503342972349 0 -0.085607162941926995 -0.32501940759034442 0 -0.06744778676931161 -0.32227800633196108 0 -0.074646596703585311 -0.30853503342972349 0 -0.06744778676931161 -0.32227800633196108 0 -0.074646596703585311 -0.30853503342972349 0 -0.06744778676931161 -0.32227800633196108 0 -0.071047572819111643 -0.34435018913313692 0 -0.060248976835038083 -0.33602097923419871 0 -0.083142700690847393 -0.33702835082286542 0 -0.06744778676931161 -0.32227800633196108 0 -0.071047572819111643 -0.34435018913313692 0 -0.06744778676931161 -0.32227800633196108 0 -0.060248976835038083 -0.33602097923419871 0 -0.071047572819111643 -0.34435018913313692 0 -0.074790096276813711 -0.36366117081520782 0 -0.061843211842734787 -0.35441324790193979 0 -0.071047572819111643 -0.34435018913313692 0 -0.061843211842734787 -0.35441324790193979 0 -0.060248976835038083 -0.33602097923419871 0 -0.071047572819111643 -0.34435018913313692 0 -0.074790096276813711 -0.36366117081520782 0 -0.086980870925062445 -0.35248020501942012 0 -0.074790096276813711 -0.36366117081520782 0 -0.08879324549641826 -0.3735290353886549 0 -0.069138012898304374 -0.38518034952605978 0 -0.074790096276813711 -0.36366117081520782 0 -0.060900987755087191 -0.37084905457481238 0 -0.069138012898304374 -0.38518034952605978 0 -0.074790096276813711 -0.36366117081520782 0 -0.060900987755087191 -0.37084905457481238 0 -0.061843211842734787 -0.35441324790193979 0 -0.074790096276813711 -0.36366117081520782 0 -0.08879324549641826 -0.3735290353886549 0 -0.086980870925062445 -0.35248020501942012 0 -0.083142700690847393 -0.33702835082286542 0 -0.071047572819111643 -0.34435018913313692 0 -0.086980870925062445 -0.35248020501942012 0 -0.1028887120095664 -0.25461909053142789 0 -0.093474673574239595 -0.27259107149752659 0 -0.1028887120095664 -0.25461909053142789 0 -0.1069576941030716 -0.26835519373447658 0 -0.093474673574239595 -0.27259107149752659 0 -0.1065670258177152 -0.25617371293051039 0 -0.1028887120095664 -0.25461909053142789 0 -0.1069576941030716 -0.26835519373447658 0 -0.1065670258177152 -0.25617371293051039 0 -0.1028887120095664 -0.25461909053142789 0 -0.1065670258177152 -0.25617371293051039 0 -0.1191302386151367 -0.25027695472408662 0 -0.1190648525273891 -0.26391681133558309 0 -0.1302529782539105 -0.2574551599198891 0 -0.1191302386151367 -0.25027695472408662 0 -0.1190648525273891 -0.26391681133558309 0 -0.1065670258177152 -0.25617371293051039 0 -0.1190648525273891 -0.26391681133558309 0 -0.1069576941030716 -0.26835519373447658 0 -0.12813396522728221 -0.2720619467070895 0 -0.1190648525273891 -0.26391681133558309 0 -0.1165975752287217 -0.27960024499076203 0 -0.1190648525273891 -0.26391681133558309 0 -0.1165975752287217 -0.27960024499076203 0 -0.1069576941030716 -0.26835519373447658 0 -0.1165975752287217 -0.27960024499076203 0 -0.1069576941030716 -0.26835519373447658 0 -0.1026760765034769 -0.28283338167968042 0 -0.1069576941030716 -0.26835519373447658 0 -0.1026760765034769 -0.28283338167968042 0 -0.093474673574239595 -0.27259107149752659 0 -0.1165975752287217 -0.27960024499076203 0 -0.1026760765034769 -0.28283338167968042 0 -0.1055090512868254 -0.29741890884903338 0 -0.1026760765034769 -0.28283338167968042 0 -0.1055090512868254 -0.29741890884903338 0 -0.084060635138912376 -0.29056305246362513 0 -0.1316245602957036 -0.28935392659676562 0 -0.1165975752287217 -0.27960024499076203 0 -0.1055090512868254 -0.29741890884903338 0 -0.12552245314016119 -0.31061271643209981 0 -0.1003086033244143 -0.31932764370574418 0 -0.1055090512868254 -0.29741890884903338 0 -0.12552245314016119 -0.31061271643209981 0 -0.1316245602957036 -0.28935392659676562 0 -0.1055090512868254 -0.29741890884903338 0 -0.1003086033244143 -0.31932764370574418 0 -0.1055090512868254 -0.29741890884903338 0 -0.091131221613434343 -0.30396115961203152 0 -0.1055090512868254 -0.29741890884903338 0 -0.091131221613434343 -0.30396115961203152 0 -0.084060635138912376 -0.29056305246362513 0 -0.091131221613434343 -0.30396115961203152 0 -0.074646596703585311 -0.30853503342972349 0 -0.084060635138912376 -0.29056305246362513 0 -0.1003086033244143 -0.31932764370574418 0 -0.091131221613434343 -0.30396115961203152 0 -0.074646596703585311 -0.30853503342972349 0 -0.074646596703585311 -0.30853503342972349 0 -0.084060635138912376 -0.29056305246362513 0 -0.074646596703585311 -0.30853503342972349 0 -0.067167074013215131 -0.29041324276461428 0 -0.050258883472292862 -0.29827834975265832 0 -0.06744778676931161 -0.32227800633196108 0 -0.074646596703585311 -0.30853503342972349 0 -0.058831398826407102 -0.30561502801894552 0 -0.074646596703585311 -0.30853503342972349 0 -0.067167074013215131 -0.29041324276461428 0 -0.084060635138912376 -0.29056305246362513 0 -0.067167074013215131 -0.29041324276461428 0 -0.072682941370712253 -0.27272139037702009 0 -0.054597292419923678 -0.28166859450666032 0 -0.067167074013215131 -0.29041324276461428 0 -0.084060635138912376 -0.29056305246362513 0 -0.072682941370712253 -0.27272139037702009 0 -0.1026760765034769 -0.28283338167968042 0 -0.084060635138912376 -0.29056305246362513 0 -0.093474673574239595 -0.27259107149752659 0 -0.084060635138912376 -0.29056305246362513 0 -0.093474673574239595 -0.27259107149752659 0 -0.084060635138912376 -0.29056305246362513 0 -0.093474673574239595 -0.27259107149752659 0 -0.072682941370712253 -0.27272139037702009 0 -0.093474673574239595 -0.27259107149752659 0 -0.072682941370712253 -0.27272139037702009 0 -0.082288423077087738 -0.260079874006583 0 -0.072682941370712253 -0.27272139037702009 0 -0.063197566128149418 -0.25424129297255182 0 -0.082288423077087738 -0.260079874006583 0 -0.063197566128149418 -0.25424129297255182 0 -0.082288423077087738 -0.260079874006583 0 -0.076929500777030729 -0.24364754939881519 0 -0.1028887120095664 -0.25461909053142789 0 -0.082288423077087738 -0.260079874006583 0 -0.076929500777030729 -0.24364754939881519 0 -0.1028887120095664 -0.25461909053142789 0 -0.093474673574239595 -0.27259107149752659 0 -0.082288423077087738 -0.260079874006583 0 -0.045926157109219837 -0.25069508117611328 0 -0.050388084890352743 -0.26562785461057231 0 -0.028093228409993232 -0.25853431884412431 0 -0.050388084890352743 -0.26562785461057231 0 -0.028093228409993232 -0.25853431884412431 0 -0.045926157109219837 -0.25069508117611328 0 -0.028093228409993232 -0.25853431884412431 0 -0.034419258781854839 -0.24306602370968 0 -0.072682941370712253 -0.27272139037702009 0 -0.063197566128149418 -0.25424129297255182 0 -0.050388084890352743 -0.26562785461057231 0 -0.063197566128149418 -0.25424129297255182 0 -0.045926157109219837 -0.25069508117611328 0 -0.050388084890352743 -0.26562785461057231 0 -0.072682941370712253 -0.27272139037702009 0 -0.050388084890352743 -0.26562785461057231 0 -0.072682941370712253 -0.27272139037702009 0 -0.050388084890352743 -0.26562785461057231 0 -0.054597292419923678 -0.28166859450666032 0 -0.050388084890352743 -0.26562785461057231 0 -0.038328668544142533 -0.27704267191603521 0 -0.054597292419923678 -0.28166859450666032 0 -0.050388084890352743 -0.26562785461057231 0 -0.038328668544142533 -0.27704267191603521 0 -0.028093228409993232 -0.25853431884412431 0 -0.038328668544142533 -0.27704267191603521 0 -0.050258883472292862 -0.29827834975265832 0 -0.025871170241001041 -0.28802166607559138 0 -0.050258883472292862 -0.29827834975265832 0 -0.025871170241001041 -0.28802166607559138 0 -0.067167074013215131 -0.29041324276461428 0 -0.054597292419923678 -0.28166859450666032 0 -0.050258883472292862 -0.29827834975265832 0 -0.038328668544142533 -0.27704267191603521 0 -0.054597292419923678 -0.28166859450666032 0 -0.050258883472292862 -0.29827834975265832 0 -0.058831398826407102 -0.30561502801894552 0 -0.050258883472292862 -0.29827834975265832 0 -0.032202213359089168 -0.30709024618301872 0 -0.074646596703585311 -0.30853503342972349 0 -0.050258883472292862 -0.29827834975265832 0 -0.074646596703585311 -0.30853503342972349 0 -0.058831398826407102 -0.30561502801894552 0 -0.050258883472292862 -0.29827834975265832 0 -0.050258883472292862 -0.29827834975265832 0 -0.032202213359089168 -0.30709024618301872 0 -0.025871170241001041 -0.28802166607559138 0 -0.032202213359089168 -0.30709024618301872 0 -0.01685148179700002 -0.2969543170052143 0 -0.014695012641902729 -0.30879046131707039 0 -0.032202213359089168 -0.30709024618301872 0 -0.01685148179700002 -0.2969543170052143 0 -0.025871170241001041 -0.28802166607559138 0 -0.014695012641902729 -0.30879046131707039 0 -0.0050903867180685323 -0.29815589571301532 0 0.003498963635756414 -0.31991995349202967 0 -0.01685148179700002 -0.2969543170052143 0 -0.014695012641902729 -0.30879046131707039 0 -0.0050903867180685323 -0.29815589571301532 0 -0.0050903867180685323 -0.29815589571301532 0 -0.0054443793238514006 -0.27479833939534581 0 -0.0050903867180685323 -0.29815589571301532 0 -0.0054443793238514006 -0.27479833939534581 0 0.0059565394352110914 -0.29532559670853409 0 -0.01685148179700002 -0.2969543170052143 0 -0.0050903867180685323 -0.29815589571301532 0 -0.01476014387755973 -0.28652655873145261 0 -0.0050903867180685323 -0.29815589571301532 0 -0.01476014387755973 -0.28652655873145261 0 -0.0054443793238514006 -0.27479833939534581 0 -0.01476014387755973 -0.28652655873145261 0 -0.025871170241001041 -0.28802166607559138 0 -0.02054330130787763 -0.27470257546809579 0 -0.01685148179700002 -0.2969543170052143 0 -0.01476014387755973 -0.28652655873145261 0 -0.025871170241001041 -0.28802166607559138 0 -0.038328668544142533 -0.27704267191603521 0 -0.025871170241001041 -0.28802166607559138 0 -0.02054330130787763 -0.27470257546809579 0 -0.038328668544142533 -0.27704267191603521 0 -0.02054330130787763 -0.27470257546809579 0 -0.028093228409993232 -0.25853431884412431 0 -0.01476014387755973 -0.28652655873145261 0 -0.02054330130787763 -0.27470257546809579 0 -0.0054443793238514006 -0.27479833939534581 0 -0.0054443793238514006 -0.27479833939534581 0 -0.005798371929633719 -0.25144078307767631 0 0.0084141152346657744 -0.27073123992503839 0 -0.02054330130787763 -0.27470257546809579 0 -0.0054443793238514006 -0.27479833939534581 0 -0.01431651753991574 -0.26325133940292678 0 -0.0054443793238514006 -0.27479833939534581 0 -0.005798371929633719 -0.25144078307767631 0 -0.0054443793238514006 -0.27479833939534581 0 -0.005798371929633719 -0.25144078307767631 0 -0.01431651753991574 -0.26325133940292678 0 -0.005798371929633719 -0.25144078307767631 0 -0.028093228409993232 -0.25853431884412431 0 -0.021863586594823559 -0.24416756847729451 0 -0.02054330130787763 -0.27470257546809579 0 -0.01431651753991574 -0.26325133940292678 0 -0.028093228409993232 -0.25853431884412431 0 -0.005798371929633719 -0.25144078307767631 0 -0.028093228409993232 -0.25853431884412431 0 -0.005798371929633719 -0.25144078307767631 0 -0.01431651753991574 -0.26325133940292678 0 -0.028093228409993232 -0.25853431884412431 0 -0.037512337351625541 -0.3485933842308353 0 -0.047111633730867422 -0.36304109076982388 0 -0.050155414374403712 -0.3422169475005874 0 -0.037512337351625541 -0.3485933842308353 0 -0.047111633730867422 -0.36304109076982388 0 -0.028775059795695189 -0.36282609455770032 0 -0.047111633730867422 -0.36304109076982388 0 -0.028775059795695189 -0.36282609455770032 0 -0.036739759395317831 -0.38048998134290168 0 -0.047111633730867422 -0.36304109076982388 0 -0.036739759395317831 -0.38048998134290168 0 -0.052650258265858188 -0.37990100037374969 0 -0.047111633730867422 -0.36304109076982388 0 -0.060900987755087191 -0.37084905457481238 0 -0.052650258265858188 -0.37990100037374969 0 -0.047111633730867422 -0.36304109076982388 0 -0.060900987755087191 -0.37084905457481238 0 -0.061843211842734787 -0.35441324790193979 0 -0.047111633730867422 -0.36304109076982388 0 -0.061843211842734787 -0.35441324790193979 0 -0.050155414374403712 -0.3422169475005874 0 -0.061843211842734787 -0.35441324790193979 0 -0.050155414374403712 -0.3422169475005874 0 -0.060248976835038083 -0.33602097923419871 0 -0.050155414374403712 -0.3422169475005874 0 -0.054623828991160459 -0.32545914616510008 0 -0.039592497494996021 -0.32577383670162657 0 -0.050155414374403712 -0.3422169475005874 0 -0.060248976835038083 -0.33602097923419871 0 -0.054623828991160459 -0.32545914616510008 0 -0.06744778676931161 -0.32227800633196108 0 -0.058831398826407102 -0.30561502801894552 0 -0.054623828991160459 -0.32545914616510008 0 -0.058831398826407102 -0.30561502801894552 0 -0.039592497494996021 -0.32577383670162657 0 -0.058831398826407102 -0.30561502801894552 0 -0.054623828991160459 -0.32545914616510008 0 -0.039592497494996021 -0.32577383670162657 0 -0.06744778676931161 -0.32227800633196108 0 -0.060248976835038083 -0.33602097923419871 0 -0.054623828991160459 -0.32545914616510008 0 -0.058831398826407102 -0.30561502801894552 0 -0.032202213359089168 -0.30709024618301872 0 -0.039592497494996021 -0.32577383670162657 0 -0.037512337351625541 -0.3485933842308353 0 -0.039592497494996021 -0.32577383670162657 0 -0.020353596163584939 -0.34593264538430779 0 -0.037512337351625541 -0.3485933842308353 0 -0.050155414374403712 -0.3422169475005874 0 -0.039592497494996021 -0.32577383670162657 0 -0.039592497494996021 -0.32577383670162657 0 -0.020353596163584939 -0.34593264538430779 0 -0.039592497494996021 -0.32577383670162657 0 -0.01549150567785389 -0.33329157728543429 0 -0.020353596163584939 -0.34593264538430779 0 -0.039592497494996021 -0.32577383670162657 0 -0.018981519195160411 -0.32186411463711262 0 -0.01549150567785389 -0.33329157728543429 0 -0.032202213359089168 -0.30709024618301872 0 -0.014695012641902729 -0.30879046131707039 0 -0.018981519195160411 -0.32186411463711262 0 -0.032202213359089168 -0.30709024618301872 0 -0.039592497494996021 -0.32577383670162657 0 -0.018981519195160411 -0.32186411463711262 0 -0.018981519195160411 -0.32186411463711262 0 -0.01549150567785389 -0.33329157728543429 0 0.003498963635756414 -0.31991995349202967 0 -0.014695012641902729 -0.30879046131707039 0 -0.018981519195160411 -0.32186411463711262 0 0.003498963635756414 -0.31991995349202967 0 -0.0049373275066810149 -0.34171497499294318 0 0.0010413878363071719 -0.34451431027552581 0 0.003498963635756414 -0.31991995349202967 0 -0.01549150567785389 -0.33329157728543429 0 -0.0049373275066810149 -0.34171497499294318 0 0.003498963635756414 -0.31991995349202967 0 -0.01549150567785389 -0.33329157728543429 0 -0.0049373275066810149 -0.34171497499294318 0 -0.020353596163584939 -0.34593264538430779 0 -0.0049373275066810149 -0.34171497499294318 0 0.0010413878363071719 -0.34451431027552581 0 -0.020353596163584939 -0.34593264538430779 0 -0.001114694832174573 -0.36609145406698967 0 -0.0049373275066810149 -0.34171497499294318 0 -0.020353596163584939 -0.34593264538430779 0 -0.001114694832174573 -0.36609145406698967 0 -0.001114694832174573 -0.36609145406698967 0 0.0010413878363071719 -0.34451431027552581 0 -0.0049373275066810149 -0.34171497499294318 0 -0.001114694832174573 -0.36609145406698967 0 0.0010413878363071719 -0.34451431027552581 0 -0.020353596163584939 -0.34593264538430779 0 -0.01695296256396998 -0.36295258085738941 0 -0.001114694832174573 -0.36609145406698967 0 -0.020353596163584939 -0.34593264538430779 0 -0.028775059795695189 -0.36282609455770032 0 -0.01695296256396998 -0.36295258085738941 0 -0.037512337351625541 -0.3485933842308353 0 -0.020353596163584939 -0.34593264538430779 0 -0.028775059795695189 -0.36282609455770032 0 -0.028775059795695189 -0.36282609455770032 0 -0.01756849946442365 -0.37696012942056017 0 -0.036739759395317831 -0.38048998134290168 0 -0.028775059795695189 -0.36282609455770032 0 -0.01695296256396998 -0.36295258085738941 0 -0.01756849946442365 -0.37696012942056017 0 -0.01695296256396998 -0.36295258085738941 0 -0.001114694832174573 -0.36609145406698967 0 -0.01756849946442365 -0.37696012942056017 0 -0.001114694832174573 -0.36609145406698967 0 -0.00349439962842824 -0.38990651149526229 0 -0.001114694832174573 -0.36609145406698967 0 -0.00349439962842824 -0.38990651149526229 0 -0.01756849946442365 -0.37696012942056017 0 -0.001114694832174573 -0.36609145406698967 0 -0.00349439962842824 -0.38990651149526229 0 0.0041316078042716153 -0.38430655083246767 0 -0.00349439962842824 -0.38990651149526229 0 -0.0008134319125784736 -0.39237266086068151 0 0.0041316078042716153 -0.38430655083246767 0 -0.00349439962842824 -0.38990651149526229 0 -0.01756849946442365 -0.37696012942056017 0 -0.003787173938482644 -0.39283647029456847 0 -0.014120159460079129 -0.40402308335567588 0 -0.0056765897333758792 -0.41174492723099593 0 -0.003787173938482644 -0.39283647029456847 0 -0.026574035744098449 -0.39639049797485959 0 -0.003787173938482644 -0.39283647029456847 0 -0.0056765897333758792 -0.41174492723099593 0 -0.00349439962842824 -0.38990651149526229 0 -0.003787173938482644 -0.39283647029456847 0 -0.026574035744098449 -0.39639049797485959 0 -0.003787173938482644 -0.39283647029456847 0 -0.0008134319125784736 -0.39237266086068151 0 -0.0056765897333758792 -0.41174492723099593 0 -0.003787173938482644 -0.39283647029456847 0 -0.014120159460079129 -0.40402308335567588 0 -0.026574035744098449 -0.39639049797485959 0 -0.003787173938482644 -0.39283647029456847 0 -0.0008134319125784736 -0.39237266086068151 0 -0.00349439962842824 -0.38990651149526229 0 -0.003787173938482644 -0.39283647029456847 0 -0.0008134319125784736 -0.39237266086068151 0 -0.00349439962842824 -0.38990651149526229 0 -0.0008134319125784736 -0.39237266086068151 0 -0.00349439962842824 -0.38990651149526229 0 -0.003787173938482644 -0.39283647029456847 0 -0.014120159460079129 -0.40402308335567588 0 -0.026574035744098449 -0.39639049797485959 0 -0.020442838424360298 -0.41512043792227998 0 -0.026574035744098449 -0.39639049797485959 0 -0.01756849946442365 -0.37696012942056017 0 -0.036739759395317831 -0.38048998134290168 0 -0.00349439962842824 -0.38990651149526229 0 -0.026574035744098449 -0.39639049797485959 0 -0.01756849946442365 -0.37696012942056017 0 -0.036739759395317831 -0.38048998134290168 0 -0.049360897549714143 -0.39994452565515087 0 -0.052650258265858188 -0.37990100037374969 0 -0.026574035744098449 -0.39639049797485959 0 -0.049360897549714143 -0.39994452565515087 0 -0.026574035744098449 -0.39639049797485959 0 -0.049360897549714143 -0.39994452565515087 0 -0.038795665903000362 -0.41756057113697642 0 -0.026574035744098449 -0.39639049797485959 0 -0.036739759395317831 -0.38048998134290168 0 -0.049360897549714143 -0.39994452565515087 0 -0.060900987755087191 -0.37084905457481238 0 -0.052650258265858188 -0.37990100037374969 0 -0.069138012898304374 -0.38518034952605978 0 -0.049360897549714143 -0.39994452565515087 0 -0.052650258265858188 -0.37990100037374969 0 -0.069138012898304374 -0.38518034952605978 0 -0.061778786901821557 -0.42929635593352028 0 -0.038795665903000362 -0.41756057113697642 0 -0.045075829813422383 -0.43738131660380342 0 -0.049360897549714143 -0.39994452565515087 0 -0.061778786901821557 -0.42929635593352028 0 -0.038795665903000362 -0.41756057113697642 0 -0.038795665903000362 -0.41756057113697642 0 -0.045075829813422383 -0.43738131660380342 0 -0.02954160698458538 -0.42723029273224478 0 -0.02954160698458538 -0.42723029273224478 0 -0.020442838424360298 -0.41512043792227998 0 -0.0075660055282681452 -0.43065338416742333 0 -0.02954160698458538 -0.42723029273224478 0 -0.0075660055282681452 -0.43065338416742333 0 -0.02954160698458538 -0.42723029273224478 0 -0.0075660055282681452 -0.43065338416742333 0 -0.029886650117042831 -0.44804171925511083 0 -0.026574035744098449 -0.39639049797485959 0 -0.038795665903000362 -0.41756057113697642 0 -0.020442838424360298 -0.41512043792227998 0 -0.038795665903000362 -0.41756057113697642 0 -0.02954160698458538 -0.42723029273224478 0 -0.020442838424360298 -0.41512043792227998 0 -0.0056765897333758792 -0.41174492723099593 0 -0.0075660055282681452 -0.43065338416742333 0 -0.020442838424360298 -0.41512043792227998 0 -0.0056765897333758792 -0.41174492723099593 0 -0.0075660055282681452 -0.43065338416742333 0 -0.0056765897333758792 -0.41174492723099593 0 -0.0075660055282681452 -0.43065338416742333 0 0.001777651880508925 -0.42217332109331812 0 -0.014120159460079129 -0.40402308335567588 0 -0.020442838424360298 -0.41512043792227998 0 -0.0056765897333758792 -0.41174492723099593 0 -0.0075660055282681452 -0.43065338416742333 0 -0.0098758113419157544 -0.4537689227782789 0 0.00087379713763953469 -0.44341058846184178 0 -0.0075660055282681452 -0.43065338416742333 0 -0.0098758113419157544 -0.4537689227782789 0 -0.00072694896019898482 -0.46604635307710318 0 -0.0098758113419157544 -0.4537689227782789 0 -0.012185617155561639 -0.4768844613891346 0 -0.00072694896019898482 -0.46604635307710318 0 -0.0098758113419157544 -0.4537689227782789 0 0.01002265951935574 -0.45568801876066622 0 -0.0098758113419157544 -0.4537689227782789 0 -0.012185617155561639 -0.4768844613891346 0 -0.0098758113419157544 -0.4537689227782789 0 -0.025568050745147109 -0.46417232462194502 0 -0.012185617155561639 -0.4768844613891346 0 -0.0098758113419157544 -0.4537689227782789 0 -0.025568050745147109 -0.46417232462194502 0 -0.029886650117042831 -0.44804171925511083 0 -0.0075660055282681452 -0.43065338416742333 0 -0.0098758113419157544 -0.4537689227782789 0 -0.029886650117042831 -0.44804171925511083 0 -0.01449542296920658 -0.49999999999999051 0 -0.00202817649479592 -0.48849083870783572 0 0.0082392867552957064 -0.50000000000000033 0 -0.01449542296920658 -0.49999999999999051 0 -0.00202817649479592 -0.48849083870783572 0 -0.012185617155561639 -0.4768844613891346 0 -0.01449542296920658 -0.49999999999999051 0 -0.012185617155561639 -0.4768844613891346 0 -0.00072694896019898482 -0.46604635307710318 0 -0.012185617155561639 -0.4768844613891346 0 0.0091309731373257173 -0.47784400938033328 0 -0.00202817649479592 -0.48849083870783572 0 -0.012185617155561639 -0.4768844613891346 0 0.0091309731373257173 -0.47784400938033328 0 -0.025568050745147109 -0.46417232462194502 0 -0.012185617155561639 -0.4768844613891346 0 -0.034741078338467221 -0.48037910505142428 0 -0.01449542296920658 -0.49999999999999051 0 -0.012185617155561639 -0.4768844613891346 0 -0.034741078338467221 -0.48037910505142428 0 -0.01449542296920658 -0.49999999999999051 0 -0.034741078338467221 -0.48037910505142428 0 -0.049116040283146367 -0.5 0 -0.025568050745147109 -0.46417232462194502 0 -0.034741078338467221 -0.48037910505142428 0 -0.04499147005268099 -0.46200020141076681 0 -0.034741078338467221 -0.48037910505142428 0 -0.04499147005268099 -0.46200020141076681 0 -0.065442210536401174 -0.47507731295962469 0 -0.034741078338467221 -0.48037910505142428 0 -0.049116040283146367 -0.5 0 -0.065442210536401174 -0.47507731295962469 0 -0.045075829813422383 -0.43738131660380342 0 -0.02954160698458538 -0.42723029273224478 0 -0.029886650117042831 -0.44804171925511083 0 -0.045075829813422383 -0.43738131660380342 0 -0.029886650117042831 -0.44804171925511083 0 -0.04499147005268099 -0.46200020141076681 0 -0.025568050745147109 -0.46417232462194502 0 -0.029886650117042831 -0.44804171925511083 0 -0.04499147005268099 -0.46200020141076681 0 -0.04499147005268099 -0.46200020141076681 0 -0.067463958742655872 -0.44918367246308583 0 -0.065442210536401174 -0.47507731295962469 0 -0.045075829813422383 -0.43738131660380342 0 -0.04499147005268099 -0.46200020141076681 0 -0.067463958742655872 -0.44918367246308583 0 -0.061778786901821557 -0.42929635593352028 0 -0.045075829813422383 -0.43738131660380342 0 -0.067463958742655872 -0.44918367246308583 0 -0.067463958742655872 -0.44918367246308583 0 -0.098964318770240228 -0.45890089883247182 0 -0.089963291452743066 -0.42819922572375768 0 -0.067463958742655872 -0.44918367246308583 0 -0.065442210536401174 -0.47507731295962469 0 -0.098964318770240228 -0.45890089883247182 0 -0.065442210536401174 -0.47507731295962469 0 -0.097376397031216366 -0.5 0 -0.098964318770240228 -0.45890089883247182 0 -0.049116040283146367 -0.5 0 -0.065442210536401174 -0.47507731295962469 0 -0.097376397031216366 -0.5 0 -0.1311211295485811 -0.46058297344932858 0 -0.097376397031216366 -0.5 0 -0.098964318770240228 -0.45890089883247182 0 -0.098964318770240228 -0.45890089883247182 0 -0.1181477960036645 -0.42710209551399492 0 -0.089963291452743066 -0.42819922572375768 0 -0.1311211295485811 -0.46058297344932858 0 -0.098964318770240228 -0.45890089883247182 0 -0.1181477960036645 -0.42710209551399492 0 -0.1181477960036645 -0.42710209551399492 0 -0.1124680350881052 -0.41188642755530119 0 -0.089963291452743066 -0.42819922572375768 0 -0.1181477960036645 -0.42710209551399492 0 -0.089963291452743066 -0.42819922572375768 0 -0.095516668846720276 -0.40648345548374182 0 -0.1124680350881052 -0.41188642755530119 0 -0.089963291452743066 -0.42819922572375768 0 -0.1265768143094938 -0.40384164139473461 0 -0.12902958039563359 -0.41508280467006481 0 -0.1124680350881052 -0.41188642755530119 0 -0.12902958039563359 -0.41508280467006481 0 -0.1181477960036645 -0.42710209551399492 0 -0.1124680350881052 -0.41188642755530119 0 -0.1124680350881052 -0.41188642755530119 0 -0.1187888858595436 -0.39770416069311798 0 -0.1075486332986717 -0.39439262942364373 0 -0.12842500622326711 -0.39529102959748541 0 -0.1265768143094938 -0.40384164139473461 0 -0.1187888858595436 -0.39770416069311798 0 -0.1265768143094938 -0.40384164139473461 0 -0.1124680350881052 -0.41188642755530119 0 -0.1187888858595436 -0.39770416069311798 0 -0.12842500622326711 -0.39529102959748541 0 -0.1187888858595436 -0.39770416069311798 0 -0.11892594037818 -0.38310907549442491 0 -0.1187888858595436 -0.39770416069311798 0 -0.11892594037818 -0.38310907549442491 0 -0.1075486332986717 -0.39439262942364373 0 -0.12745748852889849 -0.36706492520902351 0 -0.11892594037818 -0.38310907549442491 0 -0.1049450282071967 -0.37653896495002498 0 -0.12842500622326711 -0.39529102959748541 0 -0.12745748852889849 -0.36706492520902351 0 -0.11892594037818 -0.38310907549442491 0 -0.11892594037818 -0.38310907549442491 0 -0.1049450282071967 -0.37653896495002498 0 -0.1075486332986717 -0.39439262942364373 0 -0.1049450282071967 -0.37653896495002498 0 -0.1075486332986717 -0.39439262942364373 0 -0.090962020893153001 -0.39133263178578948 0 -0.08879324549641826 -0.3735290353886549 0 -0.1049450282071967 -0.37653896495002498 0 -0.090962020893153001 -0.39133263178578948 0 -0.095516668846720276 -0.40648345548374182 0 -0.1124680350881052 -0.41188642755530119 0 -0.1075486332986717 -0.39439262942364373 0 -0.095516668846720276 -0.40648345548374182 0 -0.1075486332986717 -0.39439262942364373 0 -0.090962020893153001 -0.39133263178578948 0 -0.090962020893153001 -0.39133263178578948 0 -0.069138012898304374 -0.38518034952605978 0 -0.0766413635009284 -0.40660636293021701 0 -0.095516668846720276 -0.40648345548374182 0 -0.090962020893153001 -0.39133263178578948 0 -0.0766413635009284 -0.40660636293021701 0 -0.08879324549641826 -0.3735290353886549 0 -0.090962020893153001 -0.39133263178578948 0 -0.069138012898304374 -0.38518034952605978 0 -0.049360897549714143 -0.39994452565515087 0 -0.069138012898304374 -0.38518034952605978 0 -0.0766413635009284 -0.40660636293021701 0 -0.061778786901821557 -0.42929635593352028 0 -0.0766413635009284 -0.40660636293021701 0 -0.089963291452743066 -0.42819922572375768 0 -0.049360897549714143 -0.39994452565515087 0 -0.061778786901821557 -0.42929635593352028 0 -0.0766413635009284 -0.40660636293021701 0 -0.061778786901821557 -0.42929635593352028 0 -0.089963291452743066 -0.42819922572375768 0 -0.061778786901821557 -0.42929635593352028 0 -0.067463958742655872 -0.44918367246308583 0 -0.089963291452743066 -0.42819922572375768 0 -0.095516668846720276 -0.40648345548374182 0 -0.0766413635009284 -0.40660636293021701 0 -0.089963291452743066 -0.42819922572375768 0 -0.091332148445661759 -0.087443316487247388 0 -0.084520625513405515 -0.072803378373250946 0 -0.075531294088411874 -0.088434373027737101 0 -0.084520625513405515 -0.072803378373250946 0 -0.10147470548757739 -0.066776628328406251 0 -0.090558275946714062 -0.059549196895166502 0 -0.091332148445661759 -0.087443316487247388 0 -0.084520625513405515 -0.072803378373250946 0 -0.10147470548757739 -0.066776628328406251 0 -0.084520625513405515 -0.072803378373250946 0 -0.090558275946714062 -0.059549196895166502 0 -0.077477304490699742 -0.062390720053558481 0 -0.084520625513405515 -0.072803378373250946 0 -0.069672912182663083 -0.072746546610199928 0 -0.075531294088411874 -0.088434373027737101 0 -0.069672912182663083 -0.072746546610199928 0 -0.061031633077737048 -0.084865693664341546 0 -0.057139189993436312 -0.067946791317779323 0 -0.069672912182663083 -0.072746546610199928 0 -0.077477304490699742 -0.062390720053558481 0 -0.064648808014964532 -0.058540146244440261 0 -0.084520625513405515 -0.072803378373250946 0 -0.069672912182663083 -0.072746546610199928 0 -0.077477304490699742 -0.062390720053558481 0 -0.069672912182663083 -0.072746546610199928 0 -0.064648808014964532 -0.058540146244440261 0 -0.057139189993436312 -0.067946791317779323 0 -0.069672912182663083 -0.072746546610199928 0 -0.075531294088411874 -0.088434373027737101 0 -0.061031633077737048 -0.084865693664341546 0 -0.075531294088411874 -0.088434373027737101 0 -0.067788949187945466 -0.1023412054022622 0 -0.061031633077737048 -0.084865693664341546 0 -0.075531294088411874 -0.088434373027737101 0 -0.067788949187945466 -0.1023412054022622 0 -0.081189591403746056 -0.1081100046460885 0 -0.067788949187945466 -0.1023412054022622 0 -0.074634287097640833 -0.1140758481432548 0 -0.081189591403746056 -0.1081100046460885 0 -0.074634287097640833 -0.1140758481432548 0 -0.081189591403746056 -0.1081100046460885 0 -0.071047034361831671 -0.12877669280493029 0 -0.081189591403746056 -0.1081100046460885 0 -0.071047034361831671 -0.12877669280493029 0 -0.064373860237615682 -0.12196166084271449 0 -0.066898683407092679 -0.1157439881780284 0 -0.071047034361831671 -0.12877669280493029 0 -0.064373860237615682 -0.12196166084271449 0 -0.066898683407092679 -0.1157439881780284 0 -0.0561995904712696 -0.1180511882332487 0 -0.067788949187945466 -0.1023412054022622 0 -0.066898683407092679 -0.1157439881780284 0 -0.074634287097640833 -0.1140758481432548 0 -0.066898683407092679 -0.1157439881780284 0 -0.074634287097640833 -0.1140758481432548 0 -0.066898683407092679 -0.1157439881780284 0 -0.074634287097640833 -0.1140758481432548 0 -0.071047034361831671 -0.12877669280493029 0 -0.081189591403746056 -0.1081100046460885 0 -0.099652734226069323 -0.10434896409833409 0 -0.095941556323519278 -0.1228221941205848 0 -0.081189591403746056 -0.1081100046460885 0 -0.095941556323519278 -0.1228221941205848 0 -0.071047034361831671 -0.12877669280493029 0 -0.091332148445661759 -0.087443316487247388 0 -0.081189591403746056 -0.1081100046460885 0 -0.091332148445661759 -0.087443316487247388 0 -0.081189591403746056 -0.1081100046460885 0 -0.099652734226069323 -0.10434896409833409 0 -0.091332148445661759 -0.087443316487247388 0 -0.075531294088411874 -0.088434373027737101 0 -0.081189591403746056 -0.1081100046460885 0 -0.091332148445661759 -0.087443316487247388 0 -0.099652734226069323 -0.10434896409833409 0 -0.1149645463098809 -0.092365401006839432 0 -0.095941556323519278 -0.1228221941205848 0 -0.1208360782852064 -0.1168676954362371 0 -0.10807061170185039 -0.13140739289490491 0 -0.099652734226069323 -0.10434896409833409 0 -0.095941556323519278 -0.1228221941205848 0 -0.1208360782852064 -0.1168676954362371 0 -0.095941556323519278 -0.1228221941205848 0 -0.1208360782852064 -0.1168676954362371 0 -0.1208360782852064 -0.1168676954362371 0 -0.1149645463098809 -0.092365401006839432 0 -0.1328351910449227 -0.096022401088106973 0 -0.099652734226069323 -0.10434896409833409 0 -0.1208360782852064 -0.1168676954362371 0 -0.1149645463098809 -0.092365401006839432 0 -0.1149645463098809 -0.092365401006839432 0 -0.1134313551513957 -0.076175951950405177 0 -0.13027161994986339 -0.073281457120499272 0 -0.091332148445661759 -0.087443316487247388 0 -0.1149645463098809 -0.092365401006839432 0 -0.1134313551513957 -0.076175951950405177 0 -0.091332148445661759 -0.087443316487247388 0 -0.10147470548757739 -0.066776628328406251 0 -0.091332148445661759 -0.087443316487247388 0 -0.10147470548757739 -0.066776628328406251 0 -0.1134313551513957 -0.076175951950405177 0 -0.1164150310158006 -0.062500014628943598 0 -0.1134313551513957 -0.076175951950405177 0 -0.13027161994986339 -0.073281457120499272 0 -0.10147470548757739 -0.066776628328406251 0 -0.1164150310158006 -0.062500014628943598 0 -0.1134313551513957 -0.076175951950405177 0 -0.1164150310158006 -0.062500014628943598 0 -0.11161726252949319 -0.046109940169565093 0 -0.12528021196067371 -0.050156095575842281 0 -0.10147470548757739 -0.066776628328406251 0 -0.1164150310158006 -0.062500014628943598 0 -0.11161726252949319 -0.046109940169565093 0 -0.1164150310158006 -0.062500014628943598 0 -0.13027161994986339 -0.073281457120499272 0 -0.12528021196067371 -0.050156095575842281 0 -0.11161726252949319 -0.046109940169565093 0 -0.1088561686359749 -0.040044774297920631 0 -0.12528021196067371 -0.050156095575842281 0 -0.1088561686359749 -0.040044774297920631 0 -0.13461076983097331 -0.039386311429457019 0 -0.11552516559126889 -0.031908756433078882 0 -0.1088561686359749 -0.040044774297920631 0 -0.13461076983097331 -0.039386311429457019 0 -0.1088561686359749 -0.040044774297920631 0 -0.13461076983097331 -0.039386311429457019 0 -0.12528021196067371 -0.050156095575842281 0 -0.11552516559126889 -0.031908756433078882 0 -0.1088561686359749 -0.040044774297920631 0 -0.104631193941289 -0.028907498812151471 0 -0.11161726252949319 -0.046109940169565093 0 -0.1088561686359749 -0.040044774297920631 0 -0.096289231683845677 -0.047401798011982042 0 -0.1088561686359749 -0.040044774297920631 0 -0.096289231683845677 -0.047401798011982042 0 -0.083101567440976465 -0.04070323716638425 0 -0.1088561686359749 -0.040044774297920631 0 -0.083101567440976465 -0.04070323716638425 0 -0.1088561686359749 -0.040044774297920631 0 -0.095656366512700278 -0.033467038835359182 0 -0.083101567440976465 -0.04070323716638425 0 -0.1088561686359749 -0.040044774297920631 0 -0.095656366512700278 -0.033467038835359182 0 -0.104631193941289 -0.028907498812151471 0 -0.10147470548757739 -0.066776628328406251 0 -0.11161726252949319 -0.046109940169565093 0 -0.10147470548757739 -0.066776628328406251 0 -0.096289231683845677 -0.047401798011982042 0 -0.090558275946714062 -0.059549196895166502 0 -0.10147470548757739 -0.066776628328406251 0 -0.11161726252949319 -0.046109940169565093 0 -0.096289231683845677 -0.047401798011982042 0 -0.1122844538592216 -0.0070055545831209723 0 -0.1126964675410595 -0.022961515752443241 0 -0.10414171531677251 -0.016193758470294799 0 -0.1122844538592216 -0.0070055545831209723 0 -0.12657944794855619 -0.0014714323379356809 0 -0.1280234076966385 -0.01593041302677272 0 -0.1122844538592216 -0.0070055545831209723 0 -0.1126964675410595 -0.022961515752443241 0 -0.1280234076966385 -0.01593041302677272 0 -0.1126964675410595 -0.022961515752443241 0 -0.1280234076966385 -0.01593041302677272 0 -0.12709933022396 -0.027116641953285808 0 -0.11552516559126889 -0.031908756433078882 0 -0.1126964675410595 -0.022961515752443241 0 -0.12709933022396 -0.027116641953285808 0 -0.11552516559126889 -0.031908756433078882 0 -0.1126964675410595 -0.022961515752443241 0 -0.104631193941289 -0.028907498812151471 0 -0.095656366512700278 -0.033467038835359182 0 -0.104631193941289 -0.028907498812151471 0 -0.094475935359329785 -0.02274071565514595 0 -0.104631193941289 -0.028907498812151471 0 -0.094475935359329785 -0.02274071565514595 0 -0.10414171531677251 -0.016193758470294799 0 -0.1126964675410595 -0.022961515752443241 0 -0.104631193941289 -0.028907498812151471 0 -0.10414171531677251 -0.016193758470294799 0 -0.1122844538592216 -0.0070055545831209723 0 -0.10414171531677251 -0.016193758470294799 0 -0.093910651169967954 -0.0039116845590388321 0 -0.094475935359329785 -0.02274071565514595 0 -0.10414171531677251 -0.016193758470294799 0 -0.093910651169967954 -0.0039116845590388321 0 -0.1122844538592216 -0.0070055545831209723 0 -0.093910651169967954 -0.0039116845590388321 0 -0.1050927531971689 0.0036021752735347478 0 -0.094475935359329785 -0.02274071565514595 0 -0.093910651169967954 -0.0039116845590388321 0 -0.074571399285892265 -0.0103211867643647 0 -0.093910651169967954 -0.0039116845590388321 0 -0.074571399285892265 -0.0103211867643647 0 -0.080266247635083221 0.0087297246631306297 0 -0.094475935359329785 -0.02274071565514595 0 -0.079947801873969382 -0.026797361452103451 0 -0.074571399285892265 -0.0103211867643647 0 -0.094475935359329785 -0.02274071565514595 0 -0.088295417796743977 -0.030927088277248209 0 -0.079947801873969382 -0.026797361452103451 0 -0.095656366512700278 -0.033467038835359182 0 -0.094475935359329785 -0.02274071565514595 0 -0.088295417796743977 -0.030927088277248209 0 -0.079947801873969382 -0.026797361452103451 0 -0.06374572720644836 -0.024528850109239789 0 -0.074571399285892265 -0.0103211867643647 0 -0.079947801873969382 -0.026797361452103451 0 -0.06374572720644836 -0.024528850109239789 0 -0.0695731705388416 -0.034013976732880258 0 -0.06374572720644836 -0.024528850109239789 0 -0.0695731705388416 -0.034013976732880258 0 -0.060881649657241237 -0.033023693730833692 0 -0.06374572720644836 -0.024528850109239789 0 -0.074571399285892265 -0.0103211867643647 0 -0.053029708142403729 -0.010167265893381549 0 -0.096289231683845677 -0.047401798011982042 0 -0.075178949834784042 -0.047449484539890917 0 -0.096289231683845677 -0.047401798011982042 0 -0.082520171598388967 -0.05456167056606627 0 -0.075178949834784042 -0.047449484539890917 0 -0.082520171598388967 -0.05456167056606627 0 -0.077477304490699742 -0.062390720053558481 0 -0.074956308484709327 -0.055735505350988979 0 -0.082520171598388967 -0.05456167056606627 0 -0.090558275946714062 -0.059549196895166502 0 -0.077477304490699742 -0.062390720053558481 0 -0.096289231683845677 -0.047401798011982042 0 -0.082520171598388967 -0.05456167056606627 0 -0.090558275946714062 -0.059549196895166502 0 -0.096289231683845677 -0.047401798011982042 0 -0.083101567440976465 -0.04070323716638425 0 -0.075178949834784042 -0.047449484539890917 0 -0.095656366512700278 -0.033467038835359182 0 -0.088295417796743977 -0.030927088277248209 0 -0.083101567440976465 -0.04070323716638425 0 -0.088295417796743977 -0.030927088277248209 0 -0.079947801873969382 -0.026797361452103451 0 -0.083101567440976465 -0.04070323716638425 0 -0.083101567440976465 -0.04070323716638425 0 -0.057346966245978077 -0.041361700034847862 0 -0.083101567440976465 -0.04070323716638425 0 -0.075178949834784042 -0.047449484539890917 0 -0.057346966245978077 -0.041361700034847862 0 -0.083101567440976465 -0.04070323716638425 0 -0.0695731705388416 -0.034013976732880258 0 -0.057346966245978077 -0.041361700034847862 0 -0.079947801873969382 -0.026797361452103451 0 -0.083101567440976465 -0.04070323716638425 0 -0.0695731705388416 -0.034013976732880258 0 -0.0695731705388416 -0.034013976732880258 0 -0.057346966245978077 -0.041361700034847862 0 -0.060881649657241237 -0.033023693730833692 0 -0.075178949834784042 -0.047449484539890917 0 -0.054068667985722428 -0.047497171067799812 0 -0.075178949834784042 -0.047449484539890917 0 -0.064648808014964532 -0.058540146244440261 0 -0.054068667985722428 -0.047497171067799812 0 -0.082520171598388967 -0.05456167056606627 0 -0.075178949834784042 -0.047449484539890917 0 -0.074956308484709327 -0.055735505350988979 0 -0.075178949834784042 -0.047449484539890917 0 -0.074956308484709327 -0.055735505350988979 0 -0.064648808014964532 -0.058540146244440261 0 -0.077477304490699742 -0.062390720053558481 0 -0.074956308484709327 -0.055735505350988979 0 -0.064648808014964532 -0.058540146244440261 0 -0.064648808014964532 -0.058540146244440261 0 -0.056250551576267932 -0.058469869178393447 0 -0.054068667985722428 -0.047497171067799812 0 -0.064648808014964532 -0.058540146244440261 0 -0.056250551576267932 -0.058469869178393447 0 -0.057139189993436312 -0.067946791317779323 0 -0.056250551576267932 -0.058469869178393447 0 -0.049145540310948477 -0.05989536808355439 0 -0.054068667985722428 -0.047497171067799812 0 -0.056250551576267932 -0.058469869178393447 0 -0.049145540310948477 -0.05989536808355439 0 -0.057139189993436312 -0.067946791317779323 0 -0.075178949834784042 -0.047449484539890917 0 -0.054068667985722428 -0.047497171067799812 0 -0.057346966245978077 -0.041361700034847862 0 -0.057346966245978077 -0.041361700034847862 0 -0.060881649657241237 -0.033023693730833692 0 -0.05286073463769695 -0.032190248046366873 0 -0.057346966245978077 -0.041361700034847862 0 -0.05286073463769695 -0.032190248046366873 0 -0.045003546386564237 -0.0387099411684712 0 -0.05286073463769695 -0.032190248046366873 0 -0.045003546386564237 -0.0387099411684712 0 -0.0446742285140527 -0.026089188867200751 0 -0.054068667985722428 -0.047497171067799812 0 -0.057346966245978077 -0.041361700034847862 0 -0.045003546386564237 -0.0387099411684712 0 -0.054068667985722428 -0.047497171067799812 0 -0.045003546386564237 -0.0387099411684712 0 -0.032958386136660828 -0.047544857595706917 0 -0.045003546386564237 -0.0387099411684712 0 -0.032958386136660828 -0.047544857595706917 0 -0.025008099616724951 -0.023426248165330361 0 -0.049145540310948477 -0.05989536808355439 0 -0.032958386136660828 -0.047544857595706917 0 -0.042186463702022559 -0.075539873628648044 0 -0.054068667985722428 -0.047497171067799812 0 -0.032958386136660828 -0.047544857595706917 0 -0.032958386136660828 -0.047544857595706917 0 -0.02031282734252569 -0.055921468507029413 0 -0.042186463702022559 -0.075539873628648044 0 -0.032958386136660828 -0.047544857595706917 0 -0.042186463702022559 -0.075539873628648044 0 -0.049145540310948477 -0.05989536808355439 0 -0.054068667985722428 -0.047497171067799812 0 -0.032958386136660828 -0.047544857595706917 0 -0.074571399285892265 -0.0103211867643647 0 -0.053029708142403729 -0.010167265893381549 0 -0.058502722384845392 0.01484163087074576 0 -0.053029708142403729 -0.010167265893381549 0 -0.051803145804547923 -0.021994568862190918 0 -0.04470533052213789 -0.016997291394765648 0 -0.051803145804547923 -0.021994568862190918 0 -0.0446742285140527 -0.026089188867200751 0 -0.04470533052213789 -0.016997291394765648 0 -0.06374572720644836 -0.024528850109239789 0 -0.053029708142403729 -0.010167265893381549 0 -0.051803145804547923 -0.021994568862190918 0 -0.06374572720644836 -0.024528850109239789 0 -0.060881649657241237 -0.033023693730833692 0 -0.05286073463769695 -0.032190248046366873 0 -0.06374572720644836 -0.024528850109239789 0 -0.05286073463769695 -0.032190248046366873 0 -0.051803145804547923 -0.021994568862190918 0 -0.05286073463769695 -0.032190248046366873 0 -0.051803145804547923 -0.021994568862190918 0 -0.0446742285140527 -0.026089188867200751 0 -0.045003546386564237 -0.0387099411684712 0 -0.0446742285140527 -0.026089188867200751 0 -0.025008099616724951 -0.023426248165330361 0 -0.0446742285140527 -0.026089188867200751 0 -0.037408132035825749 -0.0185600911325992 0 -0.025008099616724951 -0.023426248165330361 0 -0.037408132035825749 -0.0185600911325992 0 -0.035108429748779091 -0.0087011650297901047 0 -0.025008099616724951 -0.023426248165330361 0 -0.0446742285140527 -0.026089188867200751 0 -0.037408132035825749 -0.0185600911325992 0 -0.04470533052213789 -0.016997291394765648 0 -0.053029708142403729 -0.010167265893381549 0 -0.035108429748779091 -0.0087011650297901047 0 -0.045208759880830049 0.0060239181057523197 0 -0.053029708142403729 -0.010167265893381549 0 -0.04470533052213789 -0.016997291394765648 0 -0.035108429748779091 -0.0087011650297901047 0 -0.037408132035825749 -0.0185600911325992 0 -0.04470533052213789 -0.016997291394765648 0 -0.035108429748779091 -0.0087011650297901047 0 -0.035108429748779091 -0.0087011650297901047 0 -0.025910480923297331 -0.0026089765172342409 0 -0.033728605513347228 0.0053346538717681568 0 -0.035108429748779091 -0.0087011650297901047 0 -0.045208759880830049 0.0060239181057523197 0 -0.025910480923297331 -0.0026089765172342409 0 -0.02403476323487494 -0.020473458982291321 0 -0.01566997143534998 -0.0082367409694291856 0 -0.02403476323487494 -0.020473458982291321 0 -0.016228406694026011 0.0032085132347888651 0 -0.025910480923297331 -0.0026089765172342409 0 -0.02403476323487494 -0.020473458982291321 0 -0.016228406694026011 0.0032085132347888651 0 -0.02403476323487494 -0.020473458982291321 0 -0.016228406694026011 0.0032085132347888651 0 -0.035108429748779091 -0.0087011650297901047 0 -0.025910480923297331 -0.0026089765172342409 0 -0.02403476323487494 -0.020473458982291321 0 -0.01566997143534998 -0.0082367409694291856 0 -0.02403476323487494 -0.020473458982291321 0 -0.012974415964598651 -0.017167514408536061 0 -0.02349277323590444 -0.0256354142661805 0 -0.012974415964598651 -0.017167514408536061 0 -0.016506532081295541 -0.0358205250953939 0 -0.02403476323487494 -0.020473458982291321 0 -0.02349277323590444 -0.0256354142661805 0 -0.012974415964598651 -0.017167514408536061 0 -0.035108429748779091 -0.0087011650297901047 0 -0.02403476323487494 -0.020473458982291321 0 -0.025008099616724951 -0.023426248165330361 0 -0.035108429748779091 -0.0087011650297901047 0 -0.025008099616724951 -0.023426248165330361 0 -0.02403476323487494 -0.020473458982291321 0 -0.02349277323590444 -0.0256354142661805 0 -0.02403476323487494 -0.020473458982291321 0 -0.025008099616724951 -0.023426248165330361 0 -0.02349277323590444 -0.0256354142661805 0 -0.02403476323487494 -0.020473458982291321 0 -0.025008099616724951 -0.023426248165330361 0 -0.025008099616724951 -0.023426248165330361 0 -0.02349277323590444 -0.0256354142661805 0 -0.02349277323590444 -0.0256354142661805 0 -0.016506532081295541 -0.0358205250953939 0 -0.0075378626597197426 -0.02605181974793834 0 -0.012974415964598651 -0.017167514408536061 0 -0.016506532081295541 -0.0358205250953939 0 -0.012974415964598651 -0.017167514408536061 0 -0.016506532081295541 -0.0358205250953939 0 -0.0075378626597197426 -0.02605181974793834 0 -0.0038129298979381332 -0.01799064182445868 0 0.001562421778993828 -0.02670645938091611 0 -0.0075378626597197426 -0.02605181974793834 0 -0.005957857133760648 -0.032573958030387269 0 0.001562421778993828 -0.02670645938091611 0 -0.0075378626597197426 -0.02605181974793834 0 -0.0038129298979381332 -0.01799064182445868 0 -0.012974415964598651 -0.017167514408536061 0 -0.012974415964598651 -0.017167514408536061 0 -0.0035979654953676079 -0.0092278603356885126 0 -0.009442299847901011 0.0014854962783217021 0 -0.01566997143534998 -0.0082367409694291856 0 -0.012974415964598651 -0.017167514408536061 0 -0.009442299847901011 0.0014854962783217021 0 -0.012974415964598651 -0.017167514408536061 0 -0.009442299847901011 0.0014854962783217021 0 -0.0038129298979381332 -0.01799064182445868 0 -0.012974415964598651 -0.017167514408536061 0 -0.0035979654953676079 -0.0092278603356885126 0 -0.0038129298979381332 -0.01799064182445868 0 -0.0035979654953676079 -0.0092278603356885126 0 0.0063172090506025446 -0.012345682051064731 0 -0.0035979654953676079 -0.0092278603356885126 0 -0.009442299847901011 0.0014854962783217021 0 0.0032178168919596161 0.0019595894292276069 0 -0.01566997143534998 -0.0082367409694291856 0 -0.016228406694026011 0.0032085132347888651 0 -0.009442299847901011 0.0014854962783217021 0 -0.021189555315111661 -0.047571442493218943 0 -0.02031282734252569 -0.055921468507029413 0 -0.01873272537182882 -0.047576992285995053 0 -0.02031282734252569 -0.055921468507029413 0 -0.01446681151562625 -0.053368413704830947 0 -0.01873272537182882 -0.047576992285995053 0 -0.02031282734252569 -0.055921468507029413 0 -0.021189555315111661 -0.047571442493218943 0 -0.01873272537182882 -0.047576992285995053 0 -0.02031282734252569 -0.055921468507029413 0 -0.021189555315111661 -0.047571442493218943 0 -0.01873272537182882 -0.047576992285995053 0 -0.032958386136660828 -0.047544857595706917 0 -0.021189555315111661 -0.047571442493218943 0 -0.032958386136660828 -0.047544857595706917 0 -0.021189555315111661 -0.047571442493218943 0 -0.02031282734252569 -0.055921468507029413 0 -0.032958386136660828 -0.047544857595706917 0 -0.02349277323590444 -0.0256354142661805 0 -0.021189555315111661 -0.047571442493218943 0 -0.032958386136660828 -0.047544857595706917 0 -0.025008099616724951 -0.023426248165330361 0 -0.032958386136660828 -0.047544857595706917 0 -0.025008099616724951 -0.023426248165330361 0 -0.02349277323590444 -0.0256354142661805 0 -0.02349277323590444 -0.0256354142661805 0 -0.021189555315111661 -0.047571442493218943 0 -0.02349277323590444 -0.0256354142661805 0 -0.021189555315111661 -0.047571442493218943 0 -0.016506532081295541 -0.0358205250953939 0 -0.021189555315111661 -0.047571442493218943 0 -0.01873272537182882 -0.047576992285995053 0 -0.016506532081295541 -0.0358205250953939 0 -0.01873272537182882 -0.047576992285995053 0 -0.016506532081295541 -0.0358205250953939 0 -0.01873272537182882 -0.047576992285995053 0 -0.016506532081295541 -0.0358205250953939 0 -0.01175836878695875 -0.047592746829317391 0 -0.016506532081295541 -0.0358205250953939 0 -0.005957857133760648 -0.032573958030387269 0 0.00021658082623976019 -0.042284885488493122 0 -0.016506532081295541 -0.0358205250953939 0 0.00021658082623976019 -0.042284885488493122 0 0.00022555478829687159 -0.060213922832367379 0 -0.0075378626597197426 -0.02605181974793834 0 -0.016506532081295541 -0.0358205250953939 0 -0.005957857133760648 -0.032573958030387269 0 -0.005957857133760648 -0.032573958030387269 0 0.001562421778993828 -0.02670645938091611 0 0.00021658082623976019 -0.042284885488493122 0 -0.016506532081295541 -0.0358205250953939 0 0.00022555478829687159 -0.060213922832367379 0 -0.016506532081295541 -0.0358205250953939 0 -0.01175836878695875 -0.047592746829317391 0 0.00022555478829687159 -0.060213922832367379 0 -0.01446681151562625 -0.053368413704830947 0 -0.01175836878695875 -0.047592746829317391 0 -0.01001675618643282 -0.057939080771955143 0 -0.01873272537182882 -0.047576992285995053 0 -0.01446681151562625 -0.053368413704830947 0 -0.01175836878695875 -0.047592746829317391 0 -0.01873272537182882 -0.047576992285995053 0 -0.01175836878695875 -0.047592746829317391 0 -0.02031282734252569 -0.055921468507029413 0 -0.01446681151562625 -0.053368413704830947 0 -0.01001675618643282 -0.057939080771955143 0 -0.01001675618643282 -0.057939080771955143 0 -0.00086097023970929318 -0.063673880671509669 0 0.00022555478829687159 -0.060213922832367379 0 -0.01175836878695875 -0.047592746829317391 0 -0.01001675618643282 -0.057939080771955143 0 0.00022555478829687159 -0.060213922832367379 0 -0.00086097023970929318 -0.063673880671509669 0 -0.018073810446128991 -0.077246041139406696 0 -0.00086097023970929318 -0.063673880671509669 0 -0.0018642428565199261 -0.078249597871598381 0 -0.018073810446128991 -0.077246041139406696 0 -0.01001675618643282 -0.057939080771955143 0 -0.00086097023970929318 -0.063673880671509669 0 -0.018073810446128991 -0.077246041139406696 0 -0.0073979560950200828 -0.088862041797210578 0 -0.0018642428565199261 -0.078249597871598381 0 -0.018073810446128991 -0.077246041139406696 0 -0.0073979560950200828 -0.088862041797210578 0 -0.018073810446128991 -0.077246041139406696 0 -0.01259539748521017 -0.099751459168584036 0 -0.0073979560950200828 -0.088862041797210578 0 -0.0059052503301991847 -0.096987481368052325 0 0.0011513381275580911 -0.090011193369485931 0 -0.0073979560950200828 -0.088862041797210578 0 -0.0018642428565199261 -0.078249597871598381 0 0.0011513381275580911 -0.090011193369485931 0 -0.02545252788445956 -0.083064089521859008 0 -0.018073810446128991 -0.077246041139406696 0 -0.015050227405783489 -0.1060428832971006 0 -0.018073810446128991 -0.077246041139406696 0 -0.015050227405783489 -0.1060428832971006 0 -0.02545252788445956 -0.083064089521859008 0 -0.018073810446128991 -0.077246041139406696 0 -0.02545252788445956 -0.083064089521859008 0 -0.038433534575921337 -0.093299489591724266 0 -0.028274287073273299 -0.097965724282927047 0 -0.02545252788445956 -0.083064089521859008 0 -0.028274287073273299 -0.097965724282927047 0 -0.02031282734252569 -0.055921468507029413 0 -0.02545252788445956 -0.083064089521859008 0 -0.018073810446128991 -0.077246041139406696 0 -0.02031282734252569 -0.055921468507029413 0 -0.02545252788445956 -0.083064089521859008 0 -0.042186463702022559 -0.075539873628648044 0 -0.02031282734252569 -0.055921468507029413 0 -0.02545252788445956 -0.083064089521859008 0 -0.02031282734252569 -0.055921468507029413 0 -0.018073810446128991 -0.077246041139406696 0 -0.02031282734252569 -0.055921468507029413 0 -0.01001675618643282 -0.057939080771955143 0 -0.018073810446128991 -0.077246041139406696 0 -0.042186463702022559 -0.075539873628648044 0 -0.038433534575921337 -0.093299489591724266 0 -0.051414541267382867 -0.1035348896615897 0 -0.042186463702022559 -0.075539873628648044 0 -0.051414541267382867 -0.1035348896615897 0 -0.02545252788445956 -0.083064089521859008 0 -0.042186463702022559 -0.075539873628648044 0 -0.038433534575921337 -0.093299489591724266 0 -0.02545252788445956 -0.083064089521859008 0 -0.038433534575921337 -0.093299489591724266 0 -0.042186463702022559 -0.075539873628648044 0 -0.061031633077737048 -0.084865693664341546 0 -0.051414541267382867 -0.1035348896615897 0 -0.042186463702022559 -0.075539873628648044 0 -0.061031633077737048 -0.084865693664341546 0 -0.057139189993436312 -0.067946791317779323 0 -0.049145540310948477 -0.05989536808355439 0 -0.042186463702022559 -0.075539873628648044 0 -0.057139189993436312 -0.067946791317779323 0 -0.0561995904712696 -0.1180511882332487 0 -0.03938265319962115 -0.12167766749037209 0 -0.0561995904712696 -0.1180511882332487 0 -0.03938265319962115 -0.12167766749037209 0 -0.050506282901717291 -0.12645240393155871 0 -0.0561995904712696 -0.1180511882332487 0 -0.051414541267382867 -0.1035348896615897 0 -0.044572688929161122 -0.11205855449724091 0 -0.0561995904712696 -0.1180511882332487 0 -0.051414541267382867 -0.1035348896615897 0 -0.064373860237615682 -0.12196166084271449 0 -0.0561995904712696 -0.1180511882332487 0 -0.060561775360276598 -0.13128465262942679 0 -0.0561995904712696 -0.1180511882332487 0 -0.060561775360276598 -0.13128465262942679 0 -0.066898683407092679 -0.1157439881780284 0 -0.0561995904712696 -0.1180511882332487 0 -0.066898683407092679 -0.1157439881780284 0 -0.051414541267382867 -0.1035348896615897 0 -0.066898683407092679 -0.1157439881780284 0 -0.0561995904712696 -0.1180511882332487 0 -0.051414541267382867 -0.1035348896615897 0 -0.067788949187945466 -0.1023412054022622 0 -0.066898683407092679 -0.1157439881780284 0 -0.051414541267382867 -0.1035348896615897 0 -0.067788949187945466 -0.1023412054022622 0 -0.061031633077737048 -0.084865693664341546 0 -0.051414541267382867 -0.1035348896615897 0 -0.051414541267382867 -0.1035348896615897 0 -0.03875821962156533 -0.1039452034154955 0 -0.044572688929161122 -0.11205855449724091 0 -0.038433534575921337 -0.093299489591724266 0 -0.051414541267382867 -0.1035348896615897 0 -0.038433534575921337 -0.093299489591724266 0 -0.051414541267382867 -0.1035348896615897 0 -0.03875821962156533 -0.1039452034154955 0 -0.038433534575921337 -0.093299489591724266 0 -0.03875821962156533 -0.1039452034154955 0 -0.028274287073273299 -0.097965724282927047 0 -0.03875821962156533 -0.1039452034154955 0 -0.031096046262088509 -0.11286735904399479 0 -0.028274287073273299 -0.097965724282927047 0 -0.0561995904712696 -0.1180511882332487 0 -0.044572688929161122 -0.11205855449724091 0 -0.03938265319962115 -0.12167766749037209 0 -0.044572688929161122 -0.11205855449724091 0 -0.03938265319962115 -0.12167766749037209 0 -0.031096046262088509 -0.11286735904399479 0 -0.03875821962156533 -0.1039452034154955 0 -0.044572688929161122 -0.11205855449724091 0 -0.031096046262088509 -0.11286735904399479 0 -0.03938265319962115 -0.12167766749037209 0 -0.022565715927972751 -0.12530414674749571 0 -0.031096046262088509 -0.11286735904399479 0 -0.015050227405783489 -0.1060428832971006 0 -0.022565715927972751 -0.12530414674749571 0 -0.03938265319962115 -0.12167766749037209 0 -0.031096046262088509 -0.11286735904399479 0 -0.022565715927972751 -0.12530414674749571 0 -0.015050227405783489 -0.1060428832971006 0 -0.01370864928196353 -0.11882017863125691 0 -0.022565715927972751 -0.12530414674749571 0 -0.015050227405783489 -0.1060428832971006 0 -0.022565715927972751 -0.12530414674749571 0 -0.02545252788445956 -0.083064089521859008 0 -0.028274287073273299 -0.097965724282927047 0 -0.015050227405783489 -0.1060428832971006 0 -0.031096046262088509 -0.11286735904399479 0 -0.028274287073273299 -0.097965724282927047 0 -0.015050227405783489 -0.1060428832971006 0 -0.031096046262088509 -0.11286735904399479 0 -0.028274287073273299 -0.097965724282927047 0 -0.018073810446128991 -0.077246041139406696 0 -0.01259539748521017 -0.099751459168584036 0 -0.015050227405783489 -0.1060428832971006 0 -0.0073979560950200828 -0.088862041797210578 0 -0.01259539748521017 -0.099751459168584036 0 -0.0059052503301991847 -0.096987481368052325 0 -0.01259539748521017 -0.099751459168584036 0 -0.0084240470500424602 -0.1049092966441719 0 -0.0059052503301991847 -0.096987481368052325 0 -0.01259539748521017 -0.099751459168584036 0 -0.0084240470500424602 -0.1049092966441719 0 -0.015050227405783489 -0.1060428832971006 0 -0.01259539748521017 -0.099751459168584036 0 -0.015050227405783489 -0.1060428832971006 0 -0.0084240470500424602 -0.1049092966441719 0 -0.015050227405783489 -0.1060428832971006 0 -0.0073171742938389532 -0.1118898740476663 0 -0.0084240470500424602 -0.1049092966441719 0 -0.002425667790299946 -0.1078413822007992 0 -0.0073171742938389532 -0.1118898740476663 0 -0.002425667790299946 -0.1078413822007992 0 -0.003331959515451417 -0.1025745653613986 0 0.001071105638228988 -0.1042273932595706 0 -0.003331959515451417 -0.1025745653613986 0 -0.00038276708765412891 -0.098977923510877905 0 0.001071105638228988 -0.1042273932595706 0 -0.0084240470500424602 -0.1049092966441719 0 -0.002425667790299946 -0.1078413822007992 0 -0.003331959515451417 -0.1025745653613986 0 -0.00038276708765412891 -0.098977923510877905 0 -0.0059052503301991847 -0.096987481368052325 0 0.0011513381275580911 -0.090011193369485931 0 -0.0084240470500424602 -0.1049092966441719 0 -0.003331959515451417 -0.1025745653613986 0 -0.0059052503301991847 -0.096987481368052325 0 -0.003331959515451417 -0.1025745653613986 0 -0.00038276708765412891 -0.098977923510877905 0 -0.0059052503301991847 -0.096987481368052325 0 -0.01370864928196353 -0.11882017863125691 0 -0.0062744846531149201 -0.12881726042193811 0 -0.022565715927972751 -0.12530414674749571 0 -0.01370864928196353 -0.11882017863125691 0 -0.0036137038278406322 -0.1200102443132854 0 -0.0062744846531149201 -0.12881726042193811 0 -0.01370864928196353 -0.11882017863125691 0 -0.0073171742938389532 -0.1118898740476663 0 -0.0036137038278406322 -0.1200102443132854 0 -0.015050227405783489 -0.1060428832971006 0 -0.01370864928196353 -0.11882017863125691 0 -0.015050227405783489 -0.1060428832971006 0 -0.01370864928196353 -0.11882017863125691 0 -0.0073171742938389532 -0.1118898740476663 0 -0.0073171742938389532 -0.1118898740476663 0 -0.00090063878149298593 -0.113305159396661 0 -0.0036137038278406322 -0.1200102443132854 0 -0.002425667790299946 -0.1078413822007992 0 -0.0073171742938389532 -0.1118898740476663 0 -0.00090063878149298593 -0.113305159396661 0 -0.00090063878149298593 -0.113305159396661 0 -0.0036137038278406322 -0.1200102443132854 0 0.0033054374168316478 -0.1178358813654916 0 -0.0036137038278406322 -0.1200102443132854 0 -0.0062744846531149201 -0.12881726042193811 0 0.002463062698835043 -0.1235905736359144 0 -0.0062744846531149201 -0.12881726042193811 0 -0.022565715927972751 -0.12530414674749571 0 -0.0062744846531149201 -0.12881726042193811 0 -0.022565715927972751 -0.12530414674749571 0 -0.016900179540920289 -0.13333998850112849 0 -0.0062744846531149201 -0.12881726042193811 0 -0.01498566858439444 -0.1418844653563627 0 -0.00095973153774306244 -0.14404593988090539 0 -0.0062744846531149201 -0.12881726042193811 0 -0.016900179540920289 -0.13333998850112849 0 -0.01498566858439444 -0.1418844653563627 0 -0.022565715927972751 -0.12530414674749571 0 -0.016900179540920289 -0.13333998850112849 0 -0.027077333355369781 -0.1358074675369674 0 -0.016900179540920289 -0.13333998850112849 0 -0.029678355144690222 -0.14186280504580401 0 -0.01498566858439444 -0.1418844653563627 0 -0.016900179540920289 -0.13333998850112849 0 -0.027077333355369781 -0.1358074675369674 0 -0.029678355144690222 -0.14186280504580401 0 -0.027077333355369781 -0.1358074675369674 0 -0.029678355144690222 -0.14186280504580401 0 -0.022565715927972751 -0.12530414674749571 0 -0.027077333355369781 -0.1358074675369674 0 -0.022565715927972751 -0.12530414674749571 0 -0.027077333355369781 -0.1358074675369674 0 -0.033862285448682528 -0.13029035192033089 0 -0.01498566858439444 -0.1418844653563627 0 -0.01954112022464416 -0.1582267360882916 0 -0.035685419276936602 -0.15892831660011461 0 -0.029678355144690222 -0.14186280504580401 0 -0.01498566858439444 -0.1418844653563627 0 -0.035685419276936602 -0.15892831660011461 0 -0.01498566858439444 -0.1418844653563627 0 -0.035685419276936602 -0.15892831660011461 0 -0.027077333355369781 -0.1358074675369674 0 -0.029678355144690222 -0.14186280504580401 0 -0.036440619833197158 -0.14691671024874511 0 -0.009744076891179218 -0.1534286834688264 0 -0.01498566858439444 -0.1418844653563627 0 -0.01954112022464416 -0.1582267360882916 0 -0.009744076891179218 -0.1534286834688264 0 -0.01498566858439444 -0.1418844653563627 0 -0.00095973153774306244 -0.14404593988090539 0 -0.009744076891179218 -0.1534286834688264 0 -0.00095973153774306244 -0.14404593988090539 0 0.00065275629941164825 -0.15716944352761131 0 -0.009744076891179218 -0.1534286834688264 0 -0.011134959641228379 -0.1690501427334484 0 0.00065275629941164825 -0.15716944352761131 0 -0.011134959641228379 -0.1690501427334484 0 0.0054006282117030078 -0.17115340951654751 0 0.00065275629941164825 -0.15716944352761131 0 -0.009744076891179218 -0.1534286834688264 0 -0.011134959641228379 -0.1690501427334484 0 -0.01954112022464416 -0.1582267360882916 0 -0.011134959641228379 -0.1690501427334484 0 -0.0042549789881765557 -0.1864528278155668 0 -0.021095494529194379 -0.1879474642677095 0 -0.011134959641228379 -0.1690501427334484 0 -0.0042549789881765557 -0.1864528278155668 0 0.0054006282117030078 -0.17115340951654751 0 -0.011134959641228379 -0.1690501427334484 0 -0.025961806911964879 -0.16806964197882629 0 -0.021095494529194379 -0.1879474642677095 0 -0.039719143452908293 -0.16926625056279401 0 -0.021095494529194379 -0.1879474642677095 0 -0.025961806911964879 -0.16806964197882629 0 -0.039719143452908293 -0.16926625056279401 0 -0.021095494529194379 -0.1879474642677095 0 -0.01954112022464416 -0.1582267360882916 0 -0.025961806911964879 -0.16806964197882629 0 -0.035685419276936602 -0.15892831660011461 0 -0.011134959641228379 -0.1690501427334484 0 -0.01954112022464416 -0.1582267360882916 0 -0.025961806911964879 -0.16806964197882629 0 -0.035685419276936602 -0.15892831660011461 0 -0.038603659370031997 -0.1613311498892202 0 -0.039719143452908293 -0.16926625056279401 0 -0.035685419276936602 -0.15892831660011461 0 -0.038603659370031997 -0.1613311498892202 0 -0.035685419276936602 -0.15892831660011461 0 -0.039719143452908293 -0.16926625056279401 0 -0.025961806911964879 -0.16806964197882629 0 -0.035685419276936602 -0.15892831660011461 0 -0.039719143452908293 -0.16926625056279401 0 -0.038603659370031997 -0.1613311498892202 0 -0.041446955624464203 -0.1675330978089431 0 -0.038603659370031997 -0.1613311498892202 0 -0.041446955624464203 -0.1675330978089431 0 -0.043560765850210598 -0.16541275389994151 0 -0.038603659370031997 -0.1613311498892202 0 -0.041446955624464203 -0.1675330978089431 0 -0.039719143452908293 -0.16926625056279401 0 -0.041446955624464203 -0.1675330978089431 0 -0.043560765850210598 -0.16541275389994151 0 -0.041446955624464203 -0.1675330978089431 0 -0.039719143452908293 -0.16926625056279401 0 -0.043560765850210598 -0.16541275389994151 0 -0.043985610591013052 -0.15898578668678909 0 -0.04695659513227865 -0.15534538467512529 0 -0.043560765850210598 -0.16541275389994151 0 -0.043985610591013052 -0.15898578668678909 0 -0.041729138498659321 -0.1608706388810297 0 -0.043985610591013052 -0.15898578668678909 0 -0.04695659513227865 -0.15534538467512529 0 -0.043394696600302873 -0.1559089323205399 0 -0.043985610591013052 -0.15898578668678909 0 -0.04155782596804615 -0.15824414352896271 0 -0.043394696600302873 -0.1559089323205399 0 -0.043985610591013052 -0.15898578668678909 0 -0.04155782596804615 -0.15824414352896271 0 -0.041729138498659321 -0.1608706388810297 0 -0.038603659370031997 -0.1613311498892202 0 -0.04155782596804615 -0.15824414352896271 0 -0.0401940641114856 -0.15404894045287551 0 -0.038603659370031997 -0.1613311498892202 0 -0.043560765850210598 -0.16541275389994151 0 -0.038603659370031997 -0.1613311498892202 0 -0.04155782596804615 -0.15824414352896271 0 -0.041729138498659321 -0.1608706388810297 0 -0.038603659370031997 -0.1613311498892202 0 -0.043560765850210598 -0.16541275389994151 0 -0.041729138498659321 -0.1608706388810297 0 -0.041446955624464203 -0.1675330978089431 0 -0.039719143452908293 -0.16926625056279401 0 -0.046441475412134101 -0.18649475227434539 0 -0.039719143452908293 -0.16926625056279401 0 -0.021095494529194379 -0.1879474642677095 0 -0.03520217733013415 -0.19001974240909089 0 -0.039719143452908293 -0.16926625056279401 0 -0.046441475412134101 -0.18649475227434539 0 -0.039719143452908293 -0.16926625056279401 0 -0.046441475412134101 -0.18649475227434539 0 -0.03520217733013415 -0.19001974240909089 0 -0.043560765850210598 -0.16541275389994151 0 -0.063572243417038835 -0.18188989180767251 0 -0.041446955624464203 -0.1675330978089431 0 -0.046441475412134101 -0.18649475227434539 0 -0.053960011246662623 -0.19482723543689481 0 -0.043560765850210598 -0.16541275389994151 0 -0.058388002159303787 -0.1707842128787822 0 -0.063572243417038835 -0.18188989180767251 0 -0.041446955624464203 -0.1675330978089431 0 -0.053960011246662623 -0.19482723543689481 0 -0.063572243417038835 -0.18188989180767251 0 -0.041446955624464203 -0.1675330978089431 0 -0.053960011246662623 -0.19482723543689481 0 -0.041446955624464203 -0.1675330978089431 0 -0.043560765850210598 -0.16541275389994151 0 -0.063572243417038835 -0.18188989180767251 0 -0.043560765850210598 -0.16541275389994151 0 -0.050384269639058878 -0.15314535398938539 0 -0.04695659513227865 -0.15534538467512529 0 -0.043560765850210598 -0.16541275389994151 0 -0.05500487935867715 -0.16126870461769949 0 -0.059182947778467103 -0.1553432300515106 0 -0.043560765850210598 -0.16541275389994151 0 -0.053986770345347351 -0.16539435469822039 0 -0.05500487935867715 -0.16126870461769949 0 -0.043560765850210598 -0.16541275389994151 0 -0.053986770345347351 -0.16539435469822039 0 -0.058388002159303787 -0.1707842128787822 0 -0.053986770345347351 -0.16539435469822039 0 -0.058388002159303787 -0.1707842128787822 0 -0.058993434013196823 -0.16411174739645731 0 -0.058388002159303787 -0.1707842128787822 0 -0.058993434013196823 -0.16411174739645731 0 -0.06862057671520555 -0.1640383341481858 0 -0.058993434013196823 -0.16411174739645731 0 -0.05500487935867715 -0.16126870461769949 0 -0.061626080461858752 -0.1592782399635761 0 -0.053986770345347351 -0.16539435469822039 0 -0.058993434013196823 -0.16411174739645731 0 -0.05500487935867715 -0.16126870461769949 0 -0.05500487935867715 -0.16126870461769949 0 -0.061626080461858752 -0.1592782399635761 0 -0.059182947778467103 -0.1553432300515106 0 -0.059182947778467103 -0.1553432300515106 0 -0.062329606729167611 -0.14658589945860359 0 -0.065132059301839254 -0.15045400265818051 0 -0.043560765850210598 -0.16541275389994151 0 -0.055968720672355678 -0.14954974002553431 0 -0.062329606729167611 -0.14658589945860359 0 -0.043560765850210598 -0.16541275389994151 0 -0.059182947778467103 -0.1553432300515106 0 -0.062329606729167611 -0.14658589945860359 0 -0.043560765850210598 -0.16541275389994151 0 -0.062329606729167611 -0.14658589945860359 0 -0.043560765850210598 -0.16541275389994151 0 -0.055968720672355678 -0.14954974002553431 0 -0.050384269639058878 -0.15314535398938539 0 -0.055968720672355678 -0.14954974002553431 0 -0.050384269639058878 -0.15314535398938539 0 -0.050984434680689368 -0.1482726194991012 0 -0.049568669436084747 -0.15121452889054371 0 -0.046959673632609042 -0.15026913487218721 0 -0.04695659513227865 -0.15534538467512529 0 -0.049568669436084747 -0.15121452889054371 0 -0.046959673632609042 -0.15026913487218721 0 -0.050984434680689368 -0.1482726194991012 0 -0.049568669436084747 -0.15121452889054371 0 -0.050384269639058878 -0.15314535398938539 0 -0.050984434680689368 -0.1482726194991012 0 -0.049568669436084747 -0.15121452889054371 0 -0.050384269639058878 -0.15314535398938539 0 -0.04695659513227865 -0.15534538467512529 0 -0.04704769318391834 -0.14460490542984619 0 -0.052980172592578902 -0.14339982919626509 0 -0.0458811125757018 -0.13479610737318701 0 -0.04704769318391834 -0.14460490542984619 0 -0.050984434680689368 -0.1482726194991012 0 -0.052980172592578902 -0.14339982919626509 0 -0.046959673632609042 -0.15026913487218721 0 -0.04704769318391834 -0.14460490542984619 0 -0.050984434680689368 -0.1482726194991012 0 -0.055968720672355678 -0.14954974002553431 0 -0.050984434680689368 -0.1482726194991012 0 -0.052980172592578902 -0.14339982919626509 0 -0.052980172592578902 -0.14339982919626509 0 -0.057827822924911162 -0.14467567753028909 0 -0.059611734149453241 -0.1391471624716277 0 -0.055968720672355678 -0.14954974002553431 0 -0.052980172592578902 -0.14339982919626509 0 -0.057827822924911162 -0.14467567753028909 0 -0.057827822924911162 -0.14467567753028909 0 -0.062329606729167611 -0.14658589945860359 0 -0.061277197476079182 -0.1440469632103783 0 -0.055968720672355678 -0.14954974002553431 0 -0.057827822924911162 -0.14467567753028909 0 -0.062329606729167611 -0.14658589945860359 0 -0.061277197476079182 -0.1440469632103783 0 -0.059611734149453241 -0.1391471624716277 0 -0.065339626100784712 -0.14577911338099281 0 -0.057827822924911162 -0.14467567753028909 0 -0.061277197476079182 -0.1440469632103783 0 -0.059611734149453241 -0.1391471624716277 0 -0.059611734149453241 -0.1391471624716277 0 -0.060561775360276598 -0.13128465262942679 0 -0.0458811125757018 -0.13479610737318701 0 -0.059611734149453241 -0.1391471624716277 0 -0.060561775360276598 -0.13128465262942679 0 -0.065339626100784712 -0.14577911338099281 0 -0.0561995904712696 -0.1180511882332487 0 -0.060561775360276598 -0.13128465262942679 0 -0.050506282901717291 -0.12645240393155871 0 -0.060561775360276598 -0.13128465262942679 0 -0.050506282901717291 -0.12645240393155871 0 -0.0458811125757018 -0.13479610737318701 0 -0.052980172592578902 -0.14339982919626509 0 -0.059611734149453241 -0.1391471624716277 0 -0.0458811125757018 -0.13479610737318701 0 -0.060561775360276598 -0.13128465262942679 0 -0.0458811125757018 -0.13479610737318701 0 -0.0458811125757018 -0.13479610737318701 0 -0.036538945268961273 -0.1373427116537724 0 -0.041497747018004877 -0.1430497572489107 0 -0.03938265319962115 -0.12167766749037209 0 -0.022565715927972751 -0.12530414674749571 0 -0.033862285448682528 -0.13029035192033089 0 -0.03938265319962115 -0.12167766749037209 0 -0.0458811125757018 -0.13479610737318701 0 -0.033862285448682528 -0.13029035192033089 0 -0.03938265319962115 -0.12167766749037209 0 -0.050506282901717291 -0.12645240393155871 0 -0.0458811125757018 -0.13479610737318701 0 -0.0458811125757018 -0.13479610737318701 0 -0.033862285448682528 -0.13029035192033089 0 -0.036538945268961273 -0.1373427116537724 0 -0.027077333355369781 -0.1358074675369674 0 -0.033862285448682528 -0.13029035192033089 0 -0.036538945268961273 -0.1373427116537724 0 -0.027077333355369781 -0.1358074675369674 0 -0.036538945268961273 -0.1373427116537724 0 -0.036440619833197158 -0.14691671024874511 0 -0.029678355144690222 -0.14186280504580401 0 -0.035685419276936602 -0.15892831660011461 0 -0.038603659370031997 -0.1613311498892202 0 -0.029678355144690222 -0.14186280504580401 0 -0.038603659370031997 -0.1613311498892202 0 -0.029678355144690222 -0.14186280504580401 0 -0.035685419276936602 -0.15892831660011461 0 -0.029678355144690222 -0.14186280504580401 0 -0.038603659370031997 -0.1613311498892202 0 -0.036440619833197158 -0.14691671024874511 0 -0.036538945268961273 -0.1373427116537724 0 -0.036440619833197158 -0.14691671024874511 0 -0.041497747018004877 -0.1430497572489107 0 -0.038603659370031997 -0.1613311498892202 0 -0.036440619833197158 -0.14691671024874511 0 -0.0401940641114856 -0.15404894045287551 0 -0.040886814872595392 -0.14912930325222881 0 -0.0401940641114856 -0.15404894045287551 0 -0.044279387198690887 -0.15292040625894709 0 -0.036440619833197158 -0.14691671024874511 0 -0.040886814872595392 -0.14912930325222881 0 -0.0401940641114856 -0.15404894045287551 0 -0.04155782596804615 -0.15824414352896271 0 -0.0401940641114856 -0.15404894045287551 0 -0.043394696600302873 -0.1559089323205399 0 -0.0401940641114856 -0.15404894045287551 0 -0.043394696600302873 -0.1559089323205399 0 -0.044279387198690887 -0.15292040625894709 0 -0.046959673632609042 -0.15026913487218721 0 -0.04695659513227865 -0.15534538467512529 0 -0.044279387198690887 -0.15292040625894709 0 -0.04695659513227865 -0.15534538467512529 0 -0.043394696600302873 -0.1559089323205399 0 -0.044279387198690887 -0.15292040625894709 0 -0.040886814872595392 -0.14912930325222881 0 -0.044279387198690887 -0.15292040625894709 0 -0.043983018603926088 -0.14784198438942631 0 -0.046959673632609042 -0.15026913487218721 0 -0.044279387198690887 -0.15292040625894709 0 -0.043983018603926088 -0.14784198438942631 0 -0.046959673632609042 -0.15026913487218721 0 -0.04704769318391834 -0.14460490542984619 0 -0.043983018603926088 -0.14784198438942631 0 -0.04704769318391834 -0.14460490542984619 0 -0.043983018603926088 -0.14784198438942631 0 -0.041497747018004877 -0.1430497572489107 0 -0.04704769318391834 -0.14460490542984619 0 -0.0458811125757018 -0.13479610737318701 0 -0.041497747018004877 -0.1430497572489107 0 -0.036440619833197158 -0.14691671024874511 0 -0.040886814872595392 -0.14912930325222881 0 -0.041497747018004877 -0.1430497572489107 0 -0.040886814872595392 -0.14912930325222881 0 -0.043983018603926088 -0.14784198438942631 0 -0.041497747018004877 -0.1430497572489107 0 -0.028093228409993232 -0.25853431884412431 0 -0.021863586594823559 -0.24416756847729451 0 -0.034419258781854839 -0.24306602370968 0 -0.027371618532994579 -0.2345739555683522 0 -0.021863586594823559 -0.24416756847729451 0 -0.034419258781854839 -0.24306602370968 0 -0.027371618532994579 -0.2345739555683522 0 -0.021863586594823559 -0.24416756847729451 0 -0.014868932279930301 -0.23762931921650779 0 -0.005798371929633719 -0.25144078307767631 0 -0.0060959518261848589 -0.23180551646719219 0 -0.005798371929633719 -0.25144078307767631 0 -0.0060959518261848589 -0.23180551646719219 0 0.0029558925330100232 -0.23926738898129851 0 -0.005798371929633719 -0.25144078307767631 0 -0.021863586594823559 -0.24416756847729451 0 -0.014868932279930301 -0.23762931921650779 0 -0.005798371929633719 -0.25144078307767631 0 -0.014868932279930301 -0.23762931921650779 0 -0.0060959518261848589 -0.23180551646719219 0 -0.014868932279930301 -0.23762931921650779 0 -0.0060959518261848589 -0.23180551646719219 0 -0.01811799546619771 -0.2287376029528265 0 -0.0060959518261848589 -0.23180551646719219 0 -0.0063935317227357784 -0.21217024985670799 0 -0.0060959518261848589 -0.23180551646719219 0 -0.01811799546619771 -0.2287376029528265 0 -0.0063935317227357784 -0.21217024985670799 0 -0.0060959518261848589 -0.23180551646719219 0 -0.0063935317227357784 -0.21217024985670799 0 0.00060778919825934358 -0.22096498933543121 0 -0.01811799546619771 -0.2287376029528265 0 -0.0063935317227357784 -0.21217024985670799 0 -0.0060959518261848589 -0.23180551646719219 0 0.0046881987975088456 -0.2302492005743601 0 0.00060778919825934358 -0.22096498933543121 0 -0.01811799546619771 -0.2287376029528265 0 -0.020829778531309191 -0.21653218113361911 0 -0.01239627607341845 -0.21343966800672101 0 -0.01811799546619771 -0.2287376029528265 0 -0.02501107831195587 -0.22170446713359829 0 -0.020829778531309191 -0.21653218113361911 0 -0.027371618532994579 -0.2345739555683522 0 -0.014868932279930301 -0.23762931921650779 0 -0.01811799546619771 -0.2287376029528265 0 -0.027371618532994579 -0.2345739555683522 0 -0.01811799546619771 -0.2287376029528265 0 -0.02501107831195587 -0.22170446713359829 0 -0.02501107831195587 -0.22170446713359829 0 -0.029136472229015092 -0.21223849054770719 0 -0.020829778531309191 -0.21653218113361911 0 -0.029136472229015092 -0.21223849054770719 0 -0.027962910906171801 -0.19990378771226619 0 -0.03626068057902461 -0.20441353775223831 0 -0.029136472229015092 -0.21223849054770719 0 -0.019487070575958831 -0.2065406770272426 0 -0.027962910906171801 -0.19990378771226619 0 -0.019487070575958831 -0.2065406770272426 0 -0.020829778531309191 -0.21653218113361911 0 -0.01239627607341845 -0.21343966800672101 0 -0.029136472229015092 -0.21223849054770719 0 -0.019487070575958831 -0.2065406770272426 0 -0.020829778531309191 -0.21653218113361911 0 -0.01811799546619771 -0.2287376029528265 0 -0.01239627607341845 -0.21343966800672101 0 -0.0063935317227357784 -0.21217024985670799 0 -0.019487070575958831 -0.2065406770272426 0 -0.01239627607341845 -0.21343966800672101 0 -0.0024718456054814851 -0.20662867797262599 0 -0.0063935317227357784 -0.21217024985670799 0 -0.0024718456054814851 -0.20662867797262599 0 0.00060778919825934358 -0.22096498933543121 0 -0.01239627607341845 -0.21343966800672101 0 -0.0063935317227357784 -0.21217024985670799 0 -0.0024718456054814851 -0.20662867797262599 0 -0.0063935317227357784 -0.21217024985670799 0 -0.0024718456054814851 -0.20662867797262599 0 -0.0042549789881765557 -0.1864528278155668 0 -0.0024718456054814851 -0.20662867797262599 0 -0.021095494529194379 -0.1879474642677095 0 -0.019487070575958831 -0.2065406770272426 0 -0.0024718456054814851 -0.20662867797262599 0 -0.021095494529194379 -0.1879474642677095 0 -0.0024718456054814851 -0.20662867797262599 0 -0.021095494529194379 -0.1879474642677095 0 -0.019487070575958831 -0.2065406770272426 0 -0.021095494529194379 -0.1879474642677095 0 -0.027962910906171801 -0.19990378771226619 0 -0.021095494529194379 -0.1879474642677095 0 -0.027962910906171801 -0.19990378771226619 0 -0.03520217733013415 -0.19001974240909089 0 -0.03520217733013415 -0.19001974240909089 0 -0.043014976811295791 -0.19603099814757019 0 -0.03626068057902461 -0.20441353775223831 0 -0.027962910906171801 -0.19990378771226619 0 -0.03520217733013415 -0.19001974240909089 0 -0.03626068057902461 -0.20441353775223831 0 -0.043014976811295791 -0.19603099814757019 0 -0.044809841246272727 -0.20457290930917019 0 -0.03626068057902461 -0.20441353775223831 0 -0.046441475412134101 -0.18649475227434539 0 -0.03520217733013415 -0.19001974240909089 0 -0.043014976811295791 -0.19603099814757019 0 -0.046441475412134101 -0.18649475227434539 0 -0.043014976811295791 -0.19603099814757019 0 -0.053960011246662623 -0.19482723543689481 0 -0.053960011246662623 -0.19482723543689481 0 -0.069644268740722048 -0.20400822340976069 0 -0.063572243417038835 -0.18188989180767251 0 -0.043014976811295791 -0.19603099814757019 0 -0.053960011246662623 -0.19482723543689481 0 -0.044809841246272727 -0.20457290930917019 0 -0.053960011246662623 -0.19482723543689481 0 -0.051233591977244967 -0.21259255550328141 0 -0.044809841246272727 -0.20457290930917019 0 -0.053960011246662623 -0.19482723543689481 0 -0.051233591977244967 -0.21259255550328141 0 -0.066473066868861841 -0.22212137306484619 0 -0.053960011246662623 -0.19482723543689481 0 -0.066473066868861841 -0.22212137306484619 0 -0.051233591977244967 -0.21259255550328141 0 -0.039579945617135619 -0.21500021970586641 0 -0.044809841246272727 -0.20457290930917019 0 -0.039579945617135619 -0.21500021970586641 0 -0.044809841246272727 -0.20457290930917019 0 -0.03626068057902461 -0.20441353775223831 0 -0.029136472229015092 -0.21223849054770719 0 -0.039579945617135619 -0.21500021970586641 0 -0.03626068057902461 -0.20441353775223831 0 -0.02501107831195587 -0.22170446713359829 0 -0.029136472229015092 -0.21223849054770719 0 -0.039579945617135619 -0.21500021970586641 0 -0.02501107831195587 -0.22170446713359829 0 -0.050970289544493293 -0.2326760082662068 0 -0.02501107831195587 -0.22170446713359829 0 -0.039579945617135619 -0.21500021970586641 0 -0.050970289544493293 -0.2326760082662068 0 -0.027371618532994579 -0.2345739555683522 0 -0.02501107831195587 -0.22170446713359829 0 -0.050970289544493293 -0.2326760082662068 0 -0.051233591977244967 -0.21259255550328141 0 -0.050970289544493293 -0.2326760082662068 0 -0.066473066868861841 -0.22212137306484619 0 -0.051233591977244967 -0.21259255550328141 0 -0.039579945617135619 -0.21500021970586641 0 -0.050970289544493293 -0.2326760082662068 0 -0.063197566128149418 -0.25424129297255182 0 -0.045926157109219837 -0.25069508117611328 0 -0.050970289544493293 -0.2326760082662068 0 -0.027371618532994579 -0.2345739555683522 0 -0.050970289544493293 -0.2326760082662068 0 -0.034419258781854839 -0.24306602370968 0 -0.045926157109219837 -0.25069508117611328 0 -0.050970289544493293 -0.2326760082662068 0 -0.034419258781854839 -0.24306602370968 0 -0.1028887120095664 -0.25461909053142789 0 -0.076929500777030729 -0.24364754939881519 0 -0.095461107210134205 -0.2360724616184304 0 -0.1028887120095664 -0.25461909053142789 0 -0.076929500777030729 -0.24364754939881519 0 -0.050970289544493293 -0.2326760082662068 0 -0.076929500777030729 -0.24364754939881519 0 -0.063197566128149418 -0.25424129297255182 0 -0.050970289544493293 -0.2326760082662068 0 -0.076929500777030729 -0.24364754939881519 0 -0.050970289544493293 -0.2326760082662068 0 -0.076929500777030729 -0.24364754939881519 0 -0.066473066868861841 -0.22212137306484619 0 -0.076929500777030729 -0.24364754939881519 0 -0.066473066868861841 -0.22212137306484619 0 -0.08438839548281063 -0.22082576146976071 0 -0.076929500777030729 -0.24364754939881519 0 -0.08438839548281063 -0.22082576146976071 0 -0.095461107210134205 -0.2360724616184304 0 -0.083583720983867155 -0.19836702971540371 0 -0.10359519855069541 -0.21484416762313499 0 -0.08438839548281063 -0.22082576146976071 0 -0.069644268740722048 -0.20400822340976069 0 -0.083583720983867155 -0.19836702971540371 0 -0.08438839548281063 -0.22082576146976071 0 -0.083583720983867155 -0.19836702971540371 0 -0.10359519855069541 -0.21484416762313499 0 -0.053960011246662623 -0.19482723543689481 0 -0.066473066868861841 -0.22212137306484619 0 -0.069644268740722048 -0.20400822340976069 0 -0.066473066868861841 -0.22212137306484619 0 -0.08438839548281063 -0.22082576146976071 0 -0.069644268740722048 -0.20400822340976069 0 -0.083583720983867155 -0.19836702971540371 0 -0.063572243417038835 -0.18188989180767251 0 -0.069644268740722048 -0.20400822340976069 0 -0.083583720983867155 -0.19836702971540371 0 -0.063572243417038835 -0.18188989180767251 0 -0.083583720983867155 -0.19836702971540371 0 -0.1050673298214599 -0.19454967535514339 0 -0.098361091646374077 -0.1826135501575577 0 -0.083583720983867155 -0.19836702971540371 0 -0.1050673298214599 -0.19454967535514339 0 -0.10359519855069541 -0.21484416762313499 0 -0.1178344077227928 -0.19324929061065621 0 -0.12744339761776019 -0.18623171594010171 0 -0.12667695344224539 -0.20193957871989321 0 -0.1178344077227928 -0.19324929061065621 0 -0.11474466267832301 -0.2053470915203344 0 -0.12667695344224539 -0.20193957871989321 0 -0.1050673298214599 -0.19454967535514339 0 -0.1178344077227928 -0.19324929061065621 0 -0.11474466267832301 -0.2053470915203344 0 -0.11474466267832301 -0.2053470915203344 0 -0.12267819418589181 -0.21683974647572299 0 -0.10359519855069541 -0.21484416762313499 0 -0.11474466267832301 -0.2053470915203344 0 -0.12267819418589181 -0.21683974647572299 0 -0.12667695344224539 -0.20193957871989321 0 -0.1050673298214599 -0.19454967535514339 0 -0.11474466267832301 -0.2053470915203344 0 -0.10359519855069541 -0.21484416762313499 0 -0.10359519855069541 -0.21484416762313499 0 -0.1127834530977293 -0.23572941850357551 0 -0.095461107210134205 -0.2360724616184304 0 -0.08438839548281063 -0.22082576146976071 0 -0.10359519855069541 -0.21484416762313499 0 -0.095461107210134205 -0.2360724616184304 0 -0.12267819418589181 -0.21683974647572299 0 -0.1127834530977293 -0.23572941850357551 0 -0.12267819418589181 -0.21683974647572299 0 -0.10359519855069541 -0.21484416762313499 0 -0.1127834530977293 -0.23572941850357551 0 -0.12267819418589181 -0.21683974647572299 0 -0.1127834530977293 -0.23572941850357551 0 -0.13125627978551141 -0.22632328609407429 0 -0.1191302386151367 -0.25027695472408662 0 -0.1127834530977293 -0.23572941850357551 0 -0.1296128243971939 -0.24219928941188321 0 -0.1065670258177152 -0.25617371293051039 0 -0.1191302386151367 -0.25027695472408662 0 -0.1127834530977293 -0.23572941850357551 0 -0.1127834530977293 -0.23572941850357551 0 -0.1296128243971939 -0.24219928941188321 0 -0.13125627978551141 -0.22632328609407429 0 -0.1065670258177152 -0.25617371293051039 0 -0.1028887120095664 -0.25461909053142789 0 -0.1127834530977293 -0.23572941850357551 0 -0.1028887120095664 -0.25461909053142789 0 -0.1127834530977293 -0.23572941850357551 0 -0.1028887120095664 -0.25461909053142789 0 -0.1127834530977293 -0.23572941850357551 0 -0.095461107210134205 -0.2360724616184304 0 -0.085436219876998037 -0.14958674792051349 0 -0.077543003684345899 -0.14171956176034881 0 -0.072025571976752453 -0.14897498049760341 0 -0.085436219876998037 -0.14958674792051349 0 -0.084288186052634509 -0.13398902717539379 0 -0.077543003684345899 -0.14171956176034881 0 -0.095941556323519278 -0.1228221941205848 0 -0.071047034361831671 -0.12877669280493029 0 -0.095941556323519278 -0.1228221941205848 0 -0.084288186052634509 -0.13398902717539379 0 -0.071047034361831671 -0.12877669280493029 0 -0.085436219876998037 -0.14958674792051349 0 -0.084288186052634509 -0.13398902717539379 0 -0.096878358844791623 -0.1377438852587223 0 -0.095941556323519278 -0.1228221941205848 0 -0.084288186052634509 -0.13398902717539379 0 -0.096878358844791623 -0.1377438852587223 0 -0.084288186052634509 -0.13398902717539379 0 -0.074076605450237462 -0.13653743063312651 0 -0.077543003684345899 -0.14171956176034881 0 -0.074076605450237462 -0.13653743063312651 0 -0.071264502704296406 -0.14186919683102189 0 -0.077543003684345899 -0.14171956176034881 0 -0.084288186052634509 -0.13398902717539379 0 -0.074076605450237462 -0.13653743063312651 0 -0.071047034361831671 -0.12877669280493029 0 -0.074076605450237462 -0.13653743063312651 0 -0.071047034361831671 -0.12877669280493029 0 -0.067337706309361603 -0.13633489788303829 0 -0.074076605450237462 -0.13653743063312651 0 -0.067337706309361603 -0.13633489788303829 0 -0.071264502704296406 -0.14186919683102189 0 -0.060561775360276598 -0.13128465262942679 0 -0.071047034361831671 -0.12877669280493029 0 -0.067337706309361603 -0.13633489788303829 0 -0.064373860237615682 -0.12196166084271449 0 -0.060561775360276598 -0.13128465262942679 0 -0.071047034361831671 -0.12877669280493029 0 -0.060561775360276598 -0.13128465262942679 0 -0.071047034361831671 -0.12877669280493029 0 -0.071047034361831671 -0.12877669280493029 0 -0.067337706309361603 -0.13633489788303829 0 -0.060561775360276598 -0.13128465262942679 0 -0.067337706309361603 -0.13633489788303829 0 -0.065339626100784712 -0.14577911338099281 0 -0.060561775360276598 -0.13128465262942679 0 -0.065339626100784712 -0.14577911338099281 0 -0.067337706309361603 -0.13633489788303829 0 -0.065339626100784712 -0.14577911338099281 0 -0.071264502704296406 -0.14186919683102189 0 -0.062329606729167611 -0.14658589945860359 0 -0.065339626100784712 -0.14577911338099281 0 -0.065132059301839254 -0.15045400265818051 0 -0.062329606729167611 -0.14658589945860359 0 -0.061277197476079182 -0.1440469632103783 0 -0.065339626100784712 -0.14577911338099281 0 -0.065339626100784712 -0.14577911338099281 0 -0.072025571976752453 -0.14897498049760341 0 -0.065132059301839254 -0.15045400265818051 0 -0.065339626100784712 -0.14577911338099281 0 -0.071264502704296406 -0.14186919683102189 0 -0.072025571976752453 -0.14897498049760341 0 -0.071264502704296406 -0.14186919683102189 0 -0.077543003684345899 -0.14171956176034881 0 -0.072025571976752453 -0.14897498049760341 0 -0.072025571976752453 -0.14897498049760341 0 -0.066782543924024398 -0.15558678990219199 0 -0.074934741620672138 -0.1568683268238153 0 -0.085436219876998037 -0.14958674792051349 0 -0.072025571976752453 -0.14897498049760341 0 -0.074934741620672138 -0.1568683268238153 0 -0.072025571976752453 -0.14897498049760341 0 -0.066782543924024398 -0.15558678990219199 0 -0.065132059301839254 -0.15045400265818051 0 -0.059182947778467103 -0.1553432300515106 0 -0.066782543924024398 -0.15558678990219199 0 -0.065132059301839254 -0.15045400265818051 0 -0.061626080461858752 -0.1592782399635761 0 -0.066782543924024398 -0.15558678990219199 0 -0.06862057671520555 -0.1640383341481858 0 -0.061626080461858752 -0.1592782399635761 0 -0.059182947778467103 -0.1553432300515106 0 -0.066782543924024398 -0.15558678990219199 0 -0.058388002159303787 -0.1707842128787822 0 -0.06862057671520555 -0.1640383341481858 0 -0.074541326505504324 -0.17535229409211411 0 -0.058993434013196823 -0.16411174739645731 0 -0.061626080461858752 -0.1592782399635761 0 -0.06862057671520555 -0.1640383341481858 0 -0.066782543924024398 -0.15558678990219199 0 -0.06862057671520555 -0.1640383341481858 0 -0.074934741620672138 -0.1568683268238153 0 -0.06862057671520555 -0.1640383341481858 0 -0.074541326505504324 -0.17535229409211411 0 -0.083833976739351612 -0.16429406183031381 0 -0.06862057671520555 -0.1640383341481858 0 -0.074934741620672138 -0.1568683268238153 0 -0.083833976739351612 -0.16429406183031381 0 -0.083583720983867155 -0.19836702971540371 0 -0.063572243417038835 -0.18188989180767251 0 -0.074541326505504324 -0.17535229409211411 0 -0.058388002159303787 -0.1707842128787822 0 -0.063572243417038835 -0.18188989180767251 0 -0.074541326505504324 -0.17535229409211411 0 -0.083583720983867155 -0.19836702971540371 0 -0.087641617964747981 -0.17688411889736219 0 -0.098361091646374077 -0.1826135501575577 0 -0.083583720983867155 -0.19836702971540371 0 -0.074541326505504324 -0.17535229409211411 0 -0.087641617964747981 -0.17688411889736219 0 -0.074541326505504324 -0.17535229409211411 0 -0.087641617964747981 -0.17688411889736219 0 -0.083833976739351612 -0.16429406183031381 0 -0.085436219876998037 -0.14958674792051349 0 -0.074934741620672138 -0.1568683268238153 0 -0.083833976739351612 -0.16429406183031381 0 -0.087641617964747981 -0.17688411889736219 0 -0.083833976739351612 -0.16429406183031381 0 -0.09598146480938044 -0.1703332017323953 0 -0.083833976739351612 -0.16429406183031381 0 -0.097565959258365628 -0.1565056132044613 0 -0.09598146480938044 -0.1703332017323953 0 -0.085436219876998037 -0.14958674792051349 0 -0.083833976739351612 -0.16429406183031381 0 -0.097565959258365628 -0.1565056132044613 0 -0.097565959258365628 -0.1565056132044613 0 -0.1125046784380629 -0.1713686645722815 0 -0.105531440869973 -0.15493376602389189 0 -0.097565959258365628 -0.1565056132044613 0 -0.09598146480938044 -0.1703332017323953 0 -0.1125046784380629 -0.1713686645722815 0 -0.097565959258365628 -0.1565056132044613 0 -0.1125046784380629 -0.1713686645722815 0 -0.09598146480938044 -0.1703332017323953 0 -0.098361091646374077 -0.1826135501575577 0 -0.1125046784380629 -0.1713686645722815 0 -0.1050673298214599 -0.19454967535514339 0 -0.098361091646374077 -0.1826135501575577 0 -0.1125046784380629 -0.1713686645722815 0 -0.087641617964747981 -0.17688411889736219 0 -0.09598146480938044 -0.1703332017323953 0 -0.098361091646374077 -0.1826135501575577 0 -0.1178344077227928 -0.19324929061065621 0 -0.1125046784380629 -0.1713686645722815 0 -0.12744339761776019 -0.18623171594010171 0 -0.1050673298214599 -0.19454967535514339 0 -0.1178344077227928 -0.19324929061065621 0 -0.1125046784380629 -0.1713686645722815 0 -0.1125046784380629 -0.1713686645722815 0 -0.12744339761776019 -0.18623171594010171 0 -0.1245304503448485 -0.17752693404707839 0 -0.1125046784380629 -0.1713686645722815 0 -0.12744339761776019 -0.18623171594010171 0 -0.1245304503448485 -0.17752693404707839 0 -0.1125046784380629 -0.1713686645722815 0 -0.124169335993368 -0.17181957995833419 0 -0.11768907607774221 -0.15444539530091239 0 -0.105531440869973 -0.15493376602389189 0 -0.1256266618629476 -0.16028078412727129 0 -0.11601912132328571 -0.16316644563263019 0 -0.105531440869973 -0.15493376602389189 0 -0.1256266618629476 -0.16028078412727129 0 -0.105531440869973 -0.15493376602389189 0 -0.1256266618629476 -0.16028078412727129 0 -0.11601912132328571 -0.16316644563263019 0 -0.1125046784380629 -0.1713686645722815 0 -0.105531440869973 -0.15493376602389189 0 -0.11601912132328571 -0.16316644563263019 0 -0.1125046784380629 -0.1713686645722815 0 -0.1204137041221591 -0.166082567807076 0 -0.1125046784380629 -0.1713686645722815 0 -0.124169335993368 -0.17181957995833419 0 -0.1204137041221591 -0.166082567807076 0 -0.124169335993368 -0.17181957995833419 0 -0.1204137041221591 -0.166082567807076 0 -0.1256266618629476 -0.16028078412727129 0 -0.12412258469642121 -0.15661705906478221 0 -0.11768907607774221 -0.15444539530091239 0 -0.1256266618629476 -0.16028078412727129 0 -0.11601912132328571 -0.16316644563263019 0 -0.1204137041221591 -0.166082567807076 0 -0.1256266618629476 -0.16028078412727129 0 -0.12412258469642121 -0.15661705906478221 0 -0.1256266618629476 -0.16028078412727129 0 -0.12412258469642121 -0.15661705906478221 0 -0.1183725602921173 -0.1476897305683621 0 -0.1287114194233614 -0.14274006776003401 0 -0.12412258469642121 -0.15661705906478221 0 -0.11768907607774221 -0.15444539530091239 0 -0.1183725602921173 -0.1476897305683621 0 -0.1183725602921173 -0.1476897305683621 0 -0.1184940922462089 -0.13527805728293449 0 -0.1287114194233614 -0.14274006776003401 0 -0.1183725602921173 -0.1476897305683621 0 -0.1082029728095255 -0.1443251323760455 0 -0.1184940922462089 -0.13527805728293449 0 -0.1183725602921173 -0.1476897305683621 0 -0.11244901251233951 -0.15034850606730299 0 -0.1082029728095255 -0.1443251323760455 0 -0.11768907607774221 -0.15444539530091239 0 -0.11244901251233951 -0.15034850606730299 0 -0.105531440869973 -0.15493376602389189 0 -0.11768907607774221 -0.15444539530091239 0 -0.1183725602921173 -0.1476897305683621 0 -0.11244901251233951 -0.15034850606730299 0 -0.085436219876998037 -0.14958674792051349 0 -0.105531440869973 -0.15493376602389189 0 -0.085436219876998037 -0.14958674792051349 0 -0.097565959258365628 -0.1565056132044613 0 -0.105531440869973 -0.15493376602389189 0 -0.105531440869973 -0.15493376602389189 0 -0.1082029728095255 -0.1443251323760455 0 -0.099012248100322026 -0.14664738289479329 0 -0.11244901251233951 -0.15034850606730299 0 -0.105531440869973 -0.15493376602389189 0 -0.1082029728095255 -0.1443251323760455 0 -0.085436219876998037 -0.14958674792051349 0 -0.105531440869973 -0.15493376602389189 0 -0.099012248100322026 -0.14664738289479329 0 -0.1082029728095255 -0.1443251323760455 0 -0.099012248100322026 -0.14664738289479329 0 -0.096878358844791623 -0.1377438852587223 0 -0.085436219876998037 -0.14958674792051349 0 -0.099012248100322026 -0.14664738289479329 0 -0.096878358844791623 -0.1377438852587223 0 -0.095941556323519278 -0.1228221941205848 0 -0.096878358844791623 -0.1377438852587223 0 -0.10807061170185039 -0.13140739289490491 0 -0.1082029728095255 -0.1443251323760455 0 -0.096878358844791623 -0.1377438852587223 0 -0.10807061170185039 -0.13140739289490491 0 -0.1208360782852064 -0.1168676954362371 0 -0.10807061170185039 -0.13140739289490491 0 -0.1184940922462089 -0.13527805728293449 0 -0.1208360782852064 -0.1168676954362371 0 -0.1184940922462089 -0.13527805728293449 0 -0.13155139187339759 -0.128813055763078 0 -0.1082029728095255 -0.1443251323760455 0 -0.10807061170185039 -0.13140739289490491 0 -0.1184940922462089 -0.13527805728293449 0 -0.13155139187339759 -0.128813055763078 0 -0.14479719916738051 -0.13517225444674719 0 -0.1449181702448307 -0.1140072038894374 0 -0.13155139187339759 -0.128813055763078 0 -0.14479719916738051 -0.13517225444674719 0 -0.1287114194233614 -0.14274006776003401 0 -0.1184940922462089 -0.13527805728293449 0 -0.13155139187339759 -0.128813055763078 0 -0.1287114194233614 -0.14274006776003401 0 -0.14479719916738051 -0.13517225444674719 0 -0.16282127294798229 -0.12931770173841389 0 -0.1449181702448307 -0.1140072038894374 0 -0.14479719916738051 -0.13517225444674719 0 -0.16282127294798229 -0.12931770173841389 0 -0.15735031821475101 -0.15039423332591009 0 -0.14479719916738051 -0.13517225444674719 0 -0.13776530770854109 -0.1524954876699999 0 -0.15735031821475101 -0.15039423332591009 0 -0.13776530770854109 -0.1524954876699999 0 -0.14523323494724449 -0.1654977808084013 0 -0.15735031821475101 -0.15039423332591009 0 -0.14479719916738051 -0.13517225444674719 0 -0.13776530770854109 -0.1524954876699999 0 -0.1287114194233614 -0.14274006776003401 0 -0.12412258469642121 -0.15661705906478221 0 -0.13776530770854109 -0.1524954876699999 0 -0.1287114194233614 -0.14274006776003401 0 -0.1256266618629476 -0.16028078412727129 0 -0.14523323494724449 -0.1654977808084013 0 -0.1256266618629476 -0.16028078412727129 0 -0.13400438933020289 -0.18068777571759631 0 -0.124169335993368 -0.17181957995833419 0 -0.1256266618629476 -0.16028078412727129 0 -0.13400438933020289 -0.18068777571759631 0 -0.1256266618629476 -0.16028078412727129 0 -0.13701175025827481 -0.17044571756387969 0 -0.13400438933020289 -0.18068777571759631 0 -0.12412258469642121 -0.15661705906478221 0 -0.13776530770854109 -0.1524954876699999 0 -0.1256266618629476 -0.16028078412727129 0 -0.13776530770854109 -0.1524954876699999 0 -0.1256266618629476 -0.16028078412727129 0 -0.14523323494724449 -0.1654977808084013 0 -0.1256266618629476 -0.16028078412727129 0 -0.13701175025827481 -0.17044571756387969 0 -0.14523323494724449 -0.1654977808084013 0 -0.1245304503448485 -0.17752693404707839 0 -0.12744339761776019 -0.18623171594010171 0 -0.13400438933020289 -0.18068777571759631 0 -0.1245304503448485 -0.17752693404707839 0 -0.124169335993368 -0.17181957995833419 0 -0.13400438933020289 -0.18068777571759631 0 -0.13701175025827481 -0.17044571756387969 0 -0.13400438933020289 -0.18068777571759631 0 -0.14839440282702471 -0.1764049166312224 0 -0.13400438933020289 -0.18068777571759631 0 -0.14839440282702471 -0.1764049166312224 0 -0.14874107936796899 -0.18774725217086299 0 -0.14839440282702471 -0.1764049166312224 0 -0.1638017485139891 -0.18426798926074681 0 -0.14874107936796899 -0.18774725217086299 0 -0.14523323494724449 -0.1654977808084013 0 -0.16483980803154119 -0.17071477748953229 0 -0.15735031821475101 -0.15039423332591009 0 -0.14839440282702471 -0.1764049166312224 0 -0.14523323494724449 -0.1654977808084013 0 -0.16483980803154119 -0.17071477748953229 0 -0.14523323494724449 -0.1654977808084013 0 -0.16483980803154119 -0.17071477748953229 0 -0.13701175025827481 -0.17044571756387969 0 -0.14839440282702471 -0.1764049166312224 0 -0.14523323494724449 -0.1654977808084013 0 -0.16483980803154119 -0.17071477748953229 0 -0.17633687537439821 -0.15893427805505961 0 -0.15735031821475101 -0.15039423332591009 0 -0.14839440282702471 -0.1764049166312224 0 -0.16483980803154119 -0.17071477748953229 0 -0.1638017485139891 -0.18426798926074681 0 -0.16483980803154119 -0.17071477748953229 0 -0.1638017485139891 -0.18426798926074681 0 -0.18076372166099511 -0.17753779110605949 0 -0.1638017485139891 -0.18426798926074681 0 -0.18076372166099511 -0.17753779110605949 0 -0.1788678411444985 -0.19636460350205229 0 -0.18076372166099511 -0.17753779110605949 0 -0.17633687537439821 -0.15893427805505961 0 -0.1914695616023093 -0.16383517288408339 0 -0.16483980803154119 -0.17071477748953229 0 -0.18076372166099511 -0.17753779110605949 0 -0.17633687537439821 -0.15893427805505961 0 -0.17633687537439821 -0.15893427805505961 0 -0.18932777851478921 -0.1484755107201976 0 -0.1914695616023093 -0.16383517288408339 0 -0.17633687537439821 -0.15893427805505961 0 -0.1742700642220032 -0.142648182804575 0 -0.18932777851478921 -0.1484755107201976 0 -0.1742700642220032 -0.142648182804575 0 -0.18541334409086679 -0.12846513536816159 0 -0.18932777851478921 -0.1484755107201976 0 -0.1742700642220032 -0.142648182804575 0 -0.18541334409086679 -0.12846513536816159 0 -0.16282127294798229 -0.12931770173841389 0 -0.1742700642220032 -0.142648182804575 0 -0.16282127294798229 -0.12931770173841389 0 -0.15735031821475101 -0.15039423332591009 0 -0.17633687537439821 -0.15893427805505961 0 -0.1742700642220032 -0.142648182804575 0 -0.15735031821475101 -0.15039423332591009 0 -0.1598800789205613 -0.2574499834318103 0 -0.1435921376365851 -0.2488794523189842 0 -0.15681427286347349 -0.23624951406001199 0 -0.1406618589942904 -0.2345314649106898 0 -0.1435921376365851 -0.2488794523189842 0 -0.15681427286347349 -0.23624951406001199 0 -0.1302529782539105 -0.2574551599198891 0 -0.1435921376365851 -0.2488794523189842 0 -0.1296128243971939 -0.24219928941188321 0 -0.1302529782539105 -0.2574551599198891 0 -0.1191302386151367 -0.25027695472408662 0 -0.1296128243971939 -0.24219928941188321 0 -0.1406618589942904 -0.2345314649106898 0 -0.1435921376365851 -0.2488794523189842 0 -0.1296128243971939 -0.24219928941188321 0 -0.1406618589942904 -0.2345314649106898 0 -0.13125627978551141 -0.22632328609407429 0 -0.14371032807229589 -0.22656162332471949 0 -0.1406618589942904 -0.2345314649106898 0 -0.1296128243971939 -0.24219928941188321 0 -0.13125627978551141 -0.22632328609407429 0 -0.12267819418589181 -0.21683974647572299 0 -0.13125627978551141 -0.22632328609407429 0 -0.13992075473572629 -0.21630027216981371 0 -0.13125627978551141 -0.22632328609407429 0 -0.14371032807229589 -0.22656162332471949 0 -0.13992075473572629 -0.21630027216981371 0 -0.14371032807229589 -0.22656162332471949 0 -0.14989847398247791 -0.21940357938900781 0 -0.13992075473572629 -0.21630027216981371 0 -0.14989847398247791 -0.21940357938900781 0 -0.15681427286347349 -0.23624951406001199 0 -0.14371032807229589 -0.22656162332471949 0 -0.14989847398247791 -0.21940357938900781 0 -0.15681427286347349 -0.23624951406001199 0 -0.1406618589942904 -0.2345314649106898 0 -0.14371032807229589 -0.22656162332471949 0 -0.15681427286347349 -0.23624951406001199 0 -0.14989847398247791 -0.21940357938900781 0 -0.1423821167974581 -0.20109476730792139 0 -0.15704309676400161 -0.2156814862711833 0 -0.1423821167974581 -0.20109476730792139 0 -0.1603048202474032 -0.20652090718741281 0 -0.15704309676400161 -0.2156814862711833 0 -0.14989847398247791 -0.21940357938900781 0 -0.1423821167974581 -0.20109476730792139 0 -0.14989847398247791 -0.21940357938900781 0 -0.13992075473572629 -0.21630027216981371 0 -0.1423821167974581 -0.20109476730792139 0 -0.1423821167974581 -0.20109476730792139 0 -0.15704309676400161 -0.2156814862711833 0 -0.14989847398247791 -0.21940357938900781 0 -0.13992075473572629 -0.21630027216981371 0 -0.12267819418589181 -0.21683974647572299 0 -0.13992075473572629 -0.21630027216981371 0 -0.1329145047903304 -0.20904359116833779 0 -0.1329145047903304 -0.20904359116833779 0 -0.12667695344224539 -0.20193957871989321 0 -0.1423821167974581 -0.20109476730792139 0 -0.12267819418589181 -0.21683974647572299 0 -0.1329145047903304 -0.20904359116833779 0 -0.12667695344224539 -0.20193957871989321 0 -0.13992075473572629 -0.21630027216981371 0 -0.1329145047903304 -0.20904359116833779 0 -0.1423821167974581 -0.20109476730792139 0 -0.13400438933020289 -0.18068777571759631 0 -0.1423821167974581 -0.20109476730792139 0 -0.12744339761776019 -0.18623171594010171 0 -0.13400438933020289 -0.18068777571759631 0 -0.1423821167974581 -0.20109476730792139 0 -0.12744339761776019 -0.18623171594010171 0 -0.12667695344224539 -0.20193957871989321 0 -0.1423821167974581 -0.20109476730792139 0 -0.12744339761776019 -0.18623171594010171 0 -0.1423821167974581 -0.20109476730792139 0 -0.1423821167974581 -0.20109476730792139 0 -0.16120363805190621 -0.19683859466475101 0 -0.1603048202474032 -0.20652090718741281 0 -0.13400438933020289 -0.18068777571759631 0 -0.1423821167974581 -0.20109476730792139 0 -0.14874107936796899 -0.18774725217086299 0 -0.1423821167974581 -0.20109476730792139 0 -0.14874107936796899 -0.18774725217086299 0 -0.16120363805190621 -0.19683859466475101 0 -0.1638017485139891 -0.18426798926074681 0 -0.16120363805190621 -0.19683859466475101 0 -0.1788678411444985 -0.19636460350205229 0 -0.16120363805190621 -0.19683859466475101 0 -0.1788678411444985 -0.19636460350205229 0 -0.17061947653370829 -0.20663225289412751 0 -0.1638017485139891 -0.18426798926074681 0 -0.14874107936796899 -0.18774725217086299 0 -0.16120363805190621 -0.19683859466475101 0 -0.18076372166099511 -0.17753779110605949 0 -0.1788678411444985 -0.19636460350205229 0 -0.19111505881517241 -0.1896589197453338 0 -0.1788678411444985 -0.19636460350205229 0 -0.18391846981826351 -0.21449662479858511 0 -0.17061947653370829 -0.20663225289412751 0 -0.1788678411444985 -0.19636460350205229 0 -0.18391846981826351 -0.21449662479858511 0 -0.1995144479939619 -0.20107199892337679 0 -0.18391846981826351 -0.21449662479858511 0 -0.1669091026947076 -0.21844762893813571 0 -0.17061947653370829 -0.20663225289412751 0 -0.14989847398247791 -0.21940357938900781 0 -0.1669091026947076 -0.21844762893813571 0 -0.15704309676400161 -0.2156814862711833 0 -0.1669091026947076 -0.21844762893813571 0 -0.17061947653370829 -0.20663225289412751 0 -0.1603048202474032 -0.20652090718741281 0 -0.16120363805190621 -0.19683859466475101 0 -0.17061947653370829 -0.20663225289412751 0 -0.1603048202474032 -0.20652090718741281 0 -0.1669091026947076 -0.21844762893813571 0 -0.1603048202474032 -0.20652090718741281 0 -0.15704309676400161 -0.2156814862711833 0 -0.14989847398247791 -0.21940357938900781 0 -0.17309300955778401 -0.22661762980640099 0 -0.14989847398247791 -0.21940357938900781 0 -0.17309300955778401 -0.22661762980640099 0 -0.15681427286347349 -0.23624951406001199 0 -0.14989847398247791 -0.21940357938900781 0 -0.1669091026947076 -0.21844762893813571 0 -0.17309300955778401 -0.22661762980640099 0 -0.17309300955778401 -0.22661762980640099 0 -0.1962875451330898 -0.23383168022379541 0 -0.18391846981826351 -0.21449662479858511 0 -0.17309300955778401 -0.22661762980640099 0 -0.1962875451330898 -0.23383168022379541 0 -0.18391846981826351 -0.21449662479858511 0 -0.1669091026947076 -0.21844762893813571 0 -0.17309300955778401 -0.22661762980640099 0 -0.17309300955778401 -0.22661762980640099 0 -0.17411854579824529 -0.24561384076853379 0 -0.1962875451330898 -0.23383168022379541 0 -0.1598800789205613 -0.2574499834318103 0 -0.17411854579824529 -0.24561384076853379 0 -0.15681427286347349 -0.23624951406001199 0 -0.17309300955778401 -0.22661762980640099 0 -0.17411854579824529 -0.24561384076853379 0 -0.15681427286347349 -0.23624951406001199 0 -0.1962875451330898 -0.23383168022379541 0 -0.2194820807083955 -0.2410457306411897 0 -0.19353546529803431 -0.25092477054889167 0 -0.1962875451330898 -0.23383168022379541 0 -0.2194820807083955 -0.2410457306411897 0 -0.19353546529803431 -0.25092477054889167 0 -0.17411854579824529 -0.24561384076853379 0 -0.1962875451330898 -0.23383168022379541 0 -0.18391846981826351 -0.21449662479858511 0 -0.1962875451330898 -0.23383168022379541 0 -0.20242270541607349 -0.21808765402597419 0 -0.1962875451330898 -0.23383168022379541 0 -0.20242270541607349 -0.21808765402597419 0 -0.2194820807083955 -0.2410457306411897 0 -0.20242270541607349 -0.21808765402597419 0 -0.22004482317209051 -0.21251396159176461 0 -0.2194820807083955 -0.2410457306411897 0 -0.20242270541607349 -0.21808765402597419 0 -0.1995144479939619 -0.20107199892337679 0 -0.22004482317209051 -0.21251396159176461 0 -0.18391846981826351 -0.21449662479858511 0 -0.20242270541607349 -0.21808765402597419 0 -0.1995144479939619 -0.20107199892337679 0 -0.19111505881517241 -0.1896589197453338 0 -0.1995144479939619 -0.20107199892337679 0 -0.20251092229896181 -0.17993306739530679 0 -0.1788678411444985 -0.19636460350205229 0 -0.19111505881517241 -0.1896589197453338 0 -0.1995144479939619 -0.20107199892337679 0 -0.1995144479939619 -0.20107199892337679 0 -0.2217998237217742 -0.19039206002098299 0 -0.20251092229896181 -0.17993306739530679 0 -0.1995144479939619 -0.20107199892337679 0 -0.2217998237217742 -0.19039206002098299 0 -0.22004482317209051 -0.21251396159176461 0 -0.2217998237217742 -0.19039206002098299 0 -0.23791845568365691 -0.2041174042821669 0 -0.22004482317209051 -0.21251396159176461 0 -0.23791845568365691 -0.2041174042821669 0 -0.24511705528823499 -0.1859566665196577 0 -0.26248056220015409 -0.20763064551886201 0 -0.2217998237217742 -0.19039206002098299 0 -0.23791845568365691 -0.2041174042821669 0 -0.24511705528823499 -0.1859566665196577 0 -0.23791845568365691 -0.2041174042821669 0 -0.24015001403603081 -0.2240936877595672 0 -0.26248056220015409 -0.20763064551886201 0 -0.23791845568365691 -0.2041174042821669 0 -0.22004482317209051 -0.21251396159176461 0 -0.24015001403603081 -0.2240936877595672 0 -0.22004482317209051 -0.21251396159176461 0 -0.24015001403603081 -0.2240936877595672 0 -0.2194820807083955 -0.2410457306411897 0 -0.24572548915787959 -0.25418120874090999 0 -0.24015001403603081 -0.2240936877595672 0 -0.2590341824957858 -0.2351691505549586 0 -0.24572548915787959 -0.25418120874090999 0 -0.24015001403603081 -0.2240936877595672 0 -0.2194820807083955 -0.2410457306411897 0 -0.21700940727736151 -0.143962473123498 0 -0.2065690260579274 -0.15642089572656631 0 -0.22443122603555271 -0.16568556934502429 0 -0.20384181141733981 -0.14117331438924979 0 -0.21700940727736151 -0.143962473123498 0 -0.2065690260579274 -0.15642089572656631 0 -0.20384181141733981 -0.14117331438924979 0 -0.21649466379238269 -0.12649866999319401 0 -0.20258993135228501 -0.1197755116755235 0 -0.20384181141733981 -0.14117331438924979 0 -0.21700940727736151 -0.143962473123498 0 -0.21649466379238269 -0.12649866999319401 0 -0.20384181141733981 -0.14117331438924979 0 -0.20258993135228501 -0.1197755116755235 0 -0.18541334409086679 -0.12846513536816159 0 -0.20384181141733981 -0.14117331438924979 0 -0.20258993135228501 -0.1197755116755235 0 -0.18541334409086679 -0.12846513536816159 0 -0.20384181141733981 -0.14117331438924979 0 -0.18932777851478921 -0.1484755107201976 0 -0.20384181141733981 -0.14117331438924979 0 -0.18932777851478921 -0.1484755107201976 0 -0.2065690260579274 -0.15642089572656631 0 -0.1914695616023093 -0.16383517288408339 0 -0.20251092229896181 -0.17993306739530679 0 -0.2065690260579274 -0.15642089572656631 0 -0.18932777851478921 -0.1484755107201976 0 -0.1914695616023093 -0.16383517288408339 0 -0.2065690260579274 -0.15642089572656631 0 -0.18076372166099511 -0.17753779110605949 0 -0.19111505881517241 -0.1896589197453338 0 -0.20251092229896181 -0.17993306739530679 0 -0.18076372166099511 -0.17753779110605949 0 -0.1914695616023093 -0.16383517288408339 0 -0.20251092229896181 -0.17993306739530679 0 -0.2217998237217742 -0.19039206002098299 0 -0.20251092229896181 -0.17993306739530679 0 -0.22443122603555271 -0.16568556934502429 0 -0.20251092229896181 -0.17993306739530679 0 -0.2065690260579274 -0.15642089572656631 0 -0.22443122603555271 -0.16568556934502429 0 -0.22443122603555271 -0.16568556934502429 0 -0.24325399181831181 -0.16061221567201181 0 -0.2341251768813922 -0.14713781832887279 0 -0.2217998237217742 -0.19039206002098299 0 -0.22443122603555271 -0.16568556934502429 0 -0.24511705528823499 -0.1859566665196577 0 -0.22443122603555271 -0.16568556934502429 0 -0.24511705528823499 -0.1859566665196577 0 -0.24325399181831181 -0.16061221567201181 0 -0.24511705528823499 -0.1859566665196577 0 -0.24325399181831181 -0.16061221567201181 0 -0.26083497137842993 -0.16606259807010021 0 -0.24325399181831181 -0.16061221567201181 0 -0.2341251768813922 -0.14713781832887279 0 -0.25566366205276309 -0.142929384062218 0 -0.21700940727736151 -0.143962473123498 0 -0.2341251768813922 -0.14713781832887279 0 -0.2382590266785008 -0.1309803866168972 0 -0.21700940727736151 -0.143962473123498 0 -0.22443122603555271 -0.16568556934502429 0 -0.2341251768813922 -0.14713781832887279 0 -0.21700940727736151 -0.143962473123498 0 -0.21649466379238269 -0.12649866999319401 0 -0.2382590266785008 -0.1309803866168972 0 -0.21700940727736151 -0.143962473123498 0 -0.2382590266785008 -0.1309803866168972 0 -0.2341251768813922 -0.14713781832887279 0 -0.2382590266785008 -0.1309803866168972 0 -0.25566366205276309 -0.142929384062218 0 -0.2382590266785008 -0.1309803866168972 0 -0.25950864607964003 -0.11799830011029649 0 -0.2382590266785008 -0.1309803866168972 0 -0.2420540260447365 -0.10400616194735531 0 -0.25950864607964003 -0.11799830011029649 0 -0.2382590266785008 -0.1309803866168972 0 -0.2420540260447365 -0.10400616194735531 0 -0.22728514982352691 -0.1144928564305291 0 -0.2420540260447365 -0.10400616194735531 0 -0.23651588632679041 -0.086760308112727474 0 -0.25491389030629558 -0.091907067238046716 0 -0.2420540260447365 -0.10400616194735531 0 -0.22858155810548941 -0.09791620097565773 0 -0.23651588632679041 -0.086760308112727474 0 -0.22728514982352691 -0.1144928564305291 0 -0.21368566052285121 -0.095736381339299931 0 -0.22858155810548941 -0.09791620097565773 0 -0.22728514982352691 -0.1144928564305291 0 -0.21368566052285121 -0.095736381339299931 0 -0.2420540260447365 -0.10400616194735531 0 -0.22858155810548941 -0.09791620097565773 0 -0.22728514982352691 -0.1144928564305291 0 -0.22858155810548941 -0.09791620097565773 0 -0.22423828856129141 -0.089163426865337028 0 -0.21368566052285121 -0.095736381339299931 0 -0.21649466379238269 -0.12649866999319401 0 -0.2382590266785008 -0.1309803866168972 0 -0.22728514982352691 -0.1144928564305291 0 -0.23250791971382451 -0.066747884396920171 0 -0.2437304806918035 -0.05233070411747795 0 -0.25107954566595431 -0.072193279114898992 0 -0.23651588632679041 -0.086760308112727474 0 -0.23250791971382451 -0.066747884396920171 0 -0.25107954566595431 -0.072193279114898992 0 -0.23651588632679041 -0.086760308112727474 0 -0.25107954566595431 -0.072193279114898992 0 -0.25491389030629558 -0.091907067238046716 0 -0.23651588632679041 -0.086760308112727474 0 -0.25107954566595431 -0.072193279114898992 0 -0.23651588632679041 -0.086760308112727474 0 -0.22423828856129141 -0.089163426865337028 0 -0.21956400249283359 -0.077165824740799416 0 -0.22423828856129141 -0.089163426865337028 0 -0.21956400249283359 -0.077165824740799416 0 -0.21368566052285121 -0.095736381339299931 0 -0.22858155810548941 -0.09791620097565773 0 -0.23651588632679041 -0.086760308112727474 0 -0.22423828856129141 -0.089163426865337028 0 -0.23651588632679041 -0.086760308112727474 0 -0.23250791971382451 -0.066747884396920171 0 -0.21956400249283359 -0.077165824740799416 0 -0.23250791971382451 -0.066747884396920171 0 -0.21956400249283359 -0.077165824740799416 0 -0.21295588351566089 -0.062564493113159009 0 -0.21295588351566089 -0.062564493113159009 0 -0.20008617122217551 -0.076979906248070884 0 -0.19862683400764211 -0.052036135130497103 0 -0.21956400249283359 -0.077165824740799416 0 -0.21295588351566089 -0.062564493113159009 0 -0.20008617122217551 -0.076979906248070884 0 -0.21956400249283359 -0.077165824740799416 0 -0.20008617122217551 -0.076979906248070884 0 -0.21368566052285121 -0.095736381339299931 0 -0.20008617122217551 -0.076979906248070884 0 -0.21368566052285121 -0.095736381339299931 0 -0.20133805128723009 -0.098377708961797192 0 -0.20008617122217551 -0.076979906248070884 0 -0.21368566052285121 -0.095736381339299931 0 -0.190446776676026 -0.086060091463145694 0 -0.20008617122217551 -0.076979906248070884 0 -0.20133805128723009 -0.098377708961797192 0 -0.20008617122217551 -0.076979906248070884 0 -0.20133805128723009 -0.098377708961797192 0 -0.20008617122217551 -0.076979906248070884 0 -0.19112161414384421 -0.064615949938676809 0 -0.19862683400764211 -0.052036135130497103 0 -0.190446776676026 -0.086060091463145694 0 -0.20008617122217551 -0.076979906248070884 0 -0.19112161414384421 -0.064615949938676809 0 -0.20008617122217551 -0.076979906248070884 0 -0.19862683400764211 -0.052036135130497103 0 -0.20008617122217551 -0.076979906248070884 0 -0.19112161414384421 -0.064615949938676809 0 -0.21227869135565519 -0.1109762256800688 0 -0.20133805128723009 -0.098377708961797192 0 -0.20258993135228501 -0.1197755116755235 0 -0.21649466379238269 -0.12649866999319401 0 -0.21227869135565519 -0.1109762256800688 0 -0.20258993135228501 -0.1197755116755235 0 -0.21649466379238269 -0.12649866999319401 0 -0.22728514982352691 -0.1144928564305291 0 -0.21227869135565519 -0.1109762256800688 0 -0.22728514982352691 -0.1144928564305291 0 -0.21227869135565519 -0.1109762256800688 0 -0.21368566052285121 -0.095736381339299931 0 -0.21227869135565519 -0.1109762256800688 0 -0.21368566052285121 -0.095736381339299931 0 -0.20133805128723009 -0.098377708961797192 0 -0.190446776676026 -0.086060091463145694 0 -0.20133805128723009 -0.098377708961797192 0 -0.18663755337253329 -0.1043370404614155 0 -0.20133805128723009 -0.098377708961797192 0 -0.20258993135228501 -0.1197755116755235 0 -0.20133805128723009 -0.098377708961797192 0 -0.20258993135228501 -0.1197755116755235 0 -0.18663755337253329 -0.1043370404614155 0 -0.18541334409086679 -0.12846513536816159 0 -0.20258993135228501 -0.1197755116755235 0 -0.18663755337253329 -0.1043370404614155 0 -0.18541334409086679 -0.12846513536816159 0 -0.16282127294798229 -0.12931770173841389 0 -0.16954159014765671 -0.10971146667416259 0 -0.18541334409086679 -0.12846513536816159 0 -0.16954159014765671 -0.10971146667416259 0 -0.18663755337253329 -0.1043370404614155 0 -0.16282127294798229 -0.12931770173841389 0 -0.16954159014765671 -0.10971146667416259 0 -0.1449181702448307 -0.1140072038894374 0 -0.16954159014765671 -0.10971146667416259 0 -0.18663755337253329 -0.1043370404614155 0 -0.17584932360658451 -0.080981730151722706 0 -0.16954159014765671 -0.10971146667416259 0 -0.17584932360658451 -0.080981730151722706 0 -0.190446776676026 -0.086060091463145694 0 -0.18663755337253329 -0.1043370404614155 0 -0.17584932360658451 -0.080981730151722706 0 -0.190446776676026 -0.086060091463145694 0 -0.19112161414384421 -0.064615949938676809 0 -0.17584932360658451 -0.080981730151722706 0 -0.17584932360658451 -0.080981730151722706 0 -0.18215705706551269 -0.052251993629282907 0 -0.17584932360658451 -0.080981730151722706 0 -0.1678880821248348 -0.066573034770052997 0 -0.18215705706551269 -0.052251993629282907 0 -0.19112161414384421 -0.064615949938676809 0 -0.17584932360658451 -0.080981730151722706 0 -0.18215705706551269 -0.052251993629282907 0 -0.1678880821248348 -0.066573034770052997 0 -0.1531855404348319 -0.08359024798752171 0 -0.1566770970769642 -0.061261050072715047 0 -0.17584932360658451 -0.080981730151722706 0 -0.1678880821248348 -0.066573034770052997 0 -0.1531855404348319 -0.08359024798752171 0 -0.16954159014765671 -0.10971146667416259 0 -0.17584932360658451 -0.080981730151722706 0 -0.1531855404348319 -0.08359024798752171 0 -0.1531855404348319 -0.08359024798752171 0 -0.14505274437590551 -0.068726500166571142 0 -0.13027161994986339 -0.073281457120499272 0 -0.1531855404348319 -0.08359024798752171 0 -0.14505274437590551 -0.068726500166571142 0 -0.1566770970769642 -0.061261050072715047 0 -0.14505274437590551 -0.068726500166571142 0 -0.13027161994986339 -0.073281457120499272 0 -0.14110982549445811 -0.055337714928922713 0 -0.1531855404348319 -0.08359024798752171 0 -0.13027161994986339 -0.073281457120499272 0 -0.1328351910449227 -0.096022401088106973 0 -0.1149645463098809 -0.092365401006839432 0 -0.13027161994986339 -0.073281457120499272 0 -0.1328351910449227 -0.096022401088106973 0 -0.1208360782852064 -0.1168676954362371 0 -0.1328351910449227 -0.096022401088106973 0 -0.1449181702448307 -0.1140072038894374 0 -0.1208360782852064 -0.1168676954362371 0 -0.13155139187339759 -0.128813055763078 0 -0.1449181702448307 -0.1140072038894374 0 -0.16954159014765671 -0.10971146667416259 0 -0.1531855404348319 -0.08359024798752171 0 -0.1449181702448307 -0.1140072038894374 0 -0.1531855404348319 -0.08359024798752171 0 -0.1328351910449227 -0.096022401088106973 0 -0.1449181702448307 -0.1140072038894374 0 -0.14464084045985989 -0.025396213124677169 0 -0.14348174916303849 -0.0098027559112646989 0 -0.16006876889164029 -0.014730149998064081 0 -0.14348174916303849 -0.0098027559112646989 0 -0.1583040618166684 -0.0016322242720216179 0 -0.16006876889164029 -0.014730149998064081 0 -0.14348174916303849 -0.0098027559112646989 0 -0.1583040618166684 -0.0016322242720216179 0 -0.14931666621338621 0.0081005178114109799 0 -0.14348174916303849 -0.0098027559112646989 0 -0.12657944794855619 -0.0014714323379356809 0 -0.1280234076966385 -0.01593041302677272 0 -0.14464084045985989 -0.025396213124677169 0 -0.12709933022396 -0.027116641953285808 0 -0.13461076983097331 -0.039386311429457019 0 -0.14464084045985989 -0.025396213124677169 0 -0.14348174916303849 -0.0098027559112646989 0 -0.1280234076966385 -0.01593041302677272 0 -0.14464084045985989 -0.025396213124677169 0 -0.1280234076966385 -0.01593041302677272 0 -0.12709933022396 -0.027116641953285808 0 -0.11552516559126889 -0.031908756433078882 0 -0.12709933022396 -0.027116641953285808 0 -0.13461076983097331 -0.039386311429457019 0 -0.13461076983097331 -0.039386311429457019 0 -0.12528021196067371 -0.050156095575842281 0 -0.14110982549445811 -0.055337714928922713 0 -0.13027161994986339 -0.073281457120499272 0 -0.12528021196067371 -0.050156095575842281 0 -0.14110982549445811 -0.055337714928922713 0 -0.14110982549445811 -0.055337714928922713 0 -0.15542007384080631 -0.043241794042802068 0 -0.1566770970769642 -0.061261050072715047 0 -0.14505274437590551 -0.068726500166571142 0 -0.14110982549445811 -0.055337714928922713 0 -0.1566770970769642 -0.061261050072715047 0 -0.13461076983097331 -0.039386311429457019 0 -0.14110982549445811 -0.055337714928922713 0 -0.15542007384080631 -0.043241794042802068 0 -0.14464084045985989 -0.025396213124677169 0 -0.15542007384080631 -0.043241794042802068 0 -0.1641643497008545 -0.027436372980040941 0 -0.14464084045985989 -0.025396213124677169 0 -0.13461076983097331 -0.039386311429457019 0 -0.15542007384080631 -0.043241794042802068 0 -0.15542007384080631 -0.043241794042802068 0 -0.17316070338318371 -0.039844183304661912 0 -0.1641643497008545 -0.027436372980040941 0 -0.15542007384080631 -0.043241794042802068 0 -0.1674706744929895 -0.052829478513459323 0 -0.17316070338318371 -0.039844183304661912 0 -0.17807048446951351 -0.031546349328160223 0 -0.17316070338318371 -0.039844183304661912 0 -0.1641643497008545 -0.027436372980040941 0 -0.17316070338318371 -0.039844183304661912 0 -0.1641643497008545 -0.027436372980040941 0 -0.15542007384080631 -0.043241794042802068 0 -0.1566770970769642 -0.061261050072715047 0 -0.1674706744929895 -0.052829478513459323 0 -0.1678880821248348 -0.066573034770052997 0 -0.1566770970769642 -0.061261050072715047 0 -0.1674706744929895 -0.052829478513459323 0 -0.1678880821248348 -0.066573034770052997 0 -0.1674706744929895 -0.052829478513459323 0 -0.18215705706551269 -0.052251993629282907 0 -0.1674706744929895 -0.052829478513459323 0 -0.18215705706551269 -0.052251993629282907 0 -0.17316070338318371 -0.039844183304661912 0 -0.19112161414384421 -0.064615949938676809 0 -0.18215705706551269 -0.052251993629282907 0 -0.18215705706551269 -0.052251993629282907 0 -0.18841289936386449 -0.023758604977419811 0 -0.19159107180753199 -0.038784774437530783 0 -0.18215705706551269 -0.052251993629282907 0 -0.17807048446951351 -0.031546349328160223 0 -0.18841289936386449 -0.023758604977419811 0 -0.18215705706551269 -0.052251993629282907 0 -0.17807048446951351 -0.031546349328160223 0 -0.17316070338318371 -0.039844183304661912 0 -0.18215705706551269 -0.052251993629282907 0 -0.18841289936386449 -0.023758604977419811 0 -0.18215705706551269 -0.052251993629282907 0 -0.17316070338318371 -0.039844183304661912 0 -0.17807048446951351 -0.031546349328160223 0 -0.17555544342964449 -0.019034808373221579 0 -0.18841289936386449 -0.023758604977419811 0 -0.17555544342964449 -0.019034808373221579 0 -0.18498988360719951 -0.01122536952101524 0 -0.18841289936386449 -0.023758604977419811 0 -0.17807048446951351 -0.031546349328160223 0 -0.17555544342964449 -0.019034808373221579 0 -0.1641643497008545 -0.027436372980040941 0 -0.14464084045985989 -0.025396213124677169 0 -0.1641643497008545 -0.027436372980040941 0 -0.16006876889164029 -0.014730149998064081 0 -0.17555544342964449 -0.019034808373221579 0 -0.1641643497008545 -0.027436372980040941 0 -0.16006876889164029 -0.014730149998064081 0 -0.1583040618166684 -0.0016322242720216179 0 -0.16006876889164029 -0.014730149998064081 0 -0.17234808795134551 -0.0054818643426030444 0 -0.17555544342964449 -0.019034808373221579 0 -0.16006876889164029 -0.014730149998064081 0 -0.17234808795134551 -0.0054818643426030444 0 -0.18498988360719951 -0.01122536952101524 0 -0.19570815957857571 -0.0021485928953494729 0 -0.18074721452665801 0.01016401747542576 0 -0.17234808795134551 -0.0054818643426030444 0 -0.18498988360719951 -0.01122536952101524 0 -0.18074721452665801 0.01016401747542576 0 -0.17555544342964449 -0.019034808373221579 0 -0.17234808795134551 -0.0054818643426030444 0 -0.18498988360719951 -0.01122536952101524 0 -0.18498988360719951 -0.01122536952101524 0 -0.19570815957857571 -0.0021485928953494729 0 -0.19716749679310891 -0.027092364012923299 0 -0.19570815957857571 -0.0021485928953494729 0 -0.19716749679310891 -0.027092364012923299 0 -0.2096542856277363 -0.01384724861257247 0 -0.19570815957857571 -0.0021485928953494729 0 -0.19716749679310891 -0.027092364012923299 0 -0.18498988360719951 -0.01122536952101524 0 -0.18841289936386449 -0.023758604977419811 0 -0.19716749679310891 -0.027092364012923299 0 -0.18841289936386449 -0.023758604977419811 0 -0.19716749679310891 -0.027092364012923299 0 -0.19159107180753199 -0.038784774437530783 0 -0.19716749679310891 -0.027092364012923299 0 -0.20629713603113031 -0.025855140362710988 0 -0.20439861992556821 -0.030949141341175511 0 -0.20629713603113031 -0.025855140362710988 0 -0.2096542856277363 -0.01384724861257247 0 -0.21396814177810791 -0.031531807484172683 0 -0.2096542856277363 -0.01384724861257247 0 -0.21396814177810791 -0.031531807484172683 0 -0.22647010736033599 -0.027226300188566071 0 -0.19716749679310891 -0.027092364012923299 0 -0.20629713603113031 -0.025855140362710988 0 -0.2096542856277363 -0.01384724861257247 0 -0.20629713603113031 -0.025855140362710988 0 -0.20439861992556821 -0.030949141341175511 0 -0.21396814177810791 -0.031531807484172683 0 -0.19570815957857571 -0.0021485928953494729 0 -0.2096542856277363 -0.01384724861257247 0 -0.215773918833159 0.0076541526664952262 0 -0.2096542856277363 -0.01384724861257247 0 -0.22937748613521869 -0.01203307572372799 0 -0.215773918833159 0.0076541526664952262 0 -0.19112161414384421 -0.064615949938676809 0 -0.18215705706551269 -0.052251993629282907 0 -0.19862683400764211 -0.052036135130497103 0 -0.18215705706551269 -0.052251993629282907 0 -0.19862683400764211 -0.052036135130497103 0 -0.19159107180753199 -0.038784774437530783 0 -0.19862683400764211 -0.052036135130497103 0 -0.1999050320651751 -0.041739612118294848 0 -0.20949647630539739 -0.051322937582443467 0 -0.19716749679310891 -0.027092364012923299 0 -0.19862683400764211 -0.052036135130497103 0 -0.19159107180753199 -0.038784774437530783 0 -0.19716749679310891 -0.027092364012923299 0 -0.19862683400764211 -0.052036135130497103 0 -0.1999050320651751 -0.041739612118294848 0 -0.19716749679310891 -0.027092364012923299 0 -0.19862683400764211 -0.052036135130497103 0 -0.19716749679310891 -0.027092364012923299 0 -0.20439861992556821 -0.030949141341175511 0 -0.1999050320651751 -0.041739612118294848 0 -0.1999050320651751 -0.041739612118294848 0 -0.20949647630539739 -0.051322937582443467 0 -0.2218177563784893 -0.047035158117886403 0 -0.1999050320651751 -0.041739612118294848 0 -0.21396814177810791 -0.031531807484172683 0 -0.2218177563784893 -0.047035158117886403 0 -0.1999050320651751 -0.041739612118294848 0 -0.2218177563784893 -0.047035158117886403 0 -0.20439861992556821 -0.030949141341175511 0 -0.1999050320651751 -0.041739612118294848 0 -0.21396814177810791 -0.031531807484172683 0 -0.21295588351566089 -0.062564493113159009 0 -0.20949647630539739 -0.051322937582443467 0 -0.2218177563784893 -0.047035158117886403 0 -0.21295588351566089 -0.062564493113159009 0 -0.19862683400764211 -0.052036135130497103 0 -0.20949647630539739 -0.051322937582443467 0 -0.23250791971382451 -0.066747884396920171 0 -0.21295588351566089 -0.062564493113159009 0 -0.2218177563784893 -0.047035158117886403 0 -0.2218177563784893 -0.047035158117886403 0 -0.2437304806918035 -0.05233070411747795 0 -0.23250791971382451 -0.066747884396920171 0 -0.2218177563784893 -0.047035158117886403 0 -0.2437304806918035 -0.05233070411747795 0 -0.2218177563784893 -0.047035158117886403 0 -0.22647010736033599 -0.027226300188566071 0 -0.2432330858212281 -0.030194428477721559 0 -0.21396814177810791 -0.031531807484172683 0 -0.2218177563784893 -0.047035158117886403 0 -0.22647010736033599 -0.027226300188566071 0 -0.2437304806918035 -0.05233070411747795 0 -0.2432330858212281 -0.030194428477721559 0 -0.25701102697397449 -0.045361110749444558 0 -0.2218177563784893 -0.047035158117886403 0 -0.2437304806918035 -0.05233070411747795 0 -0.2432330858212281 -0.030194428477721559 0 -0.22937748613521869 -0.01203307572372799 0 -0.22647010736033599 -0.027226300188566071 0 -0.2432330858212281 -0.030194428477721559 0 -0.2096542856277363 -0.01384724861257247 0 -0.22937748613521869 -0.01203307572372799 0 -0.22647010736033599 -0.027226300188566071 0 -0.2432330858212281 -0.030194428477721559 0 -0.24604954069218099 -0.0084337429392642733 0 -0.25467375688253863 -0.0195732951133216 0 -0.22937748613521869 -0.01203307572372799 0 -0.2432330858212281 -0.030194428477721559 0 -0.24604954069218099 -0.0084337429392642733 0 -0.22937748613521869 -0.01203307572372799 0 -0.24604954069218099 -0.0084337429392642733 0 -0.2344120178671682 0.0053294652112889198 0 -0.24604954069218099 -0.0084337429392642733 0 -0.2653635623513797 -0.0074403092547756441 0 -0.25467375688253863 -0.0195732951133216 0 -0.24604954069218099 -0.0084337429392642733 0 -0.2653635623513797 -0.0074403092547756441 0 -0.2492167999058888 0.012345863422951939 0 -0.2432330858212281 -0.030194428477721559 0 -0.25467375688253863 -0.0195732951133216 0 -0.26453663150987572 -0.032387544638392253 0 -0.2653635623513797 -0.0074403092547756441 0 -0.25467375688253863 -0.0195732951133216 0 -0.26453663150987572 -0.032387544638392253 0 -0.28225252552638253 -0.015780262514310989 0 -0.28228416072362522 -0.040981444106588882 0 -0.26453663150987572 -0.032387544638392253 0 -0.2653635623513797 -0.0074403092547756441 0 -0.28225252552638253 -0.015780262514310989 0 -0.26453663150987572 -0.032387544638392253 0 -0.2653635623513797 -0.0074403092547756441 0 -0.28225252552638253 -0.015780262514310989 0 -0.2653635623513797 -0.0074403092547756441 0 -0.28251803515872792 -0.00271350845333845 0 -0.27599540795627819 0.0077865082635796661 0 -0.2653635623513797 -0.0074403092547756441 0 -0.28251803515872792 -0.00271350845333845 0 -0.28225252552638253 -0.015780262514310989 0 -0.28251803515872792 -0.00271350845333845 0 -0.29628058681842501 -0.0071057425830527571 0 -0.29269809314117412 0.0089722638218674711 0 -0.28251803515872792 -0.00271350845333845 0 -0.29628058681842501 -0.0071057425830527571 0 -0.28225252552638253 -0.015780262514310989 0 -0.28225252552638253 -0.015780262514310989 0 -0.29914148870138418 -0.02412021577384851 0 -0.28228416072362522 -0.040981444106588882 0 -0.28225252552638253 -0.015780262514310989 0 -0.29914148870138418 -0.02412021577384851 0 -0.29628058681842501 -0.0071057425830527571 0 -0.28225252552638253 -0.015780262514310989 0 -0.29914148870138418 -0.02412021577384851 0 -0.29914148870138418 -0.02412021577384851 0 -0.32318605875477308 -0.035993685347613963 0 -0.29914148870138418 -0.02412021577384851 0 -0.31169062607519171 -0.01156817485028858 0 -0.31853539457507551 -0.021768130971360149 0 -0.29914148870138418 -0.02412021577384851 0 -0.31169062607519171 -0.01156817485028858 0 -0.29628058681842501 -0.0071057425830527571 0 -0.29914148870138418 -0.02412021577384851 0 -0.31169062607519171 -0.01156817485028858 0 -0.29628058681842501 -0.0071057425830527571 0 -0.31169062607519171 -0.01156817485028858 0 -0.30678934467699898 0.00080108334187700973 0 -0.30042932657386179 -0.049767891463432697 0 -0.31857449242409808 -0.058554338820277198 0 -0.30093915161013002 -0.059643982824739539 0 -0.30916924466746393 -0.068144985346716494 0 -0.31857449242409808 -0.058554338820277198 0 -0.30042932657386179 -0.049767891463432697 0 -0.30093915161013002 -0.059643982824739539 0 -0.31857449242409808 -0.058554338820277198 0 -0.30042932657386179 -0.049767891463432697 0 -0.31356129241004072 -0.045777957173755518 0 -0.31857449242409808 -0.058554338820277198 0 -0.30042932657386179 -0.049767891463432697 0 -0.30093915161013002 -0.059643982824739539 0 -0.29034418054614769 -0.053238130846026049 0 -0.29914148870138418 -0.02412021577384851 0 -0.30368410587297751 -0.038065521698867448 0 -0.32318605875477308 -0.035993685347613963 0 -0.30042932657386179 -0.049767891463432697 0 -0.30368410587297751 -0.038065521698867448 0 -0.31356129241004072 -0.045777957173755518 0 -0.29914148870138418 -0.02412021577384851 0 -0.30368410587297751 -0.038065521698867448 0 -0.28228416072362522 -0.040981444106588882 0 -0.29914148870138418 -0.02412021577384851 0 -0.28228416072362522 -0.040981444106588882 0 -0.30042932657386179 -0.049767891463432697 0 -0.30368410587297751 -0.038065521698867448 0 -0.28228416072362522 -0.040981444106588882 0 -0.30042932657386179 -0.049767891463432697 0 -0.28228416072362522 -0.040981444106588882 0 -0.28228416072362522 -0.040981444106588882 0 -0.29034418054614769 -0.053238130846026049 0 -0.28104846949242501 -0.053305158203944672 0 -0.30042932657386179 -0.049767891463432697 0 -0.28228416072362522 -0.040981444106588882 0 -0.29034418054614769 -0.053238130846026049 0 -0.30093915161013002 -0.059643982824739539 0 -0.29034418054614769 -0.053238130846026049 0 -0.28740622483629069 -0.062885617731892982 0 -0.29034418054614769 -0.053238130846026049 0 -0.28104846949242501 -0.053305158203944672 0 -0.28740622483629069 -0.062885617731892982 0 -0.26564320500511751 -0.057626250117069899 0 -0.28740622483629069 -0.062885617731892982 0 -0.28228416072362522 -0.040981444106588882 0 -0.26564320500511751 -0.057626250117069899 0 -0.25701102697397449 -0.045361110749444558 0 -0.26564320500511751 -0.057626250117069899 0 -0.27578595700222153 -0.06668853305888231 0 -0.28740622483629069 -0.062885617731892982 0 -0.28104846949242501 -0.053305158203944672 0 -0.26564320500511751 -0.057626250117069899 0 -0.28740622483629069 -0.062885617731892982 0 -0.28228416072362522 -0.040981444106588882 0 -0.28104846949242501 -0.053305158203944672 0 -0.26564320500511751 -0.057626250117069899 0 -0.28228416072362522 -0.040981444106588882 0 -0.26564320500511751 -0.057626250117069899 0 -0.28228416072362522 -0.040981444106588882 0 -0.26453663150987572 -0.032387544638392253 0 -0.28228416072362522 -0.040981444106588882 0 -0.25701102697397449 -0.045361110749444558 0 -0.26453663150987572 -0.032387544638392253 0 -0.2432330858212281 -0.030194428477721559 0 -0.25701102697397449 -0.045361110749444558 0 -0.26453663150987572 -0.032387544638392253 0 -0.2437304806918035 -0.05233070411747795 0 -0.26564320500511751 -0.057626250117069899 0 -0.25701102697397449 -0.045361110749444558 0 -0.2437304806918035 -0.05233070411747795 0 -0.26564320500511751 -0.057626250117069899 0 -0.2437304806918035 -0.05233070411747795 0 -0.26564320500511751 -0.057626250117069899 0 -0.25107954566595431 -0.072193279114898992 0 -0.26564320500511751 -0.057626250117069899 0 -0.25107954566595431 -0.072193279114898992 0 -0.26863490086511771 -0.07594306070208949 0 -0.26564320500511751 -0.057626250117069899 0 -0.25107954566595431 -0.072193279114898992 0 -0.25491389030629558 -0.091907067238046716 0 -0.26863490086511771 -0.07594306070208949 0 -0.2699519589281521 -0.095111681098324352 0 -0.25107954566595431 -0.072193279114898992 0 -0.25491389030629558 -0.091907067238046716 0 -0.26863490086511771 -0.07594306070208949 0 -0.26863490086511771 -0.07594306070208949 0 -0.2699519589281521 -0.095111681098324352 0 -0.28246733605416319 -0.085834539152316619 0 -0.2777661501372623 -0.073779749403556416 0 -0.26863490086511771 -0.07594306070208949 0 -0.28246733605416319 -0.085834539152316619 0 -0.26564320500511751 -0.057626250117069899 0 -0.27578595700222153 -0.06668853305888231 0 -0.26863490086511771 -0.07594306070208949 0 -0.2777661501372623 -0.073779749403556416 0 -0.27578595700222153 -0.06668853305888231 0 -0.26863490086511771 -0.07594306070208949 0 -0.2777661501372623 -0.073779749403556416 0 -0.27578595700222153 -0.06668853305888231 0 -0.28417640662754701 -0.066652864700937259 0 -0.25491389030629558 -0.091907067238046716 0 -0.25950864607964003 -0.11799830011029649 0 -0.2699519589281521 -0.095111681098324352 0 -0.2420540260447365 -0.10400616194735531 0 -0.25491389030629558 -0.091907067238046716 0 -0.25950864607964003 -0.11799830011029649 0 -0.2699519589281521 -0.095111681098324352 0 -0.28075826548077931 -0.10501621360369599 0 -0.28246733605416319 -0.085834539152316619 0 -0.25950864607964003 -0.11799830011029649 0 -0.2699519589281521 -0.095111681098324352 0 -0.28075826548077931 -0.10501621360369599 0 -0.28075826548077931 -0.10501621360369599 0 -0.27869565605013852 -0.12816581505085389 0 -0.25950864607964003 -0.11799830011029649 0 -0.28075826548077931 -0.10501621360369599 0 -0.27869565605013852 -0.12816581505085389 0 -0.25950864607964003 -0.11799830011029649 0 -0.28075826548077931 -0.10501621360369599 0 -0.28075826548077931 -0.10501621360369599 0 -0.29566648836672282 -0.1143064692608935 0 -0.27869565605013852 -0.12816581505085389 0 -0.28075826548077931 -0.10501621360369599 0 -0.29566648836672282 -0.1143064692608935 0 -0.2983393230877055 -0.094275371312731629 0 -0.28075826548077931 -0.10501621360369599 0 -0.2983393230877055 -0.094275371312731629 0 -0.28246733605416319 -0.085834539152316619 0 -0.28075826548077931 -0.10501621360369599 0 -0.2983393230877055 -0.094275371312731629 0 -0.28075826548077931 -0.10501621360369599 0 -0.28246733605416319 -0.085834539152316619 0 -0.29566648836672282 -0.1143064692608935 0 -0.2983393230877055 -0.094275371312731629 0 -0.31313142710382053 -0.1057703401062111 0 -0.2983393230877055 -0.094275371312731629 0 -0.31776589981394748 -0.089598403515001479 0 -0.31313142710382053 -0.1057703401062111 0 -0.29566648836672282 -0.1143064692608935 0 -0.30872986196772018 -0.1203983759500364 0 -0.29577248324954442 -0.13347214696553769 0 -0.29566648836672282 -0.1143064692608935 0 -0.30872986196772018 -0.1203983759500364 0 -0.31313142710382053 -0.1057703401062111 0 -0.28417640662754701 -0.066652864700937259 0 -0.28246733605416319 -0.085834539152316619 0 -0.29208143179427942 -0.072285987793685558 0 -0.28740622483629069 -0.062885617731892982 0 -0.30916924466746393 -0.068144985346716494 0 -0.29208143179427942 -0.072285987793685558 0 -0.28417640662754701 -0.066652864700937259 0 -0.28246733605416319 -0.085834539152316619 0 -0.2777661501372623 -0.073779749403556416 0 -0.28417640662754701 -0.066652864700937259 0 -0.28246733605416319 -0.085834539152316619 0 -0.27578595700222153 -0.06668853305888231 0 -0.28740622483629069 -0.062885617731892982 0 -0.28417640662754701 -0.066652864700937259 0 -0.29208143179427942 -0.072285987793685558 0 -0.28740622483629069 -0.062885617731892982 0 -0.28417640662754701 -0.066652864700937259 0 -0.2983393230877055 -0.094275371312731629 0 -0.28246733605416319 -0.085834539152316619 0 -0.29718794678593202 -0.077911932036564435 0 -0.29208143179427942 -0.072285987793685558 0 -0.28246733605416319 -0.085834539152316619 0 -0.29718794678593202 -0.077911932036564435 0 -0.2983393230877055 -0.094275371312731629 0 -0.30806389993336458 -0.080793228949835025 0 -0.31776589981394748 -0.089598403515001479 0 -0.2983393230877055 -0.094275371312731629 0 -0.30806389993336458 -0.080793228949835025 0 -0.29718794678593202 -0.077911932036564435 0 -0.29208143179427942 -0.072285987793685558 0 -0.29718794678593202 -0.077911932036564435 0 -0.30916924466746393 -0.068144985346716494 0 -0.30093915161013002 -0.059643982824739539 0 -0.28740622483629069 -0.062885617731892982 0 -0.30916924466746393 -0.068144985346716494 0 -0.28740622483629069 -0.062885617731892982 0 -0.30916924466746393 -0.068144985346716494 0 -0.30806389993336458 -0.080793228949835025 0 -0.30916924466746393 -0.068144985346716494 0 -0.32022052242601778 -0.074705212400732302 0 -0.30806389993336458 -0.080793228949835025 0 -0.29718794678593202 -0.077911932036564435 0 -0.30916924466746393 -0.068144985346716494 0 -0.32022052242601778 -0.074705212400732302 0 -0.33671965827433431 -0.067340786177121664 0 -0.31857449242409808 -0.058554338820277198 0 -0.30916924466746393 -0.068144985346716494 0 -0.32022052242601778 -0.074705212400732302 0 -0.31857449242409808 -0.058554338820277198 0 -0.33671965827433431 -0.067340786177121664 0 -0.31857449242409808 -0.058554338820277198 0 -0.31776589981394748 -0.089598403515001479 0 -0.33067663983952977 -0.083918496402578285 0 -0.33274503915177273 -0.1016221856395625 0 -0.30806389993336458 -0.080793228949835025 0 -0.32022052242601778 -0.074705212400732302 0 -0.31776589981394748 -0.089598403515001479 0 -0.32022052242601778 -0.074705212400732302 0 -0.31776589981394748 -0.089598403515001479 0 -0.33067663983952977 -0.083918496402578285 0 -0.33067663983952977 -0.083918496402578285 0 -0.33671965827433431 -0.067340786177121664 0 -0.3459320795315769 -0.086325894280473506 0 -0.33067663983952977 -0.083918496402578285 0 -0.33274503915177273 -0.1016221856395625 0 -0.3459320795315769 -0.086325894280473506 0 -0.32022052242601778 -0.074705212400732302 0 -0.33067663983952977 -0.083918496402578285 0 -0.33671965827433431 -0.067340786177121664 0 -0.30872986196772018 -0.1203983759500364 0 -0.32381248962066661 -0.1205624363813821 0 -0.31313142710382053 -0.1057703401062111 0 -0.31776589981394748 -0.089598403515001479 0 -0.31313142710382053 -0.1057703401062111 0 -0.33274503915177273 -0.1016221856395625 0 -0.32381248962066661 -0.1205624363813821 0 -0.31313142710382053 -0.1057703401062111 0 -0.33274503915177273 -0.1016221856395625 0 -0.33274503915177273 -0.1016221856395625 0 -0.34258020231910602 -0.1225204561965095 0 -0.35495846816372228 -0.1074643670267024 0 -0.32381248962066661 -0.1205624363813821 0 -0.33274503915177273 -0.1016221856395625 0 -0.34258020231910602 -0.1225204561965095 0 -0.34258020231910602 -0.1225204561965095 0 -0.35495846816372228 -0.1074643670267024 0 -0.3592073440625797 -0.13037400383996309 0 -0.33274503915177273 -0.1016221856395625 0 -0.35495846816372228 -0.1074643670267024 0 -0.3459320795315769 -0.086325894280473506 0 -0.36836297354852671 -0.085414661049013851 0 -0.37891871002511451 -0.1115785984154176 0 -0.35495846816372228 -0.1074643670267024 0 -0.36836297354852671 -0.085414661049013851 0 -0.37891871002511451 -0.1115785984154176 0 -0.35495846816372228 -0.1074643670267024 0 -0.3592073440625797 -0.13037400383996309 0 -0.37891871002511451 -0.1115785984154176 0 -0.35059468005108529 -0.071978954263713063 0 -0.36836297354852671 -0.085414661049013851 0 -0.35780723707193879 -0.059250723682610092 0 -0.33671965827433431 -0.067340786177121664 0 -0.35059468005108529 -0.071978954263713063 0 -0.3459320795315769 -0.086325894280473506 0 -0.33671965827433431 -0.067340786177121664 0 -0.35059468005108529 -0.071978954263713063 0 -0.34543578579527651 -0.059745989838323701 0 -0.35059468005108529 -0.071978954263713063 0 -0.35780723707193879 -0.059250723682610092 0 -0.34543578579527651 -0.059745989838323701 0 -0.35495846816372228 -0.1074643670267024 0 -0.3459320795315769 -0.086325894280473506 0 -0.36836297354852671 -0.085414661049013851 0 -0.35059468005108529 -0.071978954263713063 0 -0.3459320795315769 -0.086325894280473506 0 -0.36836297354852671 -0.085414661049013851 0 -0.36836297354852671 -0.085414661049013851 0 -0.37127519886154858 -0.059740624495149178 0 -0.37935586237750701 -0.073659406479779782 0 -0.36836297354852671 -0.085414661049013851 0 -0.37127519886154858 -0.059740624495149178 0 -0.35780723707193879 -0.059250723682610092 0 -0.36836297354852671 -0.085414661049013851 0 -0.35780723707193879 -0.059250723682610092 0 -0.37127519886154858 -0.059740624495149178 0 -0.3472306288081608 -0.047867154921381577 0 -0.36075549038574473 -0.041274021328444092 0 -0.37127519886154858 -0.059740624495149178 0 -0.36075549038574473 -0.041274021328444092 0 -0.37834801265894269 -0.042761130132099069 0 -0.37127519886154858 -0.059740624495149178 0 -0.35780723707193879 -0.059250723682610092 0 -0.3472306288081608 -0.047867154921381577 0 -0.37127519886154858 -0.059740624495149178 0 -0.3472306288081608 -0.047867154921381577 0 -0.35780723707193879 -0.059250723682610092 0 -0.3472306288081608 -0.047867154921381577 0 -0.34543578579527651 -0.059745989838323701 0 -0.34409301021185762 -0.033276394087949773 0 -0.36075549038574473 -0.041274021328444092 0 -0.35666104720468772 -0.025227829103979599 0 -0.3472306288081608 -0.047867154921381577 0 -0.34409301021185762 -0.033276394087949773 0 -0.36075549038574473 -0.041274021328444092 0 -0.35666104720468772 -0.025227829103979599 0 -0.37834801265894269 -0.042761130132099069 0 -0.36883434865565551 -0.029705419781127541 0 -0.35666104720468772 -0.025227829103979599 0 -0.37834801265894269 -0.042761130132099069 0 -0.36075549038574473 -0.041274021328444092 0 -0.35666104720468772 -0.025227829103979599 0 -0.37834801265894269 -0.042761130132099069 0 -0.36883434865565551 -0.029705419781127541 0 -0.36846545781499151 -0.026155699063867121 0 -0.36846545781499151 -0.026155699063867121 0 -0.35694760631013839 -0.01258524301276966 0 -0.35666104720468772 -0.025227829103979599 0 -0.36846545781499151 -0.026155699063867121 0 -0.35666104720468772 -0.025227829103979599 0 -0.36883434865565551 -0.029705419781127541 0 -0.36846545781499151 -0.026155699063867121 0 -0.35666104720468772 -0.025227829103979599 0 -0.36846545781499151 -0.026155699063867121 0 -0.365410462864587 0.0032415579865360672 0 -0.36846545781499151 -0.026155699063867121 0 -0.35694760631013839 -0.01258524301276966 0 -0.365410462864587 0.0032415579865360672 0 -0.36846545781499151 -0.026155699063867121 0 -0.3818251038620572 -0.01421844374252898 0 -0.365410462864587 0.0032415579865360672 0 -0.3818251038620572 -0.01421844374252898 0 -0.37773076799400501 0.00097948154207771424 0 -0.365410462864587 0.0032415579865360672 0 -0.35694760631013839 -0.01258524301276966 0 -0.35424069168347061 0.0078494759028418203 0 -0.35694760631013839 -0.01258524301276966 0 -0.34763251336571332 -0.0039539713260800993 0 -0.34045040532684129 -0.01212198151535639 0 -0.35694760631013839 -0.01258524301276966 0 -0.34763251336571332 -0.0039539713260800993 0 -0.35424069168347061 0.0078494759028418203 0 -0.35694760631013839 -0.01258524301276966 0 -0.35424069168347061 0.0078494759028418203 0 -0.365410462864587 0.0032415579865360672 0 -0.34409301021185762 -0.033276394087949773 0 -0.35666104720468772 -0.025227829103979599 0 -0.33293684749428609 -0.023363020011816671 0 -0.35666104720468772 -0.025227829103979599 0 -0.33293684749428609 -0.023363020011816671 0 -0.35694760631013839 -0.01258524301276966 0 -0.35666104720468772 -0.025227829103979599 0 -0.34045040532684129 -0.01212198151535639 0 -0.35666104720468772 -0.025227829103979599 0 -0.34045040532684129 -0.01212198151535639 0 -0.34409301021185762 -0.033276394087949773 0 -0.33293684749428609 -0.023363020011816671 0 -0.32318605875477308 -0.035993685347613963 0 -0.35666104720468772 -0.025227829103979599 0 -0.33293684749428609 -0.023363020011816671 0 -0.34045040532684129 -0.01212198151535639 0 -0.33293684749428609 -0.023363020011816671 0 -0.34045040532684129 -0.01212198151535639 0 -0.32572195184974179 -0.01379555887323247 0 -0.34045040532684129 -0.01212198151535639 0 -0.32423976344899891 0.00098386607327163172 0 -0.33784678223764347 0.0003192175999392097 0 -0.34045040532684129 -0.01212198151535639 0 -0.32423976344899891 0.00098386607327163172 0 -0.34045040532684129 -0.01212198151535639 0 -0.32572195184974179 -0.01379555887323247 0 -0.32423976344899891 0.00098386607327163172 0 -0.34763251336571332 -0.0039539713260800993 0 -0.34045040532684129 -0.01212198151535639 0 -0.33784678223764347 0.0003192175999392097 0 -0.31169062607519171 -0.01156817485028858 0 -0.30678934467699898 0.00080108334187700973 0 -0.32423976344899891 0.00098386607327163172 0 -0.31169062607519171 -0.01156817485028858 0 -0.32572195184974179 -0.01379555887323247 0 -0.32423976344899891 0.00098386607327163172 0 -0.31169062607519171 -0.01156817485028858 0 -0.32423976344899891 0.00098386607327163172 0 -0.29914148870138418 -0.02412021577384851 0 -0.31853539457507551 -0.021768130971360149 0 -0.32318605875477308 -0.035993685347613963 0 -0.33293684749428609 -0.023363020011816671 0 -0.31853539457507551 -0.021768130971360149 0 -0.32318605875477308 -0.035993685347613963 0 -0.33293684749428609 -0.023363020011816671 0 -0.32572195184974179 -0.01379555887323247 0 -0.31853539457507551 -0.021768130971360149 0 -0.31169062607519171 -0.01156817485028858 0 -0.32572195184974179 -0.01379555887323247 0 -0.31853539457507551 -0.021768130971360149 0 -0.32318605875477308 -0.035993685347613963 0 -0.31356129241004072 -0.045777957173755518 0 -0.33086046054689311 -0.052541882318362383 0 -0.30368410587297751 -0.038065521698867448 0 -0.32318605875477308 -0.035993685347613963 0 -0.31356129241004072 -0.045777957173755518 0 -0.31356129241004072 -0.045777957173755518 0 -0.31857449242409808 -0.058554338820277198 0 -0.33086046054689311 -0.052541882318362383 0 -0.3472306288081608 -0.047867154921381577 0 -0.34543578579527651 -0.059745989838323701 0 -0.33086046054689311 -0.052541882318362383 0 -0.33671965827433431 -0.067340786177121664 0 -0.31857449242409808 -0.058554338820277198 0 -0.33086046054689311 -0.052541882318362383 0 -0.33671965827433431 -0.067340786177121664 0 -0.34543578579527651 -0.059745989838323701 0 -0.33086046054689311 -0.052541882318362383 0 -0.3472306288081608 -0.047867154921381577 0 -0.34409301021185762 -0.033276394087949773 0 -0.32318605875477308 -0.035993685347613963 0 -0.3472306288081608 -0.047867154921381577 0 -0.32318605875477308 -0.035993685347613963 0 -0.33086046054689311 -0.052541882318362383 0 -0.3472306288081608 -0.047867154921381577 0 -0.32318605875477308 -0.035993685347613963 0 -0.29720757602399273 -0.25097860351727069 0 -0.30374597355975708 -0.22002780335371011 0 -0.32179321008162282 -0.23559376468951759 0 -0.29720757602399273 -0.25097860351727069 0 -0.30374597355975708 -0.22002780335371011 0 -0.27984406911207338 -0.2293046245180663 0 -0.27208501949394792 -0.25518223783841448 0 -0.29720757602399273 -0.25097860351727069 0 -0.27984406911207338 -0.2293046245180663 0 -0.29720757602399273 -0.25097860351727069 0 -0.27984406911207338 -0.2293046245180663 0 -0.27208501949394792 -0.25518223783841448 0 -0.2590341824957858 -0.2351691505549586 0 -0.27984406911207338 -0.2293046245180663 0 -0.27208501949394792 -0.25518223783841448 0 -0.24572548915787959 -0.25418120874090999 0 -0.2590341824957858 -0.2351691505549586 0 -0.24015001403603081 -0.2240936877595672 0 -0.2590341824957858 -0.2351691505549586 0 -0.26248056220015409 -0.20763064551886201 0 -0.2590341824957858 -0.2351691505549586 0 -0.27984406911207338 -0.2293046245180663 0 -0.26248056220015409 -0.20763064551886201 0 -0.27984406911207338 -0.2293046245180663 0 -0.26248056220015409 -0.20763064551886201 0 -0.24511705528823499 -0.1859566665196577 0 -0.26248056220015409 -0.20763064551886201 0 -0.27759101856916502 -0.18203915684574451 0 -0.27984406911207338 -0.2293046245180663 0 -0.26248056220015409 -0.20763064551886201 0 -0.28202725175307852 -0.2028414831005087 0 -0.24511705528823499 -0.1859566665196577 0 -0.26248056220015409 -0.20763064551886201 0 -0.26248056220015409 -0.20763064551886201 0 -0.28202725175307852 -0.2028414831005087 0 -0.27759101856916502 -0.18203915684574451 0 -0.28202725175307852 -0.2028414831005087 0 -0.30033151601442859 -0.19853390234495549 0 -0.27759101856916502 -0.18203915684574451 0 -0.30374597355975708 -0.22002780335371011 0 -0.27984406911207338 -0.2293046245180663 0 -0.28202725175307852 -0.2028414831005087 0 -0.30374597355975708 -0.22002780335371011 0 -0.28202725175307852 -0.2028414831005087 0 -0.30033151601442859 -0.19853390234495549 0 -0.30374597355975708 -0.22002780335371011 0 -0.30033151601442859 -0.19853390234495549 0 -0.31398490165061538 -0.2067322670058577 0 -0.30033151601442859 -0.19853390234495549 0 -0.32128591452655109 -0.19022890439718251 0 -0.31398490165061538 -0.2067322670058577 0 -0.30033151601442859 -0.19853390234495549 0 -0.30153914421969641 -0.18097955518191031 0 -0.32128591452655109 -0.19022890439718251 0 -0.30153914421969641 -0.18097955518191031 0 -0.31456091194535107 -0.1665433852439844 0 -0.32128591452655109 -0.19022890439718251 0 -0.29392636004298572 -0.16755242707768461 0 -0.3017335453994906 -0.1509363549859612 0 -0.31456091194535107 -0.1665433852439844 0 -0.30153914421969641 -0.18097955518191031 0 -0.29392636004298572 -0.16755242707768461 0 -0.31456091194535107 -0.1665433852439844 0 -0.29392636004298572 -0.16755242707768461 0 -0.27663304661949739 -0.1513154164980117 0 -0.3017335453994906 -0.1509363549859612 0 -0.29392636004298572 -0.16755242707768461 0 -0.27759101856916502 -0.18203915684574451 0 -0.27663304661949739 -0.1513154164980117 0 -0.30033151601442859 -0.19853390234495549 0 -0.30153914421969641 -0.18097955518191031 0 -0.27759101856916502 -0.18203915684574451 0 -0.30153914421969641 -0.18097955518191031 0 -0.29392636004298572 -0.16755242707768461 0 -0.27759101856916502 -0.18203915684574451 0 -0.24511705528823499 -0.1859566665196577 0 -0.27759101856916502 -0.18203915684574451 0 -0.26083497137842993 -0.16606259807010021 0 -0.24325399181831181 -0.16061221567201181 0 -0.26083497137842993 -0.16606259807010021 0 -0.25566366205276309 -0.142929384062218 0 -0.27759101856916502 -0.18203915684574451 0 -0.26083497137842993 -0.16606259807010021 0 -0.27663304661949739 -0.1513154164980117 0 -0.27663304661949739 -0.1513154164980117 0 -0.25566366205276309 -0.142929384062218 0 -0.27869565605013852 -0.12816581505085389 0 -0.26083497137842993 -0.16606259807010021 0 -0.27663304661949739 -0.1513154164980117 0 -0.25566366205276309 -0.142929384062218 0 -0.25950864607964003 -0.11799830011029649 0 -0.25566366205276309 -0.142929384062218 0 -0.27869565605013852 -0.12816581505085389 0 -0.2382590266785008 -0.1309803866168972 0 -0.25950864607964003 -0.11799830011029649 0 -0.25566366205276309 -0.142929384062218 0 -0.27663304661949739 -0.1513154164980117 0 -0.27869565605013852 -0.12816581505085389 0 -0.27663304661949739 -0.1513154164980117 0 -0.27869565605013852 -0.12816581505085389 0 -0.29577248324954442 -0.13347214696553769 0 -0.29566648836672282 -0.1143064692608935 0 -0.27869565605013852 -0.12816581505085389 0 -0.29577248324954442 -0.13347214696553769 0 -0.27663304661949739 -0.1513154164980117 0 -0.29577248324954442 -0.13347214696553769 0 -0.3017335453994906 -0.1509363549859612 0 -0.3017335453994906 -0.1509363549859612 0 -0.31693768179429621 -0.15071857560068311 0 -0.31456091194535107 -0.1665433852439844 0 -0.3017335453994906 -0.1509363549859612 0 -0.3131763010936971 -0.13571045004746921 0 -0.31693768179429621 -0.15071857560068311 0 -0.29577248324954442 -0.13347214696553769 0 -0.3017335453994906 -0.1509363549859612 0 -0.3131763010936971 -0.13571045004746921 0 -0.30872986196772018 -0.1203983759500364 0 -0.29577248324954442 -0.13347214696553769 0 -0.3131763010936971 -0.13571045004746921 0 -0.32381248962066661 -0.1205624363813821 0 -0.3131763010936971 -0.13571045004746921 0 -0.33046137372174489 -0.137000363955326 0 -0.30872986196772018 -0.1203983759500364 0 -0.32381248962066661 -0.1205624363813821 0 -0.3131763010936971 -0.13571045004746921 0 -0.3131763010936971 -0.13571045004746921 0 -0.31693768179429621 -0.15071857560068311 0 -0.33046137372174489 -0.137000363955326 0 -0.31693768179429621 -0.15071857560068311 0 -0.33138521464383819 -0.1551648617563558 0 -0.33046137372174489 -0.137000363955326 0 -0.33138521464383819 -0.1551648617563558 0 -0.34631799084165499 -0.14266980587553069 0 -0.34935856924862491 -0.1594808924546556 0 -0.33138521464383819 -0.1551648617563558 0 -0.33046137372174489 -0.137000363955326 0 -0.34631799084165499 -0.14266980587553069 0 -0.34258020231910602 -0.1225204561965095 0 -0.33046137372174489 -0.137000363955326 0 -0.34631799084165499 -0.14266980587553069 0 -0.32381248962066661 -0.1205624363813821 0 -0.34258020231910602 -0.1225204561965095 0 -0.33046137372174489 -0.137000363955326 0 -0.34258020231910602 -0.1225204561965095 0 -0.3592073440625797 -0.13037400383996309 0 -0.34631799084165499 -0.14266980587553069 0 -0.3592073440625797 -0.13037400383996309 0 -0.37249318986048052 -0.13687637439043551 0 -0.37891871002511451 -0.1115785984154176 0 -0.3592073440625797 -0.13037400383996309 0 -0.37249318986048052 -0.13687637439043551 0 -0.36035153250140639 -0.14941000980385091 0 -0.37249318986048052 -0.13687637439043551 0 -0.36035153250140639 -0.14941000980385091 0 -0.37451391621159952 -0.15527672411112439 0 -0.3592073440625797 -0.13037400383996309 0 -0.36035153250140639 -0.14941000980385091 0 -0.34631799084165499 -0.14266980587553069 0 -0.36035153250140639 -0.14941000980385091 0 -0.34631799084165499 -0.14266980587553069 0 -0.34935856924862491 -0.1594808924546556 0 -0.36035153250140639 -0.14941000980385091 0 -0.34935856924862491 -0.1594808924546556 0 -0.36250535381564181 -0.16610179288020299 0 -0.34935856924862491 -0.1594808924546556 0 -0.34980760612617501 -0.17262216630542909 0 -0.33514774956603471 -0.17198326048638621 0 -0.36250535381564181 -0.16610179288020299 0 -0.3587592574247489 -0.17609000037388439 0 -0.34980760612617501 -0.17262216630542909 0 -0.34935856924862491 -0.1594808924546556 0 -0.36250535381564181 -0.16610179288020299 0 -0.34980760612617501 -0.17262216630542909 0 -0.36035153250140639 -0.14941000980385091 0 -0.37451391621159952 -0.15527672411112439 0 -0.36250535381564181 -0.16610179288020299 0 -0.36250535381564181 -0.16610179288020299 0 -0.36683878457849389 -0.17311072607728101 0 -0.3587592574247489 -0.17609000037388439 0 -0.36250535381564181 -0.16610179288020299 0 -0.36683878457849389 -0.17311072607728101 0 -0.37626438040522492 -0.16821425746617791 0 -0.37451391621159952 -0.15527672411112439 0 -0.36250535381564181 -0.16610179288020299 0 -0.37626438040522492 -0.16821425746617791 0 -0.37027249938417611 -0.18030494633063751 0 -0.36614650821056488 -0.18335155894180469 0 -0.34448828090566808 -0.18785935276070961 0 -0.37027249938417611 -0.18030494633063751 0 -0.36614650821056488 -0.18335155894180469 0 -0.37835931338158441 -0.19557401887010631 0 -0.37027249938417611 -0.18030494633063751 0 -0.36683878457849389 -0.17311072607728101 0 -0.37626438040522492 -0.16821425746617791 0 -0.37027249938417611 -0.18030494633063751 0 -0.36683878457849389 -0.17311072607728101 0 -0.3587592574247489 -0.17609000037388439 0 -0.37027249938417611 -0.18030494633063751 0 -0.34448828090566808 -0.18785935276070961 0 -0.37027249938417611 -0.18030494633063751 0 -0.3587592574247489 -0.17609000037388439 0 -0.34448828090566808 -0.18785935276070961 0 -0.3587592574247489 -0.17609000037388439 0 -0.34980760612617501 -0.17262216630542909 0 -0.34448828090566808 -0.18785935276070961 0 -0.33514774956603471 -0.17198326048638621 0 -0.32128591452655109 -0.19022890439718251 0 -0.34448828090566808 -0.18785935276070961 0 -0.34980760612617501 -0.17262216630542909 0 -0.33514774956603471 -0.17198326048638621 0 -0.34448828090566808 -0.18785935276070961 0 -0.33138521464383819 -0.1551648617563558 0 -0.34935856924862491 -0.1594808924546556 0 -0.33514774956603471 -0.17198326048638621 0 -0.31693768179429621 -0.15071857560068311 0 -0.33138521464383819 -0.1551648617563558 0 -0.31456091194535107 -0.1665433852439844 0 -0.33138521464383819 -0.1551648617563558 0 -0.33514774956603471 -0.17198326048638621 0 -0.31456091194535107 -0.1665433852439844 0 -0.33514774956603471 -0.17198326048638621 0 -0.31456091194535107 -0.1665433852439844 0 -0.32128591452655109 -0.19022890439718251 0 -0.32128591452655109 -0.19022890439718251 0 -0.31398490165061538 -0.2067322670058577 0 -0.33057620250172493 -0.21813845792758291 0 -0.30374597355975708 -0.22002780335371011 0 -0.31398490165061538 -0.2067322670058577 0 -0.33057620250172493 -0.21813845792758291 0 -0.33057620250172493 -0.21813845792758291 0 -0.34448828090566808 -0.18785935276070961 0 -0.3529212186817739 -0.20412652621289351 0 -0.32128591452655109 -0.19022890439718251 0 -0.33057620250172493 -0.21813845792758291 0 -0.34448828090566808 -0.18785935276070961 0 -0.36614650821056488 -0.18335155894180469 0 -0.34448828090566808 -0.18785935276070961 0 -0.3529212186817739 -0.20412652621289351 0 -0.36614650821056488 -0.18335155894180469 0 -0.37152042982318911 -0.21144130624126531 0 -0.3529212186817739 -0.20412652621289351 0 -0.36614650821056488 -0.18335155894180469 0 -0.37152042982318911 -0.21144130624126531 0 -0.36614650821056488 -0.18335155894180469 0 -0.37152042982318911 -0.21144130624126531 0 -0.37835931338158441 -0.19557401887010631 0 -0.37152042982318911 -0.21144130624126531 0 -0.3529212186817739 -0.20412652621289351 0 -0.35437795174224068 -0.22196457786454529 0 -0.33057620250172493 -0.21813845792758291 0 -0.3529212186817739 -0.20412652621289351 0 -0.35437795174224068 -0.22196457786454529 0 -0.3593920291337519 -0.26352312355869612 0 -0.34498411581773852 -0.24083079074313951 0 -0.37689435143581329 -0.23953105354072601 0 -0.35437795174224068 -0.22196457786454529 0 -0.34498411581773852 -0.24083079074313951 0 -0.37689435143581329 -0.23953105354072601 0 -0.37152042982318911 -0.21144130624126531 0 -0.35437795174224068 -0.22196457786454529 0 -0.37689435143581329 -0.23953105354072601 0 -0.37152042982318911 -0.21144130624126531 0 -0.37689435143581329 -0.23953105354072601 0 -0.32278184928711828 -0.25631580099049511 0 -0.34498411581773852 -0.24083079074313951 0 -0.32179321008162282 -0.23559376468951759 0 -0.33057620250172493 -0.21813845792758291 0 -0.34498411581773852 -0.24083079074313951 0 -0.32179321008162282 -0.23559376468951759 0 -0.33057620250172493 -0.21813845792758291 0 -0.35437795174224068 -0.22196457786454529 0 -0.34498411581773852 -0.24083079074313951 0 -0.33057620250172493 -0.21813845792758291 0 -0.34498411581773852 -0.24083079074313951 0 -0.30374597355975708 -0.22002780335371011 0 -0.33057620250172493 -0.21813845792758291 0 -0.32179321008162282 -0.23559376468951759 0 -0.32278184928711828 -0.25631580099049511 0 -0.29720757602399273 -0.25097860351727069 0 -0.32179321008162282 -0.23559376468951759 0 -0.43333417593093548 -0.2586373813461017 0 -0.43171356180869108 -0.23631457376782011 0 -0.40902852344653989 -0.23752154897505351 0 -0.43171356180869108 -0.23631457376782011 0 -0.42022569366029261 -0.22438304504394971 0 -0.4404570415876522 -0.22243624518746971 0 -0.43171356180869108 -0.23631457376782011 0 -0.42022569366029261 -0.22438304504394971 0 -0.40902852344653989 -0.23752154897505351 0 -0.42022569366029261 -0.22438304504394971 0 -0.40902852344653989 -0.23752154897505351 0 -0.39646620282811018 -0.21512555733140859 0 -0.40902852344653989 -0.23752154897505351 0 -0.37689435143581329 -0.23953105354072601 0 -0.39646620282811018 -0.21512555733140859 0 -0.39388116613615021 -0.25190835773597248 0 -0.40902852344653989 -0.23752154897505351 0 -0.37689435143581329 -0.23953105354072601 0 -0.37152042982318911 -0.21144130624126531 0 -0.37689435143581329 -0.23953105354072601 0 -0.39646620282811018 -0.21512555733140859 0 -0.39646620282811018 -0.21512555733140859 0 -0.39690479977798682 -0.19565620712138049 0 -0.42060577295472662 -0.20675246025838931 0 -0.37152042982318911 -0.21144130624126531 0 -0.39646620282811018 -0.21512555733140859 0 -0.37835931338158441 -0.19557401887010631 0 -0.39646620282811018 -0.21512555733140859 0 -0.37835931338158441 -0.19557401887010631 0 -0.39690479977798682 -0.19565620712138049 0 -0.37835931338158441 -0.19557401887010631 0 -0.39690479977798682 -0.19565620712138049 0 -0.39605671786268409 -0.17275053990056541 0 -0.41128131535302892 -0.18837577155247079 0 -0.42060577295472662 -0.20675246025838931 0 -0.43302660184027442 -0.18662113526356841 0 -0.39690479977798682 -0.19565620712138049 0 -0.41128131535302892 -0.18837577155247079 0 -0.42060577295472662 -0.20675246025838931 0 -0.42022569366029261 -0.22438304504394971 0 -0.39646620282811018 -0.21512555733140859 0 -0.42060577295472662 -0.20675246025838931 0 -0.42060577295472662 -0.20675246025838931 0 -0.4377101034783844 -0.20355587940652811 0 -0.4404570415876522 -0.22243624518746971 0 -0.42022569366029261 -0.22438304504394971 0 -0.42060577295472662 -0.20675246025838931 0 -0.4404570415876522 -0.22243624518746971 0 -0.42060577295472662 -0.20675246025838931 0 -0.43302660184027442 -0.18662113526356841 0 -0.4377101034783844 -0.20355587940652811 0 -0.43302660184027442 -0.18662113526356841 0 -0.43121181537953968 -0.17402639795288269 0 -0.41915012692835552 -0.17796538724032479 0 -0.43121181537953968 -0.17402639795288269 0 -0.42184093634119207 -0.16519613347049319 0 -0.41915012692835552 -0.17796538724032479 0 -0.43302660184027442 -0.18662113526356841 0 -0.43121181537953968 -0.17402639795288269 0 -0.4432797101435042 -0.1772070275437079 0 -0.42184093634119207 -0.16519613347049319 0 -0.44762515481970011 -0.15764172704042001 0 -0.42184093634119207 -0.16519613347049319 0 -0.43072436680375692 -0.1525857995604766 0 -0.44762515481970011 -0.15764172704042001 0 -0.43121181537953968 -0.17402639795288269 0 -0.42184093634119207 -0.16519613347049319 0 -0.43876170164437228 -0.1631423062463189 0 -0.42184093634119207 -0.16519613347049319 0 -0.44762515481970011 -0.15764172704042001 0 -0.43876170164437228 -0.1631423062463189 0 -0.42184093634119207 -0.16519613347049319 0 -0.39605671786268409 -0.17275053990056541 0 -0.40332860881337068 -0.15705127558576409 0 -0.42184093634119207 -0.16519613347049319 0 -0.39605671786268409 -0.17275053990056541 0 -0.41128131535302892 -0.18837577155247079 0 -0.43302660184027442 -0.18662113526356841 0 -0.41915012692835552 -0.17796538724032479 0 -0.42184093634119207 -0.16519613347049319 0 -0.41915012692835552 -0.17796538724032479 0 -0.39605671786268409 -0.17275053990056541 0 -0.41128131535302892 -0.18837577155247079 0 -0.41915012692835552 -0.17796538724032479 0 -0.39605671786268409 -0.17275053990056541 0 -0.39690479977798682 -0.19565620712138049 0 -0.41128131535302892 -0.18837577155247079 0 -0.39605671786268409 -0.17275053990056541 0 -0.37027249938417611 -0.18030494633063751 0 -0.39605671786268409 -0.17275053990056541 0 -0.37626438040522492 -0.16821425746617791 0 -0.37027249938417611 -0.18030494633063751 0 -0.37835931338158441 -0.19557401887010631 0 -0.39605671786268409 -0.17275053990056541 0 -0.37027249938417611 -0.18030494633063751 0 -0.39605671786268409 -0.17275053990056541 0 -0.39605671786268409 -0.17275053990056541 0 -0.37626438040522492 -0.16821425746617791 0 -0.38792761395891628 -0.1582070665690907 0 -0.37451391621159952 -0.15527672411112439 0 -0.37626438040522492 -0.16821425746617791 0 -0.38792761395891628 -0.1582070665690907 0 -0.39605671786268409 -0.17275053990056541 0 -0.38792761395891628 -0.1582070665690907 0 -0.40332860881337068 -0.15705127558576409 0 -0.40332860881337068 -0.15705127558576409 0 -0.38947444650170232 -0.13774253578182141 0 -0.41650261711697062 -0.1448689193023858 0 -0.38792761395891628 -0.1582070665690907 0 -0.40332860881337068 -0.15705127558576409 0 -0.38947444650170232 -0.13774253578182141 0 -0.37451391621159952 -0.15527672411112439 0 -0.38792761395891628 -0.1582070665690907 0 -0.38947444650170232 -0.13774253578182141 0 -0.37249318986048052 -0.13687637439043551 0 -0.37451391621159952 -0.15527672411112439 0 -0.38947444650170232 -0.13774253578182141 0 -0.37249318986048052 -0.13687637439043551 0 -0.38947444650170232 -0.13774253578182141 0 -0.37891871002511451 -0.1115785984154176 0 -0.38947444650170232 -0.13774253578182141 0 -0.40573099851650141 -0.1279286335606041 0 -0.37891871002511451 -0.1115785984154176 0 -0.38947444650170232 -0.13774253578182141 0 -0.40573099851650141 -0.1279286335606041 0 -0.41650261711697062 -0.1448689193023858 0 -0.40573099851650141 -0.1279286335606041 0 -0.41650261711697062 -0.1448689193023858 0 -0.42623236305462892 -0.1276311098167956 0 -0.42184093634119207 -0.16519613347049319 0 -0.40332860881337068 -0.15705127558576409 0 -0.41650261711697062 -0.1448689193023858 0 -0.42184093634119207 -0.16519613347049319 0 -0.41650261711697062 -0.1448689193023858 0 -0.43072436680375692 -0.1525857995604766 0 -0.41650261711697062 -0.1448689193023858 0 -0.43072436680375692 -0.1525857995604766 0 -0.4369287589371646 -0.14263641842860769 0 -0.4369287589371646 -0.14263641842860769 0 -0.42623236305462892 -0.1276311098167956 0 -0.41650261711697062 -0.1448689193023858 0 -0.4369287589371646 -0.14263641842860769 0 -0.42623236305462892 -0.1276311098167956 0 -0.4369287589371646 -0.14263641842860769 0 -0.42623236305462892 -0.1276311098167956 0 -0.4434762474802138 -0.13415872317391209 0 -0.42623236305462892 -0.1276311098167956 0 -0.4434762474802138 -0.13415872317391209 0 -0.4446806309358784 -0.1233602374739121 0 -0.4369287589371646 -0.14263641842860769 0 -0.4434762474802138 -0.13415872317391209 0 -0.45328384685962941 -0.1417511823276317 0 -0.45294303896021493 -0.13106856332166811 0 -0.4434762474802138 -0.13415872317391209 0 -0.45328384685962941 -0.1417511823276317 0 -0.45294303896021493 -0.13106856332166811 0 -0.4446806309358784 -0.1233602374739121 0 -0.45602540284556298 -0.1221858903707337 0 -0.45294303896021493 -0.13106856332166811 0 -0.4434762474802138 -0.13415872317391209 0 -0.4446806309358784 -0.1233602374739121 0 -0.43072436680375692 -0.1525857995604766 0 -0.4369287589371646 -0.14263641842860769 0 -0.44762515481970011 -0.15764172704042001 0 -0.4369287589371646 -0.14263641842860769 0 -0.45328384685962941 -0.1417511823276317 0 -0.44762515481970011 -0.15764172704042001 0 -0.4369287589371646 -0.14263641842860769 0 -0.44762515481970011 -0.15764172704042001 0 -0.47381257740984861 -0.1499691875850587 0 -0.44762515481970011 -0.15764172704042001 0 -0.45328384685962941 -0.1417511823276317 0 -0.47381257740984861 -0.1499691875850587 0 -0.44762515481970011 -0.15764172704042001 0 -0.45328384685962941 -0.1417511823276317 0 -0.465144926491319 -0.13175342500294671 0 -0.47381257740984861 -0.1499691875850587 0 -0.45294303896021493 -0.13106856332166811 0 -0.45328384685962941 -0.1417511823276317 0 -0.465144926491319 -0.13175342500294671 0 -0.45294303896021493 -0.13106856332166811 0 -0.465144926491319 -0.13175342500294671 0 -0.45602540284556298 -0.1221858903707337 0 -0.465144926491319 -0.13175342500294671 0 -0.48663201064827588 -0.130305694044448 0 -0.47381257740984861 -0.1499691875850587 0 -0.48663201064827588 -0.130305694044448 0 -0.499999999999997 -0.14229664812969731 0 -0.5 -0.1140731112792966 0 -0.48663201064827588 -0.130305694044448 0 -0.499999999999997 -0.14229664812969731 0 -0.47381257740984861 -0.1499691875850587 0 -0.499999999999997 -0.14229664812969731 0 -0.47381257740984861 -0.1499691875850587 0 -0.48347496030274578 -0.1642468254265429 0 -0.499999999999997 -0.14229664812969731 0 -0.47381257740984861 -0.1499691875850587 0 -0.47381257740984861 -0.1499691875850587 0 -0.48347496030274578 -0.1642468254265429 0 -0.46966313642931301 -0.17456409768188219 0 -0.499999999999997 -0.14229664812969731 0 -0.48347496030274578 -0.1642468254265429 0 -0.5 -0.1703571949436116 0 -0.48347496030274578 -0.1642468254265429 0 -0.5 -0.1703571949436116 0 -0.48541788538568409 -0.18307260984609289 0 -0.5 -0.1703571949436116 0 -0.48541788538568409 -0.18307260984609289 0 -0.50000000000000067 -0.1984177417575258 0 -0.46966313642931301 -0.17456409768188219 0 -0.47310703454028818 -0.1933886714706283 0 -0.48541788538568409 -0.18307260984609289 0 -0.46966313642931301 -0.17456409768188219 0 -0.47310703454028818 -0.1933886714706283 0 -0.48347496030274578 -0.1642468254265429 0 -0.48541788538568409 -0.18307260984609289 0 -0.46966313642931301 -0.17456409768188219 0 -0.46966313642931301 -0.17456409768188219 0 -0.46036609467999462 -0.17551519925552381 0 -0.47310703454028818 -0.1933886714706283 0 -0.46036609467999462 -0.17551519925552381 0 -0.45712501636353342 -0.18477365069005591 0 -0.47310703454028818 -0.1933886714706283 0 -0.46036609467999462 -0.17551519925552381 0 -0.47310703454028818 -0.1933886714706283 0 -0.47381257740984861 -0.1499691875850587 0 -0.46966313642931301 -0.17456409768188219 0 -0.46036609467999462 -0.17551519925552381 0 -0.46036609467999462 -0.17551519925552381 0 -0.44762515481970011 -0.15764172704042001 0 -0.47381257740984861 -0.1499691875850587 0 -0.46036609467999462 -0.17551519925552381 0 -0.44762515481970011 -0.15764172704042001 0 -0.46036609467999462 -0.17551519925552381 0 -0.44762515481970011 -0.15764172704042001 0 -0.43876170164437228 -0.1631423062463189 0 -0.43121181537953968 -0.17402639795288269 0 -0.43876170164437228 -0.1631423062463189 0 -0.4432797101435042 -0.1772070275437079 0 -0.45712501636353342 -0.18477365069005591 0 -0.43876170164437228 -0.1631423062463189 0 -0.4432797101435042 -0.1772070275437079 0 -0.45712501636353342 -0.18477365069005591 0 -0.43876170164437228 -0.1631423062463189 0 -0.46036609467999462 -0.17551519925552381 0 -0.45712501636353342 -0.18477365069005591 0 -0.43876170164437228 -0.1631423062463189 0 -0.43302660184027442 -0.18662113526356841 0 -0.4432797101435042 -0.1772070275437079 0 -0.44713325259142628 -0.18601876314105131 0 -0.45712501636353342 -0.18477365069005591 0 -0.4432797101435042 -0.1772070275437079 0 -0.44713325259142628 -0.18601876314105131 0 -0.43302660184027442 -0.18662113526356841 0 -0.44477939382471399 -0.19343266482540061 0 -0.4377101034783844 -0.20355587940652811 0 -0.45194984772104579 -0.2006489871022864 0 -0.44477939382471399 -0.19343266482540061 0 -0.45409874510003911 -0.19300312865668071 0 -0.44713325259142628 -0.18601876314105131 0 -0.44477939382471399 -0.19343266482540061 0 -0.45409874510003911 -0.19300312865668071 0 -0.45712501636353342 -0.18477365069005591 0 -0.44713325259142628 -0.18601876314105131 0 -0.45409874510003911 -0.19300312865668071 0 -0.43302660184027442 -0.18662113526356841 0 -0.44713325259142628 -0.18601876314105131 0 -0.44477939382471399 -0.19343266482540061 0 -0.45194984772104579 -0.2006489871022864 0 -0.44477939382471399 -0.19343266482540061 0 -0.4377101034783844 -0.20355587940652811 0 -0.4377101034783844 -0.20355587940652811 0 -0.45069580556032363 -0.21045632416796139 0 -0.4404570415876522 -0.22243624518746971 0 -0.45069580556032363 -0.21045632416796139 0 -0.46230527629777413 -0.219163190948192 0 -0.4404570415876522 -0.22243624518746971 0 -0.45194984772104579 -0.2006489871022864 0 -0.4377101034783844 -0.20355587940652811 0 -0.45069580556032363 -0.21045632416796139 0 -0.45194984772104579 -0.2006489871022864 0 -0.45069580556032363 -0.21045632416796139 0 -0.46105675871676127 -0.20647731819533091 0 -0.45069580556032363 -0.21045632416796139 0 -0.46105675871676127 -0.20647731819533091 0 -0.46230527629777413 -0.219163190948192 0 -0.46874063337489252 -0.2140964079776925 0 -0.46105675871676127 -0.20647731819533091 0 -0.46230527629777413 -0.219163190948192 0 -0.46874063337489252 -0.2140964079776925 0 -0.46105675871676127 -0.20647731819533091 0 -0.47048288176122849 -0.2060932410457556 0 -0.46680332050766671 -0.20330771489720861 0 -0.46105675871676127 -0.20647731819533091 0 -0.47048288176122849 -0.2060932410457556 0 -0.45712501636353342 -0.18477365069005591 0 -0.47548833108269389 -0.20640499513379321 0 -0.45712501636353342 -0.18477365069005591 0 -0.47310703454028818 -0.1933886714706283 0 -0.47548833108269389 -0.20640499513379321 0 -0.46680332050766671 -0.20330771489720861 0 -0.46105675871676127 -0.20647731819533091 0 -0.46215361884714212 -0.19646746615202521 0 -0.46680332050766671 -0.20330771489720861 0 -0.46215361884714212 -0.19646746615202521 0 -0.47548833108269389 -0.20640499513379321 0 -0.45712501636353342 -0.18477365069005591 0 -0.46215361884714212 -0.19646746615202521 0 -0.47548833108269389 -0.20640499513379321 0 -0.45194984772104579 -0.2006489871022864 0 -0.46215361884714212 -0.19646746615202521 0 -0.45409874510003911 -0.19300312865668071 0 -0.45194984772104579 -0.2006489871022864 0 -0.46105675871676127 -0.20647731819533091 0 -0.46215361884714212 -0.19646746615202521 0 -0.45712501636353342 -0.18477365069005591 0 -0.46215361884714212 -0.19646746615202521 0 -0.45409874510003911 -0.19300312865668071 0 -0.47310703454028818 -0.1933886714706283 0 -0.48626218104175722 -0.19746112779636679 0 -0.48582161345106012 -0.211225163548942 0 -0.47310703454028818 -0.1933886714706283 0 -0.48582161345106012 -0.211225163548942 0 -0.47310703454028818 -0.1933886714706283 0 -0.47548833108269389 -0.20640499513379321 0 -0.48541788538568409 -0.18307260984609289 0 -0.47310703454028818 -0.1933886714706283 0 -0.48626218104175722 -0.19746112779636679 0 -0.48541788538568409 -0.18307260984609289 0 -0.48626218104175722 -0.19746112779636679 0 -0.50000000000000067 -0.1984177417575258 0 -0.48626218104175722 -0.19746112779636679 0 -0.50000000000000067 -0.1984177417575258 0 -0.48582161345106012 -0.211225163548942 0 -0.50000000000000067 -0.1984177417575258 0 -0.48818273853550082 -0.21453743909971579 0 -0.5 -0.22100044227678581 0 -0.50000000000000067 -0.1984177417575258 0 -0.48582161345106012 -0.211225163548942 0 -0.48818273853550082 -0.21453743909971579 0 -0.48818273853550082 -0.21453743909971579 0 -0.49148796416744139 -0.21980704782672961 0 -0.5 -0.22100044227678581 0 -0.50000000000000067 -0.1984177417575258 0 -0.48582161345106012 -0.211225163548942 0 -0.48582161345106012 -0.211225163548942 0 -0.48818273853550082 -0.21453743909971579 0 -0.48228911940841579 -0.21441608665035419 0 -0.48818273853550082 -0.21453743909971579 0 -0.48228911940841579 -0.21441608665035419 0 -0.49148796416744139 -0.21980704782672961 0 -0.48582161345106012 -0.211225163548942 0 -0.48818273853550082 -0.21453743909971579 0 -0.48228911940841579 -0.21441608665035419 0 -0.47692917049227818 -0.21428071819803349 0 -0.47548833108269389 -0.20640499513379321 0 -0.47310703454028818 -0.1933886714706283 0 -0.48582161345106012 -0.211225163548942 0 -0.47548833108269389 -0.20640499513379321 0 -0.48228911940841579 -0.21441608665035419 0 -0.47921913666446642 -0.21718922051565179 0 -0.48582161345106012 -0.211225163548942 0 -0.48228911940841579 -0.21441608665035419 0 -0.47692917049227818 -0.21428071819803349 0 -0.47921913666446642 -0.21718922051565179 0 -0.48228911940841579 -0.21441608665035419 0 -0.47692917049227818 -0.21428071819803349 0 -0.47921913666446642 -0.21718922051565179 0 -0.47692917049227818 -0.21428071819803349 0 -0.47771057290513458 -0.21855191522694989 0 -0.47921913666446642 -0.21718922051565179 0 -0.47692917049227818 -0.21428071819803349 0 -0.47771057290513458 -0.21855191522694989 0 -0.47771057290513458 -0.21855191522694989 0 -0.47921913666446642 -0.21718922051565179 0 -0.48582161345106012 -0.211225163548942 0 -0.48228911940841579 -0.21441608665035419 0 -0.47548833108269389 -0.20640499513379321 0 -0.48228911940841579 -0.21441608665035419 0 -0.47548833108269389 -0.20640499513379321 0 -0.47692917049227818 -0.21428071819803349 0 -0.47548833108269389 -0.20640499513379321 0 -0.47692917049227818 -0.21428071819803349 0 -0.47048288176122849 -0.2060932410457556 0 -0.47548833108269389 -0.20640499513379321 0 -0.46680332050766671 -0.20330771489720861 0 -0.47048288176122849 -0.2060932410457556 0 -0.47548833108269389 -0.20640499513379321 0 -0.47692917049227818 -0.21428071819803349 0 -0.47048288176122849 -0.2060932410457556 0 -0.46874063337489252 -0.2140964079776925 0 -0.47771057290513458 -0.21855191522694989 0 -0.46230527629777413 -0.219163190948192 0 -0.46874063337489252 -0.2140964079776925 0 -0.47692917049227818 -0.21428071819803349 0 -0.47048288176122849 -0.2060932410457556 0 -0.46874063337489252 -0.2140964079776925 0 -0.47692917049227818 -0.21428071819803349 0 -0.47771057290513458 -0.21855191522694989 0 -0.47771057290513458 -0.21855191522694989 0 -0.48159881645759078 -0.2398053104504039 0 -0.45552237441803523 -0.23859464828652599 0 -0.47771057290513458 -0.21855191522694989 0 -0.48159881645759078 -0.2398053104504039 0 -0.47771057290513458 -0.21855191522694989 0 -0.48960956833223218 -0.23038618165584909 0 -0.48159881645759078 -0.2398053104504039 0 -0.47771057290513458 -0.21855191522694989 0 -0.47921913666446642 -0.21718922051565179 0 -0.48960956833223218 -0.23038618165584909 0 -0.48228911940841579 -0.21441608665035419 0 -0.49148796416744139 -0.21980704782672961 0 -0.49380504870141501 -0.22798144981796681 0 -0.47921913666446642 -0.21718922051565179 0 -0.48960956833223218 -0.23038618165584909 0 -0.49380504870141501 -0.22798144981796681 0 -0.5 -0.22100044227678581 0 -0.49999999999999889 -0.2435831427960459 0 -0.48228911940841579 -0.21441608665035419 0 -0.49380504870141501 -0.22798144981796681 0 -0.47921913666446642 -0.21718922051565179 0 -0.48960956833223218 -0.23038618165584909 0 -0.49380504870141501 -0.22798144981796681 0 -0.48228911940841579 -0.21441608665035419 0 -0.47921913666446642 -0.21718922051565179 0 -0.49380504870141501 -0.22798144981796681 0 -0.48960956833223218 -0.23038618165584909 0 -0.49380504870141501 -0.22798144981796681 0 -0.49999999999999889 -0.2435831427960459 0 -0.49148796416744139 -0.21980704782672961 0 -0.49380504870141501 -0.22798144981796681 0 -0.5 -0.22100044227678581 0 -0.48548706001004782 -0.26105870567385769 0 -0.49133908895997408 -0.24547410279280971 0 -0.48159881645759078 -0.2398053104504039 0 -0.5 -0.25253717338789178 0 -0.49999999999999889 -0.2435831427960459 0 -0.49133908895997408 -0.24547410279280971 0 -0.48960956833223218 -0.23038618165584909 0 -0.49999999999999889 -0.2435831427960459 0 -0.49133908895997408 -0.24547410279280971 0 -0.48960956833223218 -0.23038618165584909 0 -0.49999999999999889 -0.2435831427960459 0 -0.48960956833223218 -0.23038618165584909 0 -0.49133908895997408 -0.24547410279280971 0 -0.48159881645759078 -0.2398053104504039 0 -0.46858961573933577 -0.25532911961135868 0 -0.48159881645759078 -0.2398053104504039 0 -0.45552237441803523 -0.23859464828652599 0 -0.47771057290513458 -0.21855191522694989 0 -0.45552237441803523 -0.23859464828652599 0 -0.46230527629777413 -0.219163190948192 0 -0.47771057290513458 -0.21855191522694989 0 -0.45552237441803523 -0.23859464828652599 0 -0.43171356180869108 -0.23631457376782011 0 -0.45552237441803523 -0.23859464828652599 0 -0.4404570415876522 -0.22243624518746971 0 -0.45552237441803523 -0.23859464828652599 0 -0.46230527629777413 -0.219163190948192 0 -0.4404570415876522 -0.22243624518746971 0 -0.43333417593093548 -0.2586373813461017 0 -0.45552237441803523 -0.23859464828652599 0 -0.43333417593093548 -0.2586373813461017 0 -0.43171356180869108 -0.23631457376782011 0 -0.45552237441803523 -0.23859464828652599 0 -0.42261290717929761 -0.0436778233515146 0 -0.41460198105189211 -0.029782198969579048 0 -0.40417418738163641 -0.044010465875367978 0 -0.4179135258530452 -0.059578262622075502 0 -0.42261290717929761 -0.0436778233515146 0 -0.40417418738163641 -0.044010465875367978 0 -0.4179135258530452 -0.059578262622075502 0 -0.40417418738163641 -0.044010465875367978 0 -0.40003497811319921 -0.060294431160216683 0 -0.4179135258530452 -0.059578262622075502 0 -0.43568797333695242 -0.055319719129864393 0 -0.42261290717929761 -0.0436778233515146 0 -0.43568797333695242 -0.055319719129864393 0 -0.42261290717929761 -0.0436778233515146 0 -0.43767024267034238 -0.031595448922435168 0 -0.42261290717929761 -0.0436778233515146 0 -0.41460198105189211 -0.029782198969579048 0 -0.43767024267034238 -0.031595448922435168 0 -0.43502249245834301 -0.015335855738249049 0 -0.41915135031172479 -0.015801105463931021 0 -0.43767024267034238 -0.031595448922435168 0 -0.41915135031172479 -0.015801105463931021 0 -0.43767024267034238 -0.031595448922435168 0 -0.41460198105189211 -0.029782198969579048 0 -0.43767024267034238 -0.031595448922435168 0 -0.41460198105189211 -0.029782198969579048 0 -0.41915135031172479 -0.015801105463931021 0 -0.43767024267034238 -0.031595448922435168 0 -0.43502249245834301 -0.015335855738249049 0 -0.42516207936077222 -0.0025512451542764 0 -0.41915135031172479 -0.015801105463931021 0 -0.43502249245834301 -0.015335855738249049 0 -0.42516207936077222 -0.0025512451542764 0 -0.44408740723685192 -0.0055868062651687356 0 -0.42516207936077222 -0.0025512451542764 0 -0.44408740723685192 -0.0055868062651687356 0 -0.43476487015870041 0.0079159571471176284 0 -0.41915135031172479 -0.015801105463931021 0 -0.40063245795310731 -6.7620054268399676e-06 0 -0.41177799172434582 0.0065164367141006809 0 -0.41915135031172479 -0.015801105463931021 0 -0.40063245795310731 -6.7620054268399676e-06 0 -0.42516207936077222 -0.0025512451542764 0 -0.41915135031172479 -0.015801105463931021 0 -0.41177799172434582 0.0065164367141006809 0 -0.41915135031172479 -0.015801105463931021 0 -0.40063245795310731 -6.7620054268399676e-06 0 -0.40407418125987832 -0.012387473858867371 0 -0.41460198105189211 -0.029782198969579048 0 -0.41915135031172479 -0.015801105463931021 0 -0.41051881977166749 -0.020531818696472501 0 -0.41915135031172479 -0.015801105463931021 0 -0.41051881977166749 -0.020531818696472501 0 -0.40407418125987832 -0.012387473858867371 0 -0.41460198105189211 -0.029782198969579048 0 -0.41051881977166749 -0.020531818696472501 0 -0.40150718700968552 -0.022916556078948259 0 -0.41460198105189211 -0.029782198969579048 0 -0.39153371943344167 -0.027968949016722981 0 -0.41460198105189211 -0.029782198969579048 0 -0.39153371943344167 -0.027968949016722981 0 -0.40150718700968552 -0.022916556078948259 0 -0.39153371943344167 -0.027968949016722981 0 -0.40150718700968552 -0.022916556078948259 0 -0.3818251038620572 -0.01421844374252898 0 -0.41051881977166749 -0.020531818696472501 0 -0.40150718700968552 -0.022916556078948259 0 -0.40407418125987832 -0.012387473858867371 0 -0.40150718700968552 -0.022916556078948259 0 -0.38886968241841602 -0.004750395748770295 0 -0.3818251038620572 -0.01421844374252898 0 -0.40150718700968552 -0.022916556078948259 0 -0.40407418125987832 -0.012387473858867371 0 -0.38886968241841602 -0.004750395748770295 0 -0.40150718700968552 -0.022916556078948259 0 -0.38886968241841602 -0.004750395748770295 0 -0.40063245795310731 -6.7620054268399676e-06 0 -0.40407418125987832 -0.012387473858867371 0 -0.38886968241841602 -0.004750395748770295 0 -0.38886968241841602 -0.004750395748770295 0 -0.3818251038620572 -0.01421844374252898 0 -0.37773076799400501 0.00097948154207771424 0 -0.36883434865565551 -0.029705419781127541 0 -0.36846545781499151 -0.026155699063867121 0 -0.39153371943344167 -0.027968949016722981 0 -0.36846545781499151 -0.026155699063867121 0 -0.39153371943344167 -0.027968949016722981 0 -0.3818251038620572 -0.01421844374252898 0 -0.36846545781499151 -0.026155699063867121 0 -0.39153371943344167 -0.027968949016722981 0 -0.36883434865565551 -0.029705419781127541 0 -0.39153371943344167 -0.027968949016722981 0 -0.37834801265894269 -0.042761130132099069 0 -0.41460198105189211 -0.029782198969579048 0 -0.39153371943344167 -0.027968949016722981 0 -0.40417418738163641 -0.044010465875367978 0 -0.39153371943344167 -0.027968949016722981 0 -0.37834801265894269 -0.042761130132099069 0 -0.40417418738163641 -0.044010465875367978 0 -0.37834801265894269 -0.042761130132099069 0 -0.40417418738163641 -0.044010465875367978 0 -0.40003497811319921 -0.060294431160216683 0 -0.37127519886154858 -0.059740624495149178 0 -0.37834801265894269 -0.042761130132099069 0 -0.40003497811319921 -0.060294431160216683 0 -0.37834801265894269 -0.042761130132099069 0 -0.40003497811319921 -0.060294431160216683 0 -0.37127519886154858 -0.059740624495149178 0 -0.40003497811319921 -0.060294431160216683 0 -0.39531976891493631 -0.071614094068916778 0 -0.37127519886154858 -0.059740624495149178 0 -0.39531976891493631 -0.071614094068916778 0 -0.37127519886154858 -0.059740624495149178 0 -0.37935586237750701 -0.073659406479779782 0 -0.39531976891493631 -0.071614094068916778 0 -0.37935586237750701 -0.073659406479779782 0 -0.39092927975034919 -0.091588249852033246 0 -0.39531976891493631 -0.071614094068916778 0 -0.36836297354852671 -0.085414661049013851 0 -0.37935586237750701 -0.073659406479779782 0 -0.39092927975034919 -0.091588249852033246 0 -0.39092927975034919 -0.091588249852033246 0 -0.39531976891493631 -0.071614094068916778 0 -0.41936433896832409 -0.083487563642684393 0 -0.40003497811319921 -0.060294431160216683 0 -0.39531976891493631 -0.071614094068916778 0 -0.42172194356745563 -0.07782773218833422 0 -0.38947444650170232 -0.13774253578182141 0 -0.37891871002511451 -0.1115785984154176 0 -0.36836297354852671 -0.085414661049013851 0 -0.39092927975034919 -0.091588249852033246 0 -0.37891871002511451 -0.1115785984154176 0 -0.39092927975034919 -0.091588249852033246 0 -0.37891871002511451 -0.1115785984154176 0 -0.40796552963412169 -0.1088520600404712 0 -0.39092927975034919 -0.091588249852033246 0 -0.40796552963412169 -0.1088520600404712 0 -0.41936433896832409 -0.083487563642684393 0 -0.40573099851650141 -0.1279286335606041 0 -0.37891871002511451 -0.1115785984154176 0 -0.40796552963412169 -0.1088520600404712 0 -0.40573099851650141 -0.1279286335606041 0 -0.42623236305462892 -0.1276311098167956 0 -0.40796552963412169 -0.1088520600404712 0 -0.40796552963412169 -0.1088520600404712 0 -0.43305390652192272 -0.1106836179693792 0 -0.41936433896832409 -0.083487563642684393 0 -0.43305390652192272 -0.1106836179693792 0 -0.41936433896832409 -0.083487563642684393 0 -0.44340890902171187 -0.095361033216451868 0 -0.42623236305462892 -0.1276311098167956 0 -0.43305390652192272 -0.1106836179693792 0 -0.4446806309358784 -0.1233602374739121 0 -0.42623236305462892 -0.1276311098167956 0 -0.40796552963412169 -0.1088520600404712 0 -0.43305390652192272 -0.1106836179693792 0 -0.40003497811319921 -0.060294431160216683 0 -0.42172194356745563 -0.07782773218833422 0 -0.39531976891493631 -0.071614094068916778 0 -0.41936433896832409 -0.083487563642684393 0 -0.4179135258530452 -0.059578262622075502 0 -0.40003497811319921 -0.060294431160216683 0 -0.42172194356745563 -0.07782773218833422 0 -0.39531976891493631 -0.071614094068916778 0 -0.42172194356745563 -0.07782773218833422 0 -0.41936433896832409 -0.083487563642684393 0 -0.41936433896832409 -0.083487563642684393 0 -0.44340890902171187 -0.095361033216451868 0 -0.42172194356745563 -0.07782773218833422 0 -0.41936433896832409 -0.083487563642684393 0 -0.44340890902171187 -0.095361033216451868 0 -0.42172194356745563 -0.07782773218833422 0 -0.44340890902171187 -0.095361033216451868 0 -0.4179135258530452 -0.059578262622075502 0 -0.43568797333695242 -0.055319719129864393 0 -0.42172194356745563 -0.07782773218833422 0 -0.43568797333695242 -0.055319719129864393 0 -0.42172194356745563 -0.07782773218833422 0 -0.45008540584147638 -0.070277816404335947 0 -0.42172194356745563 -0.07782773218833422 0 -0.45008540584147638 -0.070277816404335947 0 -0.44340890902171187 -0.095361033216451868 0 -0.45008540584147638 -0.070277816404335947 0 -0.46752173252215262 -0.08020148782768062 0 -0.44340890902171187 -0.095361033216451868 0 -0.46752173252215262 -0.08020148782768062 0 -0.44340890902171187 -0.095361033216451868 0 -0.47389622528527708 -0.094847086924497059 0 -0.45008540584147638 -0.070277816404335947 0 -0.46752173252215262 -0.08020148782768062 0 -0.47209084771366672 -0.062247825642810013 0 -0.43305390652192272 -0.1106836179693792 0 -0.4446806309358784 -0.1233602374739121 0 -0.44871416403620379 -0.1133051263541241 0 -0.4446806309358784 -0.1233602374739121 0 -0.44871416403620379 -0.1133051263541241 0 -0.45602540284556298 -0.1221858903707337 0 -0.43305390652192272 -0.1106836179693792 0 -0.44871416403620379 -0.1133051263541241 0 -0.44340890902171187 -0.095361033216451868 0 -0.44871416403620379 -0.1133051263541241 0 -0.44340890902171187 -0.095361033216451868 0 -0.46502045983499402 -0.11283336363044991 0 -0.44340890902171187 -0.095361033216451868 0 -0.47012807517321642 -0.1085552473625948 0 -0.44340890902171187 -0.095361033216451868 0 -0.47012807517321642 -0.1085552473625948 0 -0.47389622528527708 -0.094847086924497059 0 -0.44340890902171187 -0.095361033216451868 0 -0.46502045983499402 -0.11283336363044991 0 -0.47012807517321642 -0.1085552473625948 0 -0.44340890902171187 -0.095361033216451868 0 -0.46502045983499402 -0.11283336363044991 0 -0.44871416403620379 -0.1133051263541241 0 -0.46502045983499402 -0.11283336363044991 0 -0.45602540284556298 -0.1221858903707337 0 -0.465144926491319 -0.13175342500294671 0 -0.46502045983499402 -0.11283336363044991 0 -0.45602540284556298 -0.1221858903707337 0 -0.465144926491319 -0.13175342500294671 0 -0.48663201064827588 -0.130305694044448 0 -0.46502045983499402 -0.11283336363044991 0 -0.48663201064827588 -0.130305694044448 0 -0.46502045983499402 -0.11283336363044991 0 -0.48663201064827588 -0.130305694044448 0 -0.46502045983499402 -0.11283336363044991 0 -0.4774331757706205 -0.1141654229335137 0 -0.48663201064827588 -0.130305694044448 0 -0.4774331757706205 -0.1141654229335137 0 -0.48595840453748401 -0.1128919238397191 0 -0.46502045983499402 -0.11283336363044991 0 -0.4774331757706205 -0.1141654229335137 0 -0.47012807517321642 -0.1085552473625948 0 -0.4774331757706205 -0.1141654229335137 0 -0.47942692865913189 -0.1062408857903567 0 -0.47012807517321642 -0.1085552473625948 0 -0.4774331757706205 -0.1141654229335137 0 -0.47942692865913189 -0.1062408857903567 0 -0.48595840453748401 -0.1128919238397191 0 -0.47942692865913189 -0.1062408857903567 0 -0.48714775351997258 -0.1002452221026722 0 -0.48595840453748401 -0.1128919238397191 0 -0.47942692865913189 -0.1062408857903567 0 -0.47012807517321642 -0.1085552473625948 0 -0.47389622528527708 -0.094847086924497059 0 -0.47942692865913189 -0.1062408857903567 0 -0.47389622528527708 -0.094847086924497059 0 -0.48714775351997258 -0.1002452221026722 0 -0.48714775351997258 -0.1002452221026722 0 -0.5 -0.1140731112792966 0 -0.5 -0.085849574428895958 0 -0.48714775351997258 -0.1002452221026722 0 -0.48595840453748401 -0.1128919238397191 0 -0.5 -0.1140731112792966 0 -0.48663201064827588 -0.130305694044448 0 -0.48595840453748401 -0.1128919238397191 0 -0.5 -0.1140731112792966 0 -0.46752173252215262 -0.08020148782768062 0 -0.47753487751297718 -0.074715586858425651 0 -0.47209084771366672 -0.062247825642810013 0 -0.47753487751297718 -0.074715586858425651 0 -0.4892618061328845 -0.071066431010821718 0 -0.47209084771366672 -0.062247825642810013 0 -0.47753487751297718 -0.074715586858425651 0 -0.48243820336230447 -0.084568606188413137 0 -0.4892618061328845 -0.071066431010821718 0 -0.47389622528527708 -0.094847086924497059 0 -0.48714775351997258 -0.1002452221026722 0 -0.48243820336230447 -0.084568606188413137 0 -0.46752173252215262 -0.08020148782768062 0 -0.47753487751297718 -0.074715586858425651 0 -0.48243820336230447 -0.084568606188413137 0 -0.46752173252215262 -0.08020148782768062 0 -0.47389622528527708 -0.094847086924497059 0 -0.48243820336230447 -0.084568606188413137 0 -0.48243820336230447 -0.084568606188413137 0 -0.5 -0.085849574428895958 0 -0.4892618061328845 -0.071066431010821718 0 -0.48714775351997258 -0.1002452221026722 0 -0.48243820336230447 -0.084568606188413137 0 -0.5 -0.085849574428895958 0 -0.5 -0.085849574428895958 0 -0.4892618061328845 -0.071066431010821718 0 -0.5 -0.057626037578495493 0 -0.4892618061328845 -0.071066431010821718 0 -0.4869686277638256 -0.049062974119006807 0 -0.5 -0.057626037578495493 0 -0.4892618061328845 -0.071066431010821718 0 -0.4869686277638256 -0.049062974119006807 0 -0.4869686277638256 -0.049062974119006807 0 -0.48467544939476498 -0.027059517227192031 0 -0.50000000000000022 -0.02940250072809494 0 -0.4869686277638256 -0.049062974119006807 0 -0.48467544939476498 -0.027059517227192031 0 -0.4869686277638256 -0.049062974119006807 0 -0.5 -0.057626037578495493 0 -0.50000000000000022 -0.02940250072809494 0 -0.4869686277638256 -0.049062974119006807 0 -0.4724114700508838 -0.040499867343750287 0 -0.48467544939476498 -0.027059517227192031 0 -0.4869686277638256 -0.049062974119006807 0 -0.4724114700508838 -0.040499867343750287 0 -0.47209084771366672 -0.062247825642810013 0 -0.4892618061328845 -0.071066431010821718 0 -0.4869686277638256 -0.049062974119006807 0 -0.47209084771366672 -0.062247825642810013 0 -0.45008540584147638 -0.070277816404335947 0 -0.47209084771366672 -0.062247825642810013 0 -0.46008102888691937 -0.050709100420874703 0 -0.4724114700508838 -0.040499867343750287 0 -0.47209084771366672 -0.062247825642810013 0 -0.46008102888691937 -0.050709100420874703 0 -0.4724114700508838 -0.040499867343750287 0 -0.45709403158447548 -0.033122229956714211 0 -0.46752683226560188 -0.024437650652978291 0 -0.4724114700508838 -0.040499867343750287 0 -0.46008102888691937 -0.050709100420874703 0 -0.45709403158447548 -0.033122229956714211 0 -0.43568797333695242 -0.055319719129864393 0 -0.46008102888691937 -0.050709100420874703 0 -0.43767024267034238 -0.031595448922435168 0 -0.46008102888691937 -0.050709100420874703 0 -0.45709403158447548 -0.033122229956714211 0 -0.43767024267034238 -0.031595448922435168 0 -0.46008102888691937 -0.050709100420874703 0 -0.43767024267034238 -0.031595448922435168 0 -0.45709403158447548 -0.033122229956714211 0 -0.43767024267034238 -0.031595448922435168 0 -0.43568797333695242 -0.055319719129864393 0 -0.45008540584147638 -0.070277816404335947 0 -0.46008102888691937 -0.050709100420874703 0 -0.43502249245834301 -0.015335855738249049 0 -0.44408740723685192 -0.0055868062651687356 0 -0.45037821513643961 -0.021815784078758029 0 -0.44408740723685192 -0.0055868062651687356 0 -0.45037821513643961 -0.021815784078758029 0 -0.4606883888229279 -0.0093275194346929078 0 -0.45709403158447548 -0.033122229956714211 0 -0.43767024267034238 -0.031595448922435168 0 -0.45037821513643961 -0.021815784078758029 0 -0.43502249245834301 -0.015335855738249049 0 -0.43767024267034238 -0.031595448922435168 0 -0.45037821513643961 -0.021815784078758029 0 -0.45037821513643961 -0.021815784078758029 0 -0.46752683226560188 -0.024437650652978291 0 -0.45709403158447548 -0.033122229956714211 0 -0.45037821513643961 -0.021815784078758029 0 -0.46752683226560188 -0.024437650652978291 0 -0.45037821513643961 -0.021815784078758029 0 -0.46752683226560188 -0.024437650652978291 0 -0.4606883888229279 -0.0093275194346929078 0 -0.46752683226560188 -0.024437650652978291 0 -0.4606883888229279 -0.0093275194346929078 0 -0.47193651221007499 -0.013336721754819271 0 -0.4606883888229279 -0.0093275194346929078 0 -0.47113834203338001 -0.0014678100600466659 0 -0.45775174859305501 0.0093154775801345714 0 -0.44408740723685192 -0.0055868062651687356 0 -0.4606883888229279 -0.0093275194346929078 0 -0.45775174859305501 0.0093154775801345714 0 -0.4606883888229279 -0.0093275194346929078 0 -0.47113834203338001 -0.0014678100600466659 0 -0.47193651221007499 -0.013336721754819271 0 -0.47113834203338001 -0.0014678100600466659 0 -0.47193651221007499 -0.013336721754819271 0 -0.48270703821108779 -0.0081722596070105194 0 -0.4724114700508838 -0.040499867343750287 0 -0.46752683226560188 -0.024437650652978291 0 -0.48467544939476498 -0.027059517227192031 0 -0.46752683226560188 -0.024437650652978291 0 -0.47193651221007499 -0.013336721754819271 0 -0.48467544939476498 -0.027059517227192031 0 -0.48270703821108779 -0.0081722596070105194 0 -0.48467544939476498 -0.027059517227192031 0 -0.46752683226560188 -0.024437650652978291 0 -0.48467544939476498 -0.027059517227192031 0 -0.47193651221007499 -0.013336721754819271 0 -0.48270703821108779 -0.0081722596070105194 0 -0.48467544939476498 -0.027059517227192031 0 -0.49162398566772508 -0.01791905497808876 0 -0.50000000000000022 -0.02940250072809494 0 -0.5 -0.0087574019512205448 0 -0.48270703821108779 -0.0081722596070105194 0 -0.48467544939476498 -0.027059517227192031 0 -0.49162398566772508 -0.01791905497808876 0 -0.48467544939476498 -0.027059517227192031 0 -0.49162398566772508 -0.01791905497808876 0 -0.50000000000000022 -0.02940250072809494 0 -0.48467544939476498 -0.027059517227192031 0 -0.50000000000000022 -0.02940250072809494 0 -0.48270703821108779 -0.0081722596070105194 0 -0.49162398566772508 -0.01791905497808876 0 -0.5 -0.0087574019512205448 0 -0.48270703821108779 -0.0081722596070105194 0 -0.5 -0.0087574019512205448 0 -0.49086141630962421 0.001418258320148399 0 -0.5 -0.0087574019512205448 0 -0.50000000000000111 0.01188769682565389 0 -0.49086141630962421 0.001418258320148399 0 -0.48270703821108779 -0.0081722596070105194 0 -0.49086141630962421 0.001418258320148399 0 -0.48073862702740833 0.010714998013170701 0 -0.50000000000000111 0.01188769682565389 0 -0.48959933739528322 0.02206471507927488 0 -0.48073862702740833 0.010714998013170701 0 -0.50000000000000111 0.01188769682565389 0 -0.48073862702740833 0.010714998013170701 0 -0.50000000000000111 0.01188769682565389 0 -0.49086141630962421 0.001418258320148399 0 -0.48073862702740833 0.010714998013170701 0 -0.50000000000000111 0.01188769682565389 0 -0.49282503625490781 0.029091518866917521 0 -0.5 0.037853223502165523 0 -0.50000000000000111 0.01188769682565389 0 -0.49282503625490781 0.029091518866917521 0 -0.48959933739528322 0.02206471507927488 0 -0.48959933739528322 0.02206471507927488 0 -0.48073862702740833 0.010714998013170701 0 -0.4847333666081704 0.033129468610080121 0 -0.49282503625490781 0.029091518866917521 0 -0.48959933739528322 0.02206471507927488 0 -0.4847333666081704 0.033129468610080121 0 -0.48073862702740833 0.010714998013170701 0 -0.4847333666081704 0.033129468610080121 0 -0.47776713523495168 0.039226993609298169 0 -0.48073862702740833 0.010714998013170701 0 -0.47776713523495168 0.039226993609298169 0 -0.48073862702740833 0.010714998013170701 0 -0.47776713523495168 0.039226993609298169 0 -0.4658865566808717 0.02334029647058904 0 -0.48270703821108779 -0.0081722596070105194 0 -0.48073862702740833 0.010714998013170701 0 -0.48073862702740833 0.010714998013170701 0 -0.45775174859305501 0.0093154775801345714 0 -0.47113834203338001 -0.0014678100600466659 0 -0.48270703821108779 -0.0081722596070105194 0 -0.48073862702740833 0.010714998013170701 0 -0.47113834203338001 -0.0014678100600466659 0 -0.48073862702740833 0.010714998013170701 0 -0.45775174859305501 0.0093154775801345714 0 -0.48897170074955032 0.062017115474175932 0 -0.49306174439072209 0.050081571373415831 0 -0.47530996905660972 0.062803942882260849 0 -0.49306174439072209 0.050081571373415831 0 -0.5 0.037853223502165523 0 -0.5 0.063818750178677219 0 -0.48897170074955032 0.062017115474175932 0 -0.49306174439072209 0.050081571373415831 0 -0.5 0.063818750178677219 0 -0.49306174439072209 0.050081571373415831 0 -0.48979247727108538 0.040522490317413187 0 -0.48319312071522269 0.045656513105436447 0 -0.48979247727108538 0.040522490317413187 0 -0.48418971064183769 0.040313830963265289 0 -0.48319312071522269 0.045656513105436447 0 -0.49306174439072209 0.050081571373415831 0 -0.48979247727108538 0.040522490317413187 0 -0.5 0.037853223502165523 0 -0.49282503625490781 0.029091518866917521 0 -0.48979247727108538 0.040522490317413187 0 -0.5 0.037853223502165523 0 -0.49282503625490781 0.029091518866917521 0 -0.48979247727108538 0.040522490317413187 0 -0.4847333666081704 0.033129468610080121 0 -0.48979247727108538 0.040522490317413187 0 -0.4847333666081704 0.033129468610080121 0 -0.48418971064183769 0.040313830963265289 0 -0.4847333666081704 0.033129468610080121 0 -0.47776713523495168 0.039226993609298169 0 -0.48418971064183769 0.040313830963265289 0 -0.47776713523495168 0.039226993609298169 0 -0.48418971064183769 0.040313830963265289 0 -0.48319312071522269 0.045656513105436447 0 -0.47776713523495168 0.039226993609298169 0 -0.47530996905660972 0.062803942882260849 0 -0.47776713523495168 0.039226993609298169 0 -0.45459915412266538 0.056320745915174282 0 -0.47530996905660972 0.062803942882260849 0 -0.47776713523495168 0.039226993609298169 0 -0.48319312071522269 0.045656513105436447 0 -0.47530996905660972 0.062803942882260849 0 -0.49306174439072209 0.050081571373415831 0 -0.47530996905660972 0.062803942882260849 0 -0.49306174439072209 0.050081571373415831 0 -0.48319312071522269 0.045656513105436447 0 -0.47530996905660972 0.062803942882260849 0 -0.47776713523495168 0.039226993609298169 0 -0.45477399291796561 0.036161270537397323 0 -0.4658865566808717 0.02334029647058904 0 -0.47776713523495168 0.039226993609298169 0 -0.45477399291796561 0.036161270537397323 0 -0.47776713523495168 0.039226993609298169 0 -0.45459915412266538 0.056320745915174282 0 -0.45477399291796561 0.036161270537397323 0 -0.45459915412266538 0.056320745915174282 0 -0.45477399291796561 0.036161270537397323 0 -0.44085995448512721 0.04655452898086776 0 -0.45477399291796561 0.036161270537397323 0 -0.43178085060097943 0.033095547465496297 0 -0.45477399291796561 0.036161270537397323 0 -0.43646063375020538 0.029759918659559369 0 -0.43178085060097943 0.033095547465496297 0 -0.45477399291796561 0.036161270537397323 0 -0.44085995448512721 0.04655452898086776 0 -0.43178085060097943 0.033095547465496297 0 -0.45459915412266538 0.056320745915174282 0 -0.44085995448512721 0.04655452898086776 0 -0.43583901453709262 0.060023613907340553 0 -0.48073862702740833 0.010714998013170701 0 -0.45775174859305501 0.0093154775801345714 0 -0.4658865566808717 0.02334029647058904 0 -0.45775174859305501 0.0093154775801345714 0 -0.4658865566808717 0.02334029647058904 0 -0.44632008853024491 0.01888281619381171 0 -0.45477399291796561 0.036161270537397323 0 -0.4658865566808717 0.02334029647058904 0 -0.44632008853024491 0.01888281619381171 0 -0.45477399291796561 0.036161270537397323 0 -0.44632008853024491 0.01888281619381171 0 -0.43646063375020538 0.029759918659559369 0 -0.44632008853024491 0.01888281619381171 0 -0.43661864010269968 0.020398583845613209 0 -0.43646063375020538 0.029759918659559369 0 -0.44632008853024491 0.01888281619381171 0 -0.43476487015870041 0.0079159571471176284 0 -0.43661864010269968 0.020398583845613209 0 -0.45775174859305501 0.0093154775801345714 0 -0.43476487015870041 0.0079159571471176284 0 -0.45775174859305501 0.0093154775801345714 0 -0.44632008853024491 0.01888281619381171 0 -0.43476487015870041 0.0079159571471176284 0 -0.44408740723685192 -0.0055868062651687356 0 -0.45775174859305501 0.0093154775801345714 0 -0.43476487015870041 0.0079159571471176284 0 -0.43476487015870041 0.0079159571471176284 0 -0.41177799172434582 0.0065164367141006809 0 -0.42516207936077222 -0.0025512451542764 0 -0.43476487015870041 0.0079159571471176284 0 -0.41177799172434582 0.0065164367141006809 0 -0.43476487015870041 0.0079159571471176284 0 -0.41177799172434582 0.0065164367141006809 0 -0.41598734244232211 0.018437210633375469 0 -0.40848844748596558 0.01438157937910234 0 -0.41177799172434582 0.0065164367141006809 0 -0.41598734244232211 0.018437210633375469 0 -0.40848844748596558 0.01438157937910234 0 -0.41177799172434582 0.0065164367141006809 0 -0.39915613435597053 0.01312431312974773 0 -0.43178085060097943 0.033095547465496297 0 -0.40201493096225122 0.02912679602931801 0 -0.41598734244232211 0.018437210633375469 0 -0.43178085060097943 0.033095547465496297 0 -0.40201493096225122 0.02912679602931801 0 -0.41598734244232211 0.018437210633375469 0 -0.39764781527891591 0.027619027311158589 0 -0.40848844748596558 0.01438157937910234 0 -0.41598734244232211 0.018437210633375469 0 -0.40256411452111068 0.018617145830950619 0 -0.43476487015870041 0.0079159571471176284 0 -0.41598734244232211 0.018437210633375469 0 -0.42739171726387881 0.021987121044635839 0 -0.41598734244232211 0.018437210633375469 0 -0.42739171726387881 0.021987121044635839 0 -0.43178085060097943 0.033095547465496297 0 -0.43476487015870041 0.0079159571471176284 0 -0.42739171726387881 0.021987121044635839 0 -0.43661864010269968 0.020398583845613209 0 -0.42739171726387881 0.021987121044635839 0 -0.43661864010269968 0.020398583845613209 0 -0.43306296042944081 0.026310292753826171 0 -0.43661864010269968 0.020398583845613209 0 -0.43306296042944081 0.026310292753826171 0 -0.43646063375020538 0.029759918659559369 0 -0.42739171726387881 0.021987121044635839 0 -0.43306296042944081 0.026310292753826171 0 -0.43178085060097943 0.033095547465496297 0 -0.43306296042944081 0.026310292753826171 0 -0.43646063375020538 0.029759918659559369 0 -0.43178085060097943 0.033095547465496297 0 -0.43646063375020538 0.029759918659559369 0 -0.43178085060097943 0.033095547465496297 0 -0.44085995448512721 0.04655452898086776 0 -0.43178085060097943 0.033095547465496297 0 -0.42832530027200849 0.049517465016139822 0 -0.43178085060097943 0.033095547465496297 0 -0.42832530027200849 0.049517465016139822 0 -0.41254134132075498 0.046808973776246238 0 -0.43178085060097943 0.033095547465496297 0 -0.41254134132075498 0.046808973776246238 0 -0.43583901453709262 0.060023613907340553 0 -0.42832530027200849 0.049517465016139822 0 -0.41894059190472749 0.062043516998394638 0 -0.44085995448512721 0.04655452898086776 0 -0.43583901453709262 0.060023613907340553 0 -0.42832530027200849 0.049517465016139822 0 -0.41894059190472749 0.062043516998394638 0 -0.41254134132075498 0.046808973776246238 0 -0.39330183204053082 0.060522400086996428 0 -0.42832530027200849 0.049517465016139822 0 -0.41894059190472749 0.062043516998394638 0 -0.41254134132075498 0.046808973776246238 0 -0.43178085060097943 0.033095547465496297 0 -0.41254134132075498 0.046808973776246238 0 -0.40774119264310771 0.037995105497008241 0 -0.43178085060097943 0.033095547465496297 0 -0.40774119264310771 0.037995105497008241 0 -0.40201493096225122 0.02912679602931801 0 -0.39719757027969599 0.036001483317023013 0 -0.37930828811550971 0.036800843988941713 0 -0.39764781527891591 0.027619027311158589 0 -0.41254134132075498 0.046808973776246238 0 -0.40774119264310771 0.037995105497008241 0 -0.39517127005185659 0.044942726896957642 0 -0.40774119264310771 0.037995105497008241 0 -0.39719757027969599 0.036001483317023013 0 -0.40201493096225122 0.02912679602931801 0 -0.40774119264310771 0.037995105497008241 0 -0.39517127005185659 0.044942726896957642 0 -0.39719757027969599 0.036001483317023013 0 -0.41254134132075498 0.046808973776246238 0 -0.39517127005185659 0.044942726896957642 0 -0.39330183204053082 0.060522400086996428 0 -0.41254134132075498 0.046808973776246238 0 -0.39330183204053082 0.060522400086996428 0 -0.38137903600740342 0.051567524750377798 0 -0.37930828811550971 0.036800843988941713 0 -0.36652174416800642 0.052833912029578038 0 -0.39330183204053082 0.060522400086996428 0 -0.38137903600740342 0.051567524750377798 0 -0.3740623227603066 0.074235826397746854 0 -0.39517127005185659 0.044942726896957642 0 -0.39330183204053082 0.060522400086996428 0 -0.38137903600740342 0.051567524750377798 0 -0.39517127005185659 0.044942726896957642 0 -0.39719757027969599 0.036001483317023013 0 -0.37930828811550971 0.036800843988941713 0 -0.37930828811550971 0.036800843988941713 0 -0.39764781527891591 0.027619027311158589 0 -0.39517127005185659 0.044942726896957642 0 -0.38137903600740342 0.051567524750377798 0 -0.37930828811550971 0.036800843988941713 0 -0.37930828811550971 0.036800843988941713 0 -0.39764781527891591 0.027619027311158589 0 -0.39154083304237941 0.01952359870136898 0 -0.37930828811550971 0.036800843988941713 0 -0.38211356559448978 0.01578758145307731 0 -0.39154083304237941 0.01952359870136898 0 -0.38886968241841602 -0.004750395748770295 0 -0.37623217782714657 0.01341576458140761 0 -0.40063245795310731 -6.7620054268399676e-06 0 -0.38886968241841602 -0.004750395748770295 0 -0.38211356559448978 0.01578758145307731 0 -0.38886968241841602 -0.004750395748770295 0 -0.38211356559448978 0.01578758145307731 0 -0.37623217782714657 0.01341576458140761 0 -0.38886968241841602 -0.004750395748770295 0 -0.37623217782714657 0.01341576458140761 0 -0.37773076799400501 0.00097948154207771424 0 -0.40063245795310731 -6.7620054268399676e-06 0 -0.38211356559448978 0.01578758145307731 0 -0.39915613435597053 0.01312431312974773 0 -0.40063245795310731 -6.7620054268399676e-06 0 -0.38211356559448978 0.01578758145307731 0 -0.40063245795310731 -6.7620054268399676e-06 0 -0.41177799172434582 0.0065164367141006809 0 -0.39915613435597053 0.01312431312974773 0 -0.40848844748596558 0.01438157937910234 0 -0.39915613435597053 0.01312431312974773 0 -0.40256411452111068 0.018617145830950619 0 -0.38211356559448978 0.01578758145307731 0 -0.39915613435597053 0.01312431312974773 0 -0.39154083304237941 0.01952359870136898 0 -0.41598734244232211 0.018437210633375469 0 -0.40256411452111068 0.018617145830950619 0 -0.39764781527891591 0.027619027311158589 0 -0.41598734244232211 0.018437210633375469 0 -0.40201493096225122 0.02912679602931801 0 -0.39764781527891591 0.027619027311158589 0 -0.39719757027969599 0.036001483317023013 0 -0.40201493096225122 0.02912679602931801 0 -0.39764781527891591 0.027619027311158589 0 -0.39915613435597053 0.01312431312974773 0 -0.40256411452111068 0.018617145830950619 0 -0.39154083304237941 0.01952359870136898 0 -0.40256411452111068 0.018617145830950619 0 -0.39764781527891591 0.027619027311158589 0 -0.39154083304237941 0.01952359870136898 0 -0.39963282329597072 0.095546293245645939 0 -0.40399789894207372 0.1149933404605885 0 -0.38789922058655202 0.11350815792689339 0 -0.38789922058655202 0.11350815792689339 0 -0.39481766949967462 0.13314432369146659 0 -0.40399789894207372 0.1149933404605885 0 -0.38789922058655202 0.11350815792689339 0 -0.39481766949967462 0.13314432369146659 0 -0.38789922058655202 0.11350815792689339 0 -0.37298409468895738 0.13030382192022419 0 -0.36974127755220881 0.1055406706641767 0 -0.38789922058655202 0.11350815792689339 0 -0.38098077167342942 0.093871992162320089 0 -0.36974127755220881 0.1055406706641767 0 -0.38789922058655202 0.11350815792689339 0 -0.38098077167342942 0.093871992162320089 0 -0.39963282329597072 0.095546293245645939 0 -0.38789922058655202 0.11350815792689339 0 -0.38098077167342942 0.093871992162320089 0 -0.38098077167342942 0.093871992162320089 0 -0.3740623227603066 0.074235826397746854 0 -0.38098077167342942 0.093871992162320089 0 -0.39128247059992138 0.080182550765840327 0 -0.3740623227603066 0.074235826397746854 0 -0.39330183204053082 0.060522400086996428 0 -0.39128247059992138 0.080182550765840327 0 -0.3740623227603066 0.074235826397746854 0 -0.39330183204053082 0.060522400086996428 0 -0.3740623227603066 0.074235826397746854 0 -0.39330183204053082 0.060522400086996428 0 -0.39128247059992138 0.080182550765840327 0 -0.41172092813522038 0.077532474002514354 0 -0.39963282329597072 0.095546293245645939 0 -0.38098077167342942 0.093871992162320089 0 -0.39128247059992138 0.080182550765840327 0 -0.39963282329597072 0.095546293245645939 0 -0.39128247059992138 0.080182550765840327 0 -0.41172092813522038 0.077532474002514354 0 -0.39963282329597072 0.095546293245645939 0 -0.41172092813522038 0.077532474002514354 0 -0.41799558874828852 0.1038801071169738 0 -0.41172092813522038 0.077532474002514354 0 -0.42732174178134869 0.0785742577987667 0 -0.41799558874828852 0.1038801071169738 0 -0.41894059190472749 0.062043516998394638 0 -0.41172092813522038 0.077532474002514354 0 -0.42732174178134869 0.0785742577987667 0 -0.41894059190472749 0.062043516998394638 0 -0.39330183204053082 0.060522400086996428 0 -0.41172092813522038 0.077532474002514354 0 -0.43583901453709262 0.060023613907340553 0 -0.41894059190472749 0.062043516998394638 0 -0.42732174178134869 0.0785742577987667 0 -0.43583901453709262 0.060023613907340553 0 -0.42732174178134869 0.0785742577987667 0 -0.44089875258442252 0.074093369795190739 0 -0.43710038218439562 0.09018805237206963 0 -0.42732174178134869 0.0785742577987667 0 -0.41799558874828852 0.1038801071169738 0 -0.43710038218439562 0.09018805237206963 0 -0.42732174178134869 0.0785742577987667 0 -0.44089875258442252 0.074093369795190739 0 -0.43710038218439562 0.09018805237206963 0 -0.41799558874828852 0.1038801071169738 0 -0.43710038218439562 0.09018805237206963 0 -0.43590883777052869 0.10652426139900301 0 -0.41799558874828852 0.1038801071169738 0 -0.39963282329597072 0.095546293245645939 0 -0.40399789894207372 0.1149933404605885 0 -0.41799558874828852 0.1038801071169738 0 -0.41799558874828852 0.1038801071169738 0 -0.43247061122038849 0.1231443690356792 0 -0.41500857334524982 0.12887153964295819 0 -0.40399789894207372 0.1149933404605885 0 -0.41799558874828852 0.1038801071169738 0 -0.41500857334524982 0.12887153964295819 0 -0.43590883777052869 0.10652426139900301 0 -0.41799558874828852 0.1038801071169738 0 -0.43247061122038849 0.1231443690356792 0 -0.43590883777052869 0.10652426139900301 0 -0.43247061122038849 0.1231443690356792 0 -0.44973356737418529 0.1172589094718562 0 -0.43590883777052869 0.10652426139900301 0 -0.44973356737418529 0.1172589094718562 0 -0.44788606015651738 0.10167053149219819 0 -0.43710038218439562 0.09018805237206963 0 -0.43590883777052869 0.10652426139900301 0 -0.44788606015651738 0.10167053149219819 0 -0.43710038218439562 0.09018805237206963 0 -0.44788606015651738 0.10167053149219819 0 -0.45779118853880618 0.090248952702832702 0 -0.44973356737418529 0.1172589094718562 0 -0.44788606015651738 0.10167053149219819 0 -0.46022812506511612 0.1091786830597954 0 -0.44788606015651738 0.10167053149219819 0 -0.47182845420782049 0.096209700989495578 0 -0.44788606015651738 0.10167053149219819 0 -0.45779118853880618 0.090248952702832702 0 -0.47182845420782049 0.096209700989495578 0 -0.44788606015651738 0.10167053149219819 0 -0.46022812506511612 0.1091786830597954 0 -0.47182845420782049 0.096209700989495578 0 -0.46022812506511612 0.1091786830597954 0 -0.46891405583612727 0.12417387499461539 0 -0.47182845420782049 0.096209700989495578 0 -0.44973356737418529 0.1172589094718562 0 -0.46022812506511612 0.1091786830597954 0 -0.46891405583612727 0.12417387499461539 0 -0.45459915412266538 0.056320745915174282 0 -0.44089875258442252 0.074093369795190739 0 -0.45620517562050278 0.076495997627165371 0 -0.45459915412266538 0.056320745915174282 0 -0.43583901453709262 0.060023613907340553 0 -0.44089875258442252 0.074093369795190739 0 -0.43710038218439562 0.09018805237206963 0 -0.45779118853880618 0.090248952702832702 0 -0.45620517562050278 0.076495997627165371 0 -0.43710038218439562 0.09018805237206963 0 -0.44089875258442252 0.074093369795190739 0 -0.45620517562050278 0.076495997627165371 0 -0.43710038218439562 0.09018805237206963 0 -0.45620517562050278 0.076495997627165371 0 -0.45779118853880618 0.090248952702832702 0 -0.45620517562050278 0.076495997627165371 0 -0.47356921163221533 0.079506821935878186 0 -0.45779118853880618 0.090248952702832702 0 -0.47356921163221533 0.079506821935878186 0 -0.47182845420782049 0.096209700989495578 0 -0.45620517562050278 0.076495997627165371 0 -0.47530996905660972 0.062803942882260849 0 -0.47356921163221533 0.079506821935878186 0 -0.45620517562050278 0.076495997627165371 0 -0.47530996905660972 0.062803942882260849 0 -0.45459915412266538 0.056320745915174282 0 -0.45620517562050278 0.076495997627165371 0 -0.47530996905660972 0.062803942882260849 0 -0.47530996905660972 0.062803942882260849 0 -0.47356921163221533 0.079506821935878186 0 -0.48751508955086947 0.071364197462349871 0 -0.47530996905660972 0.062803942882260849 0 -0.47356921163221533 0.079506821935878186 0 -0.48897170074955032 0.062017115474175932 0 -0.47530996905660972 0.062803942882260849 0 -0.48751508955086947 0.071364197462349871 0 -0.47356921163221533 0.079506821935878186 0 -0.47182845420782049 0.096209700989495578 0 -0.47356921163221533 0.079506821935878186 0 -0.50000000000000022 0.089784276855188916 0 -0.47182845420782049 0.096209700989495578 0 -0.50000000000000022 0.089784276855188916 0 -0.47182845420782049 0.096209700989495578 0 -0.47356921163221533 0.079506821935878186 0 -0.50000000000000022 0.089784276855188916 0 -0.48751508955086947 0.071364197462349871 0 -0.50000000000000022 0.089784276855188916 0 -0.48751508955086947 0.071364197462349871 0 -0.5 0.063818750178677219 0 -0.48897170074955032 0.062017115474175932 0 -0.48751508955086947 0.071364197462349871 0 -0.5 0.063818750178677219 0 -0.46891405583612727 0.12417387499461539 0 -0.47182845420782049 0.096209700989495578 0 -0.46891405583612727 0.12417387499461539 0 -0.47182845420782049 0.096209700989495578 0 -0.5 0.1164870569077517 0 -0.50000000000000022 0.089784276855188916 0 -0.47182845420782049 0.096209700989495578 0 -0.5 0.1164870569077517 0 -0.46891405583612727 0.12417387499461539 0 -0.5 0.1164870569077517 0 -0.5 0.14318983696031429 0 -0.46891405583612727 0.12417387499461539 0 -0.48203769806554442 0.15078232365803049 0 -0.5 0.14318983696031429 0 -0.48203769806554442 0.15078232365803049 0 -0.47546485245457532 0.16316209670546489 0 -0.4659996574644335 0.15213804899973529 0 -0.46891405583612727 0.12417387499461539 0 -0.48203769806554442 0.15078232365803049 0 -0.4659996574644335 0.15213804899973529 0 -0.48203769806554442 0.15078232365803049 0 -0.5 0.14318983696031429 0 -0.49053569826664167 0.16796300428227631 0 -0.5 0.14318983696031429 0 -0.49053569826664167 0.16796300428227631 0 -0.5 0.169892617012877 0 -0.5 0.169892617012877 0 -0.48241136775036858 0.1860612654185177 0 -0.5 0.1965953970654398 0 -0.49053569826664167 0.16796300428227631 0 -0.5 0.169892617012877 0 -0.48241136775036858 0.1860612654185177 0 -0.49053569826664167 0.16796300428227631 0 -0.46308525909274328 0.18010222300485529 0 -0.49053569826664167 0.16796300428227631 0 -0.48241136775036858 0.1860612654185177 0 -0.46308525909274328 0.18010222300485529 0 -0.49053569826664167 0.16796300428227631 0 -0.47546485245457532 0.16316209670546489 0 -0.46308525909274328 0.18010222300485529 0 -0.48203769806554442 0.15078232365803049 0 -0.49053569826664167 0.16796300428227631 0 -0.47546485245457532 0.16316209670546489 0 -0.47546485245457532 0.16316209670546489 0 -0.46308525909274328 0.18010222300485529 0 -0.4659996574644335 0.15213804899973529 0 -0.46308525909274328 0.18010222300485529 0 -0.4659996574644335 0.15213804899973529 0 -0.46308525909274328 0.18010222300485529 0 -0.44833271561805671 0.17218285165413269 0 -0.4659996574644335 0.15213804899973529 0 -0.46308525909274328 0.18010222300485529 0 -0.44237208274216472 0.18926206837441459 0 -0.44833271561805671 0.17218285165413269 0 -0.44237208274216472 0.18926206837441459 0 -0.43070893373036673 0.18003775093138261 0 -0.46308525909274328 0.18010222300485529 0 -0.44833271561805671 0.17218285165413269 0 -0.44237208274216472 0.18926206837441459 0 -0.44833271561805671 0.17218285165413269 0 -0.43949764506057859 0.15937416696027651 0 -0.43070893373036673 0.18003775093138261 0 -0.44833271561805671 0.17218285165413269 0 -0.43949764506057859 0.15937416696027651 0 -0.4659996574644335 0.15213804899973529 0 -0.43949764506057859 0.15937416696027651 0 -0.44899129204042221 0.13810476636422611 0 -0.42782787850382858 0.14426144910109881 0 -0.43949764506057859 0.15937416696027651 0 -0.44899129204042221 0.13810476636422611 0 -0.4659996574644335 0.15213804899973529 0 -0.43247061122038849 0.1231443690356792 0 -0.44973356737418529 0.1172589094718562 0 -0.44899129204042221 0.13810476636422611 0 -0.46891405583612727 0.12417387499461539 0 -0.4659996574644335 0.15213804899973529 0 -0.46891405583612727 0.12417387499461539 0 -0.44899129204042221 0.13810476636422611 0 -0.4659996574644335 0.15213804899973529 0 -0.44973356737418529 0.1172589094718562 0 -0.46891405583612727 0.12417387499461539 0 -0.44899129204042221 0.13810476636422611 0 -0.48039266583566731 0.24371349421027441 0 -0.46548770501430708 0.2403103073274627 0 -0.4705066238837512 0.25195176650195572 0 -0.48039266583566731 0.24371349421027441 0 -0.4759169303317563 0.2332960202975696 0 -0.46548770501430708 0.2403103073274627 0 -0.48039266583566731 0.24371349421027441 0 -0.48944229458974597 0.23272126454432179 0 -0.4759169303317563 0.2332960202975696 0 -0.48039266583566731 0.24371349421027441 0 -0.5 0.24439004502373751 0 -0.48944229458974597 0.23272126454432179 0 -0.48039266583566731 0.24371349421027441 0 -0.5 0.24439004502373751 0 -0.48301907635480129 0.25968205189014743 0 -0.50000000000000722 0.22329817711800251 0 -0.47934271935906009 0.22280873205592799 0 -0.50000000000000722 0.22329817711800251 0 -0.47934271935906009 0.22280873205592799 0 -0.48813884079182901 0.21243560559905081 0 -0.5 0.24439004502373751 0 -0.50000000000000722 0.22329817711800251 0 -0.48944229458974597 0.23272126454432179 0 -0.50000000000000722 0.22329817711800251 0 -0.48944229458974597 0.23272126454432179 0 -0.47934271935906009 0.22280873205592799 0 -0.47934271935906009 0.22280873205592799 0 -0.47031915985011991 0.21914248548311269 0 -0.45868543871811263 0.22231928699387621 0 -0.47934271935906009 0.22280873205592799 0 -0.45868543871811263 0.22231928699387621 0 -0.48944229458974597 0.23272126454432179 0 -0.47934271935906009 0.22280873205592799 0 -0.4759169303317563 0.2332960202975696 0 -0.47934271935906009 0.22280873205592799 0 -0.4759169303317563 0.2332960202975696 0 -0.46596341730408281 0.22824941445031641 0 -0.4759169303317563 0.2332960202975696 0 -0.46596341730408281 0.22824941445031641 0 -0.46548770501430708 0.2403103073274627 0 -0.46917300804700041 0.2097656987106428 0 -0.47974988357995502 0.20263793392195431 0 -0.46109736556287523 0.19917641722370419 0 -0.47934271935906009 0.22280873205592799 0 -0.47031915985011991 0.21914248548311269 0 -0.47812762263805653 0.21286163854308421 0 -0.47031915985011991 0.21914248548311269 0 -0.46917300804700041 0.2097656987106428 0 -0.47812762263805653 0.21286163854308421 0 -0.46917300804700041 0.2097656987106428 0 -0.47812762263805653 0.21286163854308421 0 -0.47974988357995502 0.20263793392195431 0 -0.47812762263805653 0.21286163854308421 0 -0.48813884079182901 0.21243560559905081 0 -0.47974988357995502 0.20263793392195431 0 -0.47934271935906009 0.22280873205592799 0 -0.47812762263805653 0.21286163854308421 0 -0.48813884079182901 0.21243560559905081 0 -0.48813884079182901 0.21243560559905081 0 -0.5 0.1965953970654398 0 -0.47974988357995502 0.20263793392195431 0 -0.50000000000000722 0.22329817711800251 0 -0.48813884079182901 0.21243560559905081 0 -0.5 0.1965953970654398 0 -0.48241136775036858 0.1860612654185177 0 -0.5 0.1965953970654398 0 -0.47974988357995502 0.20263793392195431 0 -0.48241136775036858 0.1860612654185177 0 -0.47974988357995502 0.20263793392195431 0 -0.46109736556287523 0.19917641722370419 0 -0.48241136775036858 0.1860612654185177 0 -0.46308525909274328 0.18010222300485529 0 -0.46109736556287523 0.19917641722370419 0 -0.46308525909274328 0.18010222300485529 0 -0.46109736556287523 0.19917641722370419 0 -0.44237208274216472 0.18926206837441459 0 -0.46308525909274328 0.18010222300485529 0 -0.46109736556287523 0.19917641722370419 0 -0.46109736556287523 0.19917641722370419 0 -0.44237208274216472 0.18926206837441459 0 -0.44623290608925692 0.20655885709052491 0 -0.44623290608925692 0.20655885709052491 0 -0.45910947203301072 0.21825061144255359 0 -0.43365373037688232 0.21622528160853369 0 -0.45910947203301072 0.21825061144255359 0 -0.43365373037688232 0.21622528160853369 0 -0.45910947203301072 0.21825061144255359 0 -0.43742003380570488 0.22181543328686609 0 -0.43365373037688232 0.21622528160853369 0 -0.46109736556287523 0.19917641722370419 0 -0.45910947203301072 0.21825061144255359 0 -0.46917300804700041 0.2097656987106428 0 -0.46109736556287523 0.19917641722370419 0 -0.45910947203301072 0.21825061144255359 0 -0.46109736556287523 0.19917641722370419 0 -0.44623290608925692 0.20655885709052491 0 -0.45910947203301072 0.21825061144255359 0 -0.47031915985011991 0.21914248548311269 0 -0.46917300804700041 0.2097656987106428 0 -0.45910947203301072 0.21825061144255359 0 -0.47031915985011991 0.21914248548311269 0 -0.45910947203301072 0.21825061144255359 0 -0.47934271935906009 0.22280873205592799 0 -0.46596341730408281 0.22824941445031641 0 -0.45868543871811263 0.22231928699387621 0 -0.47031915985011991 0.21914248548311269 0 -0.45910947203301072 0.21825061144255359 0 -0.45868543871811263 0.22231928699387621 0 -0.46596341730408281 0.22824941445031641 0 -0.45785799188552961 0.2302587874517257 0 -0.46596341730408281 0.22824941445031641 0 -0.45785799188552961 0.2302587874517257 0 -0.46548770501430708 0.2403103073274627 0 -0.45785799188552961 0.2302587874517257 0 -0.45868543871811263 0.22231928699387621 0 -0.44521956071628049 0.2333919138529135 0 -0.46596341730408281 0.22824941445031641 0 -0.45785799188552961 0.2302587874517257 0 -0.45868543871811263 0.22231928699387621 0 -0.45785799188552961 0.2302587874517257 0 -0.45868543871811263 0.22231928699387621 0 -0.45910947203301072 0.21825061144255359 0 -0.45868543871811263 0.22231928699387621 0 -0.45868543871811263 0.22231928699387621 0 -0.43742003380570488 0.22181543328686609 0 -0.45868543871811263 0.22231928699387621 0 -0.44521956071628049 0.2333919138529135 0 -0.43742003380570488 0.22181543328686609 0 -0.45910947203301072 0.21825061144255359 0 -0.45868543871811263 0.22231928699387621 0 -0.43742003380570488 0.22181543328686609 0 -0.44521956071628049 0.2333919138529135 0 -0.43742003380570488 0.22181543328686609 0 -0.45785799188552961 0.2302587874517257 0 -0.44521956071628049 0.2333919138529135 0 -0.44521956071628049 0.2333919138529135 0 -0.45588209920483652 0.24921783137491449 0 -0.43947142916989718 0.25215780073930483 0 -0.45785799188552961 0.2302587874517257 0 -0.44521956071628049 0.2333919138529135 0 -0.45588209920483652 0.24921783137491449 0 -0.44521956071628049 0.2333919138529135 0 -0.45588209920483652 0.24921783137491449 0 -0.45785799188552961 0.2302587874517257 0 -0.45588209920483652 0.24921783137491449 0 -0.46548770501430708 0.2403103073274627 0 -0.45785799188552961 0.2302587874517257 0 -0.45588209920483652 0.24921783137491449 0 -0.45588209920483652 0.24921783137491449 0 -0.46548770501430708 0.2403103073274627 0 -0.4705066238837512 0.25195176650195572 0 -0.42339125361931568 0.23880325362624499 0 -0.40964868049501091 0.23228103995614299 0 -0.40156294652235103 0.24421459339957621 0 -0.42339125361931568 0.23880325362624499 0 -0.40156294652235103 0.24421459339957621 0 -0.42240580713797993 0.25360446224679423 0 -0.42339125361931568 0.23880325362624499 0 -0.40156294652235103 0.24421459339957621 0 -0.42339125361931568 0.23880325362624499 0 -0.43947142916989718 0.25215780073930483 0 -0.42240580713797993 0.25360446224679423 0 -0.44521956071628049 0.2333919138529135 0 -0.42339125361931568 0.23880325362624499 0 -0.44521956071628049 0.2333919138529135 0 -0.42339125361931568 0.23880325362624499 0 -0.43947142916989718 0.25215780073930483 0 -0.43742003380570488 0.22181543328686609 0 -0.41908140515192738 0.22138092540579571 0 -0.43365373037688232 0.21622528160853369 0 -0.43742003380570488 0.22181543328686609 0 -0.41908140515192738 0.22138092540579571 0 -0.44521956071628049 0.2333919138529135 0 -0.42339125361931568 0.23880325362624499 0 -0.43742003380570488 0.22181543328686609 0 -0.42339125361931568 0.23880325362624499 0 -0.43742003380570488 0.22181543328686609 0 -0.41908140515192738 0.22138092540579571 0 -0.43742003380570488 0.22181543328686609 0 -0.43365373037688232 0.21622528160853369 0 -0.41908140515192738 0.22138092540579571 0 -0.40582306723753953 0.21401099639467561 0 -0.40074277649814988 0.22094641752473371 0 -0.41908140515192738 0.22138092540579571 0 -0.40074277649814988 0.22094641752473371 0 -0.42339125361931568 0.23880325362624499 0 -0.41908140515192738 0.22138092540579571 0 -0.40964868049501091 0.23228103995614299 0 -0.41908140515192738 0.22138092540579571 0 -0.40964868049501091 0.23228103995614299 0 -0.40074277649814988 0.22094641752473371 0 -0.41908140515192738 0.22138092540579571 0 -0.43365373037688232 0.21622528160853369 0 -0.40582306723753953 0.21401099639467561 0 -0.43365373037688232 0.21622528160853369 0 -0.40582306723753953 0.21401099639467561 0 -0.43365373037688232 0.21622528160853369 0 -0.4151260734886929 0.2013108834607695 0 -0.40582306723753953 0.21401099639467561 0 -0.4151260734886929 0.2013108834607695 0 -0.40582306723753953 0.21401099639467561 0 -0.44623290608925692 0.20655885709052491 0 -0.43365373037688232 0.21622528160853369 0 -0.4216589063915831 0.19842191374396681 0 -0.43365373037688232 0.21622528160853369 0 -0.4216589063915831 0.19842191374396681 0 -0.4151260734886929 0.2013108834607695 0 -0.43365373037688232 0.21622528160853369 0 -0.4216589063915831 0.19842191374396681 0 -0.44237208274216472 0.18926206837441459 0 -0.4216589063915831 0.19842191374396681 0 -0.44237208274216472 0.18926206837441459 0 -0.44623290608925692 0.20655885709052491 0 -0.4216589063915831 0.19842191374396681 0 -0.44237208274216472 0.18926206837441459 0 -0.4216589063915831 0.19842191374396681 0 -0.43070893373036673 0.18003775093138261 0 -0.41954289167401693 0.19528121001460089 0 -0.4216589063915831 0.19842191374396681 0 -0.43070893373036673 0.18003775093138261 0 -0.41954289167401693 0.19528121001460089 0 -0.43070893373036673 0.18003775093138261 0 -0.4151260734886929 0.2013108834607695 0 -0.40818070763695852 0.19147325808746571 0 -0.39695999574550439 0.19527589811308599 0 -0.41954289167401693 0.19528121001460089 0 -0.40974088223087518 0.1807325363415038 0 -0.41954289167401693 0.19528121001460089 0 -0.4151260734886929 0.2013108834607695 0 -0.40818070763695852 0.19147325808746571 0 -0.41954289167401693 0.19528121001460089 0 -0.4216589063915831 0.19842191374396681 0 -0.4151260734886929 0.2013108834607695 0 -0.41954289167401693 0.19528121001460089 0 -0.4216589063915831 0.19842191374396681 0 -0.4216589063915831 0.19842191374396681 0 -0.4151260734886929 0.2013108834607695 0 -0.41954289167401693 0.19528121001460089 0 -0.4151260734886929 0.2013108834607695 0 -0.41954289167401693 0.19528121001460089 0 -0.40818070763695852 0.19147325808746571 0 -0.40974088223087518 0.1807325363415038 0 -0.4151260734886929 0.2013108834607695 0 -0.39695999574550439 0.19527589811308599 0 -0.38936783446586087 0.21270177216116101 0 -0.40818070763695852 0.19147325808746571 0 -0.39695999574550439 0.19527589811308599 0 -0.39516913852891672 0.18118363540671811 0 -0.39695999574550439 0.19527589811308599 0 -0.37681461889241452 0.19012846440245379 0 -0.38936783446586087 0.21270177216116101 0 -0.39695999574550439 0.19527589811308599 0 -0.37681461889241452 0.19012846440245379 0 -0.39516913852891672 0.18118363540671811 0 -0.38936783446586087 0.21270177216116101 0 -0.40074277649814988 0.22094641752473371 0 -0.37225075716846773 0.22027133940519741 0 -0.37681461889241452 0.19012846440245379 0 -0.38936783446586087 0.21270177216116101 0 -0.36080261124704321 0.21042904329777459 0 -0.38936783446586087 0.21270177216116101 0 -0.36080261124704321 0.21042904329777459 0 -0.38936783446586087 0.21270177216116101 0 -0.37225075716846773 0.22027133940519741 0 -0.4151260734886929 0.2013108834607695 0 -0.38936783446586087 0.21270177216116101 0 -0.40582306723753953 0.21401099639467561 0 -0.4151260734886929 0.2013108834607695 0 -0.38936783446586087 0.21270177216116101 0 -0.38936783446586087 0.21270177216116101 0 -0.40582306723753953 0.21401099639467561 0 -0.40074277649814988 0.22094641752473371 0 -0.38936783446586087 0.21270177216116101 0 -0.40582306723753953 0.21401099639467561 0 -0.40582306723753953 0.21401099639467561 0 -0.40074277649814988 0.22094641752473371 0 -0.40964868049501091 0.23228103995614299 0 -0.40074277649814988 0.22094641752473371 0 -0.39023870796176879 0.23528617534882171 0 -0.40074277649814988 0.22094641752473371 0 -0.39023870796176879 0.23528617534882171 0 -0.40074277649814988 0.22094641752473371 0 -0.39023870796176879 0.23528617534882171 0 -0.37225075716846773 0.22027133940519741 0 -0.39023870796176879 0.23528617534882171 0 -0.37626898104582851 0.23631141149924809 0 -0.37225075716846773 0.22027133940519741 0 -0.40074277649814988 0.22094641752473371 0 -0.37225075716846773 0.22027133940519741 0 -0.39023870796176879 0.23528617534882171 0 -0.37973463942538649 0.24962593317290899 0 -0.40156294652235103 0.24421459339957621 0 -0.39023870796176879 0.23528617534882171 0 -0.37626898104582851 0.23631141149924809 0 -0.3786346999429262 0.2444051461119286 0 -0.37626898104582851 0.23631141149924809 0 -0.3786346999429262 0.2444051461119286 0 -0.37126597136941453 0.24587470167091011 0 -0.3786346999429262 0.2444051461119286 0 -0.37973463942538649 0.24962593317290899 0 -0.37487601444112789 0.24962968442893721 0 -0.39023870796176879 0.23528617534882171 0 -0.3786346999429262 0.2444051461119286 0 -0.37973463942538649 0.24962593317290899 0 -0.39023870796176879 0.23528617534882171 0 -0.37973463942538649 0.24962593317290899 0 -0.40964868049501091 0.23228103995614299 0 -0.39023870796176879 0.23528617534882171 0 -0.40156294652235103 0.24421459339957621 0 -0.37973463942538649 0.24962593317290899 0 -0.40156294652235103 0.24421459339957621 0 -0.39464102142932089 0.25542588661643661 0 -0.37973463942538649 0.24962593317290899 0 -0.40156294652235103 0.24421459339957621 0 -0.40718652324385401 0.14838784082707379 0 -0.42782787850382858 0.14426144910109881 0 -0.419490676361712 0.16644361667960281 0 -0.40718652324385401 0.14838784082707379 0 -0.41500857334524982 0.12887153964295819 0 -0.42782787850382858 0.14426144910109881 0 -0.43247061122038849 0.1231443690356792 0 -0.41500857334524982 0.12887153964295819 0 -0.42782787850382858 0.14426144910109881 0 -0.43247061122038849 0.1231443690356792 0 -0.44899129204042221 0.13810476636422611 0 -0.42782787850382858 0.14426144910109881 0 -0.43949764506057859 0.15937416696027651 0 -0.43070893373036673 0.18003775093138261 0 -0.419490676361712 0.16644361667960281 0 -0.43949764506057859 0.15937416696027651 0 -0.42782787850382858 0.14426144910109881 0 -0.419490676361712 0.16644361667960281 0 -0.43070893373036673 0.18003775093138261 0 -0.41987084599924313 0.1806237784917723 0 -0.419490676361712 0.16644361667960281 0 -0.41954289167401693 0.19528121001460089 0 -0.43070893373036673 0.18003775093138261 0 -0.41987084599924313 0.1806237784917723 0 -0.41954289167401693 0.19528121001460089 0 -0.41987084599924313 0.1806237784917723 0 -0.40974088223087518 0.1807325363415038 0 -0.41987084599924313 0.1806237784917723 0 -0.40974088223087518 0.1807325363415038 0 -0.419490676361712 0.16644361667960281 0 -0.40974088223087518 0.1807325363415038 0 -0.419490676361712 0.16644361667960281 0 -0.3999388727877321 0.16618386266840759 0 -0.40718652324385401 0.14838784082707379 0 -0.419490676361712 0.16644361667960281 0 -0.3999388727877321 0.16618386266840759 0 -0.3999388727877321 0.16618386266840759 0 -0.39516913852891672 0.18118363540671811 0 -0.3817149076344698 0.16870342601022981 0 -0.40818070763695852 0.19147325808746571 0 -0.40974088223087518 0.1807325363415038 0 -0.39516913852891672 0.18118363540671811 0 -0.40974088223087518 0.1807325363415038 0 -0.3999388727877321 0.16618386266840759 0 -0.39516913852891672 0.18118363540671811 0 -0.40974088223087518 0.1807325363415038 0 -0.3999388727877321 0.16618386266840759 0 -0.37681461889241452 0.19012846440245379 0 -0.39516913852891672 0.18118363540671811 0 -0.3817149076344698 0.16870342601022981 0 -0.3817149076344698 0.16870342601022981 0 -0.3864975708885956 0.150955845117137 0 -0.3659964583800942 0.15452834515458991 0 -0.3999388727877321 0.16618386266840759 0 -0.3817149076344698 0.16870342601022981 0 -0.3864975708885956 0.150955845117137 0 -0.3864975708885956 0.150955845117137 0 -0.37298409468895738 0.13030382192022419 0 -0.3659964583800942 0.15452834515458991 0 -0.40718652324385401 0.14838784082707379 0 -0.3999388727877321 0.16618386266840759 0 -0.3864975708885956 0.150955845117137 0 -0.40718652324385401 0.14838784082707379 0 -0.3864975708885956 0.150955845117137 0 -0.39481766949967462 0.13314432369146659 0 -0.40399789894207372 0.1149933404605885 0 -0.41500857334524982 0.12887153964295819 0 -0.39481766949967462 0.13314432369146659 0 -0.40718652324385401 0.14838784082707379 0 -0.41500857334524982 0.12887153964295819 0 -0.39481766949967462 0.13314432369146659 0 -0.3864975708885956 0.150955845117137 0 -0.39481766949967462 0.13314432369146659 0 -0.37298409468895738 0.13030382192022419 0 -0.38789922058655202 0.11350815792689339 0 -0.39481766949967462 0.13314432369146659 0 -0.37298409468895738 0.13030382192022419 0 -0.37298409468895738 0.13030382192022419 0 -0.35146023599449439 0.1365259980090297 0 -0.3659964583800942 0.15452834515458991 0 -0.37298409468895738 0.13030382192022419 0 -0.35146023599449439 0.1365259980090297 0 -0.35493833184475121 0.1174570048165036 0 -0.35146023599449439 0.1365259980090297 0 -0.35493833184475121 0.1174570048165036 0 -0.33842093220619052 0.1223960087451197 0 -0.35146023599449439 0.1365259980090297 0 -0.3659964583800942 0.15452834515458991 0 -0.3464595308101317 0.15653213460322291 0 -0.3817149076344698 0.16870342601022981 0 -0.3659964583800942 0.15452834515458991 0 -0.36085714411065017 0.17293873286947251 0 -0.37681461889241452 0.19012846440245379 0 -0.3817149076344698 0.16870342601022981 0 -0.36085714411065017 0.17293873286947251 0 -0.37681461889241452 0.19012846440245379 0 -0.36085714411065017 0.17293873286947251 0 -0.35428682069036782 0.19154209082677759 0 -0.36085714411065017 0.17293873286947251 0 -0.34072234117350592 0.17605789912979719 0 -0.35428682069036782 0.19154209082677759 0 -0.36085714411065017 0.17293873286947251 0 -0.3464595308101317 0.15653213460322291 0 -0.34072234117350592 0.17605789912979719 0 -0.3659964583800942 0.15452834515458991 0 -0.36085714411065017 0.17293873286947251 0 -0.3464595308101317 0.15653213460322291 0 -0.3464595308101317 0.15653213460322291 0 -0.34072234117350592 0.17605789912979719 0 -0.32664326151820539 0.16240571679627169 0 -0.34072234117350592 0.17605789912979719 0 -0.32664326151820539 0.16240571679627169 0 -0.32042220193989712 0.18786239519717179 0 -0.32664326151820539 0.16240571679627169 0 -0.32042220193989712 0.18786239519717179 0 -0.30754757326430232 0.16822351241901681 0 -0.32664326151820539 0.16240571679627169 0 -0.31280514566067891 0.14627970790524791 0 -0.30754757326430232 0.16822351241901681 0 -0.32664326151820539 0.16240571679627169 0 -0.31280514566067891 0.14627970790524791 0 -0.33316170762713299 0.140676359121616 0 -0.31280514566067891 0.14627970790524791 0 -0.33316170762713299 0.140676359121616 0 -0.31967203380048381 0.1247850713484336 0 -0.35146023599449439 0.1365259980090297 0 -0.33316170762713299 0.140676359121616 0 -0.33842093220619052 0.1223960087451197 0 -0.33316170762713299 0.140676359121616 0 -0.33842093220619052 0.1223960087451197 0 -0.31967203380048381 0.1247850713484336 0 -0.35146023599449439 0.1365259980090297 0 -0.3464595308101317 0.15653213460322291 0 -0.33316170762713299 0.140676359121616 0 -0.3464595308101317 0.15653213460322291 0 -0.32664326151820539 0.16240571679627169 0 -0.33316170762713299 0.140676359121616 0 -0.34453512895895139 0.2482256470633874 0 -0.34791575119579649 0.2354597942100573 0 -0.35656079039377359 0.24934357319240591 0 -0.34791575119579649 0.2354597942100573 0 -0.35873484798661442 0.23627019455630441 0 -0.35656079039377359 0.24934357319240591 0 -0.35656079039377359 0.24934357319240591 0 -0.36524726490309273 0.24911476737479421 0 -0.36426807838854969 0.24217500760837751 0 -0.35873484798661442 0.23627019455630441 0 -0.35656079039377359 0.24934357319240591 0 -0.36426807838854969 0.24217500760837751 0 -0.36524726490309273 0.24911476737479421 0 -0.37126597136941453 0.24587470167091011 0 -0.36426807838854969 0.24217500760837751 0 -0.36524726490309273 0.24911476737479421 0 -0.37126597136941453 0.24587470167091011 0 -0.370311082244276 0.25271498783237373 0 -0.37126597136941453 0.24587470167091011 0 -0.37487601444112789 0.24962968442893721 0 -0.370311082244276 0.25271498783237373 0 -0.3786346999429262 0.2444051461119286 0 -0.37126597136941453 0.24587470167091011 0 -0.37487601444112789 0.24962968442893721 0 -0.37626898104582851 0.23631141149924809 0 -0.36426807838854969 0.24217500760837751 0 -0.36649045267952218 0.232103681762446 0 -0.37626898104582851 0.23631141149924809 0 -0.37126597136941453 0.24587470167091011 0 -0.36426807838854969 0.24217500760837751 0 -0.35873484798661442 0.23627019455630441 0 -0.36426807838854969 0.24217500760837751 0 -0.36649045267952218 0.232103681762446 0 -0.35873484798661442 0.23627019455630441 0 -0.36649045267952218 0.232103681762446 0 -0.36114441996061319 0.2251828184426819 0 -0.37626898104582851 0.23631141149924809 0 -0.36649045267952218 0.232103681762446 0 -0.37225075716846773 0.22027133940519741 0 -0.36649045267952218 0.232103681762446 0 -0.37225075716846773 0.22027133940519741 0 -0.36114441996061319 0.2251828184426819 0 -0.37225075716846773 0.22027133940519741 0 -0.36114441996061319 0.2251828184426819 0 -0.37225075716846773 0.22027133940519741 0 -0.34223372906870159 0.21956012835875999 0 -0.37225075716846773 0.22027133940519741 0 -0.36114441996061319 0.2251828184426819 0 -0.34223372906870159 0.21956012835875999 0 -0.34791575119579649 0.2354597942100573 0 -0.36114441996061319 0.2251828184426819 0 -0.34223372906870159 0.21956012835875999 0 -0.34791575119579649 0.2354597942100573 0 -0.35873484798661442 0.23627019455630441 0 -0.36114441996061319 0.2251828184426819 0 -0.36080261124704321 0.21042904329777459 0 -0.33223738802822511 0.2081563144343902 0 -0.37225075716846773 0.22027133940519741 0 -0.36080261124704321 0.21042904329777459 0 -0.34223372906870159 0.21956012835875999 0 -0.36080261124704321 0.21042904329777459 0 -0.35428682069036782 0.19154209082677759 0 -0.33223738802822511 0.2081563144343902 0 -0.36080261124704321 0.21042904329777459 0 -0.33223738802822511 0.2081563144343902 0 -0.34223372906870159 0.21956012835875999 0 -0.38936783446586087 0.21270177216116101 0 -0.37225075716846773 0.22027133940519741 0 -0.36080261124704321 0.21042904329777459 0 -0.37681461889241452 0.19012846440245379 0 -0.36080261124704321 0.21042904329777459 0 -0.35428682069036782 0.19154209082677759 0 -0.34072234117350592 0.17605789912979719 0 -0.35428682069036782 0.19154209082677759 0 -0.33223738802822511 0.2081563144343902 0 -0.34072234117350592 0.17605789912979719 0 -0.32042220193989712 0.18786239519717179 0 -0.33223738802822511 0.2081563144343902 0 -0.32042220193989712 0.18786239519717179 0 -0.33223738802822511 0.2081563144343902 0 -0.3036721648094069 0.20588358557100581 0 -0.33223738802822511 0.2081563144343902 0 -0.3036721648094069 0.20588358557100581 0 -0.33223738802822511 0.2081563144343902 0 -0.31221670096893589 0.2188489173123043 0 -0.3036721648094069 0.20588358557100581 0 -0.33223738802822511 0.2081563144343902 0 -0.34223372906870159 0.21956012835875999 0 -0.31221670096893589 0.2188489173123043 0 -0.33120515203632572 0.23827791889496361 0 -0.31221670096893589 0.2188489173123043 0 -0.30943610355426759 0.25075247954544339 0 -0.34791575119579649 0.2354597942100573 0 -0.34223372906870159 0.21956012835875999 0 -0.33120515203632572 0.23827791889496361 0 -0.34223372906870159 0.21956012835875999 0 -0.33120515203632572 0.23827791889496361 0 -0.31221670096893589 0.2188489173123043 0 -0.34223372906870159 0.21956012835875999 0 -0.31221670096893589 0.2188489173123043 0 -0.33120515203632572 0.23827791889496361 0 -0.33214335157437619 0.25626647618831783 0 -0.30943610355426759 0.25075247954544339 0 -0.34453512895895139 0.2482256470633874 0 -0.33120515203632572 0.23827791889496361 0 -0.33214335157437619 0.25626647618831783 0 -0.34453512895895139 0.2482256470633874 0 -0.34791575119579649 0.2354597942100573 0 -0.33120515203632572 0.23827791889496361 0 -0.29419525673649749 0.23580014416795139 0 -0.31221670096893589 0.2188489173123043 0 -0.30943610355426759 0.25075247954544339 0 -0.29419525673649749 0.23580014416795139 0 -0.27794543045105369 0.2408405127151905 0 -0.28738127238494571 0.25384771436250703 0 -0.29419525673649749 0.23580014416795139 0 -0.30943610355426759 0.25075247954544339 0 -0.28738127238494571 0.25384771436250703 0 -0.29419525673649749 0.23580014416795139 0 -0.31221670096893589 0.2188489173123043 0 -0.28219967286917041 0.21813770626584861 0 -0.29419525673649749 0.23580014416795139 0 -0.28219967286917041 0.21813770626584861 0 -0.27794543045105369 0.2408405127151905 0 -0.32042220193989712 0.18786239519717179 0 -0.3036721648094069 0.20588358557100581 0 -0.28852382874230359 0.18195796882509949 0 -0.28219967286917041 0.21813770626584861 0 -0.3036721648094069 0.20588358557100581 0 -0.2751069415905889 0.20361085670762141 0 -0.3036721648094069 0.20588358557100581 0 -0.2751069415905889 0.20361085670762141 0 -0.31221670096893589 0.2188489173123043 0 -0.28219967286917041 0.21813770626584861 0 -0.3036721648094069 0.20588358557100581 0 -0.31221670096893589 0.2188489173123043 0 -0.28219967286917041 0.21813770626584861 0 -0.3036721648094069 0.20588358557100581 0 -0.2751069415905889 0.20361085670762141 0 -0.28852382874230359 0.18195796882509949 0 -0.26190498215833408 0.18889211069063189 0 -0.2751069415905889 0.20361085670762141 0 -0.28852382874230359 0.18195796882509949 0 -0.26190498215833408 0.18889211069063189 0 -0.2751069415905889 0.20361085670762141 0 -0.24654171837177069 0.20133812784423871 0 -0.2751069415905889 0.20361085670762141 0 -0.24654171837177069 0.20133812784423871 0 -0.26190498215833408 0.18889211069063189 0 -0.24654171837177069 0.20133812784423871 0 -0.2421333586766882 0.1887651380023315 0 -0.2521826447694045 0.21742649521939761 0 -0.2751069415905889 0.20361085670762141 0 -0.24654171837177069 0.20133812784423871 0 -0.28219967286917041 0.21813770626584861 0 -0.2521826447694045 0.21742649521939761 0 -0.2751069415905889 0.20361085670762141 0 -0.28219967286917041 0.21813770626584861 0 -0.2521826447694045 0.21742649521939761 0 -0.28219967286917041 0.21813770626584861 0 -0.25937786501134891 0.23794783133301581 0 -0.27794543045105369 0.2408405127151905 0 -0.2521826447694045 0.21742649521939761 0 -0.25937786501134891 0.23794783133301581 0 -0.2432083893185506 0.23209512877810001 0 -0.28219967286917041 0.21813770626584861 0 -0.2521826447694045 0.21742649521939761 0 -0.25937786501134891 0.23794783133301581 0 -0.2521826447694045 0.21742649521939761 0 -0.25937786501134891 0.23794783133301581 0 -0.25937786501134891 0.23794783133301581 0 -0.26657308525330609 0.25846916744662962 0 -0.24762519668039371 0.25340429882664778 0 -0.25937786501134891 0.23794783133301581 0 -0.26657308525330609 0.25846916744662962 0 -0.25937786501134891 0.23794783133301581 0 -0.24762519668039371 0.25340429882664778 0 -0.2432083893185506 0.23209512877810001 0 -0.25937786501134891 0.23794783133301581 0 -0.27794543045105369 0.2408405127151905 0 -0.26657308525330609 0.25846916744662962 0 -0.29199568553807731 0.15341980736981439 0 -0.29781061221587207 0.12816778037633461 0 -0.27614904927826373 0.13633721994694981 0 -0.31280514566067891 0.14627970790524791 0 -0.29781061221587207 0.12816778037633461 0 -0.31967203380048381 0.1247850713484336 0 -0.31280514566067891 0.14627970790524791 0 -0.29199568553807731 0.15341980736981439 0 -0.29781061221587207 0.12816778037633461 0 -0.31280514566067891 0.14627970790524791 0 -0.29199568553807731 0.15341980736981439 0 -0.30754757326430232 0.16822351241901681 0 -0.32042220193989712 0.18786239519717179 0 -0.30754757326430232 0.16822351241901681 0 -0.28852382874230359 0.18195796882509949 0 -0.29199568553807731 0.15341980736981439 0 -0.28852382874230359 0.18195796882509949 0 -0.26852988502404768 0.16355006038056691 0 -0.29199568553807731 0.15341980736981439 0 -0.30754757326430232 0.16822351241901681 0 -0.28852382874230359 0.18195796882509949 0 -0.26190498215833408 0.18889211069063189 0 -0.28852382874230359 0.18195796882509949 0 -0.26852988502404768 0.16355006038056691 0 -0.26190498215833408 0.18889211069063189 0 -0.2477774018020103 0.17663438799119269 0 -0.2421333586766882 0.1887651380023315 0 -0.26190498215833408 0.18889211069063189 0 -0.26852988502404768 0.16355006038056691 0 -0.2477774018020103 0.17663438799119269 0 -0.26852988502404768 0.16355006038056691 0 -0.25771563569533112 0.1460092120751508 0 -0.24831920667477211 0.1627011673190483 0 -0.26852988502404768 0.16355006038056691 0 -0.24831920667477211 0.1627011673190483 0 -0.2477774018020103 0.17663438799119269 0 -0.29199568553807731 0.15341980736981439 0 -0.26852988502404768 0.16355006038056691 0 -0.27614904927826373 0.13633721994694981 0 -0.26852988502404768 0.16355006038056691 0 -0.25771563569533112 0.1460092120751508 0 -0.27614904927826373 0.13633721994694981 0 -0.25771563569533112 0.1460092120751508 0 -0.27614904927826373 0.13633721994694981 0 -0.25294422142423789 0.12595318675102801 0 -0.25294422142423789 0.12595318675102801 0 -0.25224134320465202 0.1086927350088715 0 -0.27449561392137622 0.1075724926729377 0 -0.25294422142423789 0.12595318675102801 0 -0.27449561392137622 0.1075724926729377 0 -0.25784970550837027 0.097609960249440728 0 -0.25224134320465202 0.1086927350088715 0 -0.27449561392137622 0.1075724926729377 0 -0.25784970550837027 0.097609960249440728 0 -0.25224134320465202 0.1086927350088715 0 -0.2400078388929334 0.106542619580989 0 -0.25784970550837027 0.097609960249440728 0 -0.27449561392137622 0.1075724926729377 0 -0.28409194090112999 0.084471595642508418 0 -0.27614904927826373 0.13633721994694981 0 -0.25294422142423789 0.12595318675102801 0 -0.27449561392137622 0.1075724926729377 0 -0.29781061221587207 0.12816778037633461 0 -0.27614904927826373 0.13633721994694981 0 -0.27449561392137622 0.1075724926729377 0 -0.27449561392137622 0.1075724926729377 0 -0.30656973337132859 0.1078699232241231 0 -0.29604700641851461 0.08919179859484741 0 -0.29781061221587207 0.12816778037633461 0 -0.27449561392137622 0.1075724926729377 0 -0.30656973337132859 0.1078699232241231 0 -0.27449561392137622 0.1075724926729377 0 -0.29604700641851461 0.08919179859484741 0 -0.30656973337132859 0.1078699232241231 0 -0.29604700641851461 0.08919179859484741 0 -0.32014942120012979 0.091581016234488805 0 -0.29781061221587207 0.12816778037633461 0 -0.30656973337132859 0.1078699232241231 0 -0.31967203380048381 0.1247850713484336 0 -0.31033417629388999 0.071333231035576428 0 -0.29002444111460612 0.072793022658081075 0 -0.31033417629388999 0.071333231035576428 0 -0.28409194090112999 0.084471595642508418 0 -0.29918741023178003 0.062842094689866873 0 -0.31033417629388999 0.071333231035576428 0 -0.29002444111460612 0.072793022658081075 0 -0.31033417629388999 0.071333231035576428 0 -0.29604700641851461 0.08919179859484741 0 -0.31759839891565339 0.070811104516757761 0 -0.29918741023178003 0.062842094689866873 0 -0.31033417629388999 0.071333231035576428 0 -0.31067748662463601 0.053690493338758569 0 -0.29604700641851461 0.08919179859484741 0 -0.32014942120012979 0.091581016234488805 0 -0.31759839891565339 0.070811104516757761 0 -0.29604700641851461 0.08919179859484741 0 -0.31759839891565339 0.070811104516757761 0 -0.27449561392137622 0.1075724926729377 0 -0.29604700641851461 0.08919179859484741 0 -0.28409194090112999 0.084471595642508418 0 -0.31033417629388999 0.071333231035576428 0 -0.29604700641851461 0.08919179859484741 0 -0.28409194090112999 0.084471595642508418 0 -0.31033417629388999 0.071333231035576428 0 -0.28409194090112999 0.084471595642508418 0 -0.29002444111460612 0.072793022658081075 0 -0.28409194090112999 0.084471595642508418 0 -0.29002444111460612 0.072793022658081075 0 -0.2697147059353221 0.074252814280586263 0 -0.29918741023178003 0.062842094689866873 0 -0.29002444111460612 0.072793022658081075 0 -0.29092006912186308 0.061589760204075479 0 -0.29002444111460612 0.072793022658081075 0 -0.27940201133647508 0.058004614579041457 0 -0.29092006912186308 0.061589760204075479 0 -0.29002444111460612 0.072793022658081075 0 -0.2697147059353221 0.074252814280586263 0 -0.29002444111460612 0.072793022658081075 0 -0.2697147059353221 0.074252814280586263 0 -0.27940201133647508 0.058004614579041457 0 -0.2697147059353221 0.074252814280586263 0 -0.26228556187704971 0.065461847701951709 0 -0.27940201133647508 0.058004614579041457 0 -0.25784970550837027 0.097609960249440728 0 -0.28409194090112999 0.084471595642508418 0 -0.25784970550837027 0.097609960249440728 0 -0.28409194090112999 0.084471595642508418 0 -0.2697147059353221 0.074252814280586263 0 -0.25784970550837027 0.097609960249440728 0 -0.2697147059353221 0.074252814280586263 0 -0.25489136477182062 0.08056109909424411 0 -0.2697147059353221 0.074252814280586263 0 -0.25489136477182062 0.08056109909424411 0 -0.26228556187704971 0.065461847701951709 0 -0.25489136477182062 0.08056109909424411 0 -0.26228556187704971 0.065461847701951709 0 -0.25081135524620429 0.066365095739814736 0 -0.26165896055064791 0.05363731076499504 0 -0.25359977568098407 0.039384723681837618 0 -0.24803015668111469 0.05557477116357748 0 -0.25081135524620429 0.066365095739814736 0 -0.26165896055064791 0.05363731076499504 0 -0.24803015668111469 0.05557477116357748 0 -0.26228556187704971 0.065461847701951709 0 -0.25081135524620429 0.066365095739814736 0 -0.26165896055064791 0.05363731076499504 0 -0.25359977568098407 0.039384723681837618 0 -0.27314893441107913 0.02417849375185253 0 -0.26165896055064791 0.05363731076499504 0 -0.25359977568098407 0.039384723681837618 0 -0.27578291692172618 0.040159862310638693 0 -0.25359977568098407 0.039384723681837618 0 -0.27578291692172618 0.040159862310638693 0 -0.27314893441107913 0.02417849375185253 0 -0.26165896055064791 0.05363731076499504 0 -0.27578291692172618 0.040159862310638693 0 -0.27940201133647508 0.058004614579041457 0 -0.26228556187704971 0.065461847701951709 0 -0.26165896055064791 0.05363731076499504 0 -0.27940201133647508 0.058004614579041457 0 -0.2653635623513797 -0.0074403092547756441 0 -0.26365500708834011 0.01416124252256637 0 -0.2492167999058888 0.012345863422951939 0 -0.25359977568098407 0.039384723681837618 0 -0.26365500708834011 0.01416124252256637 0 -0.27314893441107913 0.02417849375185253 0 -0.25359977568098407 0.039384723681837618 0 -0.26365500708834011 0.01416124252256637 0 -0.2492167999058888 0.012345863422951939 0 -0.27578291692172618 0.040159862310638693 0 -0.27314893441107913 0.02417849375185253 0 -0.291935199097483 0.027101196898181999 0 -0.26365500708834011 0.01416124252256637 0 -0.27314893441107913 0.02417849375185253 0 -0.27599540795627819 0.0077865082635796661 0 -0.27314893441107913 0.02417849375185253 0 -0.27599540795627819 0.0077865082635796661 0 -0.29269809314117412 0.0089722638218674711 0 -0.2653635623513797 -0.0074403092547756441 0 -0.26365500708834011 0.01416124252256637 0 -0.27599540795627819 0.0077865082635796661 0 -0.28251803515872792 -0.00271350845333845 0 -0.27599540795627819 0.0077865082635796661 0 -0.29269809314117412 0.0089722638218674711 0 -0.27314893441107913 0.02417849375185253 0 -0.29269809314117412 0.0089722638218674711 0 -0.27314893441107913 0.02417849375185253 0 -0.29269809314117412 0.0089722638218674711 0 -0.291935199097483 0.027101196898181999 0 -0.291935199097483 0.027101196898181999 0 -0.30810851001334399 0.028050890795301951 0 -0.30808748127323982 0.014042531485725341 0 -0.29269809314117412 0.0089722638218674711 0 -0.291935199097483 0.027101196898181999 0 -0.30808748127323982 0.014042531485725341 0 -0.291935199097483 0.027101196898181999 0 -0.30808748127323982 0.014042531485725341 0 -0.29628058681842501 -0.0071057425830527571 0 -0.29269809314117412 0.0089722638218674711 0 -0.30678934467699898 0.00080108334187700973 0 -0.29269809314117412 0.0089722638218674711 0 -0.30808748127323982 0.014042531485725341 0 -0.30678934467699898 0.00080108334187700973 0 -0.27940201133647508 0.058004614579041457 0 -0.29506641380459131 0.052719308889312512 0 -0.29092006912186308 0.061589760204075479 0 -0.27940201133647508 0.058004614579041457 0 -0.29506641380459131 0.052719308889312512 0 -0.28883141134332568 0.042488437851303427 0 -0.29918741023178003 0.062842094689866873 0 -0.29506641380459131 0.052719308889312512 0 -0.29092006912186308 0.061589760204075479 0 -0.27578291692172618 0.040159862310638693 0 -0.291935199097483 0.027101196898181999 0 -0.28883141134332568 0.042488437851303427 0 -0.27578291692172618 0.040159862310638693 0 -0.291935199097483 0.027101196898181999 0 -0.27578291692172618 0.040159862310638693 0 -0.27940201133647508 0.058004614579041457 0 -0.28883141134332568 0.042488437851303427 0 -0.291935199097483 0.027101196898181999 0 -0.28883141134332568 0.042488437851303427 0 -0.30198339083845599 0.039659743773589329 0 -0.29506641380459131 0.052719308889312512 0 -0.28883141134332568 0.042488437851303427 0 -0.30198339083845599 0.039659743773589329 0 -0.291935199097483 0.027101196898181999 0 -0.30810851001334399 0.028050890795301951 0 -0.30198339083845599 0.039659743773589329 0 -0.30198339083845599 0.039659743773589329 0 -0.31067748662463601 0.053690493338758569 0 -0.31689951670737793 0.037766595181299413 0 -0.30810851001334399 0.028050890795301951 0 -0.30198339083845599 0.039659743773589329 0 -0.31689951670737793 0.037766595181299413 0 -0.29506641380459131 0.052719308889312512 0 -0.30198339083845599 0.039659743773589329 0 -0.31067748662463601 0.053690493338758569 0 -0.29918741023178003 0.062842094689866873 0 -0.29506641380459131 0.052719308889312512 0 -0.31067748662463601 0.053690493338758569 0 -0.31067748662463601 0.053690493338758569 0 -0.32524069635950159 0.048809071881970173 0 -0.32644161625111823 0.063268924932267184 0 -0.31067748662463601 0.053690493338758569 0 -0.32524069635950159 0.048809071881970173 0 -0.31689951670737793 0.037766595181299413 0 -0.32524069635950159 0.048809071881970173 0 -0.31689951670737793 0.037766595181299413 0 -0.33421148612409052 0.035885597560319282 0 -0.31689951670737793 0.037766595181299413 0 -0.33421148612409052 0.035885597560319282 0 -0.32163696215016352 0.02168438663771368 0 -0.32524069635950159 0.048809071881970173 0 -0.33421148612409052 0.035885597560319282 0 -0.33797337609028533 0.053433748397206132 0 -0.33421148612409052 0.035885597560319282 0 -0.33797337609028533 0.053433748397206132 0 -0.3495051359294552 0.043598571862148341 0 -0.33797337609028533 0.053433748397206132 0 -0.34962612568232498 0.051661432903442342 0 -0.32644161625111823 0.063268924932267184 0 -0.34453661998514751 0.058977495645779462 0 -0.34815740710177512 0.053772686515379177 0 -0.32644161625111823 0.063268924932267184 0 -0.34815740710177512 0.053772686515379177 0 -0.34962612568232498 0.051661432903442342 0 -0.32644161625111823 0.063268924932267184 0 -0.33797337609028533 0.053433748397206132 0 -0.3495051359294552 0.043598571862148341 0 -0.34962612568232498 0.051661432903442342 0 -0.32644161625111823 0.063268924932267184 0 -0.32524069635950159 0.048809071881970173 0 -0.33797337609028533 0.053433748397206132 0 -0.32644161625111823 0.063268924932267184 0 -0.33797337609028533 0.053433748397206132 0 -0.32644161625111823 0.063268924932267184 0 -0.30808748127323982 0.014042531485725341 0 -0.32423976344899891 0.00098386607327163172 0 -0.32163696215016352 0.02168438663771368 0 -0.30808748127323982 0.014042531485725341 0 -0.32423976344899891 0.00098386607327163172 0 -0.30808748127323982 0.014042531485725341 0 -0.30678934467699898 0.00080108334187700973 0 -0.32423976344899891 0.00098386607327163172 0 -0.32423976344899891 0.00098386607327163172 0 -0.32163696215016352 0.02168438663771368 0 -0.33788677025290048 0.014634030445862631 0 -0.30810851001334399 0.028050890795301951 0 -0.31689951670737793 0.037766595181299413 0 -0.32163696215016352 0.02168438663771368 0 -0.30810851001334399 0.028050890795301951 0 -0.30808748127323982 0.014042531485725341 0 -0.32163696215016352 0.02168438663771368 0 -0.33421148612409052 0.035885597560319282 0 -0.33788677025290048 0.014634030445862631 0 -0.35153377705680261 0.028284194818453231 0 -0.33421148612409052 0.035885597560319282 0 -0.32163696215016352 0.02168438663771368 0 -0.33788677025290048 0.014634030445862631 0 -0.33788677025290048 0.014634030445862631 0 -0.33784678223764347 0.0003192175999392097 0 -0.35424069168347061 0.0078494759028418203 0 -0.32423976344899891 0.00098386607327163172 0 -0.33788677025290048 0.014634030445862631 0 -0.33784678223764347 0.0003192175999392097 0 -0.32423976344899891 0.00098386607327163172 0 -0.33788677025290048 0.014634030445862631 0 -0.34763251336571332 -0.0039539713260800993 0 -0.33784678223764347 0.0003192175999392097 0 -0.35424069168347061 0.0078494759028418203 0 -0.35424069168347061 0.0078494759028418203 0 -0.35153377705680261 0.028284194818453231 0 -0.36235546791418299 0.032638815036939328 0 -0.33788677025290048 0.014634030445862631 0 -0.35424069168347061 0.0078494759028418203 0 -0.35153377705680261 0.028284194818453231 0 -0.35424069168347061 0.0078494759028418203 0 -0.35153377705680261 0.028284194818453231 0 -0.33788677025290048 0.014634030445862631 0 -0.35153377705680261 0.028284194818453231 0 -0.38211356559448978 0.01578758145307731 0 -0.37623217782714657 0.01341576458140761 0 -0.36235546791418299 0.032638815036939328 0 -0.37623217782714657 0.01341576458140761 0 -0.36235546791418299 0.032638815036939328 0 -0.37623217782714657 0.01341576458140761 0 -0.365410462864587 0.0032415579865360672 0 -0.36235546791418299 0.032638815036939328 0 -0.365410462864587 0.0032415579865360672 0 -0.36235546791418299 0.032638815036939328 0 -0.37930828811550971 0.036800843988941713 0 -0.38211356559448978 0.01578758145307731 0 -0.36235546791418299 0.032638815036939328 0 -0.38211356559448978 0.01578758145307731 0 -0.36235546791418299 0.032638815036939328 0 -0.35424069168347061 0.0078494759028418203 0 -0.365410462864587 0.0032415579865360672 0 -0.36235546791418299 0.032638815036939328 0 -0.37623217782714657 0.01341576458140761 0 -0.37773076799400501 0.00097948154207771424 0 -0.365410462864587 0.0032415579865360672 0 -0.35696384423120781 0.058332496262832559 0 -0.36096876095210201 0.045982660666722089 0 -0.3583986790731522 0.070713751507328421 0 -0.35696384423120781 0.058332496262832559 0 -0.35285898715228492 0.056073278193248033 0 -0.36096876095210201 0.045982660666722089 0 -0.34962612568232498 0.051661432903442342 0 -0.36096876095210201 0.045982660666722089 0 -0.35285898715228492 0.056073278193248033 0 -0.34962612568232498 0.051661432903442342 0 -0.36096876095210201 0.045982660666722089 0 -0.35696384423120781 0.058332496262832559 0 -0.35285898715228492 0.056073278193248033 0 -0.35526886083329201 0.06810348552331337 0 -0.34453661998514751 0.058977495645779462 0 -0.34815740710177512 0.053772686515379177 0 -0.34617244813708492 0.068757303356562521 0 -0.34815740710177512 0.053772686515379177 0 -0.34617244813708492 0.068757303356562521 0 -0.35285898715228492 0.056073278193248033 0 -0.34815740710177512 0.053772686515379177 0 -0.34617244813708492 0.068757303356562521 0 -0.34453661998514751 0.058977495645779462 0 -0.34815740710177512 0.053772686515379177 0 -0.34962612568232498 0.051661432903442342 0 -0.3495051359294552 0.043598571862148341 0 -0.33797337609028533 0.053433748397206132 0 -0.34962612568232498 0.051661432903442342 0 -0.3495051359294552 0.043598571862148341 0 -0.35285898715228492 0.056073278193248033 0 -0.34815740710177512 0.053772686515379177 0 -0.34962612568232498 0.051661432903442342 0 -0.34815740710177512 0.053772686515379177 0 -0.34962612568232498 0.051661432903442342 0 -0.34962612568232498 0.051661432903442342 0 -0.36096876095210201 0.045982660666722089 0 -0.36235546791418299 0.032638815036939328 0 -0.34962612568232498 0.051661432903442342 0 -0.3495051359294552 0.043598571862148341 0 -0.36235546791418299 0.032638815036939328 0 -0.33421148612409052 0.035885597560319282 0 -0.35153377705680261 0.028284194818453231 0 -0.3495051359294552 0.043598571862148341 0 -0.34962612568232498 0.051661432903442342 0 -0.36235546791418299 0.032638815036939328 0 -0.35153377705680261 0.028284194818453231 0 -0.3495051359294552 0.043598571862148341 0 -0.35153377705680261 0.028284194818453231 0 -0.3495051359294552 0.043598571862148341 0 -0.36235546791418299 0.032638815036939328 0 -0.3495051359294552 0.043598571862148341 0 -0.36235546791418299 0.032638815036939328 0 -0.37930828811550971 0.036800843988941713 0 -0.36096876095210201 0.045982660666722089 0 -0.36235546791418299 0.032638815036939328 0 -0.37930828811550971 0.036800843988941713 0 -0.36096876095210201 0.045982660666722089 0 -0.36652174416800642 0.052833912029578038 0 -0.37930828811550971 0.036800843988941713 0 -0.36096876095210201 0.045982660666722089 0 -0.36096876095210201 0.045982660666722089 0 -0.36235546791418299 0.032638815036939328 0 -0.36096876095210201 0.045982660666722089 0 -0.36652174416800642 0.052833912029578038 0 -0.3583986790731522 0.070713751507328421 0 -0.38137903600740342 0.051567524750377798 0 -0.36652174416800642 0.052833912029578038 0 -0.3740623227603066 0.074235826397746854 0 -0.36096876095210201 0.045982660666722089 0 -0.3583986790731522 0.070713751507328421 0 -0.36652174416800642 0.052833912029578038 0 -0.3740623227603066 0.074235826397746854 0 -0.36652174416800642 0.052833912029578038 0 -0.3740623227603066 0.074235826397746854 0 -0.3583986790731522 0.070713751507328421 0 -0.3740623227603066 0.074235826397746854 0 -0.3583986790731522 0.070713751507328421 0 -0.35794092842521408 0.085726740745966354 0 -0.35696384423120781 0.058332496262832559 0 -0.35526886083329201 0.06810348552331337 0 -0.3583986790731522 0.070713751507328421 0 -0.3583986790731522 0.070713751507328421 0 -0.35206327519855979 0.075226912471210217 0 -0.35794092842521408 0.085726740745966354 0 -0.35526886083329201 0.06810348552331337 0 -0.3583986790731522 0.070713751507328421 0 -0.35206327519855979 0.075226912471210217 0 -0.35526886083329201 0.06810348552331337 0 -0.35206327519855979 0.075226912471210217 0 -0.34617244813708492 0.068757303356562521 0 -0.35206327519855979 0.075226912471210217 0 -0.34535481358482811 0.074929693163949498 0 -0.34617244813708492 0.068757303356562521 0 -0.34535481358482811 0.074929693163949498 0 -0.34617244813708492 0.068757303356562521 0 -0.35285898715228492 0.056073278193248033 0 -0.35526886083329201 0.06810348552331337 0 -0.34617244813708492 0.068757303356562521 0 -0.35526886083329201 0.06810348552331337 0 -0.34617244813708492 0.068757303356562521 0 -0.34791952355093408 0.085483315846769325 0 -0.35440223969411638 0.098311380181517721 0 -0.33825642302502812 0.093459271621463141 0 -0.35206327519855979 0.075226912471210217 0 -0.34535481358482811 0.074929693163949498 0 -0.34791952355093408 0.085483315846769325 0 -0.34535481358482811 0.074929693163949498 0 -0.34791952355093408 0.085483315846769325 0 -0.34091555155258441 0.083346337904974949 0 -0.35206327519855979 0.075226912471210217 0 -0.34791952355093408 0.085483315846769325 0 -0.35794092842521408 0.085726740745966354 0 -0.34791952355093408 0.085483315846769325 0 -0.35794092842521408 0.085726740745966354 0 -0.35440223969411638 0.098311380181517721 0 -0.38098077167342942 0.093871992162320089 0 -0.3740623227603066 0.074235826397746854 0 -0.36979890940511467 0.087796877947573834 0 -0.3740623227603066 0.074235826397746854 0 -0.35794092842521408 0.085726740745966354 0 -0.35794092842521408 0.085726740745966354 0 -0.36979890940511467 0.087796877947573834 0 -0.35440223969411638 0.098311380181517721 0 -0.3740623227603066 0.074235826397746854 0 -0.35794092842521408 0.085726740745966354 0 -0.36979890940511467 0.087796877947573834 0 -0.38098077167342942 0.093871992162320089 0 -0.36979890940511467 0.087796877947573834 0 -0.36974127755220881 0.1055406706641767 0 -0.36974127755220881 0.1055406706641767 0 -0.35493833184475121 0.1174570048165036 0 -0.35440223969411638 0.098311380181517721 0 -0.36979890940511467 0.087796877947573834 0 -0.36974127755220881 0.1055406706641767 0 -0.35440223969411638 0.098311380181517721 0 -0.37298409468895738 0.13030382192022419 0 -0.36974127755220881 0.1055406706641767 0 -0.35493833184475121 0.1174570048165036 0 -0.35493833184475121 0.1174570048165036 0 -0.34286954381964307 0.1078267518036549 0 -0.33842093220619052 0.1223960087451197 0 -0.35440223969411638 0.098311380181517721 0 -0.34286954381964307 0.1078267518036549 0 -0.33825642302502812 0.093459271621463141 0 -0.35493833184475121 0.1174570048165036 0 -0.35440223969411638 0.098311380181517721 0 -0.34286954381964307 0.1078267518036549 0 -0.32832979232812942 0.1075100936536702 0 -0.32014942120012979 0.091581016234488805 0 -0.33825642302502812 0.093459271621463141 0 -0.34286954381964307 0.1078267518036549 0 -0.32832979232812942 0.1075100936536702 0 -0.33825642302502812 0.093459271621463141 0 -0.32832979232812942 0.1075100936536702 0 -0.33842093220619052 0.1223960087451197 0 -0.31967203380048381 0.1247850713484336 0 -0.34286954381964307 0.1078267518036549 0 -0.32832979232812942 0.1075100936536702 0 -0.33842093220619052 0.1223960087451197 0 -0.30656973337132859 0.1078699232241231 0 -0.32832979232812942 0.1075100936536702 0 -0.31967203380048381 0.1247850713484336 0 -0.30656973337132859 0.1078699232241231 0 -0.32832979232812942 0.1075100936536702 0 -0.32014942120012979 0.091581016234488805 0 -0.32014942120012979 0.091581016234488805 0 -0.31759839891565339 0.070811104516757761 0 -0.33409517314212489 0.080643905796070489 0 -0.31033417629388999 0.071333231035576428 0 -0.31067748662463601 0.053690493338758569 0 -0.32644161625111823 0.063268924932267184 0 -0.31033417629388999 0.071333231035576428 0 -0.32644161625111823 0.063268924932267184 0 -0.31033417629388999 0.071333231035576428 0 -0.31759839891565339 0.070811104516757761 0 -0.32644161625111823 0.063268924932267184 0 -0.31033417629388999 0.071333231035576428 0 -0.31759839891565339 0.070811104516757761 0 -0.31759839891565339 0.070811104516757761 0 -0.32644161625111823 0.063268924932267184 0 -0.34617244813708492 0.068757303356562521 0 -0.31759839891565339 0.070811104516757761 0 -0.33409517314212489 0.080643905796070489 0 -0.34617244813708492 0.068757303356562521 0 -0.31759839891565339 0.070811104516757761 0 -0.32644161625111823 0.063268924932267184 0 -0.34617244813708492 0.068757303356562521 0 -0.31759839891565339 0.070811104516757761 0 -0.34453661998514751 0.058977495645779462 0 -0.34617244813708492 0.068757303356562521 0 -0.32644161625111823 0.063268924932267184 0 -0.34535481358482811 0.074929693163949498 0 -0.34617244813708492 0.068757303356562521 0 -0.33409517314212489 0.080643905796070489 0 -0.34091555155258441 0.083346337904974949 0 -0.33825642302502812 0.093459271621463141 0 -0.33409517314212489 0.080643905796070489 0 -0.32014942120012979 0.091581016234488805 0 -0.33825642302502812 0.093459271621463141 0 -0.33409517314212489 0.080643905796070489 0 -0.34535481358482811 0.074929693163949498 0 -0.34091555155258441 0.083346337904974949 0 -0.33409517314212489 0.080643905796070489 0 -0.34791952355093408 0.085483315846769325 0 -0.34091555155258441 0.083346337904974949 0 -0.33825642302502812 0.093459271621463141 0 -0.38026875946108168 0.4770056860759474 0 -0.39124643630668648 0.45786626933194119 0 -0.40682169261908718 0.47872051322258219 0 -0.39992971205613009 0.5 0 -0.38026875946108168 0.4770056860759474 0 -0.40682169261908718 0.47872051322258219 0 -0.39992971205613009 0.5 0 -0.38026875946108168 0.4770056860759474 0 -0.37011359282498701 0.5 0 -0.38026875946108168 0.4770056860759474 0 -0.39124643630668648 0.45786626933194119 0 -0.36946665730258632 0.45003886879056898 0 -0.38899345865094442 0.43591744809001581 0 -0.37258267688966679 0.42947799158033428 0 -0.36946665730258632 0.45003886879056898 0 -0.39124643630668648 0.45786626933194119 0 -0.38899345865094442 0.43591744809001581 0 -0.36946665730258632 0.45003886879056898 0 -0.40454727283298109 0.44583372248572523 0 -0.39124643630668648 0.45786626933194119 0 -0.38899345865094442 0.43591744809001581 0 -0.40454727283298109 0.44583372248572523 0 -0.39124643630668648 0.45786626933194119 0 -0.41155288875779622 0.46109917592241401 0 -0.39124643630668648 0.45786626933194119 0 -0.41155288875779622 0.46109917592241401 0 -0.40682169261908718 0.47872051322258219 0 -0.41155288875779622 0.46109917592241401 0 -0.41741443261071048 0.44623816955523721 0 -0.42402174464055498 0.45659956856691741 0 -0.41155288875779622 0.46109917592241401 0 -0.42527273396618398 0.46681599582102462 0 -0.41720062064057972 0.47141878606708909 0 -0.41155288875779622 0.46109917592241401 0 -0.42527273396618398 0.46681599582102462 0 -0.42402174464055498 0.45659956856691741 0 -0.40454727283298109 0.44583372248572523 0 -0.41741443261071048 0.44623816955523721 0 -0.41352914783876799 0.42804754952901719 0 -0.40454727283298109 0.44583372248572523 0 -0.41155288875779622 0.46109917592241401 0 -0.41741443261071048 0.44623816955523721 0 -0.43038116323997921 0.44863317223111782 0 -0.43624334661234693 0.4376551775090351 0 -0.43417625127651061 0.45748932723198332 0 -0.43624334661234693 0.4376551775090351 0 -0.43417625127651061 0.45748932723198332 0 -0.41741443261071048 0.44623816955523721 0 -0.43038116323997921 0.44863317223111782 0 -0.42712658546567772 0.43615034395848318 0 -0.41741443261071048 0.44623816955523721 0 -0.43038116323997921 0.44863317223111782 0 -0.42402174464055498 0.45659956856691741 0 -0.43038116323997921 0.44863317223111782 0 -0.43624334661234693 0.4376551775090351 0 -0.43038116323997921 0.44863317223111782 0 -0.43624334661234693 0.4376551775090351 0 -0.42712658546567772 0.43615034395848318 0 -0.43417625127651061 0.45748932723198332 0 -0.43210915594067711 0.47732347695493188 0 -0.42527273396618398 0.46681599582102462 0 -0.43417625127651061 0.45748932723198332 0 -0.43210915594067711 0.47732347695493188 0 -0.42527273396618398 0.46681599582102462 0 -0.42402174464055498 0.45659956856691741 0 -0.43417625127651061 0.45748932723198332 0 -0.43038116323997921 0.44863317223111782 0 -0.42402174464055498 0.45659956856691741 0 -0.43417625127651061 0.45748932723198332 0 -0.43210915594067711 0.47732347695493188 0 -0.42515516721925117 0.47903945930233549 0 -0.42527273396618398 0.46681599582102462 0 -0.43210915594067711 0.47732347695493188 0 -0.42515516721925117 0.47903945930233549 0 -0.42527273396618398 0.46681599582102462 0 -0.42515516721925117 0.47903945930233549 0 -0.41720062064057972 0.47141878606708909 0 -0.42515516721925117 0.47903945930233549 0 -0.40682169261908718 0.47872051322258219 0 -0.41720062064057972 0.47141878606708909 0 -0.41155288875779622 0.46109917592241401 0 -0.40682169261908718 0.47872051322258219 0 -0.41720062064057972 0.47141878606708909 0 -0.39992971205613009 0.5 0 -0.40682169261908718 0.47872051322258219 0 -0.42974583128727339 0.50000000000001266 0 -0.42515516721925117 0.47903945930233549 0 -0.40682169261908718 0.47872051322258219 0 -0.42974583128727339 0.50000000000001266 0 -0.43210915594067711 0.47732347695493188 0 -0.42515516721925117 0.47903945930233549 0 -0.42974583128727339 0.50000000000001266 0 -0.43210915594067711 0.47732347695493188 0 -0.42974583128727339 0.50000000000001266 0 -0.43990819844159879 0.48768424466744298 0 -0.43210915594067711 0.47732347695493188 0 -0.42974583128727339 0.50000000000001266 0 -0.42974583128727339 0.50000000000001266 0 -0.44982354370491501 0.49999999999999539 0 -0.43990819844159879 0.48768424466744298 0 -0.44982354370491501 0.49999999999999539 0 -0.43990819844159879 0.48768424466744298 0 -0.44795426283352768 0.47341350171483781 0 -0.44982354370491501 0.49999999999999539 0 -0.44795426283352768 0.47341350171483781 0 -0.43210915594067711 0.47732347695493188 0 -0.44795426283352768 0.47341350171483781 0 -0.43210915594067711 0.47732347695493188 0 -0.43990819844159879 0.48768424466744298 0 -0.44795426283352768 0.47341350171483781 0 -0.43417625127651061 0.45748932723198332 0 -0.43210915594067711 0.47732347695493188 0 -0.44795426283352768 0.47341350171483781 0 -0.44795426283352768 0.47341350171483781 0 -0.4739771314167639 0.46699203845018727 0 -0.44795426283352768 0.47341350171483781 0 -0.46793873448880158 0.485101385041255 0 -0.4739771314167639 0.46699203845018727 0 -0.44982354370491501 0.49999999999999539 0 -0.44795426283352768 0.47341350171483781 0 -0.46793873448880158 0.485101385041255 0 -0.5 0.5 0 -0.50000000000000022 0.46057057518553718 0 -0.4739771314167639 0.46699203845018727 0 -0.46793873448880158 0.485101385041255 0 -0.5 0.5 0 -0.4739771314167639 0.46699203845018727 0 -0.44982354370491501 0.49999999999999539 0 -0.46793873448880158 0.485101385041255 0 -0.5 0.5 0 -0.50000000000000022 0.46057057518553718 0 -0.48261548445564362 0.44605947083535402 0 -0.5 0.4304411650713556 0 -0.50000000000000022 0.46057057518553718 0 -0.4739771314167639 0.46699203845018727 0 -0.50000000000000022 0.46057057518553718 0 -0.4739771314167639 0.46699203845018727 0 -0.48261548445564362 0.44605947083535402 0 -0.4739771314167639 0.46699203845018727 0 -0.48261548445564362 0.44605947083535402 0 -0.44616217737684899 0.44792494210336442 0 -0.48261548445564362 0.44605947083535402 0 -0.44616217737684899 0.44792494210336442 0 -0.46564013444448937 0.42882057002843738 0 -0.44795426283352768 0.47341350171483781 0 -0.4739771314167639 0.46699203845018727 0 -0.44616217737684899 0.44792494210336442 0 -0.43417625127651061 0.45748932723198332 0 -0.44795426283352768 0.47341350171483781 0 -0.44616217737684899 0.44792494210336442 0 -0.44795426283352768 0.47341350171483781 0 -0.44616217737684899 0.44792494210336442 0 -0.43624334661234693 0.4376551775090351 0 -0.43417625127651061 0.45748932723198332 0 -0.44616217737684899 0.44792494210336442 0 -0.44437009192016869 0.42243638249189108 0 -0.44712870194284943 0.41727038812671552 0 -0.46564013444448937 0.42882057002843738 0 -0.43624334661234693 0.4376551775090351 0 -0.44437009192016869 0.42243638249189108 0 -0.43806483702658838 0.42017765096800902 0 -0.44616217737684899 0.44792494210336442 0 -0.44437009192016869 0.42243638249189108 0 -0.46564013444448937 0.42882057002843738 0 -0.43624334661234693 0.4376551775090351 0 -0.44616217737684899 0.44792494210336442 0 -0.44437009192016869 0.42243638249189108 0 -0.43624334661234693 0.4376551775090351 0 -0.44437009192016869 0.42243638249189108 0 -0.44616217737684899 0.44792494210336442 0 -0.44437009192016869 0.42243638249189108 0 -0.44407572455519961 0.41824964011208821 0 -0.44712870194284943 0.41727038812671552 0 -0.44290544436910367 0.40160492254340369 0 -0.44712870194284943 0.41727038812671552 0 -0.45687837525149683 0.39901236797864897 0 -0.43806483702658838 0.42017765096800902 0 -0.43990000060479822 0.40256892797136401 0 -0.43806483702658838 0.42017765096800902 0 -0.44407572455519961 0.41824964011208821 0 -0.43990000060479822 0.40256892797136401 0 -0.44407572455519961 0.41824964011208821 0 -0.44290544436910367 0.40160492254340369 0 -0.44407572455519961 0.41824964011208821 0 -0.43990000060479822 0.40256892797136401 0 -0.44290544436910367 0.40160492254340369 0 -0.43806483702658838 0.42017765096800902 0 -0.44407572455519961 0.41824964011208821 0 -0.44437009192016869 0.42243638249189108 0 -0.44407572455519961 0.41824964011208821 0 -0.44437009192016869 0.42243638249189108 0 -0.44407572455519961 0.41824964011208821 0 -0.44712870194284943 0.41727038812671552 0 -0.44437009192016869 0.42243638249189108 0 -0.43806483702658838 0.42017765096800902 0 -0.44407572455519961 0.41824964011208821 0 -0.44437009192016869 0.42243638249189108 0 -0.44712870194284943 0.41727038812671552 0 -0.44407572455519961 0.41824964011208821 0 -0.44712870194284943 0.41727038812671552 0 -0.44712870194284943 0.41727038812671552 0 -0.4735643509714268 0.40879107154194488 0 -0.44712870194284943 0.41727038812671552 0 -0.46564013444448937 0.42882057002843738 0 -0.4735643509714268 0.40879107154194488 0 -0.44712870194284943 0.41727038812671552 0 -0.4735643509714268 0.40879107154194488 0 -0.45687837525149683 0.39901236797864897 0 -0.48261548445564362 0.44605947083535402 0 -0.46564013444448937 0.42882057002843738 0 -0.5 0.4304411650713556 0 -0.46564013444448937 0.42882057002843738 0 -0.4735643509714268 0.40879107154194488 0 -0.5 0.4304411650713556 0 -0.4735643509714268 0.40879107154194488 0 -0.5 0.4304411650713556 0 -0.500000000000004 0.40031175495717403 0 -0.500000000000004 0.40031175495717403 0 -0.48264946748091958 0.39166702365752509 0 -0.5 0.37177450692955261 0 -0.48264946748091958 0.39166702365752509 0 -0.4806140204608369 0.37495126701324683 0 -0.5 0.37177450692955261 0 -0.4735643509714268 0.40879107154194488 0 -0.500000000000004 0.40031175495717403 0 -0.48264946748091958 0.39166702365752509 0 -0.4735643509714268 0.40879107154194488 0 -0.500000000000004 0.40031175495717403 0 -0.4735643509714268 0.40879107154194488 0 -0.48264946748091958 0.39166702365752509 0 -0.45687837525149683 0.39901236797864897 0 -0.48264946748091958 0.39166702365752509 0 -0.46662804856014373 0.38075434783058221 0 -0.4806140204608369 0.37495126701324683 0 -0.46662804856014373 0.38075434783058221 0 -0.45473557013300198 0.38613597926622889 0 -0.45687837525149683 0.39901236797864897 0 -0.46662804856014373 0.38075434783058221 0 -0.45473557013300198 0.38613597926622889 0 -0.46263964877250902 0.36770623809339981 0 -0.46662804856014373 0.38075434783058221 0 -0.45687837525149683 0.39901236797864897 0 -0.48264946748091958 0.39166702365752509 0 -0.46662804856014373 0.38075434783058221 0 -0.45687837525149683 0.39901236797864897 0 -0.44290544436910367 0.40160492254340369 0 -0.44173516418301062 0.38496020497471922 0 -0.43990000060479822 0.40256892797136401 0 -0.44290544436910367 0.40160492254340369 0 -0.44173516418301062 0.38496020497471922 0 -0.44712870194284943 0.41727038812671552 0 -0.45687837525149683 0.39901236797864897 0 -0.44290544436910367 0.40160492254340369 0 -0.43990000060479822 0.40256892797136401 0 -0.44173516418301062 0.38496020497471922 0 -0.45473557013300198 0.38613597926622889 0 -0.44290544436910367 0.40160492254340369 0 -0.44173516418301062 0.38496020497471922 0 -0.45473557013300198 0.38613597926622889 0 -0.45687837525149683 0.39901236797864897 0 -0.44290544436910367 0.40160492254340369 0 -0.44173516418301062 0.38496020497471922 0 -0.44377037163016703 0.36543202525106649 0 -0.45473557013300198 0.38613597926622889 0 -0.44173516418301062 0.38496020497471922 0 -0.44377037163016703 0.36543202525106649 0 -0.44173516418301062 0.38496020497471922 0 -0.4269467586619331 0.39283068969859491 0 -0.42246394554910438 0.37451937563510151 0 -0.40971774876666811 0.39301605838971848 0 -0.39521060097198191 0.37431470879463902 0 -0.42246394554910438 0.37451937563510151 0 -0.40971774876666811 0.39301605838971848 0 -0.4269467586619331 0.39283068969859491 0 -0.42246394554910438 0.37451937563510151 0 -0.40971774876666811 0.39301605838971848 0 -0.42091693420608528 0.40908888152207118 0 -0.39359314776396759 0.41116550107469679 0 -0.40971774876666811 0.39301605838971848 0 -0.4269467586619331 0.39283068969859491 0 -0.42091693420608528 0.40908888152207118 0 -0.43990000060479822 0.40256892797136401 0 -0.44173516418301062 0.38496020497471922 0 -0.4269467586619331 0.39283068969859491 0 -0.43990000060479822 0.40256892797136401 0 -0.4269467586619331 0.39283068969859491 0 -0.42091693420608528 0.40908888152207118 0 -0.43806483702658838 0.42017765096800902 0 -0.41352914783876799 0.42804754952901719 0 -0.42091693420608528 0.40908888152207118 0 -0.43806483702658838 0.42017765096800902 0 -0.43990000060479822 0.40256892797136401 0 -0.42091693420608528 0.40908888152207118 0 -0.43806483702658838 0.42017765096800902 0 -0.42712658546567772 0.43615034395848318 0 -0.41352914783876799 0.42804754952901719 0 -0.43624334661234693 0.4376551775090351 0 -0.43806483702658838 0.42017765096800902 0 -0.42712658546567772 0.43615034395848318 0 -0.43624334661234693 0.4376551775090351 0 -0.43806483702658838 0.42017765096800902 0 -0.43806483702658838 0.42017765096800902 0 -0.41352914783876799 0.42804754952901719 0 -0.41741443261071048 0.44623816955523721 0 -0.42712658546567772 0.43615034395848318 0 -0.41352914783876799 0.42804754952901719 0 -0.41352914783876799 0.42804754952901719 0 -0.42091693420608528 0.40908888152207118 0 -0.39359314776396759 0.41116550107469679 0 -0.40454727283298109 0.44583372248572523 0 -0.41352914783876799 0.42804754952901719 0 -0.38899345865094442 0.43591744809001581 0 -0.41352914783876799 0.42804754952901719 0 -0.38899345865094442 0.43591744809001581 0 -0.41352914783876799 0.42804754952901719 0 -0.39359314776396759 0.41116550107469679 0 -0.38899345865094442 0.43591744809001581 0 -0.39359314776396759 0.41116550107469679 0 -0.38899345865094442 0.43591744809001581 0 -0.37258267688966679 0.42947799158033428 0 -0.39359314776396759 0.41116550107469679 0 -0.36833729883882799 0.4124891996848144 0 -0.37258267688966679 0.42947799158033428 0 -0.39359314776396759 0.41116550107469679 0 -0.37969800636980949 0.38877791710890203 0 -0.39504561587788117 0.39341706811664529 0 -0.39359314776396759 0.41116550107469679 0 -0.37969800636980949 0.38877791710890203 0 -0.36833729883882799 0.4124891996848144 0 -0.37969800636980949 0.38877791710890203 0 -0.39521060097198191 0.37431470879463902 0 -0.37779303571317741 0.37440270352291521 0 -0.37969800636980949 0.38877791710890203 0 -0.39504561587788117 0.39341706811664529 0 -0.39521060097198191 0.37431470879463902 0 -0.40971774876666811 0.39301605838971848 0 -0.39504561587788117 0.39341706811664529 0 -0.39521060097198191 0.37431470879463902 0 -0.40971774876666811 0.39301605838971848 0 -0.39359314776396759 0.41116550107469679 0 -0.39504561587788117 0.39341706811664529 0 -0.39422493651823298 0.35128435037120082 0 -0.4061623252947813 0.33937129855122339 0 -0.40799337610288577 0.35983890028724269 0 -0.39422493651823298 0.35128435037120082 0 -0.39521060097198191 0.37431470879463902 0 -0.40799337610288577 0.35983890028724269 0 -0.39521060097198191 0.37431470879463902 0 -0.37779303571317741 0.37440270352291521 0 -0.37588256247323182 0.35551916019586949 0 -0.39422493651823298 0.35128435037120082 0 -0.39521060097198191 0.37431470879463902 0 -0.37588256247323182 0.35551916019586949 0 -0.37588256247323182 0.35551916019586949 0 -0.39138415190877418 0.33203929239948671 0 -0.39422493651823298 0.35128435037120082 0 -0.37588256247323182 0.35551916019586949 0 -0.39138415190877418 0.33203929239948671 0 -0.37588256247323182 0.35551916019586949 0 -0.37693502113946631 0.33186229137174111 0 -0.39138415190877418 0.33203929239948671 0 -0.37693502113946631 0.33186229137174111 0 -0.38486270054126231 0.32137700149217202 0 -0.39138415190877418 0.33203929239948671 0 -0.38486270054126231 0.32137700149217202 0 -0.38468740003069102 0.30732596153030028 0 -0.37049308300791078 0.31646031557332682 0 -0.37693502113946631 0.33186229137174111 0 -0.38486270054126231 0.32137700149217202 0 -0.37049308300791078 0.31646031557332682 0 -0.38486270054126231 0.32137700149217202 0 -0.4026824588280436 0.31868446896023511 0 -0.38468740003069102 0.30732596153030028 0 -0.4026824588280436 0.31868446896023511 0 -0.38468740003069102 0.30732596153030028 0 -0.38486270054126231 0.32137700149217202 0 -0.4026824588280436 0.31868446896023511 0 -0.39138415190877418 0.33203929239948671 0 -0.39422493651823298 0.35128435037120082 0 -0.4061623252947813 0.33937129855122339 0 -0.39138415190877418 0.33203929239948671 0 -0.4026824588280436 0.31868446896023511 0 -0.4061623252947813 0.33937129855122339 0 -0.39138415190877418 0.33203929239948671 0 -0.4026824588280436 0.31868446896023511 0 -0.4061623252947813 0.33937129855122339 0 -0.42067751762539618 0.33004297639016972 0 -0.4061623252947813 0.33937129855122339 0 -0.42067751762539618 0.33004297639016972 0 -0.42274013997105409 0.34839013505959332 0 -0.4026824588280436 0.31868446896023511 0 -0.42067751762539618 0.33004297639016972 0 -0.42201002736651372 0.31378933530736908 0 -0.4026824588280436 0.31868446896023511 0 -0.42067751762539618 0.33004297639016972 0 -0.42067751762539618 0.33004297639016972 0 -0.42201002736651372 0.31378933530736908 0 -0.43722741852891261 0.32084722231003299 0 -0.42067751762539618 0.33004297639016972 0 -0.43722741852891261 0.32084722231003299 0 -0.43867257642274848 0.34140148382010482 0 -0.42067751762539618 0.33004297639016972 0 -0.43867257642274848 0.34140148382010482 0 -0.42067751762539618 0.33004297639016972 0 -0.42274013997105409 0.34839013505959332 0 -0.43867257642274848 0.34140148382010482 0 -0.42274013997105409 0.34839013505959332 0 -0.44020387030287861 0.36318084439741211 0 -0.43867257642274848 0.34140148382010482 0 -0.4061623252947813 0.33937129855122339 0 -0.42274013997105409 0.34839013505959332 0 -0.40799337610288577 0.35983890028724269 0 -0.39521060097198191 0.37431470879463902 0 -0.40799337610288577 0.35983890028724269 0 -0.42246394554910438 0.37451937563510151 0 -0.42274013997105409 0.34839013505959332 0 -0.40799337610288577 0.35983890028724269 0 -0.42246394554910438 0.37451937563510151 0 -0.44173516418301062 0.38496020497471922 0 -0.42246394554910438 0.37451937563510151 0 -0.44020387030287861 0.36318084439741211 0 -0.42274013997105409 0.34839013505959332 0 -0.42246394554910438 0.37451937563510151 0 -0.44020387030287861 0.36318084439741211 0 -0.44173516418301062 0.38496020497471922 0 -0.44020387030287861 0.36318084439741211 0 -0.44173516418301062 0.38496020497471922 0 -0.44020387030287861 0.36318084439741211 0 -0.44377037163016703 0.36543202525106649 0 -0.44020387030287861 0.36318084439741211 0 -0.4458055790773266 0.34590384552741421 0 -0.43867257642274848 0.34140148382010482 0 -0.4458055790773266 0.34590384552741421 0 -0.45531943193035462 0.35190900336185821 0 -0.45819153694009862 0.3360499619774916 0 -0.44020387030287861 0.36318084439741211 0 -0.43867257642274848 0.34140148382010482 0 -0.44377037163016703 0.36543202525106649 0 -0.4458055790773266 0.34590384552741421 0 -0.44377037163016703 0.36543202525106649 0 -0.4458055790773266 0.34590384552741421 0 -0.45531943193035462 0.35190900336185821 0 -0.44020387030287861 0.36318084439741211 0 -0.44377037163016703 0.36543202525106649 0 -0.4458055790773266 0.34590384552741421 0 -0.4458055790773266 0.34590384552741421 0 -0.45531943193035462 0.35190900336185821 0 -0.46660694099754763 0.35700236250093742 0 -0.45531943193035462 0.35190900336185821 0 -0.47177071305391688 0.34074751404319448 0 -0.46660694099754763 0.35700236250093742 0 -0.45531943193035462 0.35190900336185821 0 -0.46263964877250902 0.36770623809339981 0 -0.45473557013300198 0.38613597926622889 0 -0.44377037163016703 0.36543202525106649 0 -0.46263964877250902 0.36770623809339981 0 -0.44377037163016703 0.36543202525106649 0 -0.45531943193035462 0.35190900336185821 0 -0.46263964877250902 0.36770623809339981 0 -0.46662804856014373 0.38075434783058221 0 -0.46263964877250902 0.36770623809339981 0 -0.4806140204608369 0.37495126701324683 0 -0.46660694099754763 0.35700236250093742 0 -0.46263964877250902 0.36770623809339981 0 -0.47876449687739492 0.35935693322401713 0 -0.46263964877250902 0.36770623809339981 0 -0.4806140204608369 0.37495126701324683 0 -0.47876449687739492 0.35935693322401713 0 -0.46660694099754763 0.35700236250093742 0 -0.47876449687739492 0.35935693322401713 0 -0.47177071305391688 0.34074751404319448 0 -0.47876449687739492 0.35935693322401713 0 -0.5 0.34323725890193107 0 -0.47177071305391688 0.34074751404319448 0 -0.47876449687739492 0.35935693322401713 0 -0.5 0.37177450692955261 0 -0.5 0.34323725890193107 0 -0.4806140204608369 0.37495126701324683 0 -0.47876449687739492 0.35935693322401713 0 -0.5 0.37177450692955261 0 -0.48610225702708681 0.32690149058316981 0 -0.48441644508807569 0.31325180001495789 0 -0.50000000000000144 0.31470001087430949 0 -0.48610225702708681 0.32690149058316981 0 -0.50000000000000144 0.31470001087430949 0 -0.5 0.34323725890193107 0 -0.48610225702708681 0.32690149058316981 0 -0.5 0.34323725890193107 0 -0.47177071305391688 0.34074751404319448 0 -0.48610225702708681 0.32690149058316981 0 -0.47177071305391688 0.34074751404319448 0 -0.47275614256803372 0.32267423200957052 0 -0.48441644508807569 0.31325180001495789 0 -0.47275614256803372 0.32267423200957052 0 -0.47027733358773599 0.30261375500727972 0 -0.48610225702708681 0.32690149058316981 0 -0.48441644508807569 0.31325180001495789 0 -0.47275614256803372 0.32267423200957052 0 -0.47275614256803372 0.32267423200957052 0 -0.46021746009748149 0.31662756073655141 0 -0.47027733358773599 0.30261375500727972 0 -0.46021746009748149 0.31662756073655141 0 -0.45819153694009862 0.3360499619774916 0 -0.44803843906073321 0.32447915434187352 0 -0.47275614256803372 0.32267423200957052 0 -0.46021746009748149 0.31662756073655141 0 -0.45819153694009862 0.3360499619774916 0 -0.45531943193035462 0.35190900336185821 0 -0.47177071305391688 0.34074751404319448 0 -0.45819153694009862 0.3360499619774916 0 -0.47177071305391688 0.34074751404319448 0 -0.47275614256803372 0.32267423200957052 0 -0.45819153694009862 0.3360499619774916 0 -0.4458055790773266 0.34590384552741421 0 -0.44803843906073321 0.32447915434187352 0 -0.4458055790773266 0.34590384552741421 0 -0.43867257642274848 0.34140148382010482 0 -0.44803843906073321 0.32447915434187352 0 -0.43722741852891261 0.32084722231003299 0 -0.43867257642274848 0.34140148382010482 0 -0.43722741852891261 0.32084722231003299 0 -0.43867257642274848 0.34140148382010482 0 -0.44803843906073321 0.32447915434187352 0 -0.4458055790773266 0.34590384552741421 0 -0.45819153694009862 0.3360499619774916 0 -0.44803843906073321 0.32447915434187352 0 -0.4458055790773266 0.34590384552741421 0 -0.43867257642274848 0.34140148382010482 0 -0.46021746009748149 0.31662756073655141 0 -0.44803843906073321 0.32447915434187352 0 -0.45027129904414442 0.30305446315633339 0 -0.43722741852891261 0.32084722231003299 0 -0.44803843906073321 0.32447915434187352 0 -0.45027129904414442 0.30305446315633339 0 -0.44803843906073321 0.32447915434187352 0 -0.45027129904414442 0.30305446315633339 0 -0.43722741852891261 0.32084722231003299 0 -0.45027129904414442 0.30305446315633339 0 -0.4357822606350773 0.30029296079996121 0 -0.45027129904414442 0.30305446315633339 0 -0.44250375377840739 0.28949244176662298 0 -0.4357822606350773 0.30029296079996121 0 -0.45250415902755559 0.2816297719707932 0 -0.44250375377840739 0.28949244176662298 0 -0.43433710274123799 0.27973869928988959 0 -0.44250375377840739 0.28949244176662298 0 -0.43433710274123799 0.27973869928988959 0 -0.4357822606350773 0.30029296079996121 0 -0.45027129904414442 0.30305446315633339 0 -0.45250415902755559 0.2816297719707932 0 -0.45027129904414442 0.30305446315633339 0 -0.45250415902755559 0.2816297719707932 0 -0.44250375377840739 0.28949244176662298 0 -0.45250415902755559 0.2816297719707932 0 -0.47027733358773599 0.30261375500727972 0 -0.47962104681341772 0.28445246403906649 0 -0.45250415902755559 0.2816297719707932 0 -0.47962104681341772 0.28445246403906649 0 -0.45027129904414442 0.30305446315633339 0 -0.45250415902755559 0.2816297719707932 0 -0.47027733358773599 0.30261375500727972 0 -0.46021746009748149 0.31662756073655141 0 -0.45027129904414442 0.30305446315633339 0 -0.47027733358773599 0.30261375500727972 0 -0.48441644508807569 0.31325180001495789 0 -0.47027733358773599 0.30261375500727972 0 -0.48981052340670928 0.29957623745668832 0 -0.47027733358773599 0.30261375500727972 0 -0.47962104681341772 0.28445246403906649 0 -0.48981052340670928 0.29957623745668832 0 -0.47962104681341772 0.28445246403906649 0 -0.49999999999999861 0.28657378083520729 0 -0.47962104681341772 0.28445246403906649 0 -0.48981052340670928 0.29957623745668832 0 -0.47962104681341772 0.28445246403906649 0 -0.49999999999999861 0.28657378083520729 0 -0.48981052340670928 0.29957623745668832 0 -0.50000000000000144 0.31470001087430949 0 -0.49999999999999861 0.28657378083520729 0 -0.48981052340670928 0.29957623745668832 0 -0.50000000000000144 0.31470001087430949 0 -0.48981052340670928 0.29957623745668832 0 -0.48441644508807569 0.31325180001495789 0 -0.50000000000000144 0.31470001087430949 0 -0.48981052340670928 0.29957623745668832 0 -0.5 0.24439004502373751 0 -0.5 0.26548191292947237 0 -0.48301907635480129 0.25968205189014743 0 -0.47962104681341772 0.28445246403906649 0 -0.5 0.26548191292947237 0 -0.48301907635480129 0.25968205189014743 0 -0.47962104681341772 0.28445246403906649 0 -0.49999999999999861 0.28657378083520729 0 -0.5 0.26548191292947237 0 -0.47962104681341772 0.28445246403906649 0 -0.46351747699157347 0.27458529634742668 0 -0.46775157300913212 0.26683514770698707 0 -0.47962104681341772 0.28445246403906649 0 -0.46775157300913212 0.26683514770698707 0 -0.47962104681341772 0.28445246403906649 0 -0.48301907635480129 0.25968205189014743 0 -0.46775157300913212 0.26683514770698707 0 -0.48301907635480129 0.25968205189014743 0 -0.4705066238837512 0.25195176650195572 0 -0.46775157300913212 0.26683514770698707 0 -0.48039266583566731 0.24371349421027441 0 -0.48301907635480129 0.25968205189014743 0 -0.4705066238837512 0.25195176650195572 0 -0.45588209920483652 0.24921783137491449 0 -0.46775157300913212 0.26683514770698707 0 -0.45588209920483652 0.24921783137491449 0 -0.4705066238837512 0.25195176650195572 0 -0.46775157300913212 0.26683514770698707 0 -0.45588209920483652 0.24921783137491449 0 -0.45419312911619081 0.26542380167285318 0 -0.46775157300913212 0.26683514770698707 0 -0.45588209920483652 0.24921783137491449 0 -0.45419312911619081 0.26542380167285318 0 -0.45250415902755559 0.2816297719707932 0 -0.47962104681341772 0.28445246403906649 0 -0.46351747699157347 0.27458529634742668 0 -0.45250415902755559 0.2816297719707932 0 -0.45419312911619081 0.26542380167285318 0 -0.46351747699157347 0.27458529634742668 0 -0.45250415902755559 0.2816297719707932 0 -0.45419312911619081 0.26542380167285318 0 -0.45419312911619081 0.26542380167285318 0 -0.46351747699157347 0.27458529634742668 0 -0.46775157300913212 0.26683514770698707 0 -0.45250415902755559 0.2816297719707932 0 -0.45419312911619081 0.26542380167285318 0 -0.44489417972609868 0.27264112250195688 0 -0.45250415902755559 0.2816297719707932 0 -0.43433710274123799 0.27973869928988959 0 -0.45250415902755559 0.2816297719707932 0 -0.44489417972609868 0.27264112250195688 0 -0.43433710274123799 0.27973869928988959 0 -0.45419312911619081 0.26542380167285318 0 -0.44489417972609868 0.27264112250195688 0 -0.44104359445671032 0.26464693120847121 0 -0.43864670938643918 0.27312290457026711 0 -0.44104359445671032 0.26464693120847121 0 -0.43410405027087362 0.26821823934813932 0 -0.44489417972609868 0.27264112250195688 0 -0.43864670938643918 0.27312290457026711 0 -0.44104359445671032 0.26464693120847121 0 -0.44489417972609868 0.27264112250195688 0 -0.43864670938643918 0.27312290457026711 0 -0.43433710274123799 0.27973869928988959 0 -0.45588209920483652 0.24921783137491449 0 -0.45419312911619081 0.26542380167285318 0 -0.43947142916989718 0.25215780073930483 0 -0.44104359445671032 0.26464693120847121 0 -0.43947142916989718 0.25215780073930483 0 -0.43273458411900573 0.26084183542817929 0 -0.45419312911619081 0.26542380167285318 0 -0.44104359445671032 0.26464693120847121 0 -0.43947142916989718 0.25215780073930483 0 -0.43947142916989718 0.25215780073930483 0 -0.43273458411900573 0.26084183542817929 0 -0.42240580713797993 0.25360446224679423 0 -0.44104359445671032 0.26464693120847121 0 -0.43273458411900573 0.26084183542817929 0 -0.43410405027087362 0.26821823934813932 0 -0.43273458411900573 0.26084183542817929 0 -0.42664803955956759 0.26558174359818743 0 -0.43410405027087362 0.26821823934813932 0 -0.43273458411900573 0.26084183542817929 0 -0.42664803955956759 0.26558174359818743 0 -0.42240580713797993 0.25360446224679423 0 -0.42664803955956759 0.26558174359818743 0 -0.42240580713797993 0.25360446224679423 0 -0.42016404260599671 0.26178514390371382 0 -0.42664803955956759 0.26558174359818743 0 -0.42016404260599671 0.26178514390371382 0 -0.41896315913133109 0.26885611706282442 0 -0.40156294652235103 0.24421459339957621 0 -0.42240580713797993 0.25360446224679423 0 -0.40981836284615453 0.26017849677179239 0 -0.42240580713797993 0.25360446224679423 0 -0.42016404260599671 0.26178514390371382 0 -0.40981836284615453 0.26017849677179239 0 -0.42016404260599671 0.26178514390371382 0 -0.40981836284615453 0.26017849677179239 0 -0.41896315913133109 0.26885611706282442 0 -0.41657482819107827 0.27788976176125668 0 -0.40616486921531619 0.27299893886619858 0 -0.39868757277063621 0.27602781453497233 0 -0.41657482819107827 0.27788976176125668 0 -0.39868757277063621 0.27602781453497233 0 -0.41088508165825249 0.2703973968223865 0 -0.41657482819107827 0.27788976176125668 0 -0.40616486921531619 0.27299893886619858 0 -0.40981836284615453 0.26017849677179239 0 -0.41088508165825249 0.2703973968223865 0 -0.40441176782191213 0.26787125509543841 0 -0.41088508165825249 0.2703973968223865 0 -0.40441176782191213 0.26787125509543841 0 -0.40616486921531619 0.27299893886619858 0 -0.40981836284615453 0.26017849677179239 0 -0.41088508165825249 0.2703973968223865 0 -0.41896315913133109 0.26885611706282442 0 -0.41896315913133109 0.26885611706282442 0 -0.41887640441049201 0.27718864802270637 0 -0.42516772112990359 0.2716406990203537 0 -0.4162842441138902 0.2728075504309716 0 -0.41896315913133109 0.26885611706282442 0 -0.41887640441049201 0.27718864802270637 0 -0.41088508165825249 0.2703973968223865 0 -0.4162842441138902 0.2728075504309716 0 -0.41896315913133109 0.26885611706282442 0 -0.41088508165825249 0.2703973968223865 0 -0.4162842441138902 0.2728075504309716 0 -0.41657482819107827 0.27788976176125668 0 -0.4162842441138902 0.2728075504309716 0 -0.41887640441049201 0.27718864802270637 0 -0.41657482819107827 0.27788976176125668 0 -0.41887640441049201 0.27718864802270637 0 -0.41657482819107827 0.27788976176125668 0 -0.41887640441049201 0.27718864802270637 0 -0.4306146825216024 0.27512857242420108 0 -0.43433710274123799 0.27973869928988959 0 -0.41657482819107827 0.27788976176125668 0 -0.43433710274123799 0.27973869928988959 0 -0.41887640441049201 0.27718864802270637 0 -0.42516772112990359 0.2716406990203537 0 -0.4306146825216024 0.27512857242420108 0 -0.41887640441049201 0.27718864802270637 0 -0.41657482819107827 0.27788976176125668 0 -0.43433710274123799 0.27973869928988959 0 -0.42664803955956759 0.26558174359818743 0 -0.41896315913133109 0.26885611706282442 0 -0.42516772112990359 0.2716406990203537 0 -0.42516772112990359 0.2716406990203537 0 -0.42989397394164108 0.27102739721532038 0 -0.4306146825216024 0.27512857242420108 0 -0.42664803955956759 0.26558174359818743 0 -0.42516772112990359 0.2716406990203537 0 -0.42989397394164108 0.27102739721532038 0 -0.42664803955956759 0.26558174359818743 0 -0.42989397394164108 0.27102739721532038 0 -0.43410405027087362 0.26821823934813932 0 -0.43348041000065918 0.2730248219161685 0 -0.42989397394164108 0.27102739721532038 0 -0.4306146825216024 0.27512857242420108 0 -0.43348041000065918 0.2730248219161685 0 -0.42989397394164108 0.27102739721532038 0 -0.43410405027087362 0.26821823934813932 0 -0.43864670938643918 0.27312290457026711 0 -0.43348041000065918 0.2730248219161685 0 -0.43410405027087362 0.26821823934813932 0 -0.4306146825216024 0.27512857242420108 0 -0.43418099493105039 0.27751840158530527 0 -0.43433710274123799 0.27973869928988959 0 -0.43348041000065918 0.2730248219161685 0 -0.4306146825216024 0.27512857242420108 0 -0.43418099493105039 0.27751840158530527 0 -0.43864670938643918 0.27312290457026711 0 -0.43348041000065918 0.2730248219161685 0 -0.43418099493105039 0.27751840158530527 0 -0.43864670938643918 0.27312290457026711 0 -0.43418099493105039 0.27751840158530527 0 -0.43433710274123799 0.27973869928988959 0 -0.43418099493105039 0.27751840158530527 0 -0.43433710274123799 0.27973869928988959 0 -0.42486575172843238 0.2894523993030767 0 -0.4357822606350773 0.30029296079996121 0 -0.41368048121513862 0.29907904807644647 0 -0.41657482819107827 0.27788976176125668 0 -0.43433710274123799 0.27973869928988959 0 -0.42486575172843238 0.2894523993030767 0 -0.43433710274123799 0.27973869928988959 0 -0.4357822606350773 0.30029296079996121 0 -0.43433710274123799 0.27973869928988959 0 -0.42486575172843238 0.2894523993030767 0 -0.4357822606350773 0.30029296079996121 0 -0.43722741852891261 0.32084722231003299 0 -0.4357822606350773 0.30029296079996121 0 -0.42201002736651372 0.31378933530736908 0 -0.43722741852891261 0.32084722231003299 0 -0.4357822606350773 0.30029296079996121 0 -0.42201002736651372 0.31378933530736908 0 -0.4357822606350773 0.30029296079996121 0 -0.41368048121513862 0.29907904807644647 0 -0.4026824588280436 0.31868446896023511 0 -0.42201002736651372 0.31378933530736908 0 -0.41368048121513862 0.29907904807644647 0 -0.41657482819107827 0.27788976176125668 0 -0.42486575172843238 0.2894523993030767 0 -0.41368048121513862 0.29907904807644647 0 -0.41657482819107827 0.27788976176125668 0 -0.41368048121513862 0.29907904807644647 0 -0.39385008517825892 0.28481224792398702 0 -0.41368048121513862 0.29907904807644647 0 -0.39385008517825892 0.28481224792398702 0 -0.39936889723182528 0.30400021741096311 0 -0.41657482819107827 0.27788976176125668 0 -0.39385008517825892 0.28481224792398702 0 -0.39385008517825892 0.28481224792398702 0 -0.39936889723182528 0.30400021741096311 0 -0.38468740003069102 0.30732596153030028 0 -0.4026824588280436 0.31868446896023511 0 -0.39936889723182528 0.30400021741096311 0 -0.38468740003069102 0.30732596153030028 0 -0.4026824588280436 0.31868446896023511 0 -0.41368048121513862 0.29907904807644647 0 -0.39936889723182528 0.30400021741096311 0 -0.39385008517825892 0.28481224792398702 0 -0.38468740003069102 0.30732596153030028 0 -0.37112534216543902 0.29173473408671552 0 -0.39385008517825892 0.28481224792398702 0 -0.37693096516402658 0.28181125906907001 0 -0.37112534216543902 0.29173473408671552 0 -0.39385008517825892 0.28481224792398702 0 -0.37112534216543902 0.29173473408671552 0 -0.37755784761459349 0.26729446947406638 0 -0.39219080055229061 0.26526819672229179 0 -0.40026509563470231 0.27280846611694082 0 -0.38080031735019371 0.27416586730868953 0 -0.39868757277063621 0.27602781453497233 0 -0.37693096516402658 0.28181125906907001 0 -0.38080031735019371 0.27416586730868953 0 -0.37285374779675012 0.27572387047695968 0 -0.37755784761459349 0.26729446947406638 0 -0.40026509563470231 0.27280846611694082 0 -0.39385008517825892 0.28481224792398702 0 -0.37693096516402658 0.28181125906907001 0 -0.38080031735019371 0.27416586730868953 0 -0.38080031735019371 0.27416586730868953 0 -0.37755784761459349 0.26729446947406638 0 -0.40026509563470231 0.27280846611694082 0 -0.38080031735019371 0.27416586730868953 0 -0.37755784761459349 0.26729446947406638 0 -0.37285374779675012 0.27572387047695968 0 -0.37755784761459349 0.26729446947406638 0 -0.37773090024087241 0.25911284073811491 0 -0.37018800666287999 0.2585310133815692 0 -0.37755784761459349 0.26729446947406638 0 -0.37773090024087241 0.25911284073811491 0 -0.38335918893811061 0.26073342564954571 0 -0.37773090024087241 0.25911284073811491 0 -0.38450622497592352 0.25609191229697248 0 -0.38335918893811061 0.26073342564954571 0 -0.37973463942538649 0.24962593317290899 0 -0.37667026912955309 0.2538092958169556 0 -0.38450622497592352 0.25609191229697248 0 -0.37773090024087241 0.25911284073811491 0 -0.37667026912955309 0.2538092958169556 0 -0.38450622497592352 0.25609191229697248 0 -0.37973463942538649 0.24962593317290899 0 -0.37487601444112789 0.24962968442893721 0 -0.37667026912955309 0.2538092958169556 0 -0.37973463942538649 0.24962593317290899 0 -0.37667026912955309 0.2538092958169556 0 -0.37973463942538649 0.24962593317290899 0 -0.38450622497592352 0.25609191229697248 0 -0.39464102142932089 0.25542588661643661 0 -0.38450622497592352 0.25609191229697248 0 -0.39134623085809572 0.26002485998924108 0 -0.39464102142932089 0.25542588661643661 0 -0.37755784761459349 0.26729446947406638 0 -0.38335918893811061 0.26073342564954571 0 -0.39219080055229061 0.26526819672229179 0 -0.38450622497592352 0.25609191229697248 0 -0.38335918893811061 0.26073342564954571 0 -0.39134623085809572 0.26002485998924108 0 -0.38335918893811061 0.26073342564954571 0 -0.39219080055229061 0.26526819672229179 0 -0.39134623085809572 0.26002485998924108 0 -0.39219080055229061 0.26526819672229179 0 -0.40087772394801319 0.26241952406812752 0 -0.39943634698922947 0.26709186050069961 0 -0.40156294652235103 0.24421459339957621 0 -0.40981836284615453 0.26017849677179239 0 -0.39464102142932089 0.25542588661643661 0 -0.39219080055229061 0.26526819672229179 0 -0.39134623085809572 0.26002485998924108 0 -0.40087772394801319 0.26241952406812752 0 -0.39134623085809572 0.26002485998924108 0 -0.39464102142932089 0.25542588661643661 0 -0.40087772394801319 0.26241952406812752 0 -0.40981836284615453 0.26017849677179239 0 -0.39464102142932089 0.25542588661643661 0 -0.40087772394801319 0.26241952406812752 0 -0.40981836284615453 0.26017849677179239 0 -0.40087772394801319 0.26241952406812752 0 -0.40441176782191213 0.26787125509543841 0 -0.38080031735019371 0.27416586730868953 0 -0.40026509563470231 0.27280846611694082 0 -0.39868757277063621 0.27602781453497233 0 -0.39385008517825892 0.28481224792398702 0 -0.38080031735019371 0.27416586730868953 0 -0.39868757277063621 0.27602781453497233 0 -0.41657482819107827 0.27788976176125668 0 -0.39385008517825892 0.28481224792398702 0 -0.39868757277063621 0.27602781453497233 0 -0.40441176782191213 0.26787125509543841 0 -0.39943634698922947 0.26709186050069961 0 -0.40026509563470231 0.27280846611694082 0 -0.40087772394801319 0.26241952406812752 0 -0.40441176782191213 0.26787125509543841 0 -0.39943634698922947 0.26709186050069961 0 -0.40441176782191213 0.26787125509543841 0 -0.40026509563470231 0.27280846611694082 0 -0.40616486921531619 0.27299893886619858 0 -0.40026509563470231 0.27280846611694082 0 -0.40616486921531619 0.27299893886619858 0 -0.39868757277063621 0.27602781453497233 0 -0.39219080055229061 0.26526819672229179 0 -0.39943634698922947 0.26709186050069961 0 -0.40026509563470231 0.27280846611694082 0 -0.35416262843014168 0.27231023430584511 0 -0.35485059959448478 0.2617804728311921 0 -0.36353503593583608 0.27137581634941899 0 -0.35416262843014168 0.27231023430584511 0 -0.36353503593583608 0.27137581634941899 0 -0.35596781754422852 0.28501651829943281 0 -0.35416262843014168 0.27231023430584511 0 -0.34412694577137781 0.27394096078508778 0 -0.35596781754422852 0.28501651829943281 0 -0.35416262843014168 0.27231023430584511 0 -0.34412694577137781 0.27394096078508778 0 -0.35485059959448478 0.2617804728311921 0 -0.34453512895895139 0.2482256470633874 0 -0.35485059959448478 0.2617804728311921 0 -0.33214335157437619 0.25626647618831783 0 -0.35656079039377359 0.24934357319240591 0 -0.35485059959448478 0.2617804728311921 0 -0.36383040211944978 0.25546556656990371 0 -0.34453512895895139 0.2482256470633874 0 -0.35656079039377359 0.24934357319240591 0 -0.35485059959448478 0.2617804728311921 0 -0.37755784761459349 0.26729446947406638 0 -0.35485059959448478 0.2617804728311921 0 -0.35485059959448478 0.2617804728311921 0 -0.36383040211944978 0.25546556656990371 0 -0.37018800666287999 0.2585310133815692 0 -0.37755784761459349 0.26729446947406638 0 -0.35485059959448478 0.2617804728311921 0 -0.37018800666287999 0.2585310133815692 0 -0.35656079039377359 0.24934357319240591 0 -0.36524726490309273 0.24911476737479421 0 -0.36383040211944978 0.25546556656990371 0 -0.36524726490309273 0.24911476737479421 0 -0.36383040211944978 0.25546556656990371 0 -0.370311082244276 0.25271498783237373 0 -0.36383040211944978 0.25546556656990371 0 -0.370311082244276 0.25271498783237373 0 -0.37018800666287999 0.2585310133815692 0 -0.37667026912955309 0.2538092958169556 0 -0.370311082244276 0.25271498783237373 0 -0.37018800666287999 0.2585310133815692 0 -0.37773090024087241 0.25911284073811491 0 -0.37667026912955309 0.2538092958169556 0 -0.37018800666287999 0.2585310133815692 0 -0.37487601444112789 0.24962968442893721 0 -0.37667026912955309 0.2538092958169556 0 -0.370311082244276 0.25271498783237373 0 -0.37755784761459349 0.26729446947406638 0 -0.36353503593583608 0.27137581634941899 0 -0.37285374779675012 0.27572387047695968 0 -0.37755784761459349 0.26729446947406638 0 -0.35485059959448478 0.2617804728311921 0 -0.36353503593583608 0.27137581634941899 0 -0.36353503593583608 0.27137581634941899 0 -0.35596781754422852 0.28501651829943281 0 -0.36353503593583608 0.27137581634941899 0 -0.36749479646646599 0.28155733562565632 0 -0.35596781754422852 0.28501651829943281 0 -0.37693096516402658 0.28181125906907001 0 -0.37285374779675012 0.27572387047695968 0 -0.36749479646646599 0.28155733562565632 0 -0.36353503593583608 0.27137581634941899 0 -0.37285374779675012 0.27572387047695968 0 -0.36749479646646599 0.28155733562565632 0 -0.37112534216543902 0.29173473408671552 0 -0.34840059915261962 0.29865722024944591 0 -0.37693096516402658 0.28181125906907001 0 -0.36749479646646599 0.28155733562565632 0 -0.37112534216543902 0.29173473408671552 0 -0.36749479646646599 0.28155733562565632 0 -0.37112534216543902 0.29173473408671552 0 -0.35596781754422852 0.28501651829943281 0 -0.37112534216543902 0.29173473408671552 0 -0.36352303180306061 0.3049487873321341 0 -0.34840059915261962 0.29865722024944591 0 -0.38468740003069102 0.30732596153030028 0 -0.37112534216543902 0.29173473408671552 0 -0.36352303180306061 0.3049487873321341 0 -0.38468740003069102 0.30732596153030028 0 -0.36352303180306061 0.3049487873321341 0 -0.37049308300791078 0.31646031557332682 0 -0.36352303180306061 0.3049487873321341 0 -0.34840059915261962 0.29865722024944591 0 -0.35262172374616479 0.31986175515324849 0 -0.34412694577137781 0.27394096078508778 0 -0.35596781754422852 0.28501651829943281 0 -0.33902619430639708 0.28905299595611361 0 -0.34840059915261962 0.29865722024944591 0 -0.35596781754422852 0.28501651829943281 0 -0.33902619430639708 0.28905299595611361 0 -0.37112534216543902 0.29173473408671552 0 -0.34840059915261962 0.29865722024944591 0 -0.35596781754422852 0.28501651829943281 0 -0.34840059915261962 0.29865722024944591 0 -0.35596781754422852 0.28501651829943281 0 -0.33902619430639708 0.28905299595611361 0 -0.32406274071166202 0.29565117753926767 0 -0.32593010217774121 0.27851652485285999 0 -0.34840059915261962 0.29865722024944591 0 -0.33902619430639708 0.28905299595611361 0 -0.33566896048075412 0.30253557401058989 0 -0.33902619430639708 0.28905299595611361 0 -0.33566896048075412 0.30253557401058989 0 -0.32406274071166202 0.29565117753926767 0 -0.34840059915261962 0.29865722024944591 0 -0.33475036448441903 0.32326319473317161 0 -0.34840059915261962 0.29865722024944591 0 -0.33566896048075412 0.30253557401058989 0 -0.33475036448441903 0.32326319473317161 0 -0.34840059915261962 0.29865722024944591 0 -0.33566896048075412 0.30253557401058989 0 -0.33566896048075412 0.30253557401058989 0 -0.32284130840315961 0.31235125003988651 0 -0.32406274071166202 0.29565117753926767 0 -0.32284130840315961 0.31235125003988651 0 -0.32406274071166202 0.29565117753926767 0 -0.3103142114856951 0.30215478023135112 0 -0.32406274071166202 0.29565117753926767 0 -0.3129661494593039 0.28935237764249921 0 -0.32593010217774121 0.27851652485285999 0 -0.3129661494593039 0.28935237764249921 0 -0.32593010217774121 0.27851652485285999 0 -0.30541389587192019 0.27727516593791518 0 -0.32406274071166202 0.29565117753926767 0 -0.3129661494593039 0.28935237764249921 0 -0.3103142114856951 0.30215478023135112 0 -0.32593010217774121 0.27851652485285999 0 -0.3152593336183907 0.26605477857960069 0 -0.30541389587192019 0.27727516593791518 0 -0.32593010217774121 0.27851652485285999 0 -0.3152593336183907 0.26605477857960069 0 -0.33214335157437619 0.25626647618831783 0 -0.34412694577137781 0.27394096078508778 0 -0.33902619430639708 0.28905299595611361 0 -0.32593010217774121 0.27851652485285999 0 -0.34412694577137781 0.27394096078508778 0 -0.32593010217774121 0.27851652485285999 0 -0.33214335157437619 0.25626647618831783 0 -0.34412694577137781 0.27394096078508778 0 -0.35485059959448478 0.2617804728311921 0 -0.33214335157437619 0.25626647618831783 0 -0.35485059959448478 0.2617804728311921 0 -0.33214335157437619 0.25626647618831783 0 -0.33214335157437619 0.25626647618831783 0 -0.30943610355426759 0.25075247954544339 0 -0.3152593336183907 0.26605477857960069 0 -0.33214335157437619 0.25626647618831783 0 -0.30943610355426759 0.25075247954544339 0 -0.3152593336183907 0.26605477857960069 0 -0.30943610355426759 0.25075247954544339 0 -0.29802868079933292 0.26562540461890138 0 -0.30943610355426759 0.25075247954544339 0 -0.29802868079933292 0.26562540461890138 0 -0.28738127238494571 0.25384771436250703 0 -0.29802868079933292 0.26562540461890138 0 -0.30541389587192019 0.27727516593791518 0 -0.28959110068359128 0.27813283474907968 0 -0.30541389587192019 0.27727516593791518 0 -0.28959110068359128 0.27813283474907968 0 -0.3152593336183907 0.26605477857960069 0 -0.29802868079933292 0.26562540461890138 0 -0.30541389587192019 0.27727516593791518 0 -0.28959110068359128 0.27813283474907968 0 -0.28250331456888622 0.26720636197358377 0 -0.27376830549526221 0.2789905035602438 0 -0.28959110068359128 0.27813283474907968 0 -0.27376830549526221 0.2789905035602438 0 -0.29802868079933292 0.26562540461890138 0 -0.28959110068359128 0.27813283474907968 0 -0.28250331456888622 0.26720636197358377 0 -0.29802868079933292 0.26562540461890138 0 -0.28250331456888622 0.26720636197358377 0 -0.28738127238494571 0.25384771436250703 0 -0.27794543045105369 0.2408405127151905 0 -0.28738127238494571 0.25384771436250703 0 -0.26657308525330609 0.25846916744662962 0 -0.28250331456888622 0.26720636197358377 0 -0.28738127238494571 0.25384771436250703 0 -0.26657308525330609 0.25846916744662962 0 -0.28250331456888622 0.26720636197358377 0 -0.26657308525330609 0.25846916744662962 0 -0.27376830549526221 0.2789905035602438 0 -0.26657308525330609 0.25846916744662962 0 -0.27376830549526221 0.2789905035602438 0 -0.27376830549526221 0.2789905035602438 0 -0.25007675194869161 0.28027469553284301 0 -0.26657308525330609 0.25846916744662962 0 -0.27376830549526221 0.2789905035602438 0 -0.25007675194869161 0.28027469553284301 0 -0.26657308525330609 0.25846916744662962 0 -0.25007675194869161 0.28027469553284301 0 -0.24762519668039371 0.25340429882664778 0 -0.26428413313279581 0.30527494850672943 0 -0.27187984125115872 0.29175931943703182 0 -0.24822965455552931 0.30700730005976767 0 -0.26250755835988759 0.31208005206446132 0 -0.26428413313279581 0.30527494850672943 0 -0.24822965455552931 0.30700730005976767 0 -0.27187984125115872 0.29175931943703182 0 -0.24822965455552931 0.30700730005976767 0 -0.25625239594589372 0.29046298247449781 0 -0.27187984125115872 0.29175931943703182 0 -0.24822965455552931 0.30700730005976767 0 -0.27376830549526221 0.2789905035602438 0 -0.25007675194869161 0.28027469553284301 0 -0.25625239594589372 0.29046298247449781 0 -0.27376830549526221 0.2789905035602438 0 -0.28295171391982388 0.30518230931624551 0 -0.27376830549526221 0.2789905035602438 0 -0.27187984125115872 0.29175931943703182 0 -0.28295171391982388 0.30518230931624551 0 -0.27376830549526221 0.2789905035602438 0 -0.25625239594589372 0.29046298247449781 0 -0.27187984125115872 0.29175931943703182 0 -0.26428413313279581 0.30527494850672943 0 -0.27187984125115872 0.29175931943703182 0 -0.2728469789469059 0.30967565654974311 0 -0.27187984125115872 0.29175931943703182 0 -0.2728469789469059 0.30967565654974311 0 -0.28295171391982388 0.30518230931624551 0 -0.2728469789469059 0.30967565654974311 0 -0.28295171391982388 0.30518230931624551 0 -0.27942348259861971 0.32177140209825489 0 -0.26250755835988759 0.31208005206446132 0 -0.26428413313279581 0.30527494850672943 0 -0.2728469789469059 0.30967565654974311 0 -0.28295171391982388 0.30518230931624551 0 -0.29910979704950119 0.29316423965110222 0 -0.30190672832463522 0.31400789296653042 0 -0.28959110068359128 0.27813283474907968 0 -0.28295171391982388 0.30518230931624551 0 -0.29910979704950119 0.29316423965110222 0 -0.28959110068359128 0.27813283474907968 0 -0.27376830549526221 0.2789905035602438 0 -0.28295171391982388 0.30518230931624551 0 -0.3129661494593039 0.28935237764249921 0 -0.30541389587192019 0.27727516593791518 0 -0.29910979704950119 0.29316423965110222 0 -0.30541389587192019 0.27727516593791518 0 -0.28959110068359128 0.27813283474907968 0 -0.29910979704950119 0.29316423965110222 0 -0.3129661494593039 0.28935237764249921 0 -0.29910979704950119 0.29316423965110222 0 -0.3103142114856951 0.30215478023135112 0 -0.32284130840315961 0.31235125003988651 0 -0.3103142114856951 0.30215478023135112 0 -0.30190672832463522 0.31400789296653042 0 -0.29910979704950119 0.29316423965110222 0 -0.3103142114856951 0.30215478023135112 0 -0.30190672832463522 0.31400789296653042 0 -0.30190672832463522 0.31400789296653042 0 -0.29213512234438421 0.33137411507224779 0 -0.31344274341440143 0.32731865490270901 0 -0.30959483309856678 0.34083393671164652 0 -0.29213512234438421 0.33137411507224779 0 -0.29770953381998189 0.3472727766391619 0 -0.30959483309856678 0.34083393671164652 0 -0.29213512234438421 0.33137411507224779 0 -0.31344274341440143 0.32731865490270901 0 -0.29213512234438421 0.33137411507224779 0 -0.31344274341440143 0.32731865490270901 0 -0.29213512234438421 0.33137411507224779 0 -0.2873744113215958 0.33228021687817733 0 -0.29770953381998189 0.3472727766391619 0 -0.27900334392535447 0.33780311566019428 0 -0.29770953381998189 0.3472727766391619 0 -0.2873744113215958 0.33228021687817733 0 -0.27900334392535447 0.33780311566019428 0 -0.29770953381998189 0.3472727766391619 0 -0.29213512234438421 0.33137411507224779 0 -0.29770953381998189 0.3472727766391619 0 -0.29213512234438421 0.33137411507224779 0 -0.2873744113215958 0.33228021687817733 0 -0.2873744113215958 0.33228021687817733 0 -0.27740984758668003 0.32947756289293578 0 -0.27900334392535447 0.33780311566019428 0 -0.29213512234438421 0.33137411507224779 0 -0.2873744113215958 0.33228021687817733 0 -0.27942348259861971 0.32177140209825489 0 -0.28295171391982388 0.30518230931624551 0 -0.30190672832463522 0.31400789296653042 0 -0.29213512234438421 0.33137411507224779 0 -0.28295171391982388 0.30518230931624551 0 -0.29213512234438421 0.33137411507224779 0 -0.27942348259861971 0.32177140209825489 0 -0.28295171391982388 0.30518230931624551 0 -0.29213512234438421 0.33137411507224779 0 -0.2873744113215958 0.33228021687817733 0 -0.27942348259861971 0.32177140209825489 0 -0.27740984758668003 0.32947756289293578 0 -0.2728469789469059 0.30967565654974311 0 -0.26895414252851552 0.3197931177527793 0 -0.27942348259861971 0.32177140209825489 0 -0.26250755835988759 0.31208005206446132 0 -0.2728469789469059 0.30967565654974311 0 -0.26895414252851552 0.3197931177527793 0 -0.26895414252851552 0.3197931177527793 0 -0.27320281010282221 0.32527521745079691 0 -0.26821611071585338 0.33029117484680659 0 -0.26895414252851552 0.3197931177527793 0 -0.27320281010282221 0.32527521745079691 0 -0.27942348259861971 0.32177140209825489 0 -0.27320281010282221 0.32527521745079691 0 -0.27942348259861971 0.32177140209825489 0 -0.27740984758668003 0.32947756289293578 0 -0.27900334392535447 0.33780311566019428 0 -0.26029715403072662 0.32833345468122771 0 -0.27740984758668003 0.32947756289293578 0 -0.27900334392535447 0.33780311566019428 0 -0.26821611071585338 0.33029117484680659 0 -0.27900334392535447 0.33780311566019428 0 -0.26821611071585338 0.33029117484680659 0 -0.26029715403072662 0.32833345468122771 0 -0.27900334392535447 0.33780311566019428 0 -0.26640117782863593 0.33973190600034381 0 -0.26029715403072662 0.32833345468122771 0 -0.27900334392535447 0.33780311566019428 0 -0.26640117782863593 0.33973190600034381 0 -0.27349980138874452 0.34543523319589908 0 -0.27320281010282221 0.32527521745079691 0 -0.27740984758668003 0.32947756289293578 0 -0.26821611071585338 0.33029117484680659 0 -0.26640117782863593 0.33973190600034381 0 -0.25463927022426908 0.34048088639179841 0 -0.26426492007368368 0.34891069495069071 0 -0.26640117782863593 0.33973190600034381 0 -0.26029715403072662 0.32833345468122771 0 -0.25463927022426908 0.34048088639179841 0 -0.26029715403072662 0.32833345468122771 0 -0.25463927022426908 0.34048088639179841 0 -0.246935024445958 0.3312407660247183 0 -0.26029715403072662 0.32833345468122771 0 -0.24159096413609879 0.31886379370226098 0 -0.26029715403072662 0.32833345468122771 0 -0.25822288263569138 0.3186492374532871 0 -0.24159096413609879 0.31886379370226098 0 -0.26250755835988759 0.31208005206446132 0 -0.25822288263569138 0.3186492374532871 0 -0.24822965455552931 0.30700730005976767 0 -0.25822288263569138 0.3186492374532871 0 -0.24822965455552931 0.30700730005976767 0 -0.26250755835988759 0.31208005206446132 0 -0.26895414252851552 0.3197931177527793 0 -0.25822288263569138 0.3186492374532871 0 -0.26821611071585338 0.33029117484680659 0 -0.25822288263569138 0.3186492374532871 0 -0.26895414252851552 0.3197931177527793 0 -0.26821611071585338 0.33029117484680659 0 -0.25822288263569138 0.3186492374532871 0 -0.26821611071585338 0.33029117484680659 0 -0.26029715403072662 0.32833345468122771 0 -0.25822288263569138 0.3186492374532871 0 -0.26454447135336889 0.36439521516634488 0 -0.27006966366088242 0.37773930893098051 0 -0.25653762277248288 0.38015629884330188 0 -0.25084474251157618 0.36789108045625918 0 -0.26454447135336889 0.36439521516634488 0 -0.2481761783632643 0.35404899158404002 0 -0.25084474251157618 0.36789108045625918 0 -0.26454447135336889 0.36439521516634488 0 -0.25653762277248288 0.38015629884330188 0 -0.25463927022426908 0.34048088639179841 0 -0.26426492007368368 0.34891069495069071 0 -0.2481761783632643 0.35404899158404002 0 -0.26454447135336889 0.36439521516634488 0 -0.26426492007368368 0.34891069495069071 0 -0.2481761783632643 0.35404899158404002 0 -0.26454447135336889 0.36439521516634488 0 -0.26426492007368368 0.34891069495069071 0 -0.27570502918168882 0.3545649501593871 0 -0.26426492007368368 0.34891069495069071 0 -0.27349980138874452 0.34543523319589908 0 -0.27570502918168882 0.3545649501593871 0 -0.26640117782863593 0.33973190600034381 0 -0.26426492007368368 0.34891069495069071 0 -0.27349980138874452 0.34543523319589908 0 -0.27900334392535447 0.33780311566019428 0 -0.27349980138874452 0.34543523319589908 0 -0.28257142087662301 0.34820688885166712 0 -0.27349980138874452 0.34543523319589908 0 -0.27570502918168882 0.3545649501593871 0 -0.28257142087662301 0.34820688885166712 0 -0.26454447135336889 0.36439521516634488 0 -0.27570502918168882 0.3545649501593871 0 -0.28143720599611949 0.36767581745236477 0 -0.26454447135336889 0.36439521516634488 0 -0.28143720599611949 0.36767581745236477 0 -0.27006966366088242 0.37773930893098051 0 -0.28143720599611949 0.36767581745236477 0 -0.29304739459706991 0.36402010035952848 0 -0.29256903553351449 0.3756772724704589 0 -0.28143720599611949 0.36767581745236477 0 -0.29304739459706991 0.36402010035952848 0 -0.2869393960673467 0.35595836860369262 0 -0.27900334392535447 0.33780311566019428 0 -0.28257142087662301 0.34820688885166712 0 -0.29770953381998189 0.3472727766391619 0 -0.29304739459706991 0.36402010035952848 0 -0.2869393960673467 0.35595836860369262 0 -0.29770953381998189 0.3472727766391619 0 -0.27570502918168882 0.3545649501593871 0 -0.28257142087662301 0.34820688885166712 0 -0.2869393960673467 0.35595836860369262 0 -0.27570502918168882 0.3545649501593871 0 -0.28143720599611949 0.36767581745236477 0 -0.2869393960673467 0.35595836860369262 0 -0.28257142087662301 0.34820688885166712 0 -0.2869393960673467 0.35595836860369262 0 -0.29770953381998189 0.3472727766391619 0 -0.29770953381998189 0.3472727766391619 0 -0.31622985651465502 0.35664834580249871 0 -0.30959483309856678 0.34083393671164652 0 -0.29770953381998189 0.3472727766391619 0 -0.31622985651465502 0.35664834580249871 0 -0.29770953381998189 0.3472727766391619 0 -0.30689606321239132 0.3734734836418464 0 -0.31622985651465502 0.35664834580249871 0 -0.29770953381998189 0.3472727766391619 0 -0.30689606321239132 0.3734734836418464 0 -0.30689606321239132 0.3734734836418464 0 -0.31622985651465502 0.35664834580249871 0 -0.29304739459706991 0.36402010035952848 0 -0.29770953381998189 0.3472727766391619 0 -0.30689606321239132 0.3734734836418464 0 -0.29304739459706991 0.36402010035952848 0 -0.30689606321239132 0.3734734836418464 0 -0.29256903553351449 0.3756772724704589 0 -0.30689606321239132 0.3734734836418464 0 -0.31622985651465502 0.35664834580249871 0 -0.32165253500990909 0.37841906441080297 0 -0.33830541477617082 0.36782368689737432 0 -0.31622985651465502 0.35664834580249871 0 -0.32165253500990909 0.37841906441080297 0 -0.33830541477617082 0.36782368689737432 0 -0.31622985651465502 0.35664834580249871 0 -0.33830541477617082 0.36782368689737432 0 -0.33136990647458742 0.35413246783851998 0 -0.35496381299979862 0.36230849237814028 0 -0.33830541477617082 0.36782368689737432 0 -0.33136990647458742 0.35413246783851998 0 -0.31622985651465502 0.35664834580249871 0 -0.33136990647458742 0.35413246783851998 0 -0.32549011049953758 0.33995577026783552 0 -0.34965211612874958 0.34628575605594952 0 -0.30959483309856678 0.34083393671164652 0 -0.31622985651465502 0.35664834580249871 0 -0.32549011049953758 0.33995577026783552 0 -0.33136990647458742 0.35413246783851998 0 -0.31622985651465502 0.35664834580249871 0 -0.32549011049953758 0.33995577026783552 0 -0.31622985651465502 0.35664834580249871 0 -0.32549011049953758 0.33995577026783552 0 -0.32549011049953758 0.33995577026783552 0 -0.31344274341440143 0.32731865490270901 0 -0.33475036448441903 0.32326319473317161 0 -0.30959483309856678 0.34083393671164652 0 -0.32549011049953758 0.33995577026783552 0 -0.31344274341440143 0.32731865490270901 0 -0.31344274341440143 0.32731865490270901 0 -0.33475036448441903 0.32326319473317161 0 -0.32284130840315961 0.31235125003988651 0 -0.30190672832463522 0.31400789296653042 0 -0.31344274341440143 0.32731865490270901 0 -0.32284130840315961 0.31235125003988651 0 -0.31344274341440143 0.32731865490270901 0 -0.33475036448441903 0.32326319473317161 0 -0.33475036448441903 0.32326319473317161 0 -0.35262172374616479 0.31986175515324849 0 -0.33566896048075412 0.30253557401058989 0 -0.32284130840315961 0.31235125003988651 0 -0.33475036448441903 0.32326319473317161 0 -0.32549011049953758 0.33995577026783552 0 -0.33475036448441903 0.32326319473317161 0 -0.32549011049953758 0.33995577026783552 0 -0.34569365308456468 0.33211056797967992 0 -0.34965211612874958 0.34628575605594952 0 -0.32549011049953758 0.33995577026783552 0 -0.33475036448441903 0.32326319473317161 0 -0.34569365308456468 0.33211056797967992 0 -0.34569365308456468 0.33211056797967992 0 -0.36205260776615228 0.33391568719785031 0 -0.34965211612874958 0.34628575605594952 0 -0.34569365308456468 0.33211056797967992 0 -0.35262172374616479 0.31986175515324849 0 -0.36205260776615228 0.33391568719785031 0 -0.34840059915261962 0.29865722024944591 0 -0.33475036448441903 0.32326319473317161 0 -0.35262172374616479 0.31986175515324849 0 -0.33475036448441903 0.32326319473317161 0 -0.34569365308456468 0.33211056797967992 0 -0.35262172374616479 0.31986175515324849 0 -0.36352303180306061 0.3049487873321341 0 -0.35262172374616479 0.31986175515324849 0 -0.37049308300791078 0.31646031557332682 0 -0.35262172374616479 0.31986175515324849 0 -0.37049308300791078 0.31646031557332682 0 -0.36205260776615228 0.33391568719785031 0 -0.35262172374616479 0.31986175515324849 0 -0.37049308300791078 0.31646031557332682 0 -0.37693502113946631 0.33186229137174111 0 -0.37049308300791078 0.31646031557332682 0 -0.36205260776615228 0.33391568719785031 0 -0.37588256247323182 0.35551916019586949 0 -0.37693502113946631 0.33186229137174111 0 -0.36205260776615228 0.33391568719785031 0 -0.37588256247323182 0.35551916019586949 0 -0.36205260776615228 0.33391568719785031 0 -0.34965211612874958 0.34628575605594952 0 -0.37588256247323182 0.35551916019586949 0 -0.35496381299979862 0.36230849237814028 0 -0.34965211612874958 0.34628575605594952 0 -0.37779303571317741 0.37440270352291521 0 -0.37588256247323182 0.35551916019586949 0 -0.36038097303768651 0.37899902799225038 0 -0.37588256247323182 0.35551916019586949 0 -0.35496381299979862 0.36230849237814028 0 -0.36038097303768651 0.37899902799225038 0 -0.37588256247323182 0.35551916019586949 0 -0.36038097303768651 0.37899902799225038 0 -0.33830541477617082 0.36782368689737432 0 -0.36038097303768651 0.37899902799225038 0 -0.33830541477617082 0.36782368689737432 0 -0.35496381299979862 0.36230849237814028 0 -0.36038097303768651 0.37899902799225038 0 -0.33136990647458742 0.35413246783851998 0 -0.35496381299979862 0.36230849237814028 0 -0.34965211612874958 0.34628575605594952 0 -0.35172538101196738 0.39210943562551093 0 -0.35448734256194431 0.40491872048745248 0 -0.36339660875354479 0.39545501779519482 0 -0.35172538101196738 0.39210943562551093 0 -0.35448734256194431 0.40491872048745248 0 -0.34306978898624552 0.40521984325876942 0 -0.35172538101196738 0.39210943562551093 0 -0.34306978898624552 0.40521984325876942 0 -0.33830541477617082 0.36782368689737432 0 -0.34529276781184448 0.38153889791664031 0 -0.36038097303768651 0.37899902799225038 0 -0.35172538101196738 0.39210943562551093 0 -0.36038097303768651 0.37899902799225038 0 -0.36339660875354479 0.39545501779519482 0 -0.35172538101196738 0.39210943562551093 0 -0.36038097303768651 0.37899902799225038 0 -0.35172538101196738 0.39210943562551093 0 -0.34529276781184448 0.38153889791664031 0 -0.36038097303768651 0.37899902799225038 0 -0.37969800636980949 0.38877791710890203 0 -0.37779303571317741 0.37440270352291521 0 -0.36038097303768651 0.37899902799225038 0 -0.37969800636980949 0.38877791710890203 0 -0.36038097303768651 0.37899902799225038 0 -0.37969800636980949 0.38877791710890203 0 -0.36038097303768651 0.37899902799225038 0 -0.36339660875354479 0.39545501779519482 0 -0.37969800636980949 0.38877791710890203 0 -0.36339660875354479 0.39545501779519482 0 -0.36833729883882799 0.4124891996848144 0 -0.35448734256194431 0.40491872048745248 0 -0.36339660875354479 0.39545501779519482 0 -0.36833729883882799 0.4124891996848144 0 -0.36833729883882799 0.4124891996848144 0 -0.37258267688966679 0.42947799158033428 0 -0.35446683976932009 0.43385661406153758 0 -0.35446683976932009 0.43385661406153758 0 -0.3459076352191357 0.41932010607297282 0 -0.339262572515453 0.43697304328749131 0 -0.35448734256194431 0.40491872048745248 0 -0.36833729883882799 0.4124891996848144 0 -0.3459076352191357 0.41932010607297282 0 -0.36833729883882799 0.4124891996848144 0 -0.35446683976932009 0.43385661406153758 0 -0.3459076352191357 0.41932010607297282 0 -0.35448734256194431 0.40491872048745248 0 -0.3459076352191357 0.41932010607297282 0 -0.34306978898624552 0.40521984325876942 0 -0.3459076352191357 0.41932010607297282 0 -0.33041103500645208 0.41322283047996899 0 -0.34306978898624552 0.40521984325876942 0 -0.3459076352191357 0.41932010607297282 0 -0.33041103500645208 0.41322283047996899 0 -0.32860685226993053 0.429078503164806 0 -0.33041103500645208 0.41322283047996899 0 -0.32952255869353231 0.40142407071459718 0 -0.34306978898624552 0.40521984325876942 0 -0.3459076352191357 0.41932010607297282 0 -0.339262572515453 0.43697304328749131 0 -0.32860685226993053 0.429078503164806 0 -0.339262572515453 0.43697304328749131 0 -0.32860685226993053 0.429078503164806 0 -0.32969071867930982 0.44001521590479498 0 -0.32860685226993053 0.429078503164806 0 -0.31920594270277841 0.43684725484447168 0 -0.31394294085799412 0.42049945018543028 0 -0.32860685226993053 0.429078503164806 0 -0.31920594270277841 0.43684725484447168 0 -0.32969071867930982 0.44001521590479498 0 -0.33041103500645208 0.41322283047996899 0 -0.31394294085799412 0.42049945018543028 0 -0.31819225104985133 0.40569110306414291 0 -0.33041103500645208 0.41322283047996899 0 -0.32860685226993053 0.429078503164806 0 -0.31394294085799412 0.42049945018543028 0 -0.33041103500645208 0.41322283047996899 0 -0.31819225104985133 0.40569110306414291 0 -0.32952255869353231 0.40142407071459718 0 -0.31819225104985133 0.40569110306414291 0 -0.32265020376621789 0.39440032378426298 0 -0.31254415713112232 0.38958229335299432 0 -0.31819225104985133 0.40569110306414291 0 -0.31254415713112232 0.38958229335299432 0 -0.31819225104985133 0.40569110306414291 0 -0.32265020376621789 0.39440032378426298 0 -0.32952255869353231 0.40142407071459718 0 -0.32952255869353231 0.40142407071459718 0 -0.34306978898624552 0.40521984325876942 0 -0.33328951465889478 0.38858625298584171 0 -0.35172538101196738 0.39210943562551093 0 -0.34306978898624552 0.40521984325876942 0 -0.33328951465889478 0.38858625298584171 0 -0.32265020376621789 0.39440032378426298 0 -0.32952255869353231 0.40142407071459718 0 -0.33328951465889478 0.38858625298584171 0 -0.33830541477617082 0.36782368689737432 0 -0.34529276781184448 0.38153889791664031 0 -0.33328951465889478 0.38858625298584171 0 -0.33830541477617082 0.36782368689737432 0 -0.33328951465889478 0.38858625298584171 0 -0.32165253500990909 0.37841906441080297 0 -0.35172538101196738 0.39210943562551093 0 -0.34529276781184448 0.38153889791664031 0 -0.33328951465889478 0.38858625298584171 0 -0.30689606321239132 0.3734734836418464 0 -0.32165253500990909 0.37841906441080297 0 -0.31254415713112232 0.38958229335299432 0 -0.32265020376621789 0.39440032378426298 0 -0.32165253500990909 0.37841906441080297 0 -0.31254415713112232 0.38958229335299432 0 -0.32265020376621789 0.39440032378426298 0 -0.33328951465889478 0.38858625298584171 0 -0.32165253500990909 0.37841906441080297 0 -0.30689606321239132 0.3734734836418464 0 -0.31254415713112232 0.38958229335299432 0 -0.29939969977484082 0.38698646213259391 0 -0.30689606321239132 0.3734734836418464 0 -0.31254415713112232 0.38958229335299432 0 -0.30689606321239132 0.3734734836418464 0 -0.29939969977484082 0.38698646213259391 0 -0.30689606321239132 0.3734734836418464 0 -0.29939969977484082 0.38698646213259391 0 -0.29256903553351449 0.3756772724704589 0 -0.31819225104985133 0.40569110306414291 0 -0.31254415713112232 0.38958229335299432 0 -0.30497024812279122 0.40312047988941091 0 -0.29939969977484082 0.38698646213259391 0 -0.30497024812279122 0.40312047988941091 0 -0.29190333633729171 0.40049944062334197 0 -0.31254415713112232 0.38958229335299432 0 -0.29939969977484082 0.38698646213259391 0 -0.30497024812279122 0.40312047988941091 0 -0.29190333633729171 0.40049944062334197 0 -0.28206481408714901 0.38623049876596172 0 -0.27583564844880748 0.4053348810064526 0 -0.29939969977484082 0.38698646213259391 0 -0.29190333633729171 0.40049944062334197 0 -0.28206481408714901 0.38623049876596172 0 -0.29939969977484082 0.38698646213259391 0 -0.29190333633729171 0.40049944062334197 0 -0.28143720599611949 0.36767581745236477 0 -0.28206481408714901 0.38623049876596172 0 -0.29256903553351449 0.3756772724704589 0 -0.29939969977484082 0.38698646213259391 0 -0.28206481408714901 0.38623049876596172 0 -0.29256903553351449 0.3756772724704589 0 -0.28206481408714901 0.38623049876596172 0 -0.27006966366088242 0.37773930893098051 0 -0.26292784927974627 0.3921227060672231 0 -0.28143720599611949 0.36767581745236477 0 -0.28206481408714901 0.38623049876596172 0 -0.27006966366088242 0.37773930893098051 0 -0.28206481408714901 0.38623049876596172 0 -0.27583564844880748 0.4053348810064526 0 -0.26292784927974627 0.3921227060672231 0 -0.26292784927974627 0.3921227060672231 0 -0.24901390861710809 0.41238409632724332 0 -0.24366345851576979 0.38990832528517988 0 -0.27583564844880748 0.4053348810064526 0 -0.26292784927974627 0.3921227060672231 0 -0.24901390861710809 0.41238409632724332 0 -0.26292784927974627 0.3921227060672231 0 -0.25653762277248288 0.38015629884330188 0 -0.24366345851576979 0.38990832528517988 0 -0.27006966366088242 0.37773930893098051 0 -0.26292784927974627 0.3921227060672231 0 -0.25653762277248288 0.38015629884330188 0 -0.25346010446526601 0.4336379873291929 0 -0.27526487878590272 0.42530841427698401 0 -0.24901390861710809 0.41238409632724332 0 -0.25346010446526601 0.4336379873291929 0 -0.27526487878590272 0.42530841427698401 0 -0.26358093269509553 0.45221289609321202 0 -0.27526487878590272 0.42530841427698401 0 -0.24901390861710809 0.41238409632724332 0 -0.27583564844880748 0.4053348810064526 0 -0.27526487878590272 0.42530841427698401 0 -0.24901390861710809 0.41238409632724332 0 -0.27526487878590272 0.42530841427698401 0 -0.29383910358564708 0.41546412997796173 0 -0.3015158489546973 0.43823273222672482 0 -0.27526487878590272 0.42530841427698401 0 -0.3015158489546973 0.43823273222672482 0 -0.27583564844880748 0.4053348810064526 0 -0.27526487878590272 0.42530841427698401 0 -0.29383910358564708 0.41546412997796173 0 -0.29190333633729171 0.40049944062334197 0 -0.27583564844880748 0.4053348810064526 0 -0.29383910358564708 0.41546412997796173 0 -0.31394294085799412 0.42049945018543028 0 -0.30497024812279122 0.40312047988941091 0 -0.29383910358564708 0.41546412997796173 0 -0.31394294085799412 0.42049945018543028 0 -0.31819225104985133 0.40569110306414291 0 -0.30497024812279122 0.40312047988941091 0 -0.30497024812279122 0.40312047988941091 0 -0.29190333633729171 0.40049944062334197 0 -0.29383910358564708 0.41546412997796173 0 -0.31394294085799412 0.42049945018543028 0 -0.29383910358564708 0.41546412997796173 0 -0.3015158489546973 0.43823273222672482 0 -0.31920594270277841 0.43684725484447168 0 -0.31394294085799412 0.42049945018543028 0 -0.3015158489546973 0.43823273222672482 0 -0.3015158489546973 0.43823273222672482 0 -0.29013708576126129 0.45428787219113831 0 -0.31669323882742711 0.45636284828906543 0 -0.29013708576126129 0.45428787219113831 0 -0.31669323882742711 0.45636284828906543 0 -0.29277817828788821 0.46727213621680019 0 -0.29013708576126129 0.45428787219113831 0 -0.31669323882742711 0.45636284828906543 0 -0.29277817828788821 0.46727213621680019 0 -0.30864393961723741 0.47382523192401699 0 -0.31669323882742711 0.45636284828906543 0 -0.29277817828788821 0.46727213621680019 0 -0.31669323882742711 0.45636284828906543 0 -0.29277817828788821 0.46727213621680019 0 -0.28433727370382422 0.46044111659552711 0 -0.26886311774834898 0.47818142414453441 0 -0.29277817828788821 0.46727213621680019 0 -0.29013708576126129 0.45428787219113831 0 -0.28433727370382422 0.46044111659552711 0 -0.27526487878590272 0.42530841427698401 0 -0.3015158489546973 0.43823273222672482 0 -0.29013708576126129 0.45428787219113831 0 -0.27526487878590272 0.42530841427698401 0 -0.29013708576126129 0.45428787219113831 0 -0.26358093269509553 0.45221289609321202 0 -0.29013708576126129 0.45428787219113831 0 -0.28433727370382422 0.46044111659552711 0 -0.26358093269509553 0.45221289609321202 0 -0.28433727370382422 0.46044111659552711 0 -0.25646025011971468 0.469896591485993 0 -0.28433727370382422 0.46044111659552711 0 -0.26358093269509553 0.45221289609321202 0 -0.25646025011971468 0.469896591485993 0 -0.29013708576126129 0.45428787219113831 0 -0.26358093269509553 0.45221289609321202 0 -0.26358093269509553 0.45221289609321202 0 -0.25646025011971468 0.469896591485993 0 -0.24112211087739169 0.46395685310930279 0 -0.25346010446526601 0.4336379873291929 0 -0.26358093269509553 0.45221289609321202 0 -0.2370247796289297 0.45013791999528557 0 -0.26358093269509553 0.45221289609321202 0 -0.2370247796289297 0.45013791999528557 0 -0.25084911590041348 0.5 0 -0.26886311774834898 0.47818142414453441 0 -0.2449480572088098 0.48909071207226851 0 -0.26886311774834898 0.47818142414453441 0 -0.2449480572088098 0.48909071207226851 0 -0.25646025011971468 0.469896591485993 0 -0.26886311774834898 0.47818142414453441 0 -0.2449480572088098 0.48909071207226851 0 -0.28433727370382422 0.46044111659552711 0 -0.25646025011971468 0.469896591485993 0 -0.26886311774834898 0.47818142414453441 0 -0.29277817828788821 0.46727213621680019 0 -0.26886311774834898 0.47818142414453441 0 -0.26886311774834898 0.47818142414453441 0 -0.28066523513155678 0.5 0 -0.29385257741076698 0.4856047823119245 0 -0.25084911590041348 0.5 0 -0.26886311774834898 0.47818142414453441 0 -0.28066523513155678 0.5 0 -0.28066523513155678 0.5 0 -0.29385257741076698 0.4856047823119245 0 -0.3104813543627003 0.5 0 -0.29277817828788821 0.46727213621680019 0 -0.26886311774834898 0.47818142414453441 0 -0.29385257741076698 0.4856047823119245 0 -0.29277817828788821 0.46727213621680019 0 -0.29385257741076698 0.4856047823119245 0 -0.30864393961723741 0.47382523192401699 0 -0.29385257741076698 0.4856047823119245 0 -0.30864393961723741 0.47382523192401699 0 -0.3104813543627003 0.5 0 -0.3104813543627003 0.5 0 -0.34029747359384382 0.5 0 -0.32390163357400281 0.48249062939660448 0 -0.30864393961723741 0.47382523192401699 0 -0.3104813543627003 0.5 0 -0.32390163357400281 0.48249062939660448 0 -0.34029747359384382 0.5 0 -0.33852007186456468 0.47323902970598131 0 -0.32390163357400281 0.48249062939660448 0 -0.33852007186456468 0.47323902970598131 0 -0.32390163357400281 0.48249062939660448 0 -0.32335213408330338 0.46831759987803162 0 -0.30864393961723741 0.47382523192401699 0 -0.32390163357400281 0.48249062939660448 0 -0.32335213408330338 0.46831759987803162 0 -0.30864393961723741 0.47382523192401699 0 -0.31669323882742711 0.45636284828906543 0 -0.32335213408330338 0.46831759987803162 0 -0.31669323882742711 0.45636284828906543 0 -0.32335213408330338 0.46831759987803162 0 -0.32996638290185332 0.45739995093831309 0 -0.31669323882742711 0.45636284828906543 0 -0.32497150389237189 0.45258656777385392 0 -0.32996638290185332 0.45739995093831309 0 -0.31669323882742711 0.45636284828906543 0 -0.32996638290185332 0.45739995093831309 0 -0.31669323882742711 0.45636284828906543 0 -0.32497150389237189 0.45258656777385392 0 -0.32497150389237189 0.45258656777385392 0 -0.32776681912349209 0.45115705017646562 0 -0.32996638290185332 0.45739995093831309 0 -0.3015158489546973 0.43823273222672482 0 -0.31669323882742711 0.45636284828906543 0 -0.32497150389237189 0.45258656777385392 0 -0.3015158489546973 0.43823273222672482 0 -0.32497150389237189 0.45258656777385392 0 -0.32776681912349209 0.45115705017646562 0 -0.31920594270277841 0.43684725484447168 0 -0.3015158489546973 0.43823273222672482 0 -0.32776681912349209 0.45115705017646562 0 -0.3015158489546973 0.43823273222672482 0 -0.32776681912349209 0.45115705017646562 0 -0.31920594270277841 0.43684725484447168 0 -0.32776681912349209 0.45115705017646562 0 -0.32969071867930982 0.44001521590479498 0 -0.32776681912349209 0.45115705017646562 0 -0.33597477203103671 0.44484871558626959 0 -0.34708707092676239 0.45009805109215412 0 -0.339262572515453 0.43697304328749131 0 -0.32969071867930982 0.44001521590479498 0 -0.33597477203103671 0.44484871558626959 0 -0.32776681912349209 0.45115705017646562 0 -0.32969071867930982 0.44001521590479498 0 -0.33597477203103671 0.44484871558626959 0 -0.339262572515453 0.43697304328749131 0 -0.33597477203103671 0.44484871558626959 0 -0.34708707092676239 0.45009805109215412 0 -0.32776681912349209 0.45115705017646562 0 -0.32996638290185332 0.45739995093831309 0 -0.35401778929228689 0.46408136812620648 0 -0.32776681912349209 0.45115705017646562 0 -0.35401778929228689 0.46408136812620648 0 -0.34708707092676239 0.45009805109215412 0 -0.33852007186456468 0.47323902970598131 0 -0.32335213408330338 0.46831759987803162 0 -0.32996638290185332 0.45739995093831309 0 -0.33852007186456468 0.47323902970598131 0 -0.32996638290185332 0.45739995093831309 0 -0.35401778929228689 0.46408136812620648 0 -0.32776681912349209 0.45115705017646562 0 -0.35401778929228689 0.46408136812620648 0 -0.35401778929228689 0.46408136812620648 0 -0.34708707092676239 0.45009805109215412 0 -0.36946665730258632 0.45003886879056898 0 -0.35446683976932009 0.43385661406153758 0 -0.34708707092676239 0.45009805109215412 0 -0.36946665730258632 0.45003886879056898 0 -0.35446683976932009 0.43385661406153758 0 -0.339262572515453 0.43697304328749131 0 -0.34708707092676239 0.45009805109215412 0 -0.37258267688966679 0.42947799158033428 0 -0.35446683976932009 0.43385661406153758 0 -0.36946665730258632 0.45003886879056898 0 -0.38026875946108168 0.4770056860759474 0 -0.35401778929228689 0.46408136812620648 0 -0.36946665730258632 0.45003886879056898 0 -0.38026875946108168 0.4770056860759474 0 -0.35401778929228689 0.46408136812620648 0 -0.38026875946108168 0.4770056860759474 0 -0.35401778929228689 0.46408136812620648 0 -0.3558273837456894 0.48483618499528308 0 -0.38026875946108168 0.4770056860759474 0 -0.37011359282498701 0.5 0 -0.3558273837456894 0.48483618499528308 0 -0.34029747359384382 0.5 0 -0.37011359282498701 0.5 0 -0.3558273837456894 0.48483618499528308 0 -0.34029747359384382 0.5 0 -0.33852007186456468 0.47323902970598131 0 -0.3558273837456894 0.48483618499528308 0 -0.33852007186456468 0.47323902970598131 0 -0.35401778929228689 0.46408136812620648 0 -0.3558273837456894 0.48483618499528308 0 -0.1414184916407463 0.47348157167263671 0 -0.15736473016562499 0.46125067739786912 0 -0.16188006666133989 0.48194471289391538 0 -0.1414184916407463 0.47348157167263671 0 -0.14499369213712909 0.5 0 -0.16188006666133989 0.48194471289391538 0 -0.14499369213712909 0.5 0 -0.1206675452702269 0.47861097706956912 0 -0.1184782957696479 0.5 0 -0.1414184916407463 0.47348157167263671 0 -0.13560932355037331 0.45501093191156838 0 -0.1206675452702269 0.47861097706956912 0 -0.1414184916407463 0.47348157167263671 0 -0.14499369213712909 0.5 0 -0.1206675452702269 0.47861097706956912 0 -0.12571493610568679 0.441440678937848 0 -0.1474913973302977 0.44314219181984982 0 -0.13560932355037331 0.45501093191156838 0 -0.12571493610568679 0.441440678937848 0 -0.1474913973302977 0.44314219181984982 0 -0.13560932355037331 0.45501093191156838 0 -0.1474913973302977 0.44314219181984982 0 -0.15736473016562499 0.46125067739786912 0 -0.1414184916407463 0.47348157167263671 0 -0.13560932355037331 0.45501093191156838 0 -0.15736473016562499 0.46125067739786912 0 -0.15736473016562499 0.46125067739786912 0 -0.16926785855490861 0.44484370470185142 0 -0.17590056940763141 0.45776823802032363 0 -0.15736473016562499 0.46125067739786912 0 -0.17590056940763141 0.45776823802032363 0 -0.1746925729272415 0.47170915151305348 0 -0.1474913973302977 0.44314219181984982 0 -0.16926785855490861 0.44484370470185142 0 -0.1474913973302977 0.44314219181984982 0 -0.15736473016562499 0.46125067739786912 0 -0.16926785855490861 0.44484370470185142 0 -0.1474913973302977 0.44314219181984982 0 -0.16926785855490861 0.44484370470185142 0 -0.15974832792740021 0.42560264945118509 0 -0.16926785855490861 0.44484370470185142 0 -0.17590056940763141 0.45776823802032363 0 -0.19104431977951949 0.44654521758385252 0 -0.16926785855490861 0.44484370470185142 0 -0.19104431977951949 0.44654521758385252 0 -0.16926785855490861 0.44484370470185142 0 -0.19104431977951949 0.44654521758385252 0 -0.1815247891520109 0.42730416233318641 0 -0.17590056940763141 0.45776823802032363 0 -0.18713336561086219 0.46449243890499148 0 -0.19104431977951949 0.44654521758385252 0 -0.17590056940763141 0.45776823802032363 0 -0.18713336561086219 0.46449243890499148 0 -0.1746925729272415 0.47170915151305348 0 -0.1746925729272415 0.47170915151305348 0 -0.16188006666133989 0.48194471289391538 0 -0.18130182459268679 0.48522687677993348 0 -0.18713336561086219 0.46449243890499148 0 -0.1746925729272415 0.47170915151305348 0 -0.18988554169624411 0.47544728080397031 0 -0.1746925729272415 0.47170915151305348 0 -0.18130182459268679 0.48522687677993348 0 -0.18988554169624411 0.47544728080397031 0 -0.15736473016562499 0.46125067739786912 0 -0.1746925729272415 0.47170915151305348 0 -0.16188006666133989 0.48194471289391538 0 -0.14499369213712909 0.5 0 -0.16188006666133989 0.48194471289391538 0 -0.17150908850461041 0.5 0 -0.16188006666133989 0.48194471289391538 0 -0.17150908850461041 0.5 0 -0.18130182459268679 0.48522687677993348 0 -0.17150908850461041 0.5 0 -0.18130182459268679 0.48522687677993348 0 -0.19458961712022271 0.49088219689034479 0 -0.17150908850461041 0.5 0 -0.19458961712022271 0.49088219689034479 0 -0.19802448487209171 0.50000000000000155 0 -0.18130182459268679 0.48522687677993348 0 -0.19458961712022271 0.49088219689034479 0 -0.192815929324303 0.48312085761956142 0 -0.19458961712022271 0.49088219689034479 0 -0.20070620295149519 0.48880754126692438 0 -0.192815929324303 0.48312085761956142 0 -0.19458961712022271 0.49088219689034479 0 -0.20070620295149519 0.48880754126692438 0 -0.20070620295149519 0.48880754126692438 0 -0.19802448487209171 0.50000000000000155 0 -0.19458961712022271 0.49088219689034479 0 -0.20070620295149519 0.48880754126692438 0 -0.19802448487209171 0.50000000000000155 0 -0.20070620295149519 0.48880754126692438 0 -0.19759646026086641 0.47524039235663368 0 -0.20558741475712949 0.46843524258214259 0 -0.18713336561086219 0.46449243890499148 0 -0.19380258763659039 0.47025732766046041 0 -0.18988554169624411 0.47544728080397031 0 -0.19380258763659039 0.47025732766046041 0 -0.18988554169624411 0.47544728080397031 0 -0.19759646026086641 0.47524039235663368 0 -0.18988554169624411 0.47544728080397031 0 -0.192815929324303 0.48312085761956142 0 -0.19759646026086641 0.47524039235663368 0 -0.18130182459268679 0.48522687677993348 0 -0.18988554169624411 0.47544728080397031 0 -0.192815929324303 0.48312085761956142 0 -0.20070620295149519 0.48880754126692438 0 -0.192815929324303 0.48312085761956142 0 -0.19759646026086641 0.47524039235663368 0 -0.19759646026086641 0.47524039235663368 0 -0.20558741475712949 0.46843524258214259 0 -0.20059498297838879 0.46584919857624602 0 -0.19380258763659039 0.47025732766046041 0 -0.19759646026086641 0.47524039235663368 0 -0.20059498297838879 0.46584919857624602 0 -0.20070620295149519 0.48880754126692438 0 -0.22858322653560509 0.479352066376459 0 -0.20070620295149519 0.48880754126692438 0 -0.22858322653560509 0.479352066376459 0 -0.20558741475712949 0.46843524258214259 0 -0.20070620295149519 0.48880754126692438 0 -0.20558741475712949 0.46843524258214259 0 -0.20070620295149519 0.48880754126692438 0 -0.19802448487209171 0.50000000000000155 0 -0.22103299666927001 0.50000000000000144 0 -0.20070620295149519 0.48880754126692438 0 -0.22103299666927001 0.50000000000000144 0 -0.22858322653560509 0.479352066376459 0 -0.22103299666927001 0.50000000000000144 0 -0.22858322653560509 0.479352066376459 0 -0.2449480572088098 0.48909071207226851 0 -0.22103299666927001 0.50000000000000144 0 -0.2449480572088098 0.48909071207226851 0 -0.22858322653560509 0.479352066376459 0 -0.2224803434223436 0.46252927500094548 0 -0.20558741475712949 0.46843524258214259 0 -0.25646025011971468 0.469896591485993 0 -0.22858322653560509 0.479352066376459 0 -0.2449480572088098 0.48909071207226851 0 -0.25646025011971468 0.469896591485993 0 -0.22858322653560509 0.479352066376459 0 -0.24112211087739169 0.46395685310930279 0 -0.25646025011971468 0.469896591485993 0 -0.22858322653560509 0.479352066376459 0 -0.25084911590041348 0.5 0 -0.22103299666927001 0.50000000000000144 0 -0.2449480572088098 0.48909071207226851 0 -0.25346010446526601 0.4336379873291929 0 -0.2370247796289297 0.45013791999528557 0 -0.23644974244994871 0.42917476114819508 0 -0.26358093269509553 0.45221289609321202 0 -0.2370247796289297 0.45013791999528557 0 -0.24112211087739169 0.46395685310930279 0 -0.2370247796289297 0.45013791999528557 0 -0.24112211087739169 0.46395685310930279 0 -0.2224803434223436 0.46252927500094548 0 -0.2370247796289297 0.45013791999528557 0 -0.2224803434223436 0.46252927500094548 0 -0.2104686265627638 0.4480629438973609 0 -0.22858322653560509 0.479352066376459 0 -0.24112211087739169 0.46395685310930279 0 -0.2224803434223436 0.46252927500094548 0 -0.2370247796289297 0.45013791999528557 0 -0.2104686265627638 0.4480629438973609 0 -0.23644974244994871 0.42917476114819508 0 -0.2370247796289297 0.45013791999528557 0 -0.2104686265627638 0.4480629438973609 0 -0.2104686265627638 0.4480629438973609 0 -0.20558741475712949 0.46843524258214259 0 -0.2224803434223436 0.46252927500094548 0 -0.2104686265627638 0.4480629438973609 0 -0.20558741475712949 0.46843524258214259 0 -0.2104686265627638 0.4480629438973609 0 -0.20558741475712949 0.46843524258214259 0 -0.20059498297838879 0.46584919857624602 0 -0.2104686265627638 0.4480629438973609 0 -0.20059498297838879 0.46584919857624602 0 -0.19104431977951949 0.44654521758385252 0 -0.18713336561086219 0.46449243890499148 0 -0.20059498297838879 0.46584919857624602 0 -0.19104431977951949 0.44654521758385252 0 -0.20059498297838879 0.46584919857624602 0 -0.19104431977951949 0.44654521758385252 0 -0.18713336561086219 0.46449243890499148 0 -0.19380258763659039 0.47025732766046041 0 -0.20059498297838879 0.46584919857624602 0 -0.2104686265627638 0.4480629438973609 0 -0.19104431977951949 0.44654521758385252 0 -0.19879355036099419 0.43166505422168822 0 -0.2104686265627638 0.4480629438973609 0 -0.19104431977951949 0.44654521758385252 0 -0.19104431977951949 0.44654521758385252 0 -0.19879355036099419 0.43166505422168822 0 -0.1815247891520109 0.42730416233318641 0 -0.19879355036099419 0.43166505422168822 0 -0.19526182462452971 0.41005098625553799 0 -0.1815247891520109 0.42730416233318641 0 -0.19526182462452971 0.41005098625553799 0 -0.21566819168614659 0.4263619610385046 0 -0.22276293844831349 0.39945977837750252 0 -0.2104686265627638 0.4480629438973609 0 -0.19879355036099419 0.43166505422168822 0 -0.21566819168614659 0.4263619610385046 0 -0.19879355036099419 0.43166505422168822 0 -0.19526182462452971 0.41005098625553799 0 -0.21566819168614659 0.4263619610385046 0 -0.2104686265627638 0.4480629438973609 0 -0.21566819168614659 0.4263619610385046 0 -0.2104686265627638 0.4480629438973609 0 -0.21566819168614659 0.4263619610385046 0 -0.23644974244994871 0.42917476114819508 0 -0.21566819168614659 0.4263619610385046 0 -0.23644974244994871 0.42917476114819508 0 -0.22276293844831349 0.39945977837750252 0 -0.24901390861710809 0.41238409632724332 0 -0.23644974244994871 0.42917476114819508 0 -0.22276293844831349 0.39945977837750252 0 -0.25346010446526601 0.4336379873291929 0 -0.24901390861710809 0.41238409632724332 0 -0.23644974244994871 0.42917476114819508 0 -0.24366345851576979 0.38990832528517988 0 -0.22396523691438361 0.37706052172165849 0 -0.23991914677877199 0.37426084810945642 0 -0.25653762277248288 0.38015629884330188 0 -0.24366345851576979 0.38990832528517988 0 -0.23991914677877199 0.37426084810945642 0 -0.24901390861710809 0.41238409632724332 0 -0.24366345851576979 0.38990832528517988 0 -0.22276293844831349 0.39945977837750252 0 -0.24901390861710809 0.41238409632724332 0 -0.22276293844831349 0.39945977837750252 0 -0.24366345851576979 0.38990832528517988 0 -0.22276293844831349 0.39945977837750252 0 -0.22396523691438361 0.37706052172165849 0 -0.22276293844831349 0.39945977837750252 0 -0.22396523691438361 0.37706052172165849 0 -0.19651196827951881 0.38653546042776171 0 -0.22396523691438361 0.37706052172165849 0 -0.19651196827951881 0.38653546042776171 0 -0.20893208227897811 0.36448033032844501 0 -0.19526182462452971 0.41005098625553799 0 -0.22276293844831349 0.39945977837750252 0 -0.19651196827951881 0.38653546042776171 0 -0.22276293844831349 0.39945977837750252 0 -0.19651196827951881 0.38653546042776171 0 -0.19526182462452971 0.41005098625553799 0 -0.19651196827951881 0.38653546042776171 0 -0.17965423314836471 0.39185296647104079 0 -0.17018005466313579 0.37781154889688973 0 -0.17965423314836471 0.39185296647104079 0 -0.18555444905110491 0.37025155339484139 0 -0.19651196827951881 0.38653546042776171 0 -0.17965423314836471 0.39185296647104079 0 -0.18555444905110491 0.37025155339484139 0 -0.17018005466313579 0.37781154889688973 0 -0.16248572789699389 0.38882205183185409 0 -0.17965423314836471 0.39185296647104079 0 -0.16248572789699389 0.38882205183185409 0 -0.15179793540853281 0.36721968362434437 0 -0.17018005466313579 0.37781154889688973 0 -0.16248572789699389 0.38882205183185409 0 -0.15179793540853281 0.36721968362434437 0 -0.17018005466313579 0.37781154889688973 0 -0.16248572789699389 0.38882205183185409 0 -0.16248572789699389 0.38882205183185409 0 -0.17200525852450199 0.40806310708252042 0 -0.15022879729989241 0.40636159420051943 0 -0.16248572789699389 0.38882205183185409 0 -0.15022879729989241 0.40636159420051943 0 -0.16248572789699389 0.38882205183185409 0 -0.17965423314836471 0.39185296647104079 0 -0.17200525852450199 0.40806310708252042 0 -0.16248572789699389 0.38882205183185409 0 -0.17200525852450199 0.40806310708252042 0 -0.19526182462452971 0.41005098625553799 0 -0.17965423314836471 0.39185296647104079 0 -0.17200525852450199 0.40806310708252042 0 -0.19526182462452971 0.41005098625553799 0 -0.17200525852450199 0.40806310708252042 0 -0.1815247891520109 0.42730416233318641 0 -0.17200525852450199 0.40806310708252042 0 -0.1815247891520109 0.42730416233318641 0 -0.19104431977951949 0.44654521758385252 0 -0.1815247891520109 0.42730416233318641 0 -0.16926785855490861 0.44484370470185142 0 -0.1815247891520109 0.42730416233318641 0 -0.15974832792740021 0.42560264945118509 0 -0.17200525852450199 0.40806310708252042 0 -0.15974832792740021 0.42560264945118509 0 -0.15022879729989241 0.40636159420051943 0 -0.17200525852450199 0.40806310708252042 0 -0.1815247891520109 0.42730416233318641 0 -0.15974832792740021 0.42560264945118509 0 -0.15022879729989241 0.40636159420051943 0 -0.1379718667027896 0.42390113656918371 0 -0.15974832792740021 0.42560264945118509 0 -0.15022879729989241 0.40636159420051943 0 -0.1379718667027896 0.42390113656918371 0 -0.1474913973302977 0.44314219181984982 0 -0.15974832792740021 0.42560264945118509 0 -0.1379718667027896 0.42390113656918371 0 -0.12571493610568679 0.441440678937848 0 -0.1474913973302977 0.44314219181984982 0 -0.1379718667027896 0.42390113656918371 0 -0.12571493610568679 0.441440678937848 0 -0.1379718667027896 0.42390113656918371 0 -0.1379718667027896 0.42390113656918371 0 -0.1177912583612878 0.41874119050065678 0 -0.1229642779473457 0.43175066857914229 0 -0.12571493610568679 0.441440678937848 0 -0.1379718667027896 0.42390113656918371 0 -0.1229642779473457 0.43175066857914229 0 -0.1379718667027896 0.42390113656918371 0 -0.13028608785728649 0.40547773656340602 0 -0.1177912583612878 0.41874119050065678 0 -0.15022879729989241 0.40636159420051943 0 -0.1379718667027896 0.42390113656918371 0 -0.13028608785728649 0.40547773656340602 0 -0.15022879729989241 0.40636159420051943 0 -0.13028608785728649 0.40547773656340602 0 -0.1410272632829894 0.38574632279964349 0 -0.13028608785728649 0.40547773656340602 0 -0.1410272632829894 0.38574632279964349 0 -0.12037576206545481 0.37514581882520948 0 -0.1410272632829894 0.38574632279964349 0 -0.13654162012621621 0.36990862333562091 0 -0.12037576206545481 0.37514581882520948 0 -0.16248572789699389 0.38882205183185409 0 -0.1410272632829894 0.38574632279964349 0 -0.15179793540853281 0.36721968362434437 0 -0.16248572789699389 0.38882205183185409 0 -0.15022879729989241 0.40636159420051943 0 -0.1410272632829894 0.38574632279964349 0 -0.1411101429200726 0.34561731541683438 0 -0.15179793540853281 0.36721968362434437 0 -0.15940652190888399 0.35296027557586912 0 -0.1411101429200726 0.34561731541683438 0 -0.15179793540853281 0.36721968362434437 0 -0.1411101429200726 0.34561731541683438 0 -0.15179793540853281 0.36721968362434437 0 -0.13296551974788801 0.35152266809328653 0 -0.1411101429200726 0.34561731541683438 0 -0.16032716948918929 0.33616575914820862 0 -0.15940652190888399 0.35296027557586912 0 -0.1410272632829894 0.38574632279964349 0 -0.15179793540853281 0.36721968362434437 0 -0.13654162012621621 0.36990862333562091 0 -0.15179793540853281 0.36721968362434437 0 -0.13654162012621621 0.36990862333562091 0 -0.13296551974788801 0.35152266809328653 0 -0.13296551974788801 0.35152266809328653 0 -0.12037576206545481 0.37514581882520948 0 -0.13654162012621621 0.36990862333562091 0 -0.13296551974788801 0.35152266809328653 0 -0.12037576206545481 0.37514581882520948 0 -0.1411101429200726 0.34561731541683438 0 -0.13296551974788801 0.35152266809328653 0 -0.13103441946932831 0.34112703502992647 0 -0.13296551974788801 0.35152266809328653 0 -0.13103441946932831 0.34112703502992647 0 -0.1227757179636587 0.3448842899162457 0 -0.1411101429200726 0.34561731541683438 0 -0.13042235043161229 0.32401494720932422 0 -0.1411101429200726 0.34561731541683438 0 -0.13103441946932831 0.34112703502992647 0 -0.12877445416166591 0.32981569675055772 0 -0.1411101429200726 0.34561731541683438 0 -0.12877445416166591 0.32981569675055772 0 -0.13042235043161229 0.32401494720932422 0 -0.13103441946932831 0.34112703502992647 0 -0.12554050980093431 0.33798955771745598 0 -0.1227757179636587 0.3448842899162457 0 -0.1411101429200726 0.34561731541683438 0 -0.13042235043161229 0.32401494720932422 0 -0.14749790686359959 0.32487494953119872 0 -0.13103441946932831 0.34112703502992647 0 -0.12554050980093431 0.33798955771745598 0 -0.12877445416166591 0.32981569675055772 0 -0.13042235043161229 0.32401494720932422 0 -0.11973455794315201 0.30241257900181412 0 -0.13042235043161229 0.32401494720932422 0 -0.14749790686359959 0.32487494953119872 0 -0.14363328011715201 0.30351529333975352 0 -0.14749790686359959 0.32487494953119872 0 -0.1619965913599716 0.31506143254187252 0 -0.14363328011715201 0.30351529333975352 0 -0.1411101429200726 0.34561731541683438 0 -0.14749790686359959 0.32487494953119872 0 -0.16032716948918929 0.33616575914820862 0 -0.14749790686359959 0.32487494953119872 0 -0.16032716948918929 0.33616575914820862 0 -0.1619965913599716 0.31506143254187252 0 -0.16032716948918929 0.33616575914820862 0 -0.1619965913599716 0.31506143254187252 0 -0.17859121051011231 0.3255482139839565 0 -0.1619965913599716 0.31506143254187252 0 -0.17859121051011231 0.3255482139839565 0 -0.17509501546896261 0.30252159760209169 0 -0.17859121051011231 0.3255482139839565 0 -0.19307732179968221 0.3103456096049752 0 -0.17509501546896261 0.30252159760209169 0 -0.17859121051011231 0.3255482139839565 0 -0.17739624223455569 0.35267571326989627 0 -0.2019486846200671 0.33684602149818998 0 -0.16032716948918929 0.33616575914820862 0 -0.17859121051011231 0.3255482139839565 0 -0.17739624223455569 0.35267571326989627 0 -0.17739624223455569 0.35267571326989627 0 -0.18555444905110491 0.37025155339484139 0 -0.19553529152232799 0.35345375622832548 0 -0.16032716948918929 0.33616575914820862 0 -0.17739624223455569 0.35267571326989627 0 -0.15940652190888399 0.35296027557586912 0 -0.17739624223455569 0.35267571326989627 0 -0.15940652190888399 0.35296027557586912 0 -0.16640111949206979 0.36312290642006179 0 -0.17018005466313579 0.37781154889688973 0 -0.15179793540853281 0.36721968362434437 0 -0.16640111949206979 0.36312290642006179 0 -0.15179793540853281 0.36721968362434437 0 -0.15940652190888399 0.35296027557586912 0 -0.16640111949206979 0.36312290642006179 0 -0.17018005466313579 0.37781154889688973 0 -0.16640111949206979 0.36312290642006179 0 -0.18555444905110491 0.37025155339484139 0 -0.17739624223455569 0.35267571326989627 0 -0.16640111949206979 0.36312290642006179 0 -0.18555444905110491 0.37025155339484139 0 -0.18555444905110491 0.37025155339484139 0 -0.19553529152232799 0.35345375622832548 0 -0.20893208227897811 0.36448033032844501 0 -0.19651196827951881 0.38653546042776171 0 -0.18555444905110491 0.37025155339484139 0 -0.20893208227897811 0.36448033032844501 0 -0.17739624223455569 0.35267571326989627 0 -0.19553529152232799 0.35345375622832548 0 -0.2019486846200671 0.33684602149818998 0 -0.17739624223455569 0.35267571326989627 0 -0.2019486846200671 0.33684602149818998 0 -0.19553529152232799 0.35345375622832548 0 -0.21030552576963649 0.34984038151306263 0 -0.20296499151129699 0.33988191933855361 0 -0.19553529152232799 0.35345375622832548 0 -0.21030552576963649 0.34984038151306263 0 -0.20893208227897811 0.36448033032844501 0 -0.21030552576963649 0.34984038151306263 0 -0.20893208227897811 0.36448033032844501 0 -0.22209054818012991 0.35371295757628901 0 -0.21030552576963649 0.34984038151306263 0 -0.22209054818012991 0.35371295757628901 0 -0.22047568209862339 0.34195405015036762 0 -0.22396523691438361 0.37706052172165849 0 -0.20893208227897811 0.36448033032844501 0 -0.22209054818012991 0.35371295757628901 0 -0.22396523691438361 0.37706052172165849 0 -0.22209054818012991 0.35371295757628901 0 -0.23448998881840721 0.36125064235917298 0 -0.22396523691438361 0.37706052172165849 0 -0.23991914677877199 0.37426084810945642 0 -0.23448998881840721 0.36125064235917298 0 -0.22209054818012991 0.35371295757628901 0 -0.23036031288795039 0.34114325810310342 0 -0.22047568209862339 0.34195405015036762 0 -0.22209054818012991 0.35371295757628901 0 -0.23547597819078619 0.35009899977059222 0 -0.23036031288795039 0.34114325810310342 0 -0.22209054818012991 0.35371295757628901 0 -0.23547597819078619 0.35009899977059222 0 -0.23448998881840721 0.36125064235917298 0 -0.23547597819078619 0.35009899977059222 0 -0.2481761783632643 0.35404899158404002 0 -0.23448998881840721 0.36125064235917298 0 -0.23547597819078619 0.35009899977059222 0 -0.24226286270417929 0.34033914923035541 0 -0.23036031288795039 0.34114325810310342 0 -0.23547597819078619 0.35009899977059222 0 -0.2481761783632643 0.35404899158404002 0 -0.24226286270417929 0.34033914923035541 0 -0.25463927022426908 0.34048088639179841 0 -0.2481761783632643 0.35404899158404002 0 -0.24226286270417929 0.34033914923035541 0 -0.25084474251157618 0.36789108045625918 0 -0.25653762277248288 0.38015629884330188 0 -0.23991914677877199 0.37426084810945642 0 -0.25084474251157618 0.36789108045625918 0 -0.23991914677877199 0.37426084810945642 0 -0.23448998881840721 0.36125064235917298 0 -0.25084474251157618 0.36789108045625918 0 -0.2481761783632643 0.35404899158404002 0 -0.23448998881840721 0.36125064235917298 0 -0.24159096413609879 0.31886379370226098 0 -0.2313022776543045 0.31792088473059898 0 -0.24822965455552931 0.30700730005976767 0 -0.26029715403072662 0.32833345468122771 0 -0.24159096413609879 0.31886379370226098 0 -0.246935024445958 0.3312407660247183 0 -0.25822288263569138 0.3186492374532871 0 -0.24159096413609879 0.31886379370226098 0 -0.24822965455552931 0.30700730005976767 0 -0.24159096413609879 0.31886379370226098 0 -0.246935024445958 0.3312407660247183 0 -0.23636565054551029 0.32995246209748841 0 -0.24159096413609879 0.31886379370226098 0 -0.23636565054551029 0.32995246209748841 0 -0.2313022776543045 0.31792088473059898 0 -0.25463927022426908 0.34048088639179841 0 -0.246935024445958 0.3312407660247183 0 -0.24226286270417929 0.34033914923035541 0 -0.24226286270417929 0.34033914923035541 0 -0.23636565054551029 0.32995246209748841 0 -0.23036031288795039 0.34114325810310342 0 -0.246935024445958 0.3312407660247183 0 -0.24226286270417929 0.34033914923035541 0 -0.23636565054551029 0.32995246209748841 0 -0.23636565054551029 0.32995246209748841 0 -0.2265757647878934 0.3319610248965974 0 -0.23036031288795039 0.34114325810310342 0 -0.2265757647878934 0.3319610248965974 0 -0.23036031288795039 0.34114325810310342 0 -0.22047568209862339 0.34195405015036762 0 -0.2265757647878934 0.3319610248965974 0 -0.22047568209862339 0.34195405015036762 0 -0.2143749007530788 0.32883446940142902 0 -0.2265757647878934 0.3319610248965974 0 -0.2313022776543045 0.31792088473059898 0 -0.2143749007530788 0.32883446940142902 0 -0.2313022776543045 0.31792088473059898 0 -0.2143749007530788 0.32883446940142902 0 -0.23636565054551029 0.32995246209748841 0 -0.2265757647878934 0.3319610248965974 0 -0.2313022776543045 0.31792088473059898 0 -0.20330045238495151 0.32053036138830471 0 -0.2143749007530788 0.32883446940142902 0 -0.20380090236697751 0.30609534504862468 0 -0.2313022776543045 0.31792088473059898 0 -0.2143749007530788 0.32883446940142902 0 -0.20380090236697751 0.30609534504862468 0 -0.2143749007530788 0.32883446940142902 0 -0.20380090236697751 0.30609534504862468 0 -0.20330045238495151 0.32053036138830471 0 -0.2143749007530788 0.32883446940142902 0 -0.2019486846200671 0.33684602149818998 0 -0.21030552576963649 0.34984038151306263 0 -0.22047568209862339 0.34195405015036762 0 -0.21001395695054059 0.33947136838032038 0 -0.22047568209862339 0.34195405015036762 0 -0.2143749007530788 0.32883446940142902 0 -0.21001395695054059 0.33947136838032038 0 -0.22047568209862339 0.34195405015036762 0 -0.2143749007530788 0.32883446940142902 0 -0.2143749007530788 0.32883446940142902 0 -0.21001395695054059 0.33947136838032038 0 -0.2019486846200671 0.33684602149818998 0 -0.2143749007530788 0.32883446940142902 0 -0.2019486846200671 0.33684602149818998 0 -0.21030552576963649 0.34984038151306263 0 -0.21001395695054059 0.33947136838032038 0 -0.20296499151129699 0.33988191933855361 0 -0.21001395695054059 0.33947136838032038 0 -0.20296499151129699 0.33988191933855361 0 -0.2019486846200671 0.33684602149818998 0 -0.19553529152232799 0.35345375622832548 0 -0.20296499151129699 0.33988191933855361 0 -0.2019486846200671 0.33684602149818998 0 -0.20296499151129699 0.33988191933855361 0 -0.2019486846200671 0.33684602149818998 0 -0.2019486846200671 0.33684602149818998 0 -0.19307732179968221 0.3103456096049752 0 -0.20330045238495151 0.32053036138830471 0 -0.2019486846200671 0.33684602149818998 0 -0.19307732179968221 0.3103456096049752 0 -0.17859121051011231 0.3255482139839565 0 -0.2019486846200671 0.33684602149818998 0 -0.19307732179968221 0.3103456096049752 0 -0.19307732179968221 0.3103456096049752 0 -0.19322690398087669 0.28335622069582 0 -0.20380090236697751 0.30609534504862468 0 -0.19307732179968221 0.3103456096049752 0 -0.18420595897929401 0.28384519771176159 0 -0.20330045238495151 0.32053036138830471 0 -0.19307732179968221 0.3103456096049752 0 -0.20380090236697751 0.30609534504862468 0 -0.19322690398087669 0.28335622069582 0 -0.2098060511914987 0.28245755410062989 0 -0.19307732179968221 0.3103456096049752 0 -0.19322690398087669 0.28335622069582 0 -0.18420595897929401 0.28384519771176159 0 -0.19322690398087669 0.28335622069582 0 -0.2098060511914987 0.28245755410062989 0 -0.20380090236697751 0.30609534504862468 0 -0.19322690398087669 0.28335622069582 0 -0.20380090236697751 0.30609534504862468 0 -0.19322690398087669 0.28335622069582 0 -0.18420595897929401 0.28384519771176159 0 -0.2098060511914987 0.28245755410062989 0 -0.20380090236697751 0.30609534504862468 0 -0.22118803743516 0.29696288786346331 0 -0.2098060511914987 0.28245755410062989 0 -0.22638519840212071 0.28155888750544 0 -0.2313022776543045 0.31792088473059898 0 -0.20380090236697751 0.30609534504862468 0 -0.22118803743516 0.29696288786346331 0 -0.2313022776543045 0.31792088473059898 0 -0.22118803743516 0.29696288786346331 0 -0.2373074264788255 0.29428309378260342 0 -0.2098060511914987 0.28245755410062989 0 -0.22118803743516 0.29696288786346331 0 -0.22638519840212071 0.28155888750544 0 -0.22118803743516 0.29696288786346331 0 -0.22638519840212071 0.28155888750544 0 -0.2373074264788255 0.29428309378260342 0 -0.22638519840212071 0.28155888750544 0 -0.2373074264788255 0.29428309378260342 0 -0.25007675194869161 0.28027469553284301 0 -0.25625239594589372 0.29046298247449781 0 -0.2373074264788255 0.29428309378260342 0 -0.25007675194869161 0.28027469553284301 0 -0.22638519840212071 0.28155888750544 0 -0.2373074264788255 0.29428309378260342 0 -0.2313022776543045 0.31792088473059898 0 -0.2373074264788255 0.29428309378260342 0 -0.24822965455552931 0.30700730005976767 0 -0.2373074264788255 0.29428309378260342 0 -0.24822965455552931 0.30700730005976767 0 -0.2313022776543045 0.31792088473059898 0 -0.24822965455552931 0.30700730005976767 0 -0.25625239594589372 0.29046298247449781 0 -0.2373074264788255 0.29428309378260342 0 -0.24822965455552931 0.30700730005976767 0 -0.24762519668039371 0.25340429882664778 0 -0.23206796226453391 0.26377822594878092 0 -0.23067569124966061 0.24235148850059449 0 -0.25007675194869161 0.28027469553284301 0 -0.24762519668039371 0.25340429882664778 0 -0.23206796226453391 0.26377822594878092 0 -0.25007675194869161 0.28027469553284301 0 -0.22638519840212071 0.28155888750544 0 -0.23206796226453391 0.26377822594878092 0 -0.25007675194869161 0.28027469553284301 0 -0.22638519840212071 0.28155888750544 0 -0.22638519840212071 0.28155888750544 0 -0.23206796226453391 0.26377822594878092 0 -0.2136315103493224 0.26670106212047529 0 -0.22638519840212071 0.28155888750544 0 -0.2136315103493224 0.26670106212047529 0 -0.23206796226453391 0.26377822594878092 0 -0.21809026692746969 0.25199681498571541 0 -0.2136315103493224 0.26670106212047529 0 -0.23206796226453391 0.26377822594878092 0 -0.21809026692746969 0.25199681498571541 0 -0.23067569124966061 0.24235148850059449 0 -0.2136315103493224 0.26670106212047529 0 -0.19744276027864641 0.26769451176230352 0 -0.20087782229652329 0.25184323673551129 0 -0.21809026692746969 0.25199681498571541 0 -0.2136315103493224 0.26670106212047529 0 -0.20087782229652329 0.25184323673551129 0 -0.2136315103493224 0.26670106212047529 0 -0.20087782229652329 0.25184323673551129 0 -0.2098060511914987 0.28245755410062989 0 -0.2136315103493224 0.26670106212047529 0 -0.19744276027864641 0.26769451176230352 0 -0.2098060511914987 0.28245755410062989 0 -0.22638519840212071 0.28155888750544 0 -0.2136315103493224 0.26670106212047529 0 -0.19322690398087669 0.28335622069582 0 -0.19744276027864641 0.26769451176230352 0 -0.182674717393706 0.26066400208199469 0 -0.19322690398087669 0.28335622069582 0 -0.2098060511914987 0.28245755410062989 0 -0.19744276027864641 0.26769451176230352 0 -0.19322690398087669 0.28335622069582 0 -0.182674717393706 0.26066400208199469 0 -0.20087782229652329 0.25184323673551129 0 -0.182674717393706 0.26066400208199469 0 -0.18740179651674219 0.24591753924812501 0 -0.19744276027864641 0.26769451176230352 0 -0.20087782229652329 0.25184323673551129 0 -0.182674717393706 0.26066400208199469 0 -0.17655402879169349 0.26098745805493517 0 -0.182674717393706 0.26066400208199469 0 -0.172122530806536 0.23797178346816919 0 -0.17655402879169349 0.26098745805493517 0 -0.15732978785159349 0.25026042647594321 0 -0.15451635514332679 0.26616075328752081 0 -0.17655402879169349 0.26098745805493517 0 -0.16742711019382839 0.28475468905758688 0 -0.15451635514332679 0.26616075328752081 0 -0.16742711019382839 0.28475468905758688 0 -0.15177347954122819 0.2839847164087661 0 -0.15451635514332679 0.26616075328752081 0 -0.17655402879169349 0.26098745805493517 0 -0.18420595897929401 0.28384519771176159 0 -0.16742711019382839 0.28475468905758688 0 -0.17655402879169349 0.26098745805493517 0 -0.18420595897929401 0.28384519771176159 0 -0.19322690398087669 0.28335622069582 0 -0.182674717393706 0.26066400208199469 0 -0.18420595897929401 0.28384519771176159 0 -0.17655402879169349 0.26098745805493517 0 -0.182674717393706 0.26066400208199469 0 -0.18420595897929401 0.28384519771176159 0 -0.18420595897929401 0.28384519771176159 0 -0.17509501546896261 0.30252159760209169 0 -0.16742711019382839 0.28475468905758688 0 -0.18420595897929401 0.28384519771176159 0 -0.16742711019382839 0.28475468905758688 0 -0.19307732179968221 0.3103456096049752 0 -0.18420595897929401 0.28384519771176159 0 -0.17509501546896261 0.30252159760209169 0 -0.1619965913599716 0.31506143254187252 0 -0.17509501546896261 0.30252159760209169 0 -0.1603770022273196 0.29826943614564888 0 -0.1603770022273196 0.29826943614564888 0 -0.16742711019382839 0.28475468905758688 0 -0.15177347954122819 0.2839847164087661 0 -0.17509501546896261 0.30252159760209169 0 -0.1603770022273196 0.29826943614564888 0 -0.16742711019382839 0.28475468905758688 0 -0.15177347954122819 0.2839847164087661 0 -0.14363328011715201 0.30351529333975352 0 -0.13290100009914091 0.27606993440056921 0 -0.1603770022273196 0.29826943614564888 0 -0.15177347954122819 0.2839847164087661 0 -0.14363328011715201 0.30351529333975352 0 -0.1619965913599716 0.31506143254187252 0 -0.1603770022273196 0.29826943614564888 0 -0.14363328011715201 0.30351529333975352 0 -0.13042235043161229 0.32401494720932422 0 -0.14363328011715201 0.30351529333975352 0 -0.11973455794315201 0.30241257900181412 0 -0.14363328011715201 0.30351529333975352 0 -0.13290100009914091 0.27606993440056921 0 -0.11973455794315201 0.30241257900181412 0 -0.13290100009914091 0.27606993440056921 0 -0.12518249514460031 0.25920525549968498 0 -0.11882363627668981 0.26761950428044939 0 -0.13861502939886711 0.25166764891996313 0 -0.12518249514460031 0.25920525549968498 0 -0.1225011440333257 0.2484281373714024 0 -0.13290100009914091 0.27606993440056921 0 -0.13861502939886711 0.25166764891996313 0 -0.12518249514460031 0.25920525549968498 0 -0.13290100009914091 0.27606993440056921 0 -0.13861502939886711 0.25166764891996313 0 -0.15451635514332679 0.26616075328752081 0 -0.15732978785159349 0.25026042647594321 0 -0.13861502939886711 0.25166764891996313 0 -0.15451635514332679 0.26616075328752081 0 -0.15177347954122819 0.2839847164087661 0 -0.13290100009914091 0.27606993440056921 0 -0.15451635514332679 0.26616075328752081 0 -0.1090467654546903 0.28081021079430463 0 -0.095742907043784381 0.25392020069322357 0 -0.11882363627668981 0.26761950428044939 0 -0.1090467654546903 0.28081021079430463 0 -0.095742907043784381 0.25392020069322357 0 -0.096857864979909419 0.27499743172310631 0 -0.1090467654546903 0.28081021079430463 0 -0.079442307415170471 0.28669316263433492 0 -0.096857864979909419 0.27499743172310631 0 -0.1090467654546903 0.28081021079430463 0 -0.095742907043784381 0.25392020069322357 0 -0.095742907043784381 0.25392020069322357 0 -0.11307166591497821 0.25224105252604112 0 -0.11882363627668981 0.26761950428044939 0 -0.095742907043784381 0.25392020069322357 0 -0.11307166591497821 0.25224105252604112 0 -0.095742907043784381 0.25392020069322357 0 -0.11307166591497821 0.25224105252604112 0 -0.10846190244828641 0.24917888110663211 0 -0.12518249514460031 0.25920525549968498 0 -0.11307166591497821 0.25224105252604112 0 -0.1225011440333257 0.2484281373714024 0 -0.12518249514460031 0.25920525549968498 0 -0.11307166591497821 0.25224105252604112 0 -0.11882363627668981 0.26761950428044939 0 -0.13290100009914091 0.27606993440056921 0 -0.1090467654546903 0.28081021079430463 0 -0.13290100009914091 0.27606993440056921 0 -0.1090467654546903 0.28081021079430463 0 -0.11882363627668981 0.26761950428044939 0 -0.13290100009914091 0.27606993440056921 0 -0.1090467654546903 0.28081021079430463 0 -0.11973455794315201 0.30241257900181412 0 -0.1090467654546903 0.28081021079430463 0 -0.11973455794315201 0.30241257900181412 0 -0.1014870279451392 0.29201864738587963 0 -0.1090467654546903 0.28081021079430463 0 -0.11973455794315201 0.30241257900181412 0 -0.11973455794315201 0.30241257900181412 0 -0.096623010485596753 0.30265743279506158 0 -0.1014870279451392 0.29201864738587963 0 -0.11973455794315201 0.30241257900181412 0 -0.096623010485596753 0.30265743279506158 0 -0.106314786394073 0.32328479837417751 0 -0.1090467654546903 0.28081021079430463 0 -0.1014870279451392 0.29201864738587963 0 -0.088162658230874436 0.28972957470065341 0 -0.1090467654546903 0.28081021079430463 0 -0.079442307415170471 0.28669316263433492 0 -0.096623010485596753 0.30265743279506158 0 -0.1014870279451392 0.29201864738587963 0 -0.088162658230874436 0.28972957470065341 0 -0.1090467654546903 0.28081021079430463 0 -0.088162658230874436 0.28972957470065341 0 -0.079442307415170471 0.28669316263433492 0 -0.096623010485596753 0.30265743279506158 0 -0.088162658230874436 0.28972957470065341 0 -0.08018391377386215 0.29174509731004789 0 -0.088162658230874436 0.28972957470065341 0 -0.08018391377386215 0.29174509731004789 0 -0.088162658230874436 0.28972957470065341 0 -0.08018391377386215 0.29174509731004789 0 -0.079442307415170471 0.28669316263433492 0 -0.08018391377386215 0.29174509731004789 0 -0.079442307415170471 0.28669316263433492 0 -0.096623010485596753 0.30265743279506158 0 -0.08018391377386215 0.29174509731004789 0 -0.08385511862647993 0.31675389999779802 0 -0.08018391377386215 0.29174509731004789 0 -0.08385511862647993 0.31675389999779802 0 -0.08018391377386215 0.29174509731004789 0 -0.059759627555333407 0.30974733137251731 0 -0.08385511862647993 0.31675389999779802 0 -0.08018391377386215 0.29174509731004789 0 -0.054471364969637302 0.29824038284518922 0 -0.059759627555333407 0.30974733137251731 0 -0.08018391377386215 0.29174509731004789 0 -0.054471364969637302 0.29824038284518922 0 -0.079442307415170471 0.28669316263433492 0 -0.060790606434616173 0.27691594516294932 0 -0.0516983219572726 0.29220640425765598 0 -0.08018391377386215 0.29174509731004789 0 -0.079442307415170471 0.28669316263433492 0 -0.054471364969637302 0.29824038284518922 0 -0.079442307415170471 0.28669316263433492 0 -0.0516983219572726 0.29220640425765598 0 -0.079442307415170471 0.28669316263433492 0 -0.075536989461659959 0.26008954609613 0 -0.060790606434616173 0.27691594516294932 0 -0.075536989461659959 0.26008954609613 0 -0.062573494730688795 0.26341419536603539 0 -0.060790606434616173 0.27691594516294932 0 -0.079442307415170471 0.28669316263433492 0 -0.075536989461659959 0.26008954609613 0 -0.096857864979909419 0.27499743172310631 0 -0.075536989461659959 0.26008954609613 0 -0.096857864979909419 0.27499743172310631 0 -0.079442307415170471 0.28669316263433492 0 -0.075536989461659959 0.26008954609613 0 -0.095742907043784381 0.25392020069322357 0 -0.074927440894947572 0.25593720907176398 0 -0.083701526325514114 0.24631723366321381 0 -0.095742907043784381 0.25392020069322357 0 -0.074927440894947572 0.25593720907176398 0 -0.095742907043784381 0.25392020069322357 0 -0.074927440894947572 0.25593720907176398 0 -0.075536989461659959 0.26008954609613 0 -0.096857864979909419 0.27499743172310631 0 -0.095742907043784381 0.25392020069322357 0 -0.075536989461659959 0.26008954609613 0 -0.074927440894947572 0.25593720907176398 0 -0.070247047430856774 0.25639073688442182 0 -0.067454182248772934 0.24500823851075279 0 -0.074927440894947572 0.25593720907176398 0 -0.070247047430856774 0.25639073688442182 0 -0.074927440894947572 0.25593720907176398 0 -0.075536989461659959 0.26008954609613 0 -0.070247047430856774 0.25639073688442182 0 -0.074927440894947572 0.25593720907176398 0 -0.075536989461659959 0.26008954609613 0 -0.075536989461659959 0.26008954609613 0 -0.070247047430856774 0.25639073688442182 0 -0.075536989461659959 0.26008954609613 0 -0.062573494730688795 0.26341419536603539 0 -0.070247047430856774 0.25639073688442182 0 -0.070247047430856774 0.25639073688442182 0 -0.055804616518616422 0.24629236601635371 0 -0.062573494730688795 0.26341419536603539 0 -0.051433814455770409 0.26974818117790877 0 -0.037681330452760203 0.26170625470254832 0 -0.070247047430856774 0.25639073688442182 0 -0.053489031153139757 0.25801458037647551 0 -0.055804616518616422 0.24629236601635371 0 -0.062573494730688795 0.26341419536603539 0 -0.070247047430856774 0.25639073688442182 0 -0.053489031153139757 0.25801458037647551 0 -0.062573494730688795 0.26341419536603539 0 -0.053489031153139757 0.25801458037647551 0 -0.037681330452760203 0.26170625470254832 0 -0.070247047430856774 0.25639073688442182 0 -0.053489031153139757 0.25801458037647551 0 -0.062573494730688795 0.26341419536603539 0 -0.037681330452760203 0.26170625470254832 0 -0.053489031153139757 0.25801458037647551 0 -0.043468959687700551 0.24900799977386601 0 -0.055804616518616422 0.24629236601635371 0 -0.060790606434616173 0.27691594516294932 0 -0.051433814455770409 0.26974818117790877 0 -0.044689826205016353 0.27695632948010218 0 -0.062573494730688795 0.26341419536603539 0 -0.060790606434616173 0.27691594516294932 0 -0.051433814455770409 0.26974818117790877 0 -0.044689826205016353 0.27695632948010218 0 -0.029548602767352231 0.26962450316895081 0 -0.023349078700478341 0.27913695463312488 0 -0.044689826205016353 0.27695632948010218 0 -0.037681330452760203 0.26170625470254832 0 -0.051433814455770409 0.26974818117790877 0 -0.044689826205016353 0.27695632948010218 0 -0.037681330452760203 0.26170625470254832 0 -0.044689826205016353 0.27695632948010218 0 -0.037681330452760203 0.26170625470254832 0 -0.029548602767352231 0.26962450316895081 0 -0.053489031153139757 0.25801458037647551 0 -0.036731014875422657 0.25963842386852809 0 -0.043468959687700551 0.24900799977386601 0 -0.053489031153139757 0.25801458037647551 0 -0.036731014875422657 0.25963842386852809 0 -0.053489031153139757 0.25801458037647551 0 -0.037681330452760203 0.26170625470254832 0 -0.036731014875422657 0.25963842386852809 0 -0.037681330452760203 0.26170625470254832 0 -0.036731014875422657 0.25963842386852809 0 -0.02463151114205428 0.26081085979823021 0 -0.037681330452760203 0.26170625470254832 0 -0.036731014875422657 0.25963842386852809 0 -0.036731014875422657 0.25963842386852809 0 -0.043468959687700551 0.24900799977386601 0 -0.02995795028494776 0.24490063345968621 0 -0.036731014875422657 0.25963842386852809 0 -0.02995795028494776 0.24490063345968621 0 -0.036731014875422657 0.25963842386852809 0 -0.022967549773417129 0.25023750061389088 0 -0.02995795028494776 0.24490063345968621 0 -0.036731014875422657 0.25963842386852809 0 -0.022967549773417129 0.25023750061389088 0 -0.02463151114205428 0.26081085979823021 0 -0.022967549773417129 0.25023750061389088 0 -0.02463151114205428 0.26081085979823021 0 -0.002897395715083702 0.25931960419232192 0 -0.037681330452760203 0.26170625470254832 0 -0.02463151114205428 0.26081085979823021 0 -0.029548602767352231 0.26962450316895081 0 -0.037681330452760203 0.26170625470254832 0 -0.02463151114205428 0.26081085979823021 0 -0.036731014875422657 0.25963842386852809 0 -0.02463151114205428 0.26081085979823021 0 -0.029548602767352231 0.26962450316895081 0 -0.023349078700478341 0.27913695463312488 0 -0.017391267336452 0.26951211723074808 0 -0.02463151114205428 0.26081085979823021 0 -0.029548602767352231 0.26962450316895081 0 -0.017391267336452 0.26951211723074808 0 -0.023349078700478341 0.27913695463312488 0 -0.017391267336452 0.26951211723074808 0 -0.013313084125550319 0.27544299650917642 0 -0.023349078700478341 0.27913695463312488 0 -0.013313084125550319 0.27544299650917642 0 -0.011764091681716059 0.28310958988867541 0 -0.017391267336452 0.26951211723074808 0 -0.01000435067969036 0.26999503014135501 0 -0.0029387237082632248 0.2629128801755295 0 -0.017391267336452 0.26951211723074808 0 -0.01000435067969036 0.26999503014135501 0 -0.013313084125550319 0.27544299650917642 0 -0.01000435067969036 0.26999503014135501 0 -0.013313084125550319 0.27544299650917642 0 -0.0063743275484940548 0.27211212664996592 0 -0.013313084125550319 0.27544299650917642 0 -0.0063743275484940548 0.27211212664996592 0 -0.011764091681716059 0.28310958988867541 0 -0.0063743275484940548 0.27211212664996592 0 -0.0030358750037680761 0.27135973157054161 0 -0.011764091681716059 0.28310958988867541 0 -0.01000435067969036 0.26999503014135501 0 -0.0063743275484940548 0.27211212664996592 0 -0.0029387237082632248 0.2629128801755295 0 -0.0063743275484940548 0.27211212664996592 0 -0.0030358750037680761 0.27135973157054161 0 -0.0029387237082632248 0.2629128801755295 0 -0.0030358750037680761 0.27135973157054161 0 -0.0029387237082632248 0.2629128801755295 0 -0.0063743275484940548 0.27211212664996592 0 -0.0030358750037680761 0.27135973157054161 0 -0.02463151114205428 0.26081085979823021 0 -0.0029387237082632248 0.2629128801755295 0 -0.002897395715083702 0.25931960419232192 0 -0.02463151114205428 0.26081085979823021 0 -0.017391267336452 0.26951211723074808 0 -0.0029387237082632248 0.2629128801755295 0 -0.02463151114205428 0.26081085979823021 0 -0.0029387237082632248 0.2629128801755295 0 -0.02463151114205428 0.26081085979823021 0 -0.002897395715083702 0.25931960419232192 0 -0.0029387237082632248 0.2629128801755295 0 -0.002897395715083702 0.25931960419232192 0 -0.0067011431490616646 0.31030769025853638 0 -0.0040906007561206451 0.30166693654188298 0 -0.027894461356696511 0.2969366703997689 0 -0.0067011431490616646 0.31030769025853638 0 -0.0040906007561206451 0.30166693654188298 0 0.0036112744821826278 0.31212534438346318 0 -0.0030358750037680761 0.27135973157054161 0 -0.0032725204696375828 0.2919349495668262 0 -0.0040906007561206451 0.30166693654188298 0 -0.0032725204696375828 0.2919349495668262 0 -0.027894461356696511 0.2969366703997689 0 -0.0032725204696375828 0.2919349495668262 0 -0.011764091681716059 0.28310958988867541 0 -0.027894461356696511 0.2969366703997689 0 -0.0030358750037680761 0.27135973157054161 0 -0.0032725204696375828 0.2919349495668262 0 -0.011764091681716059 0.28310958988867541 0 -0.023349078700478341 0.27913695463312488 0 -0.011764091681716059 0.28310958988867541 0 -0.027894461356696511 0.2969366703997689 0 -0.0040906007561206451 0.30166693654188298 0 -0.027894461356696511 0.2969366703997689 0 -0.0067011431490616646 0.31030769025853638 0 -0.03058625405934904 0.30427403655186142 0 -0.020555232571956919 0.31485795343855821 0 -0.0067011431490616646 0.31030769025853638 0 -0.03058625405934904 0.30427403655186142 0 -0.0067011431490616646 0.31030769025853638 0 -0.027894461356696511 0.2969366703997689 0 -0.03058625405934904 0.30427403655186142 0 -0.03058625405934904 0.30427403655186142 0 -0.030399302567256859 0.31454206904219029 0 -0.020555232571956919 0.31485795343855821 0 -0.027894461356696511 0.2969366703997689 0 -0.03058625405934904 0.30427403655186142 0 -0.0516983219572726 0.29220640425765598 0 -0.03058625405934904 0.30427403655186142 0 -0.036546986245090639 0.31128006648887552 0 -0.030399302567256859 0.31454206904219029 0 -0.03058625405934904 0.30427403655186142 0 -0.0516983219572726 0.29220640425765598 0 -0.054471364969637302 0.29824038284518922 0 -0.03058625405934904 0.30427403655186142 0 -0.054471364969637302 0.29824038284518922 0 -0.03058625405934904 0.30427403655186142 0 -0.038286751397033372 0.30350337560747209 0 -0.054471364969637302 0.29824038284518922 0 -0.03058625405934904 0.30427403655186142 0 -0.036546986245090639 0.31128006648887552 0 -0.038286751397033372 0.30350337560747209 0 -0.036546986245090639 0.31128006648887552 0 -0.038286751397033372 0.30350337560747209 0 -0.046213576023836918 0.31431745220940099 0 -0.027894461356696511 0.2969366703997689 0 -0.0516983219572726 0.29220640425765598 0 -0.044689826205016353 0.27695632948010218 0 -0.027894461356696511 0.2969366703997689 0 -0.0516983219572726 0.29220640425765598 0 -0.044689826205016353 0.27695632948010218 0 -0.023349078700478341 0.27913695463312488 0 -0.027894461356696511 0.2969366703997689 0 -0.079442307415170471 0.28669316263433492 0 -0.0516983219572726 0.29220640425765598 0 -0.054471364969637302 0.29824038284518922 0 -0.060790606434616173 0.27691594516294932 0 -0.044689826205016353 0.27695632948010218 0 -0.0516983219572726 0.29220640425765598 0 -0.044689826205016353 0.27695632948010218 0 -0.0516983219572726 0.29220640425765598 0 -0.0516983219572726 0.29220640425765598 0 -0.054471364969637302 0.29824038284518922 0 -0.038286751397033372 0.30350337560747209 0 -0.059759627555333407 0.30974733137251731 0 -0.046213576023836918 0.31431745220940099 0 -0.038286751397033372 0.30350337560747209 0 -0.054471364969637302 0.29824038284518922 0 -0.059759627555333407 0.30974733137251731 0 -0.038286751397033372 0.30350337560747209 0 -0.059759627555333407 0.30974733137251731 0 -0.054471364969637302 0.29824038284518922 0 -0.059759627555333407 0.30974733137251731 0 -0.059759627555333407 0.30974733137251731 0 -0.055135542214988703 0.32103800838114982 0 -0.067910653365762505 0.32748348439548369 0 -0.055135542214988703 0.32103800838114982 0 -0.05427826570142083 0.33682627552808558 0 -0.045890058598022788 0.32466029770462362 0 -0.059759627555333407 0.30974733137251731 0 -0.055135542214988703 0.32103800838114982 0 -0.046213576023836918 0.31431745220940099 0 -0.055135542214988703 0.32103800838114982 0 -0.046213576023836918 0.31431745220940099 0 -0.045890058598022788 0.32466029770462362 0 -0.055135542214988703 0.32103800838114982 0 -0.05427826570142083 0.33682627552808558 0 -0.067910653365762505 0.32748348439548369 0 -0.05427826570142083 0.33682627552808558 0 -0.036235209823855731 0.33299068655943709 0 -0.045890058598022788 0.32466029770462362 0 -0.036235209823855731 0.33299068655943709 0 -0.0240114776938893 0.34519249580698191 0 -0.042912550715771172 0.3471427123608698 0 -0.05427826570142083 0.33682627552808558 0 -0.036235209823855731 0.33299068655943709 0 -0.042912550715771172 0.3471427123608698 0 -0.046213576023836918 0.31431745220940099 0 -0.045890058598022788 0.32466029770462362 0 -0.037249047177976967 0.31976339903345302 0 -0.036546986245090639 0.31128006648887552 0 -0.046213576023836918 0.31431745220940099 0 -0.037249047177976967 0.31976339903345302 0 -0.036235209823855731 0.33299068655943709 0 -0.045890058598022788 0.32466029770462362 0 -0.037249047177976967 0.31976339903345302 0 -0.036235209823855731 0.33299068655943709 0 -0.037249047177976967 0.31976339903345302 0 -0.02739927968594514 0.32293355322393569 0 -0.036546986245090639 0.31128006648887552 0 -0.037249047177976967 0.31976339903345302 0 -0.030399302567256859 0.31454206904219029 0 -0.037249047177976967 0.31976339903345302 0 -0.030399302567256859 0.31454206904219029 0 -0.02739927968594514 0.32293355322393569 0 -0.030399302567256859 0.31454206904219029 0 -0.020555232571956919 0.31485795343855821 0 -0.02739927968594514 0.32293355322393569 0 -0.020555232571956919 0.31485795343855821 0 -0.01676599317203013 0.32446343321016552 0 -0.01318550272151045 0.31767863471544427 0 -0.01676599317203013 0.32446343321016552 0 -0.02739927968594514 0.32293355322393569 0 -0.022505959306490859 0.33223137259536162 0 -0.020555232571956919 0.31485795343855821 0 -0.01676599317203013 0.32446343321016552 0 -0.02739927968594514 0.32293355322393569 0 -0.036235209823855731 0.33299068655943709 0 -0.02739927968594514 0.32293355322393569 0 -0.022505959306490859 0.33223137259536162 0 -0.036235209823855731 0.33299068655943709 0 -0.022505959306490859 0.33223137259536162 0 -0.0240114776938893 0.34519249580698191 0 -0.022505959306490859 0.33223137259536162 0 -0.008915276249387703 0.33674602879762522 0 -0.0240114776938893 0.34519249580698191 0 -0.01676599317203013 0.32446343321016552 0 -0.022505959306490859 0.33223137259536162 0 -0.008915276249387703 0.33674602879762522 0 -0.008915276249387703 0.33674602879762522 0 0.00091490841758586072 0.35171420747292209 0 0.0067839313662321661 0.33952205721666939 0 -0.008915276249387703 0.33674602879762522 0 -0.0080347084968897531 0.32233305649006833 0 0.0046151383358662553 0.33017038165289891 0 -0.0067011431490616646 0.31030769025853638 0 -0.0080347084968897531 0.32233305649006833 0 0.0036112744821826278 0.31212534438346318 0 -0.0067011431490616646 0.31030769025853638 0 -0.01318550272151045 0.31767863471544427 0 -0.0080347084968897531 0.32233305649006833 0 -0.0067011431490616646 0.31030769025853638 0 -0.020555232571956919 0.31485795343855821 0 -0.01318550272151045 0.31767863471544427 0 -0.01676599317203013 0.32446343321016552 0 -0.008915276249387703 0.33674602879762522 0 -0.0080347084968897531 0.32233305649006833 0 -0.01676599317203013 0.32446343321016552 0 -0.01318550272151045 0.31767863471544427 0 -0.0080347084968897531 0.32233305649006833 0 -0.0054457561154861176 0.36343098419941078 0 -0.01182882613579456 0.35312791284299022 0 -0.020450108478436771 0.36588920786551959 0 -0.0054457561154861176 0.36343098419941078 0 -0.020450108478436771 0.36588920786551959 0 -0.0058566304595185619 0.37760592622274081 0 -0.0054457561154861176 0.36343098419941078 0 -0.0058566304595185619 0.37760592622274081 0 0.0093062328078225148 0.36630596823047162 0 -0.0054457561154861176 0.36343098419941078 0 -0.01182882613579456 0.35312791284299022 0 0.00091490841758586072 0.35171420747292209 0 -0.008915276249387703 0.33674602879762522 0 -0.01182882613579456 0.35312791284299022 0 0.00091490841758586072 0.35171420747292209 0 -0.008915276249387703 0.33674602879762522 0 -0.01182882613579456 0.35312791284299022 0 -0.0240114776938893 0.34519249580698191 0 -0.0240114776938893 0.34519249580698191 0 -0.020450108478436771 0.36588920786551959 0 -0.03362063633379591 0.35583082122994197 0 -0.01182882613579456 0.35312791284299022 0 -0.0240114776938893 0.34519249580698191 0 -0.020450108478436771 0.36588920786551959 0 -0.020450108478436771 0.36588920786551959 0 -0.033854406386194337 0.37479569055968021 0 -0.03362063633379591 0.35583082122994197 0 -0.033854406386194337 0.37479569055968021 0 -0.044974750356724671 0.36137080957340562 0 -0.03362063633379591 0.35583082122994197 0 -0.033854406386194337 0.37479569055968021 0 -0.044974750356724671 0.36137080957340562 0 -0.048113231005584012 0.3759934800517355 0 -0.0240114776938893 0.34519249580698191 0 -0.03362063633379591 0.35583082122994197 0 -0.042912550715771172 0.3471427123608698 0 -0.044974750356724671 0.36137080957340562 0 -0.03362063633379591 0.35583082122994197 0 -0.042912550715771172 0.3471427123608698 0 -0.05427826570142083 0.33682627552808558 0 -0.042912550715771172 0.3471427123608698 0 -0.058305989574937482 0.35857905439345661 0 -0.05427826570142083 0.33682627552808558 0 -0.058305989574937482 0.35857905439345661 0 -0.07167238108912112 0.34676264621391562 0 -0.044974750356724671 0.36137080957340562 0 -0.042912550715771172 0.3471427123608698 0 -0.058305989574937482 0.35857905439345661 0 -0.058305989574937482 0.35857905439345661 0 -0.06282211372245497 0.37938974281630777 0 -0.048113231005584012 0.3759934800517355 0 -0.044974750356724671 0.36137080957340562 0 -0.058305989574937482 0.35857905439345661 0 -0.048113231005584012 0.3759934800517355 0 -0.058305989574937482 0.35857905439345661 0 -0.075843331692196786 0.36838505660522408 0 -0.06282211372245497 0.37938974281630777 0 -0.075843331692196786 0.36838505660522408 0 -0.089933669158285087 0.35816190553830679 0 -0.095907170707605294 0.37860770460706911 0 -0.089933669158285087 0.35816190553830679 0 -0.086894393892381613 0.33745790276805249 0 -0.098179086415710964 0.34637642821483827 0 -0.089933669158285087 0.35816190553830679 0 -0.086894393892381613 0.33745790276805249 0 -0.089933669158285087 0.35816190553830679 0 -0.07167238108912112 0.34676264621391562 0 -0.086894393892381613 0.33745790276805249 0 -0.075843331692196786 0.36838505660522408 0 -0.089933669158285087 0.35816190553830679 0 -0.07167238108912112 0.34676264621391562 0 -0.058305989574937482 0.35857905439345661 0 -0.075843331692196786 0.36838505660522408 0 -0.07167238108912112 0.34676264621391562 0 -0.05427826570142083 0.33682627552808558 0 -0.07167238108912112 0.34676264621391562 0 -0.067910653365762505 0.32748348439548369 0 -0.07167238108912112 0.34676264621391562 0 -0.067910653365762505 0.32748348439548369 0 -0.086894393892381613 0.33745790276805249 0 -0.059759627555333407 0.30974733137251731 0 -0.067910653365762505 0.32748348439548369 0 -0.08385511862647993 0.31675389999779802 0 -0.059759627555333407 0.30974733137251731 0 -0.08385511862647993 0.31675389999779802 0 -0.059759627555333407 0.30974733137251731 0 -0.067910653365762505 0.32748348439548369 0 -0.067910653365762505 0.32748348439548369 0 -0.08385511862647993 0.31675389999779802 0 -0.086894393892381613 0.33745790276805249 0 -0.08385511862647993 0.31675389999779802 0 -0.086894393892381613 0.33745790276805249 0 -0.08385511862647993 0.31675389999779802 0 -0.086894393892381613 0.33745790276805249 0 -0.106314786394073 0.32328479837417751 0 -0.086894393892381613 0.33745790276805249 0 -0.106314786394073 0.32328479837417751 0 -0.098179086415710964 0.34637642821483827 0 -0.106314786394073 0.32328479837417751 0 -0.11240223542701069 0.34423483682210831 0 -0.098179086415710964 0.34637642821483827 0 -0.096623010485596753 0.30265743279506158 0 -0.08385511862647993 0.31675389999779802 0 -0.106314786394073 0.32328479837417751 0 -0.08385511862647993 0.31675389999779802 0 -0.106314786394073 0.32328479837417751 0 -0.12877445416166591 0.32981569675055772 0 -0.13042235043161229 0.32401494720932422 0 -0.106314786394073 0.32328479837417751 0 -0.13042235043161229 0.32401494720932422 0 -0.11973455794315201 0.30241257900181412 0 -0.106314786394073 0.32328479837417751 0 -0.12877445416166591 0.32981569675055772 0 -0.106314786394073 0.32328479837417751 0 -0.12877445416166591 0.32981569675055772 0 -0.106314786394073 0.32328479837417751 0 -0.1195774476090843 0.33613120917309441 0 -0.106314786394073 0.32328479837417751 0 -0.1195774476090843 0.33613120917309441 0 -0.11240223542701069 0.34423483682210831 0 -0.12554050980093431 0.33798955771745598 0 -0.12877445416166591 0.32981569675055772 0 -0.1195774476090843 0.33613120917309441 0 -0.1195774476090843 0.33613120917309441 0 -0.1227757179636587 0.3448842899162457 0 -0.11240223542701069 0.34423483682210831 0 -0.12554050980093431 0.33798955771745598 0 -0.1195774476090843 0.33613120917309441 0 -0.1227757179636587 0.3448842899162457 0 -0.13296551974788801 0.35152266809328653 0 -0.1227757179636587 0.3448842899162457 0 -0.11366137478569729 0.36039392185075259 0 -0.1227757179636587 0.3448842899162457 0 -0.11240223542701069 0.34423483682210831 0 -0.11366137478569729 0.36039392185075259 0 -0.13296551974788801 0.35152266809328653 0 -0.11366137478569729 0.36039392185075259 0 -0.12037576206545481 0.37514581882520948 0 -0.11366137478569729 0.36039392185075259 0 -0.095907170707605294 0.37860770460706911 0 -0.12037576206545481 0.37514581882520948 0 -0.089933669158285087 0.35816190553830679 0 -0.11366137478569729 0.36039392185075259 0 -0.095907170707605294 0.37860770460706911 0 -0.089933669158285087 0.35816190553830679 0 -0.11366137478569729 0.36039392185075259 0 -0.098179086415710964 0.34637642821483827 0 -0.11240223542701069 0.34423483682210831 0 -0.11366137478569729 0.36039392185075259 0 -0.098179086415710964 0.34637642821483827 0 -0.10778600438302149 0.39876896955713259 0 -0.095907170707605294 0.37860770460706911 0 -0.089291043196200473 0.39927491449943131 0 -0.10778600438302149 0.39876896955713259 0 -0.095907170707605294 0.37860770460706911 0 -0.12037576206545481 0.37514581882520948 0 -0.10778600438302149 0.39876896955713259 0 -0.12037576206545481 0.37514581882520948 0 -0.13028608785728649 0.40547773656340602 0 -0.10778600438302149 0.39876896955713259 0 -0.12037576206545481 0.37514581882520948 0 -0.13028608785728649 0.40547773656340602 0 -0.10778600438302149 0.39876896955713259 0 -0.1177912583612878 0.41874119050065678 0 -0.1229642779473457 0.43175066857914229 0 -0.1116485780101503 0.43354377682508699 0 -0.121694750556814 0.44112656006293588 0 -0.1177912583612878 0.41874119050065678 0 -0.1229642779473457 0.43175066857914229 0 -0.1116485780101503 0.43354377682508699 0 -0.1177912583612878 0.41874119050065678 0 -0.1116485780101503 0.43354377682508699 0 -0.095196246700588294 0.42239212028905548 0 -0.1116485780101503 0.43354377682508699 0 -0.095196246700588294 0.42239212028905548 0 -0.099898964483887812 0.44382608385378269 0 -0.10778600438302149 0.39876896955713259 0 -0.095196246700588294 0.42239212028905548 0 -0.10778600438302149 0.39876896955713259 0 -0.095196246700588294 0.42239212028905548 0 -0.089291043196200473 0.39927491449943131 0 -0.10778600438302149 0.39876896955713259 0 -0.1177912583612878 0.41874119050065678 0 -0.095196246700588294 0.42239212028905548 0 -0.095196246700588294 0.42239212028905548 0 -0.07387458226662233 0.40934186459422872 0 -0.089291043196200473 0.39927491449943131 0 -0.095196246700588294 0.42239212028905548 0 -0.068333671073142213 0.42700736576535181 0 -0.07387458226662233 0.40934186459422872 0 -0.095196246700588294 0.42239212028905548 0 -0.082606489018155094 0.44601527102097849 0 -0.095196246700588294 0.42239212028905548 0 -0.082606489018155094 0.44601527102097849 0 -0.099898964483887812 0.44382608385378269 0 -0.095196246700588294 0.42239212028905548 0 -0.068333671073142213 0.42700736576535181 0 -0.082606489018155094 0.44601527102097849 0 -0.07387458226662233 0.40934186459422872 0 -0.062757708109015931 0.39926091073762521 0 -0.052199321441847739 0.41341796721164392 0 -0.068333671073142213 0.42700736576535181 0 -0.07387458226662233 0.40934186459422872 0 -0.052199321441847739 0.41341796721164392 0 -0.07387458226662233 0.40934186459422872 0 -0.062757708109015931 0.39926091073762521 0 -0.07604156262267045 0.3894513250718814 0 -0.07387458226662233 0.40934186459422872 0 -0.089291043196200473 0.39927491449943131 0 -0.07604156262267045 0.3894513250718814 0 -0.075843331692196786 0.36838505660522408 0 -0.095907170707605294 0.37860770460706911 0 -0.07604156262267045 0.3894513250718814 0 -0.095907170707605294 0.37860770460706911 0 -0.089291043196200473 0.39927491449943131 0 -0.07604156262267045 0.3894513250718814 0 -0.062757708109015931 0.39926091073762521 0 -0.06282211372245497 0.37938974281630777 0 -0.07604156262267045 0.3894513250718814 0 -0.075843331692196786 0.36838505660522408 0 -0.06282211372245497 0.37938974281630777 0 -0.07604156262267045 0.3894513250718814 0 -0.062757708109015931 0.39926091073762521 0 -0.06282211372245497 0.37938974281630777 0 -0.049596777908459552 0.39322342368897939 0 -0.06282211372245497 0.37938974281630777 0 -0.048113231005584012 0.3759934800517355 0 -0.049596777908459552 0.39322342368897939 0 -0.062757708109015931 0.39926091073762521 0 -0.049596777908459552 0.39322342368897939 0 -0.052199321441847739 0.41341796721164392 0 -0.049596777908459552 0.39322342368897939 0 -0.031879177839886447 0.40254313571959788 0 -0.052199321441847739 0.41341796721164392 0 -0.049596777908459552 0.39322342368897939 0 -0.031879177839886447 0.40254313571959788 0 -0.03707263003505043 0.38667601218444941 0 -0.048113231005584012 0.3759934800517355 0 -0.049596777908459552 0.39322342368897939 0 -0.03707263003505043 0.38667601218444941 0 -0.033854406386194337 0.37479569055968021 0 -0.048113231005584012 0.3759934800517355 0 -0.03707263003505043 0.38667601218444941 0 -0.020450108478436771 0.36588920786551959 0 -0.021919557035127799 0.38682433090225382 0 -0.0058566304595185619 0.37760592622274081 0 -0.020450108478436771 0.36588920786551959 0 -0.033854406386194337 0.37479569055968021 0 -0.021919557035127799 0.38682433090225382 0 -0.033854406386194337 0.37479569055968021 0 -0.03707263003505043 0.38667601218444941 0 -0.021919557035127799 0.38682433090225382 0 -0.031879177839886447 0.40254313571959788 0 -0.021919557035127799 0.38682433090225382 0 -0.0081993723314648728 0.40008198065386358 0 -0.031879177839886447 0.40254313571959788 0 -0.0081993723314648728 0.40008198065386358 0 -0.018914160649817081 0.4136907857786094 0 -0.031879177839886447 0.40254313571959788 0 -0.03707263003505043 0.38667601218444941 0 -0.021919557035127799 0.38682433090225382 0 -0.021919557035127799 0.38682433090225382 0 -0.0081993723314648728 0.40008198065386358 0 -0.0058566304595185619 0.37760592622274081 0 -0.0081993723314648728 0.40008198065386358 0 -0.0058566304595185619 0.37760592622274081 0 0.011723220050822689 0.38555107505297409 0 -0.004157227082833369 0.42125660297184142 0 -0.018914160649817081 0.4136907857786094 0 -0.01768141399826538 0.43560007552081248 0 -0.0048978799744891352 0.43562291466733821 0 -0.004157227082833369 0.42125660297184142 0 0.0078202281344544912 0.43691480858437892 0 -0.0048978799744891352 0.43562291466733821 0 -0.004157227082833369 0.42125660297184142 0 -0.01768141399826538 0.43560007552081248 0 -0.0081993723314648728 0.40008198065386358 0 -0.004157227082833369 0.42125660297184142 0 -0.018914160649817081 0.4136907857786094 0 -0.0081993723314648728 0.40008198065386358 0 -0.004157227082833369 0.42125660297184142 0 0.011141605590447931 0.41011316813531262 0 -0.031879177839886447 0.40254313571959788 0 -0.018914160649817081 0.4136907857786094 0 -0.033295146463980872 0.42194886819007782 0 -0.018914160649817081 0.4136907857786094 0 -0.01768141399826538 0.43560007552081248 0 -0.033295146463980872 0.42194886819007782 0 -0.01768141399826538 0.43560007552081248 0 -0.032751112325842421 0.43564023918612299 0 -0.033295146463980872 0.42194886819007782 0 -0.033295146463980872 0.42194886819007782 0 -0.052199321441847739 0.41341796721164392 0 -0.046950274283511617 0.43109933448981641 0 -0.032751112325842421 0.43564023918612299 0 -0.033295146463980872 0.42194886819007782 0 -0.046950274283511617 0.43109933448981641 0 -0.031879177839886447 0.40254313571959788 0 -0.033295146463980872 0.42194886819007782 0 -0.052199321441847739 0.41341796721164392 0 -0.068333671073142213 0.42700736576535181 0 -0.046950274283511617 0.43109933448981641 0 -0.058212490133400241 0.44174662735293041 0 -0.068333671073142213 0.42700736576535181 0 -0.052199321441847739 0.41341796721164392 0 -0.046950274283511617 0.43109933448981641 0 -0.058212490133400241 0.44174662735293041 0 -0.052589633874088847 0.46586450428771298 0 -0.035135523936177089 0.45073228990426267 0 -0.058212490133400241 0.44174662735293041 0 -0.052589633874088847 0.46586450428771298 0 -0.063894420473822378 0.45578571249596778 0 -0.052589633874088847 0.46586450428771298 0 -0.070016731335721893 0.46963842175290138 0 -0.063894420473822378 0.45578571249596778 0 -0.052589633874088847 0.46586450428771298 0 -0.035135523936177089 0.45073228990426267 0 -0.052589633874088847 0.46586450428771298 0 -0.035135523936177089 0.45073228990426267 0 -0.033195006842140218 0.46980969844056047 0 -0.032751112325842421 0.43564023918612299 0 -0.046950274283511617 0.43109933448981641 0 -0.035135523936177089 0.45073228990426267 0 -0.046950274283511617 0.43109933448981641 0 -0.058212490133400241 0.44174662735293041 0 -0.035135523936177089 0.45073228990426267 0 -0.01768141399826538 0.43560007552081248 0 -0.035135523936177089 0.45073228990426267 0 -0.01768141399826538 0.43560007552081248 0 -0.032751112325842421 0.43564023918612299 0 -0.035135523936177089 0.45073228990426267 0 -0.01768141399826538 0.43560007552081248 0 -0.035135523936177089 0.45073228990426267 0 -0.019850804260271481 0.45692161706114143 0 -0.035135523936177089 0.45073228990426267 0 -0.019850804260271481 0.45692161706114143 0 -0.033195006842140218 0.46980969844056047 0 -0.019850804260271481 0.45692161706114143 0 -0.01656207260320865 0.47277656645486582 0 -0.033195006842140218 0.46980969844056047 0 -0.019850804260271481 0.45692161706114143 0 -0.0073622766708320089 0.44816667856366238 0 0.0025542781150765851 0.46070301131444141 0 -0.019850804260271481 0.45692161706114143 0 -0.01656207260320865 0.47277656645486582 0 0.0025542781150765851 0.46070301131444141 0 -0.01768141399826538 0.43560007552081248 0 -0.019850804260271481 0.45692161706114143 0 -0.0073622766708320089 0.44816667856366238 0 -0.0048978799744891352 0.43562291466733821 0 -0.0073622766708320089 0.44816667856366238 0 0.0078202281344544912 0.43691480858437892 0 -0.0048978799744891352 0.43562291466733821 0 -0.01768141399826538 0.43560007552081248 0 -0.0073622766708320089 0.44816667856366238 0 -0.01393197572973637 0.5 0 -0.0031265767522748239 0.48396003887619199 0 0.0096882611311170392 0.50000000000000711 0 -0.01393197572973637 0.5 0 -0.0031265767522748239 0.48396003887619199 0 -0.026275930926110101 0.4866874526706626 0 -0.0031265767522748239 0.48396003887619199 0 -0.01656207260320865 0.47277656645486582 0 0.0025542781150765851 0.46070301131444141 0 -0.0031265767522748239 0.48396003887619199 0 -0.01656207260320865 0.47277656645486582 0 -0.026275930926110101 0.4866874526706626 0 -0.01656207260320865 0.47277656645486582 0 -0.026275930926110101 0.4866874526706626 0 -0.033195006842140218 0.46980969844056047 0 -0.01393197572973637 0.5 0 -0.026275930926110101 0.4866874526706626 0 -0.037552212590589718 0.5 0 -0.026275930926110101 0.4866874526706626 0 -0.037552212590589718 0.5 0 -0.047517021355340243 0.48481924260192 0 -0.026275930926110101 0.4866874526706626 0 -0.033195006842140218 0.46980969844056047 0 -0.047517021355340243 0.48481924260192 0 -0.052589633874088847 0.46586450428771298 0 -0.033195006842140218 0.46980969844056047 0 -0.047517021355340243 0.48481924260192 0 -0.052589633874088847 0.46586450428771298 0 -0.047517021355340243 0.48481924260192 0 -0.070043743812000583 0.48099671867116323 0 -0.052589633874088847 0.46586450428771298 0 -0.070043743812000583 0.48099671867116323 0 -0.047517021355340243 0.48481924260192 0 -0.061172449451443067 0.5 0 -0.070043743812000583 0.48099671867116323 0 -0.037552212590589718 0.5 0 -0.047517021355340243 0.48481924260192 0 -0.061172449451443067 0.5 0 -0.061172449451443067 0.5 0 -0.084792686312296389 0.49999999999999878 0 -0.070043743812000583 0.48099671867116323 0 -0.091962899402166523 0.50000000000000033 0 -0.087497853749911966 0.4961289330546137 0 -0.1002368812018348 0.47789951501569028 0 -0.087497853749911966 0.4961289330546137 0 -0.08449697549023516 0.47692373431743063 0 -0.070043743812000583 0.48099671867116323 0 -0.087497853749911966 0.4961289330546137 0 -0.070043743812000583 0.48099671867116323 0 -0.084792686312296389 0.49999999999999878 0 -0.087497853749911966 0.4961289330546137 0 -0.070043743812000583 0.48099671867116323 0 -0.084792686312296389 0.49999999999999878 0 -0.091962899402166523 0.50000000000000033 0 -0.087497853749911966 0.4961289330546137 0 -0.091962899402166523 0.50000000000000033 0 -0.087497853749911966 0.4961289330546137 0 -0.084792686312296389 0.49999999999999878 0 -0.087497853749911966 0.4961289330546137 0 -0.08449697549023516 0.47692373431743063 0 -0.094351010669683127 0.4602579217211864 0 -0.1002368812018348 0.47789951501569028 0 -0.08449697549023516 0.47692373431743063 0 -0.070016731335721893 0.46963842175290138 0 -0.094351010669683127 0.4602579217211864 0 -0.087497853749911966 0.4961289330546137 0 -0.08449697549023516 0.47692373431743063 0 -0.1002368812018348 0.47789951501569028 0 -0.052589633874088847 0.46586450428771298 0 -0.070043743812000583 0.48099671867116323 0 -0.070016731335721893 0.46963842175290138 0 -0.08449697549023516 0.47692373431743063 0 -0.070043743812000583 0.48099671867116323 0 -0.070016731335721893 0.46963842175290138 0 -0.070016731335721893 0.46963842175290138 0 -0.063894420473822378 0.45578571249596778 0 -0.082606489018155094 0.44601527102097849 0 -0.070016731335721893 0.46963842175290138 0 -0.082606489018155094 0.44601527102097849 0 -0.058212490133400241 0.44174662735293041 0 -0.063894420473822378 0.45578571249596778 0 -0.082606489018155094 0.44601527102097849 0 -0.068333671073142213 0.42700736576535181 0 -0.058212490133400241 0.44174662735293041 0 -0.082606489018155094 0.44601527102097849 0 -0.082606489018155094 0.44601527102097849 0 -0.094351010669683127 0.4602579217211864 0 -0.099898964483887812 0.44382608385378269 0 -0.070016731335721893 0.46963842175290138 0 -0.082606489018155094 0.44601527102097849 0 -0.094351010669683127 0.4602579217211864 0 -0.094351010669683127 0.4602579217211864 0 -0.1129759086537608 0.45967009697676908 0 -0.1002368812018348 0.47789951501569028 0 -0.094351010669683127 0.4602579217211864 0 -0.10348883671065939 0.45385615283597508 0 -0.1129759086537608 0.45967009697676908 0 -0.094351010669683127 0.4602579217211864 0 -0.10348883671065939 0.45385615283597508 0 -0.099898964483887812 0.44382608385378269 0 -0.10348883671065939 0.45385615283597508 0 -0.099898964483887812 0.44382608385378269 0 -0.1125451882811421 0.44814608909581088 0 -0.1116485780101503 0.43354377682508699 0 -0.099898964483887812 0.44382608385378269 0 -0.1125451882811421 0.44814608909581088 0 -0.12571493610568679 0.441440678937848 0 -0.1129759086537608 0.45967009697676908 0 -0.12571493610568679 0.441440678937848 0 -0.1125451882811421 0.44814608909581088 0 -0.1129759086537608 0.45967009697676908 0 -0.13560932355037331 0.45501093191156838 0 -0.12571493610568679 0.441440678937848 0 -0.1129759086537608 0.45967009697676908 0 -0.1116485780101503 0.43354377682508699 0 -0.1125451882811421 0.44814608909581088 0 -0.121694750556814 0.44112656006293588 0 -0.12571493610568679 0.441440678937848 0 -0.1229642779473457 0.43175066857914229 0 -0.121694750556814 0.44112656006293588 0 -0.12571493610568679 0.441440678937848 0 -0.1125451882811421 0.44814608909581088 0 -0.121694750556814 0.44112656006293588 0 -0.12571493610568679 0.441440678937848 0 -0.121694750556814 0.44112656006293588 0 -0.13560932355037331 0.45501093191156838 0 -0.1129759086537608 0.45967009697676908 0 -0.1206675452702269 0.47861097706956912 0 -0.10348883671065939 0.45385615283597508 0 -0.1125451882811421 0.44814608909581088 0 -0.1129759086537608 0.45967009697676908 0 -0.1129759086537608 0.45967009697676908 0 -0.1206675452702269 0.47861097706956912 0 -0.1002368812018348 0.47789951501569028 0 -0.1206675452702269 0.47861097706956912 0 -0.1184782957696479 0.5 0 -0.1002368812018348 0.47789951501569028 0 -0.091962899402166523 0.50000000000000033 0 -0.1184782957696479 0.5 0 -0.1002368812018348 0.47789951501569028 0 -0.087497853749911966 0.4961289330546137 0 -0.1002368812018348 0.47789951501569028 0 -0.1129759086537608 0.45967009697676908 0 -0.1002368812018348 0.47789951501569028 0 -0.17027059288971019 0.084324843111667658 0 -0.1461952492639001 0.093543365472553069 0 -0.15613323007299831 0.073899311958036173 0 -0.15613323007299831 0.073899311958036173 0 -0.1502630190079772 0.057156438134778623 0 -0.17039055921508239 0.060152750016161112 0 -0.17027059288971019 0.084324843111667658 0 -0.18338728071439811 0.071983892916874181 0 -0.15613323007299831 0.073899311958036173 0 -0.18338728071439811 0.071983892916874181 0 -0.15613323007299831 0.073899311958036173 0 -0.18338728071439811 0.071983892916874181 0 -0.15613323007299831 0.073899311958036173 0 -0.17039055921508239 0.060152750016161112 0 -0.18338728071439811 0.071983892916874181 0 -0.17039055921508239 0.060152750016161112 0 -0.18177467333799199 0.061443473290408272 0 -0.18338728071439811 0.071983892916874181 0 -0.18177467333799199 0.061443473290408272 0 -0.1911267995062855 0.058683646021099198 0 -0.17027059288971019 0.084324843111667658 0 -0.17842614893811451 0.097858209354813847 0 -0.19553697111916671 0.084548629133562869 0 -0.18693262587374779 0.09344488020766227 0 -0.17842614893811451 0.097858209354813847 0 -0.19553697111916671 0.084548629133562869 0 -0.17027059288971019 0.084324843111667658 0 -0.18338728071439811 0.071983892916874181 0 -0.19553697111916671 0.084548629133562869 0 -0.17842614893811451 0.097858209354813847 0 -0.19553697111916671 0.084548629133562869 0 -0.18693262587374779 0.09344488020766227 0 -0.1841055485189847 0.10490035462126759 0 -0.17842614893811451 0.097858209354813847 0 -0.18693262587374779 0.09344488020766227 0 -0.17842614893811451 0.097858209354813847 0 -0.1841055485189847 0.10490035462126759 0 -0.17842614893811451 0.097858209354813847 0 -0.1768324627008441 0.1116387019379881 0 -0.1841055485189847 0.10490035462126759 0 -0.1768324627008441 0.1116387019379881 0 -0.18833910160442641 0.1114750067088786 0 -0.18074204108593339 0.1249487360667433 0 -0.1768324627008441 0.1116387019379881 0 -0.18833910160442641 0.1114750067088786 0 -0.18074204108593339 0.1249487360667433 0 -0.15742713840772449 0.1141922003380532 0 -0.15642623591880389 0.1338819457432478 0 -0.18074204108593339 0.1249487360667433 0 -0.1768324627008441 0.1116387019379881 0 -0.15742713840772449 0.1141922003380532 0 -0.17027059288971019 0.084324843111667658 0 -0.15869119484252039 0.10809709541620301 0 -0.1461952492639001 0.093543365472553069 0 -0.17027059288971019 0.084324843111667658 0 -0.17842614893811451 0.097858209354813847 0 -0.15869119484252039 0.10809709541620301 0 -0.17842614893811451 0.097858209354813847 0 -0.15869119484252039 0.10809709541620301 0 -0.17842614893811451 0.097858209354813847 0 -0.15742713840772449 0.1141922003380532 0 -0.17842614893811451 0.097858209354813847 0 -0.1768324627008441 0.1116387019379881 0 -0.15742713840772449 0.1141922003380532 0 -0.17842614893811451 0.097858209354813847 0 -0.15742713840772449 0.1141922003380532 0 -0.15869119484252039 0.10809709541620301 0 -0.15869119484252039 0.10809709541620301 0 -0.13895624074692639 0.11833598147759219 0 -0.1461952492639001 0.093543365472553069 0 -0.15742713840772449 0.1141922003380532 0 -0.13895624074692639 0.11833598147759219 0 -0.1364281278773346 0.13052619132129259 0 -0.15742713840772449 0.1141922003380532 0 -0.15869119484252039 0.10809709541620301 0 -0.13895624074692639 0.11833598147759219 0 -0.15869119484252039 0.10809709541620301 0 -0.13895624074692639 0.11833598147759219 0 -0.15742713840772449 0.1141922003380532 0 -0.1364281278773346 0.13052619132129259 0 -0.13895624074692639 0.11833598147759219 0 -0.11922128665133259 0.12857486753898181 0 -0.13895624074692639 0.11833598147759219 0 -0.11922128665133259 0.12857486753898181 0 -0.1240502330414659 0.1021947992690901 0 -0.13895624074692639 0.11833598147759219 0 -0.1461952492639001 0.093543365472553069 0 -0.1240502330414659 0.1021947992690901 0 -0.1461952492639001 0.093543365472553069 0 -0.1288791794315983 0.075814730999198249 0 -0.1240502330414659 0.1021947992690901 0 -0.1288791794315983 0.075814730999198249 0 -0.1240502330414659 0.1021947992690901 0 -0.1461952492639001 0.093543365472553069 0 -0.15613323007299831 0.073899311958036173 0 -0.1288791794315983 0.075814730999198249 0 -0.15613323007299831 0.073899311958036173 0 -0.1288791794315983 0.075814730999198249 0 -0.1502630190079772 0.057156438134778623 0 -0.15613323007299831 0.073899311958036173 0 -0.1288791794315983 0.075814730999198249 0 -0.1288791794315983 0.075814730999198249 0 -0.13259894349772811 0.055494018760000798 0 -0.1167006582322563 0.067811428907814608 0 -0.1288791794315983 0.075814730999198249 0 -0.13259894349772811 0.055494018760000798 0 -0.1288791794315983 0.075814730999198249 0 -0.13259894349772811 0.055494018760000798 0 -0.1502630190079772 0.057156438134778623 0 -0.13259894349772811 0.055494018760000798 0 -0.1363187075638578 0.035173306520803457 0 -0.1224071833306445 0.040734209143255512 0 -0.13259894349772811 0.055494018760000798 0 -0.1363187075638578 0.035173306520803457 0 -0.14920879519560101 0.039445655713811457 0 -0.13259894349772811 0.055494018760000798 0 -0.1363187075638578 0.035173306520803457 0 -0.1363187075638578 0.035173306520803457 0 -0.14920879519560101 0.039445655713811457 0 -0.14746609780488179 0.02312205055937764 0 -0.13259894349772811 0.055494018760000798 0 -0.14920879519560101 0.039445655713811457 0 -0.1502630190079772 0.057156438134778623 0 -0.12657944794855619 -0.0014714323379356809 0 -0.1329444662468415 0.015465726615995389 0 -0.11616316277704079 0.0099158352154845933 0 -0.14348174916303849 -0.0098027559112646989 0 -0.12657944794855619 -0.0014714323379356809 0 -0.1329444662468415 0.015465726615995389 0 -0.14348174916303849 -0.0098027559112646989 0 -0.1329444662468415 0.015465726615995389 0 -0.1329444662468415 0.015465726615995389 0 -0.1224071833306445 0.040734209143255512 0 -0.1329444662468415 0.015465726615995389 0 -0.1240578157220496 0.027629486791117319 0 -0.1224071833306445 0.040734209143255512 0 -0.1363187075638578 0.035173306520803457 0 -0.1329444662468415 0.015465726615995389 0 -0.14746609780488179 0.02312205055937764 0 -0.1363187075638578 0.035173306520803457 0 -0.1329444662468415 0.015465726615995389 0 -0.1224071833306445 0.040734209143255512 0 -0.14920879519560101 0.039445655713811457 0 -0.14746609780488179 0.02312205055937764 0 -0.1658115775847834 0.027329902622217048 0 -0.14348174916303849 -0.0098027559112646989 0 -0.1329444662468415 0.015465726615995389 0 -0.14931666621338621 0.0081005178114109799 0 -0.1329444662468415 0.015465726615995389 0 -0.14746609780488179 0.02312205055937764 0 -0.14931666621338621 0.0081005178114109799 0 -0.14746609780488179 0.02312205055937764 0 -0.14931666621338621 0.0081005178114109799 0 -0.16246887520707051 0.01294645304952363 0 -0.17234808795134551 -0.0054818643426030444 0 -0.16246887520707051 0.01294645304952363 0 -0.18074721452665801 0.01016401747542576 0 -0.1583040618166684 -0.0016322242720216179 0 -0.17234808795134551 -0.0054818643426030444 0 -0.16246887520707051 0.01294645304952363 0 -0.1583040618166684 -0.0016322242720216179 0 -0.14931666621338621 0.0081005178114109799 0 -0.16246887520707051 0.01294645304952363 0 -0.16246887520707051 0.01294645304952363 0 -0.1658115775847834 0.027329902622217048 0 -0.18074721452665801 0.01016401747542576 0 -0.14746609780488179 0.02312205055937764 0 -0.16246887520707051 0.01294645304952363 0 -0.1658115775847834 0.027329902622217048 0 -0.1658115775847834 0.027329902622217048 0 -0.18091924795950939 0.03032407003729401 0 -0.18074721452665801 0.01016401747542576 0 -0.18091924795950939 0.03032407003729401 0 -0.18074721452665801 0.01016401747542576 0 -0.19424882236404251 0.022795178222224381 0 -0.1502630190079772 0.057156438134778623 0 -0.17039055921508239 0.060152750016161112 0 -0.17099914017255469 0.043592302526804808 0 -0.14920879519560101 0.039445655713811457 0 -0.17099914017255469 0.043592302526804808 0 -0.14920879519560101 0.039445655713811457 0 -0.1502630190079772 0.057156438134778623 0 -0.17099914017255469 0.043592302526804808 0 -0.14920879519560101 0.039445655713811457 0 -0.1658115775847834 0.027329902622217048 0 -0.17099914017255469 0.043592302526804808 0 -0.17099914017255469 0.043592302526804808 0 -0.19278948514950831 0.047738949339798047 0 -0.18091924795950939 0.03032407003729401 0 -0.17099914017255469 0.043592302526804808 0 -0.19278948514950831 0.047738949339798047 0 -0.1658115775847834 0.027329902622217048 0 -0.18091924795950939 0.03032407003729401 0 -0.17099914017255469 0.043592302526804808 0 -0.1797860119845742 0.052841081270064587 0 -0.18756889279191641 0.05513179953985721 0 -0.19278948514950831 0.047738949339798047 0 -0.17039055921508239 0.060152750016161112 0 -0.17099914017255469 0.043592302526804808 0 -0.1797860119845742 0.052841081270064587 0 -0.17099914017255469 0.043592302526804808 0 -0.1797860119845742 0.052841081270064587 0 -0.19278948514950831 0.047738949339798047 0 -0.17039055921508239 0.060152750016161112 0 -0.1797860119845742 0.052841081270064587 0 -0.18177467333799199 0.061443473290408272 0 -0.1797860119845742 0.052841081270064587 0 -0.18177467333799199 0.061443473290408272 0 -0.18756889279191641 0.05513179953985721 0 -0.18177467333799199 0.061443473290408272 0 -0.1911267995062855 0.058683646021099198 0 -0.18756889279191641 0.05513179953985721 0 -0.19236749398122199 0.05495184777791591 0 -0.2026560787098933 0.060444591314951009 0 -0.20934317923714479 0.050889074907078703 0 -0.19236749398122199 0.05495184777791591 0 -0.19278948514950831 0.047738949339798047 0 -0.20934317923714479 0.050889074907078703 0 -0.19278948514950831 0.047738949339798047 0 -0.20934317923714479 0.050889074907078703 0 -0.1911267995062855 0.058683646021099198 0 -0.18756889279191641 0.05513179953985721 0 -0.19236749398122199 0.05495184777791591 0 -0.1911267995062855 0.058683646021099198 0 -0.19236749398122199 0.05495184777791591 0 -0.2026560787098933 0.060444591314951009 0 -0.19236749398122199 0.05495184777791591 0 -0.19278948514950831 0.047738949339798047 0 -0.18756889279191641 0.05513179953985721 0 -0.19236749398122199 0.05495184777791591 0 -0.19278948514950831 0.047738949339798047 0 -0.19278948514950831 0.047738949339798047 0 -0.20632868053880329 0.037453875795113348 0 -0.20934317923714479 0.050889074907078703 0 -0.18091924795950939 0.03032407003729401 0 -0.19278948514950831 0.047738949339798047 0 -0.19424882236404251 0.022795178222224381 0 -0.19278948514950831 0.047738949339798047 0 -0.20632868053880329 0.037453875795113348 0 -0.19424882236404251 0.022795178222224381 0 -0.19278948514950831 0.047738949339798047 0 -0.19424882236404251 0.022795178222224381 0 -0.20632868053880329 0.037453875795113348 0 -0.2148904191473269 0.025810602672591731 0 -0.21987488076159989 0.039785813907764429 0 -0.20632868053880329 0.037453875795113348 0 -0.20934317923714479 0.050889074907078703 0 -0.21987488076159989 0.039785813907764429 0 -0.20934317923714479 0.050889074907078703 0 -0.22589687332478139 0.054039200474359249 0 -0.21987488076159989 0.039785813907764429 0 -0.20934317923714479 0.050889074907078703 0 -0.22589687332478139 0.054039200474359249 0 -0.2163505651090854 0.059135069196962063 0 -0.20934317923714479 0.050889074907078703 0 -0.22589687332478139 0.054039200474359249 0 -0.2163505651090854 0.059135069196962063 0 -0.20934317923714479 0.050889074907078703 0 -0.21140809379961159 0.062963506836781397 0 -0.2026560787098933 0.060444591314951009 0 -0.20934317923714479 0.050889074907078703 0 -0.21140809379961159 0.062963506836781397 0 -0.19570815957857571 -0.0021485928953494729 0 -0.19424882236404251 0.022795178222224381 0 -0.19570815957857571 -0.0021485928953494729 0 -0.19424882236404251 0.022795178222224381 0 -0.215773918833159 0.0076541526664952262 0 -0.19570815957857571 -0.0021485928953494729 0 -0.18074721452665801 0.01016401747542576 0 -0.19424882236404251 0.022795178222224381 0 -0.19424882236404251 0.022795178222224381 0 -0.2148904191473269 0.025810602672591731 0 -0.215773918833159 0.0076541526664952262 0 -0.20632868053880329 0.037453875795113348 0 -0.19424882236404251 0.022795178222224381 0 -0.2148904191473269 0.025810602672591731 0 -0.22937748613521869 -0.01203307572372799 0 -0.215773918833159 0.0076541526664952262 0 -0.2344120178671682 0.0053294652112889198 0 -0.215773918833159 0.0076541526664952262 0 -0.23164234376939349 0.02711412862998969 0 -0.2344120178671682 0.0053294652112889198 0 -0.2148904191473269 0.025810602672591731 0 -0.215773918833159 0.0076541526664952262 0 -0.23164234376939349 0.02711412862998969 0 -0.2148904191473269 0.025810602672591731 0 -0.23164234376939349 0.02711412862998969 0 -0.21987488076159989 0.039785813907764429 0 -0.25359977568098407 0.039384723681837618 0 -0.23164234376939349 0.02711412862998969 0 -0.2492167999058888 0.012345863422951939 0 -0.24604954069218099 -0.0084337429392642733 0 -0.2492167999058888 0.012345863422951939 0 -0.2344120178671682 0.0053294652112889198 0 -0.23164234376939349 0.02711412862998969 0 -0.2492167999058888 0.012345863422951939 0 -0.2344120178671682 0.0053294652112889198 0 -0.2163505651090854 0.059135069196962063 0 -0.22589687332478139 0.054039200474359249 0 -0.2145014582207965 0.069797183541811206 0 -0.234050616950889 0.05459095361182275 0 -0.2145014582207965 0.069797183541811206 0 -0.234050616950889 0.05459095361182275 0 -0.22589687332478139 0.054039200474359249 0 -0.2145014582207965 0.069797183541811206 0 -0.234050616950889 0.05459095361182275 0 -0.22589687332478139 0.054039200474359249 0 -0.23301289809752959 0.042982964061154753 0 -0.22589687332478139 0.054039200474359249 0 -0.21987488076159989 0.039785813907764429 0 -0.23301289809752959 0.042982964061154753 0 -0.23164234376939349 0.02711412862998969 0 -0.21987488076159989 0.039785813907764429 0 -0.23301289809752959 0.042982964061154753 0 -0.25359977568098407 0.039384723681837618 0 -0.234050616950889 0.05459095361182275 0 -0.23301289809752959 0.042982964061154753 0 -0.25359977568098407 0.039384723681837618 0 -0.23164234376939349 0.02711412862998969 0 -0.23301289809752959 0.042982964061154753 0 -0.25359977568098407 0.039384723681837618 0 -0.234050616950889 0.05459095361182275 0 -0.25359977568098407 0.039384723681837618 0 -0.234050616950889 0.05459095361182275 0 -0.24803015668111469 0.05557477116357748 0 -0.234050616950889 0.05459095361182275 0 -0.24803015668111469 0.05557477116357748 0 -0.24172574054666729 0.064317381173616059 0 -0.25081135524620429 0.066365095739814736 0 -0.24803015668111469 0.05557477116357748 0 -0.24172574054666729 0.064317381173616059 0 -0.25081135524620429 0.066365095739814736 0 -0.2430701097593144 0.073060154150447226 0 -0.24172574054666729 0.064317381173616059 0 -0.25489136477182062 0.08056109909424411 0 -0.25081135524620429 0.066365095739814736 0 -0.2430701097593144 0.073060154150447226 0 -0.2430701097593144 0.073060154150447226 0 -0.23524874940429499 0.084424504580878051 0 -0.23267333882758481 0.069632690163683175 0 -0.234050616950889 0.05459095361182275 0 -0.24172574054666729 0.064317381173616059 0 -0.23267333882758481 0.069632690163683175 0 -0.2430701097593144 0.073060154150447226 0 -0.24172574054666729 0.064317381173616059 0 -0.23267333882758481 0.069632690163683175 0 -0.25489136477182062 0.08056109909424411 0 -0.2430701097593144 0.073060154150447226 0 -0.23524874940429499 0.084424504580878051 0 -0.25784970550837027 0.097609960249440728 0 -0.23524874940429499 0.084424504580878051 0 -0.2397560512673873 0.093025137037705624 0 -0.25784970550837027 0.097609960249440728 0 -0.23524874940429499 0.084424504580878051 0 -0.25784970550837027 0.097609960249440728 0 -0.25489136477182062 0.08056109909424411 0 -0.23524874940429499 0.084424504580878051 0 -0.23524874940429499 0.084424504580878051 0 -0.2206695971556045 0.087797408110125819 0 -0.21264779330022041 0.071239048912314085 0 -0.23524874940429499 0.084424504580878051 0 -0.2397560512673873 0.093025137037705624 0 -0.2275862404743553 0.095228082939967471 0 -0.23524874940429499 0.084424504580878051 0 -0.2206695971556045 0.087797408110125819 0 -0.2275862404743553 0.095228082939967471 0 -0.2206695971556045 0.087797408110125819 0 -0.21937988002824929 0.097156599212283437 0 -0.2275862404743553 0.095228082939967471 0 -0.23524874940429499 0.084424504580878051 0 -0.21264779330022041 0.071239048912314085 0 -0.23524874940429499 0.084424504580878051 0 -0.2145014582207965 0.069797183541811206 0 -0.21264779330022041 0.071239048912314085 0 -0.23524874940429499 0.084424504580878051 0 -0.23267333882758481 0.069632690163683175 0 -0.2145014582207965 0.069797183541811206 0 -0.234050616950889 0.05459095361182275 0 -0.23267333882758481 0.069632690163683175 0 -0.2145014582207965 0.069797183541811206 0 -0.21264779330022041 0.071239048912314085 0 -0.19553697111916671 0.084548629133562869 0 -0.2163505651090854 0.059135069196962063 0 -0.2145014582207965 0.069797183541811206 0 -0.21140809379961159 0.062963506836781397 0 -0.21064133135579791 0.070068473875711038 0 -0.21264779330022041 0.071239048912314085 0 -0.19553697111916671 0.084548629133562869 0 -0.2145014582207965 0.069797183541811206 0 -0.21140809379961159 0.062963506836781397 0 -0.21064133135579791 0.070068473875711038 0 -0.2145014582207965 0.069797183541811206 0 -0.21064133135579791 0.070068473875711038 0 -0.2026560787098933 0.060444591314951009 0 -0.21140809379961159 0.062963506836781397 0 -0.21064133135579791 0.070068473875711038 0 -0.21064133135579791 0.070068473875711038 0 -0.21264779330022041 0.071239048912314085 0 -0.2145014582207965 0.069797183541811206 0 -0.21064133135579791 0.070068473875711038 0 -0.21264779330022041 0.071239048912314085 0 -0.2145014582207965 0.069797183541811206 0 -0.21264779330022041 0.071239048912314085 0 -0.2206695971556045 0.087797408110125819 0 -0.21264779330022041 0.071239048912314085 0 -0.20848532257090299 0.090938804905185217 0 -0.21264779330022041 0.071239048912314085 0 -0.20848532257090299 0.090938804905185217 0 -0.19553697111916671 0.084548629133562869 0 -0.2206695971556045 0.087797408110125819 0 -0.20848532257090299 0.090938804905185217 0 -0.21937988002824929 0.097156599212283437 0 -0.20848532257090299 0.090938804905185217 0 -0.19553697111916671 0.084548629133562869 0 -0.1967251160581138 0.093820335247108672 0 -0.18693262587374779 0.09344488020766227 0 -0.19553697111916671 0.084548629133562869 0 -0.1967251160581138 0.093820335247108672 0 -0.18338728071439811 0.071983892916874181 0 -0.21064133135579791 0.070068473875711038 0 -0.1911267995062855 0.058683646021099198 0 -0.21064133135579791 0.070068473875711038 0 -0.1911267995062855 0.058683646021099198 0 -0.2026560787098933 0.060444591314951009 0 -0.21064133135579791 0.070068473875711038 0 -0.18338728071439811 0.071983892916874181 0 -0.1911267995062855 0.058683646021099198 0 -0.21064133135579791 0.070068473875711038 0 -0.18338728071439811 0.071983892916874181 0 -0.21064133135579791 0.070068473875711038 0 -0.19553697111916671 0.084548629133562869 0 -0.18074204108593339 0.1249487360667433 0 -0.19564612785399851 0.1177530833710211 0 -0.1975565806481849 0.12779614850087609 0 -0.19564612785399851 0.1177530833710211 0 -0.19901398201931891 0.10819869775626061 0 -0.20593171299036561 0.1145956089396097 0 -0.19564612785399851 0.1177530833710211 0 -0.20593171299036561 0.1145956089396097 0 -0.1975565806481849 0.12779614850087609 0 -0.18074204108593339 0.1249487360667433 0 -0.19564612785399851 0.1177530833710211 0 -0.18833910160442641 0.1114750067088786 0 -0.19564612785399851 0.1177530833710211 0 -0.18833910160442641 0.1114750067088786 0 -0.19901398201931891 0.10819869775626061 0 -0.18833910160442641 0.1114750067088786 0 -0.1926542906276324 0.1017060038008326 0 -0.19901398201931891 0.10819869775626061 0 -0.1841055485189847 0.10490035462126759 0 -0.18833910160442641 0.1114750067088786 0 -0.1926542906276324 0.1017060038008326 0 -0.18693262587374779 0.09344488020766227 0 -0.1841055485189847 0.10490035462126759 0 -0.1926542906276324 0.1017060038008326 0 -0.18693262587374779 0.09344488020766227 0 -0.1926542906276324 0.1017060038008326 0 -0.1967251160581138 0.093820335247108672 0 -0.20848532257090299 0.090938804905185217 0 -0.2020458307244567 0.099453052831967217 0 -0.1967251160581138 0.093820335247108672 0 -0.1926542906276324 0.1017060038008326 0 -0.2020458307244567 0.099453052831967217 0 -0.1967251160581138 0.093820335247108672 0 -0.1926542906276324 0.1017060038008326 0 -0.2020458307244567 0.099453052831967217 0 -0.19901398201931891 0.10819869775626061 0 -0.20946682831503419 0.10420943088525469 0 -0.22216597227749729 0.11547527891253841 0 -0.21937988002824929 0.097156599212283437 0 -0.2020458307244567 0.099453052831967217 0 -0.19901398201931891 0.10819869775626061 0 -0.20946682831503419 0.10420943088525469 0 -0.19901398201931891 0.10819869775626061 0 -0.20946682831503419 0.10420943088525469 0 -0.20593171299036561 0.1145956089396097 0 -0.20848532257090299 0.090938804905185217 0 -0.2020458307244567 0.099453052831967217 0 -0.20946682831503419 0.10420943088525469 0 -0.20848532257090299 0.090938804905185217 0 -0.20946682831503419 0.10420943088525469 0 -0.21937988002824929 0.097156599212283437 0 -0.20593171299036561 0.1145956089396097 0 -0.22216597227749729 0.11547527891253841 0 -0.1975565806481849 0.12779614850087609 0 -0.20946682831503419 0.10420943088525469 0 -0.20593171299036561 0.1145956089396097 0 -0.22216597227749729 0.11547527891253841 0 -0.22216597227749729 0.11547527891253841 0 -0.1975565806481849 0.12779614850087609 0 -0.22216597227749729 0.11547527891253841 0 -0.2400078388929334 0.106542619580989 0 -0.22216597227749729 0.11547527891253841 0 -0.2400078388929334 0.106542619580989 0 -0.2379411944483889 0.1217426312925188 0 -0.2397560512673873 0.093025137037705624 0 -0.22216597227749729 0.11547527891253841 0 -0.2400078388929334 0.106542619580989 0 -0.22216597227749729 0.11547527891253841 0 -0.21937988002824929 0.097156599212283437 0 -0.2275862404743553 0.095228082939967471 0 -0.2397560512673873 0.093025137037705624 0 -0.22216597227749729 0.11547527891253841 0 -0.2397560512673873 0.093025137037705624 0 -0.22216597227749729 0.11547527891253841 0 -0.2275862404743553 0.095228082939967471 0 -0.25784970550837027 0.097609960249440728 0 -0.2400078388929334 0.106542619580989 0 -0.25784970550837027 0.097609960249440728 0 -0.2397560512673873 0.093025137037705624 0 -0.2400078388929334 0.106542619580989 0 -0.25294422142423789 0.12595318675102801 0 -0.25224134320465202 0.1086927350088715 0 -0.2379411944483889 0.1217426312925188 0 -0.25224134320465202 0.1086927350088715 0 -0.2400078388929334 0.106542619580989 0 -0.2379411944483889 0.1217426312925188 0 -0.25294422142423789 0.12595318675102801 0 -0.2313928289270997 0.14433388082911819 0 -0.25294422142423789 0.12595318675102801 0 -0.2379411944483889 0.1217426312925188 0 -0.2313928289270997 0.14433388082911819 0 -0.25771563569533112 0.1460092120751508 0 -0.25294422142423789 0.12595318675102801 0 -0.2313928289270997 0.14433388082911819 0 -0.22216597227749729 0.11547527891253841 0 -0.2313928289270997 0.14433388082911819 0 -0.2064477648415402 0.13553635920434051 0 -0.22216597227749729 0.11547527891253841 0 -0.2379411944483889 0.1217426312925188 0 -0.2313928289270997 0.14433388082911819 0 -0.2313928289270997 0.14433388082911819 0 -0.20984143642996131 0.16271457490720859 0 -0.25771563569533112 0.1460092120751508 0 -0.2313928289270997 0.14433388082911819 0 -0.24831920667477211 0.1627011673190483 0 -0.24831920667477211 0.1627011673190483 0 -0.2477774018020103 0.17663438799119269 0 -0.2316923940198776 0.1706035270166821 0 -0.2313928289270997 0.14433388082911819 0 -0.24831920667477211 0.1627011673190483 0 -0.2316923940198776 0.1706035270166821 0 -0.2477774018020103 0.17663438799119269 0 -0.23324425368537821 0.1850634250100115 0 -0.2316923940198776 0.1706035270166821 0 -0.2477774018020103 0.17663438799119269 0 -0.23324425368537821 0.1850634250100115 0 -0.2421333586766882 0.1887651380023315 0 -0.23324425368537821 0.1850634250100115 0 -0.2316923940198776 0.1706035270166821 0 -0.21634113573913011 0.18558877384602149 0 -0.2316923940198776 0.1706035270166821 0 -0.20984143642996131 0.16271457490720859 0 -0.21634113573913011 0.18558877384602149 0 -0.2313928289270997 0.14433388082911819 0 -0.2316923940198776 0.1706035270166821 0 -0.20984143642996131 0.16271457490720859 0 -0.20984143642996131 0.16271457490720859 0 -0.21634113573913011 0.18558877384602149 0 -0.18829004393282289 0.1810952689852989 0 -0.20984143642996131 0.16271457490720859 0 -0.18829004393282289 0.1810952689852989 0 -0.20984143642996131 0.16271457490720859 0 -0.18829004393282289 0.1810952689852989 0 -0.19072955740558251 0.15559743949614219 0 -0.19072955740558251 0.15559743949614219 0 -0.2064477648415402 0.13553635920434051 0 -0.20984143642996131 0.16271457490720859 0 -0.19072955740558251 0.15559743949614219 0 -0.2064477648415402 0.13553635920434051 0 -0.19072955740558251 0.15559743949614219 0 -0.1975565806481849 0.12779614850087609 0 -0.2064477648415402 0.13553635920434051 0 -0.22216597227749729 0.11547527891253841 0 -0.2064477648415402 0.13553635920434051 0 -0.22216597227749729 0.11547527891253841 0 -0.1975565806481849 0.12779614850087609 0 -0.2064477648415402 0.13553635920434051 0 -0.2313928289270997 0.14433388082911819 0 -0.20984143642996131 0.16271457490720859 0 -0.2064477648415402 0.13553635920434051 0 -0.21809026692746969 0.25199681498571541 0 -0.23067569124966061 0.24235148850059449 0 -0.21319834847730809 0.23531006162321499 0 -0.24762519668039371 0.25340429882664778 0 -0.23067569124966061 0.24235148850059449 0 -0.2432083893185506 0.23209512877810001 0 -0.23067569124966061 0.24235148850059449 0 -0.2432083893185506 0.23209512877810001 0 -0.229529569631895 0.21688976262813031 0 -0.2521826447694045 0.21742649521939761 0 -0.2432083893185506 0.23209512877810001 0 -0.229529569631895 0.21688976262813031 0 -0.23067569124966061 0.24235148850059449 0 -0.229529569631895 0.21688976262813031 0 -0.21319834847730809 0.23531006162321499 0 -0.229529569631895 0.21688976262813031 0 -0.23001197059507819 0.2028800516615345 0 -0.2163102835758236 0.2031012362783283 0 -0.229529569631895 0.21688976262813031 0 -0.23956805285933341 0.20786364455973921 0 -0.23001197059507819 0.2028800516615345 0 -0.2521826447694045 0.21742649521939761 0 -0.229529569631895 0.21688976262813031 0 -0.2521826447694045 0.21742649521939761 0 -0.24654171837177069 0.20133812784423871 0 -0.2521826447694045 0.21742649521939761 0 -0.23956805285933341 0.20786364455973921 0 -0.24654171837177069 0.20133812784423871 0 -0.2521826447694045 0.21742649521939761 0 -0.229529569631895 0.21688976262813031 0 -0.23956805285933341 0.20786364455973921 0 -0.23956805285933341 0.20786364455973921 0 -0.2395743609285349 0.20078378544538869 0 -0.23001197059507819 0.2028800516615345 0 -0.23956805285933341 0.20786364455973921 0 -0.2395743609285349 0.20078378544538869 0 -0.24654171837177069 0.20133812784423871 0 -0.2395743609285349 0.20078378544538869 0 -0.23455425105553451 0.19441867047516531 0 -0.23001197059507819 0.2028800516615345 0 -0.2395743609285349 0.20078378544538869 0 -0.24654171837177069 0.20133812784423871 0 -0.2421333586766882 0.1887651380023315 0 -0.2395743609285349 0.20078378544538869 0 -0.24654171837177069 0.20133812784423871 0 -0.24654171837177069 0.20133812784423871 0 -0.2421333586766882 0.1887651380023315 0 -0.2395743609285349 0.20078378544538869 0 -0.23455425105553451 0.19441867047516531 0 -0.2421333586766882 0.1887651380023315 0 -0.23324425368537821 0.1850634250100115 0 -0.23455425105553451 0.19441867047516531 0 -0.2421333586766882 0.1887651380023315 0 -0.23324425368537821 0.1850634250100115 0 -0.23455425105553451 0.19441867047516531 0 -0.22696698081902891 0.19437005272867611 0 -0.21634113573913011 0.18558877384602149 0 -0.22696698081902891 0.19437005272867611 0 -0.2163102835758236 0.2031012362783283 0 -0.23324425368537821 0.1850634250100115 0 -0.21634113573913011 0.18558877384602149 0 -0.22696698081902891 0.19437005272867611 0 -0.23455425105553451 0.19441867047516531 0 -0.22696698081902891 0.19437005272867611 0 -0.23001197059507819 0.2028800516615345 0 -0.22696698081902891 0.19437005272867611 0 -0.23001197059507819 0.2028800516615345 0 -0.2163102835758236 0.2031012362783283 0 -0.21634113573913011 0.18558877384602149 0 -0.2163102835758236 0.2031012362783283 0 -0.20371190025372671 0.19660094301971601 0 -0.2163102835758236 0.2031012362783283 0 -0.20371190025372671 0.19660094301971601 0 -0.2028276622065758 0.20600134569261119 0 -0.18829004393282289 0.1810952689852989 0 -0.20371190025372671 0.19660094301971601 0 -0.19386411934889089 0.20103688807718681 0 -0.21634113573913011 0.18558877384602149 0 -0.18829004393282289 0.1810952689852989 0 -0.20371190025372671 0.19660094301971601 0 -0.18829004393282289 0.1810952689852989 0 -0.19386411934889089 0.20103688807718681 0 -0.184155316847887 0.19807216273464789 0 -0.20371190025372671 0.19660094301971601 0 -0.19386411934889089 0.20103688807718681 0 -0.2028276622065758 0.20600134569261119 0 -0.19386411934889089 0.20103688807718681 0 -0.2028276622065758 0.20600134569261119 0 -0.19337551336005229 0.21291463105095709 0 -0.19337551336005229 0.21291463105095709 0 -0.20687649449438539 0.21635303003686771 0 -0.18422341935687581 0.21581629744560521 0 -0.20687649449438539 0.21635303003686771 0 -0.18422341935687581 0.21581629744560521 0 -0.19386411934889089 0.20103688807718681 0 -0.19337551336005229 0.21291463105095709 0 -0.184155316847887 0.19807216273464789 0 -0.2028276622065758 0.20600134569261119 0 -0.19337551336005229 0.21291463105095709 0 -0.20687649449438539 0.21635303003686771 0 -0.229529569631895 0.21688976262813031 0 -0.20687649449438539 0.21635303003686771 0 -0.229529569631895 0.21688976262813031 0 -0.2163102835758236 0.2031012362783283 0 -0.20687649449438539 0.21635303003686771 0 -0.2163102835758236 0.2031012362783283 0 -0.2028276622065758 0.20600134569261119 0 -0.20687649449438539 0.21635303003686771 0 -0.229529569631895 0.21688976262813031 0 -0.20687649449438539 0.21635303003686771 0 -0.21319834847730809 0.23531006162321499 0 -0.20687649449438539 0.21635303003686771 0 -0.19393211557020351 0.23319113470682501 0 -0.21319834847730809 0.23531006162321499 0 -0.20687649449438539 0.21635303003686771 0 -0.19393211557020351 0.23319113470682501 0 -0.18422341935687581 0.21581629744560521 0 -0.20087782229652329 0.25184323673551129 0 -0.19393211557020351 0.23319113470682501 0 -0.21319834847730809 0.23531006162321499 0 -0.20087782229652329 0.25184323673551129 0 -0.19393211557020351 0.23319113470682501 0 -0.18740179651674219 0.24591753924812501 0 -0.21809026692746969 0.25199681498571541 0 -0.20087782229652329 0.25184323673551129 0 -0.21319834847730809 0.23531006162321499 0 -0.17655402879169349 0.26098745805493517 0 -0.15732978785159349 0.25026042647594321 0 -0.16890209860409011 0.23812971839810959 0 -0.15732978785159349 0.25026042647594321 0 -0.16890209860409011 0.23812971839810959 0 -0.14866561461899491 0.2353921323877346 0 -0.17655402879169349 0.26098745805493517 0 -0.16890209860409011 0.23812971839810959 0 -0.182674717393706 0.26066400208199469 0 -0.172122530806536 0.23797178346816919 0 -0.182674717393706 0.26066400208199469 0 -0.18740179651674219 0.24591753924812501 0 -0.172122530806536 0.23797178346816919 0 -0.17655402879169349 0.26098745805493517 0 -0.16890209860409011 0.23812971839810959 0 -0.172122530806536 0.23797178346816919 0 -0.19393211557020351 0.23319113470682501 0 -0.18740179651674219 0.24591753924812501 0 -0.172122530806536 0.23797178346816919 0 -0.172122530806536 0.23797178346816919 0 -0.16157034421936631 0.21527956485434341 0 -0.18422341935687581 0.21581629744560521 0 -0.19393211557020351 0.23319113470682501 0 -0.172122530806536 0.23797178346816919 0 -0.18422341935687581 0.21581629744560521 0 -0.172122530806536 0.23797178346816919 0 -0.16157034421936631 0.21527956485434341 0 -0.16890209860409011 0.23812971839810959 0 -0.16157034421936631 0.21527956485434341 0 -0.15467242691783159 0.22515350600284509 0 -0.16890209860409011 0.23812971839810959 0 -0.15467242691783159 0.22515350600284509 0 -0.14866561461899491 0.2353921323877346 0 -0.16890209860409011 0.23812971839810959 0 -0.16157034421936631 0.21527956485434341 0 -0.16890209860409011 0.23812971839810959 0 -0.172122530806536 0.23797178346816919 0 -0.16157034421936631 0.21527956485434341 0 -0.16047550854639009 0.21295792552867801 0 -0.16157034421936631 0.21527956485434341 0 -0.14857006149250429 0.21497154153332629 0 -0.16047550854639009 0.21295792552867801 0 -0.16157034421936631 0.21527956485434341 0 -0.1641287821405262 0.20900757301231451 0 -0.16047550854639009 0.21295792552867801 0 -0.16157034421936631 0.21527956485434341 0 -0.15777602819233921 0.2071199812397104 0 -0.16673865143568151 0.19947596306338591 0 -0.16047550854639009 0.21295792552867801 0 -0.15777602819233921 0.2071199812397104 0 -0.15777602819233921 0.2071199812397104 0 -0.1641287821405262 0.20900757301231451 0 -0.16673865143568151 0.19947596306338591 0 -0.15777602819233921 0.2071199812397104 0 -0.15501421708776611 0.20118077415335389 0 -0.16047550854639009 0.21295792552867801 0 -0.15777602819233921 0.2071199812397104 0 -0.1641287821405262 0.20900757301231451 0 -0.1641287821405262 0.20900757301231451 0 -0.17407084606162929 0.21021025803881421 0 -0.16673865143568151 0.19947596306338591 0 -0.16157034421936631 0.21527956485434341 0 -0.1641287821405262 0.20900757301231451 0 -0.17407084606162929 0.21021025803881421 0 -0.16157034421936631 0.21527956485434341 0 -0.18422341935687581 0.21581629744560521 0 -0.17407084606162929 0.21021025803881421 0 -0.16157034421936631 0.21527956485434341 0 -0.18422341935687581 0.21581629744560521 0 -0.19337551336005229 0.21291463105095709 0 -0.18422341935687581 0.21581629744560521 0 -0.17407084606162929 0.21021025803881421 0 -0.19337551336005229 0.21291463105095709 0 -0.16673865143568151 0.19947596306338591 0 -0.19337551336005229 0.21291463105095709 0 -0.17407084606162929 0.21021025803881421 0 -0.16673865143568151 0.19947596306338591 0 -0.19337551336005229 0.21291463105095709 0 -0.184155316847887 0.19807216273464789 0 -0.16673865143568151 0.19947596306338591 0 -0.18829004393282289 0.1810952689852989 0 -0.184155316847887 0.19807216273464789 0 -0.16673865143568151 0.19947596306338591 0 -0.18829004393282289 0.1810952689852989 0 -0.16673865143568151 0.19947596306338591 0 -0.16673865143568151 0.19947596306338591 0 -0.15929314253366661 0.19571960007974551 0 -0.17501134996962481 0.175658519787944 0 -0.15777602819233921 0.2071199812397104 0 -0.16673865143568151 0.19947596306338591 0 -0.15501421708776611 0.20118077415335389 0 -0.16673865143568151 0.19947596306338591 0 -0.15929314253366661 0.19571960007974551 0 -0.16673865143568151 0.19947596306338591 0 -0.15929314253366661 0.19571960007974551 0 -0.15501421708776611 0.20118077415335389 0 -0.15929314253366661 0.19571960007974551 0 -0.15501421708776611 0.20118077415335389 0 -0.15929314253366661 0.19571960007974551 0 -0.15501421708776611 0.20118077415335389 0 -0.13941935141628239 0.18569299554804361 0 -0.15929314253366661 0.19571960007974551 0 -0.13941935141628239 0.18569299554804361 0 -0.15501421708776611 0.20118077415335389 0 -0.13998800120743529 0.2005929194229894 0 -0.13941935141628239 0.18569299554804361 0 -0.13998800120743529 0.2005929194229894 0 -0.13941935141628239 0.18569299554804361 0 -0.12061991755068011 0.193336809604648 0 -0.13998800120743529 0.2005929194229894 0 -0.1200423697730819 0.21429561820696089 0 -0.12061991755068011 0.193336809604648 0 -0.13998800120743529 0.2005929194229894 0 -0.14428839583058051 0.2148700935183511 0 -0.1200423697730819 0.21429561820696089 0 -0.14428839583058051 0.2148700935183511 0 -0.1200423697730819 0.21429561820696089 0 -0.14428839583058051 0.2148700935183511 0 -0.14857006149250429 0.21497154153332629 0 -0.15501421708776611 0.20118077415335389 0 -0.13998800120743529 0.2005929194229894 0 -0.14428839583058051 0.2148700935183511 0 -0.15777602819233921 0.2071199812397104 0 -0.15501421708776611 0.20118077415335389 0 -0.14857006149250429 0.21497154153332629 0 -0.15501421708776611 0.20118077415335389 0 -0.14428839583058051 0.2148700935183511 0 -0.15501421708776611 0.20118077415335389 0 -0.14428839583058051 0.2148700935183511 0 -0.14857006149250429 0.21497154153332629 0 -0.16047550854639009 0.21295792552867801 0 -0.15777602819233921 0.2071199812397104 0 -0.14857006149250429 0.21497154153332629 0 -0.16157034421936631 0.21527956485434341 0 -0.14857006149250429 0.21497154153332629 0 -0.15467242691783159 0.22515350600284509 0 -0.16157034421936631 0.21527956485434341 0 -0.14857006149250429 0.21497154153332629 0 -0.15777602819233921 0.2071199812397104 0 -0.14857006149250429 0.21497154153332629 0 -0.14857006149250429 0.21497154153332629 0 -0.12851598197039579 0.23207521131997991 0 -0.14866561461899491 0.2353921323877346 0 -0.14857006149250429 0.21497154153332629 0 -0.15467242691783159 0.22515350600284509 0 -0.14866561461899491 0.2353921323877346 0 -0.14428839583058051 0.2148700935183511 0 -0.12851598197039579 0.23207521131997991 0 -0.1200423697730819 0.21429561820696089 0 -0.14857006149250429 0.21497154153332629 0 -0.12851598197039579 0.23207521131997991 0 -0.14428839583058051 0.2148700935183511 0 -0.14857006149250429 0.21497154153332629 0 -0.12851598197039579 0.23207521131997991 0 -0.13861502939886711 0.25166764891996313 0 -0.12851598197039579 0.23207521131997991 0 -0.1225011440333257 0.2484281373714024 0 -0.13861502939886711 0.25166764891996313 0 -0.12851598197039579 0.23207521131997991 0 -0.14866561461899491 0.2353921323877346 0 -0.15732978785159349 0.25026042647594321 0 -0.13861502939886711 0.25166764891996313 0 -0.14866561461899491 0.2353921323877346 0 -0.17294718901887279 0.14011701808921431 0 -0.1483377973895606 0.15243788767755259 0 -0.17294718901887279 0.14011701808921431 0 -0.16711662995707319 0.15856900093474971 0 -0.1483377973895606 0.15243788767755259 0 -0.15642623591880389 0.1338819457432478 0 -0.17294718901887279 0.14011701808921431 0 -0.1483377973895606 0.15243788767755259 0 -0.18074204108593339 0.1249487360667433 0 -0.15642623591880389 0.1338819457432478 0 -0.17294718901887279 0.14011701808921431 0 -0.18074204108593339 0.1249487360667433 0 -0.1975565806481849 0.12779614850087609 0 -0.17294718901887279 0.14011701808921431 0 -0.1975565806481849 0.12779614850087609 0 -0.17294718901887279 0.14011701808921431 0 -0.19072955740558251 0.15559743949614219 0 -0.17294718901887279 0.14011701808921431 0 -0.16711662995707319 0.15856900093474971 0 -0.19072955740558251 0.15559743949614219 0 -0.1975565806481849 0.12779614850087609 0 -0.17294718901887279 0.14011701808921431 0 -0.19072955740558251 0.15559743949614219 0 -0.17501134996962481 0.175658519787944 0 -0.16711662995707319 0.15856900093474971 0 -0.19072955740558251 0.15559743949614219 0 -0.17501134996962481 0.175658519787944 0 -0.18829004393282289 0.1810952689852989 0 -0.19072955740558251 0.15559743949614219 0 -0.17501134996962481 0.175658519787944 0 -0.18829004393282289 0.1810952689852989 0 -0.16673865143568151 0.19947596306338591 0 -0.17501134996962481 0.175658519787944 0 -0.15929314253366661 0.19571960007974551 0 -0.17501134996962481 0.175658519787944 0 -0.15929314253366661 0.19571960007974551 0 -0.17501134996962481 0.175658519787944 0 -0.1549331729786351 0.17267997752409689 0 -0.17501134996962481 0.175658519787944 0 -0.16711662995707319 0.15856900093474971 0 -0.1549331729786351 0.17267997752409689 0 -0.16711662995707319 0.15856900093474971 0 -0.1549331729786351 0.17267997752409689 0 -0.1483377973895606 0.15243788767755259 0 -0.14086952202345929 0.16825846569855629 0 -0.1549331729786351 0.17267997752409689 0 -0.1483377973895606 0.15243788767755259 0 -0.14086952202345929 0.16825846569855629 0 -0.1549331729786351 0.17267997752409689 0 -0.13941935141628239 0.18569299554804361 0 -0.15929314253366661 0.19571960007974551 0 -0.1549331729786351 0.17267997752409689 0 -0.13941935141628239 0.18569299554804361 0 -0.13941935141628239 0.18569299554804361 0 -0.119545560298897 0.17566639101634421 0 -0.12061991755068011 0.193336809604648 0 -0.14086952202345929 0.16825846569855629 0 -0.13941935141628239 0.18569299554804361 0 -0.13089070987472179 0.17359415238220871 0 -0.13941935141628239 0.18569299554804361 0 -0.13089070987472179 0.17359415238220871 0 -0.119545560298897 0.17566639101634421 0 -0.13941935141628239 0.18569299554804361 0 -0.119545560298897 0.17566639101634421 0 -0.14086952202345929 0.16825846569855629 0 -0.13089070987472179 0.17359415238220871 0 -0.1237284057602485 0.16475875726589079 0 -0.14086952202345929 0.16825846569855629 0 -0.1483377973895606 0.15243788767755259 0 -0.1237284057602485 0.16475875726589079 0 -0.1483377973895606 0.15243788767755259 0 -0.1237284057602485 0.16475875726589079 0 -0.13179977254684869 0.15014277871320569 0 -0.1483377973895606 0.15243788767755259 0 -0.1364281278773346 0.13052619132129259 0 -0.13179977254684869 0.15014277871320569 0 -0.1483377973895606 0.15243788767755259 0 -0.1237284057602485 0.16475875726589079 0 -0.13179977254684869 0.15014277871320569 0 -0.1364281278773346 0.13052619132129259 0 -0.1154291173469446 0.14686018230453199 0 -0.15742713840772449 0.1141922003380532 0 -0.15642623591880389 0.1338819457432478 0 -0.1364281278773346 0.13052619132129259 0 -0.15642623591880389 0.1338819457432478 0 -0.1483377973895606 0.15243788767755259 0 -0.1364281278773346 0.13052619132129259 0 -0.1364281278773346 0.13052619132129259 0 -0.1154291173469446 0.14686018230453199 0 -0.13895624074692639 0.11833598147759219 0 -0.1364281278773346 0.13052619132129259 0 -0.11922128665133259 0.12857486753898181 0 -0.1364281278773346 0.13052619132129259 0 -0.1172852599923796 0.1391511944039677 0 -0.1154291173469446 0.14686018230453199 0 -0.1364281278773346 0.13052619132129259 0 -0.11922128665133259 0.12857486753898181 0 -0.1172852599923796 0.1391511944039677 0 -0.11922128665133259 0.12857486753898181 0 -0.10943869378461379 0.13365027097098889 0 -0.1070668264056797 0.117113174832098 0 -0.11922128665133259 0.12857486753898181 0 -0.1172852599923796 0.1391511944039677 0 -0.1172852599923796 0.1391511944039677 0 -0.10943869378461379 0.13365027097098889 0 -0.10983280765400071 0.14143477113470809 0 -0.11922128665133259 0.12857486753898181 0 -0.1172852599923796 0.1391511944039677 0 -0.10943869378461379 0.13365027097098889 0 -0.11922128665133259 0.12857486753898181 0 -0.10943869378461379 0.13365027097098889 0 -0.10943869378461379 0.13365027097098889 0 -0.098392305618060699 0.14662280391029289 0 -0.09266713340918066 0.1239847786600637 0 -0.10943869378461379 0.13365027097098889 0 -0.098392305618060699 0.14662280391029289 0 -0.10983280765400071 0.14143477113470809 0 -0.098392305618060699 0.14662280391029289 0 -0.1154291173469446 0.14686018230453199 0 -0.094430106816554671 0.16319417328777139 0 -0.1154291173469446 0.14686018230453199 0 -0.094430106816554671 0.16319417328777139 0 -0.098392305618060699 0.14662280391029289 0 -0.10983280765400071 0.14143477113470809 0 -0.1154291173469446 0.14686018230453199 0 -0.13179977254684869 0.15014277871320569 0 -0.1154291173469446 0.14686018230453199 0 -0.1167667499538891 0.15772767253927331 0 -0.1172852599923796 0.1391511944039677 0 -0.10983280765400071 0.14143477113470809 0 -0.1154291173469446 0.14686018230453199 0 -0.1237284057602485 0.16475875726589079 0 -0.1148800879551375 0.1658168448616987 0 -0.1167667499538891 0.15772767253927331 0 -0.13179977254684869 0.15014277871320569 0 -0.1237284057602485 0.16475875726589079 0 -0.1167667499538891 0.15772767253927331 0 -0.1154291173469446 0.14686018230453199 0 -0.1167667499538891 0.15772767253927331 0 -0.099671769181511452 0.16563978648464489 0 -0.119545560298897 0.17566639101634421 0 -0.099671769181511452 0.16563978648464489 0 -0.1148800879551375 0.1658168448616987 0 -0.119545560298897 0.17566639101634421 0 -0.099671769181511452 0.16563978648464489 0 -0.1148800879551375 0.1658168448616987 0 -0.1167667499538891 0.15772767253927331 0 -0.099671769181511452 0.16563978648464489 0 -0.13089070987472179 0.17359415238220871 0 -0.1237284057602485 0.16475875726589079 0 -0.119545560298897 0.17566639101634421 0 -0.1237284057602485 0.16475875726589079 0 -0.1148800879551375 0.1658168448616987 0 -0.119545560298897 0.17566639101634421 0 -0.119545560298897 0.17566639101634421 0 -0.1135710053023227 0.18460829249263849 0 -0.12061991755068011 0.193336809604648 0 -0.119545560298897 0.17566639101634421 0 -0.1135710053023227 0.18460829249263849 0 -0.1053190182391967 0.17873923209755449 0 -0.119545560298897 0.17566639101634421 0 -0.1053190182391967 0.17873923209755449 0 -0.099671769181511452 0.16563978648464489 0 -0.1135710053023227 0.18460829249263849 0 -0.1053190182391967 0.17873923209755449 0 -0.10361268707636299 0.18866844120042811 0 -0.1053190182391967 0.17873923209755449 0 -0.099671769181511452 0.16563978648464489 0 -0.09019406933688924 0.17911324929371689 0 -0.1053190182391967 0.17873923209755449 0 -0.09019406933688924 0.17911324929371689 0 -0.10361268707636299 0.18866844120042811 0 -0.1154291173469446 0.14686018230453199 0 -0.094430106816554671 0.16319417328777139 0 -0.099671769181511452 0.16563978648464489 0 -0.094430106816554671 0.16319417328777139 0 -0.099671769181511452 0.16563978648464489 0 -0.09019406933688924 0.17911324929371689 0 -0.094430106816554671 0.16319417328777139 0 -0.07343109628616476 0.1795281642710107 0 -0.076598591593461218 0.15579293737281841 0 -0.094430106816554671 0.16319417328777139 0 -0.07343109628616476 0.1795281642710107 0 -0.09019406933688924 0.17911324929371689 0 -0.07343109628616476 0.1795281642710107 0 -0.071232423205772347 0.196578841297785 0 -0.094430106816554671 0.16319417328777139 0 -0.09019406933688924 0.17911324929371689 0 -0.07343109628616476 0.1795281642710107 0 -0.07343109628616476 0.1795281642710107 0 -0.076598591593461218 0.15579293737281841 0 -0.055658122307245678 0.15924452632930611 0 -0.064936333712959551 0.14221019259320869 0 -0.076598591593461218 0.15579293737281841 0 -0.055658122307245678 0.15924452632930611 0 -0.064936333712959551 0.14221019259320869 0 -0.076598591593461218 0.15579293737281841 0 -0.081432321343993808 0.13882676591492171 0 -0.064936333712959551 0.14221019259320869 0 -0.053600232026836447 0.1238556453786409 0 -0.074898633231777256 0.1218555743094035 0 -0.064936333712959551 0.14221019259320869 0 -0.081432321343993808 0.13882676591492171 0 -0.074898633231777256 0.1218555743094035 0 -0.081432321343993808 0.13882676591492171 0 -0.074898633231777256 0.1218555743094035 0 -0.09266713340918066 0.1239847786600637 0 -0.098392305618060699 0.14662280391029289 0 -0.081432321343993808 0.13882676591492171 0 -0.09266713340918066 0.1239847786600637 0 -0.098392305618060699 0.14662280391029289 0 -0.094430106816554671 0.16319417328777139 0 -0.076598591593461218 0.15579293737281841 0 -0.098392305618060699 0.14662280391029289 0 -0.076598591593461218 0.15579293737281841 0 -0.081432321343993808 0.13882676591492171 0 -0.095742907043784381 0.25392020069322357 0 -0.099873173413350613 0.24140097822076331 0 -0.086352563947784719 0.23494026172325291 0 -0.099873173413350613 0.24140097822076331 0 -0.1041536765292944 0.2292987775195682 0 -0.086352563947784719 0.23494026172325291 0 -0.095742907043784381 0.25392020069322357 0 -0.099873173413350613 0.24140097822076331 0 -0.10846190244828641 0.24917888110663211 0 -0.099873173413350613 0.24140097822076331 0 -0.10728669112941761 0.23791774692108611 0 -0.1041536765292944 0.2292987775195682 0 -0.099873173413350613 0.24140097822076331 0 -0.10728669112941761 0.23791774692108611 0 -0.10846190244828641 0.24917888110663211 0 -0.12851598197039579 0.23207521131997991 0 -0.10846190244828641 0.24917888110663211 0 -0.1225011440333257 0.2484281373714024 0 -0.12851598197039579 0.23207521131997991 0 -0.10846190244828641 0.24917888110663211 0 -0.115144804087635 0.23218056317282179 0 -0.10728669112941761 0.23791774692108611 0 -0.10846190244828641 0.24917888110663211 0 -0.115144804087635 0.23218056317282179 0 -0.11307166591497821 0.25224105252604112 0 -0.10846190244828641 0.24917888110663211 0 -0.1225011440333257 0.2484281373714024 0 -0.12851598197039579 0.23207521131997991 0 -0.10846190244828641 0.24917888110663211 0 -0.12851598197039579 0.23207521131997991 0 -0.115144804087635 0.23218056317282179 0 -0.1200423697730819 0.21429561820696089 0 -0.115144804087635 0.23218056317282179 0 -0.1041536765292944 0.2292987775195682 0 -0.1200423697730819 0.21429561820696089 0 -0.1041536765292944 0.2292987775195682 0 -0.095796343715583598 0.21372114289556651 0 -0.1200423697730819 0.21429561820696089 0 -0.1041536765292944 0.2292987775195682 0 -0.095796343715583598 0.21372114289556651 0 -0.086352563947784719 0.23494026172325291 0 -0.10728669112941761 0.23791774692108611 0 -0.115144804087635 0.23218056317282179 0 -0.1041536765292944 0.2292987775195682 0 -0.095796343715583598 0.21372114289556651 0 -0.1081604477803785 0.20383300934513121 0 -0.087581502367225422 0.20090755439230359 0 -0.095796343715583598 0.21372114289556651 0 -0.1200423697730819 0.21429561820696089 0 -0.095796343715583598 0.21372114289556651 0 -0.1081604477803785 0.20383300934513121 0 -0.1200423697730819 0.21429561820696089 0 -0.1081604477803785 0.20383300934513121 0 -0.1200423697730819 0.21429561820696089 0 -0.12061991755068011 0.193336809604648 0 -0.1135710053023227 0.18460829249263849 0 -0.12061991755068011 0.193336809604648 0 -0.10361268707636299 0.18866844120042811 0 -0.1081604477803785 0.20383300934513121 0 -0.12061991755068011 0.193336809604648 0 -0.10361268707636299 0.18866844120042811 0 -0.1081604477803785 0.20383300934513121 0 -0.10361268707636299 0.18866844120042811 0 -0.087581502367225422 0.20090755439230359 0 -0.09019406933688924 0.17911324929371689 0 -0.10361268707636299 0.18866844120042811 0 -0.087581502367225422 0.20090755439230359 0 -0.10361268707636299 0.18866844120042811 0 -0.087581502367225422 0.20090755439230359 0 -0.09019406933688924 0.17911324929371689 0 -0.087581502367225422 0.20090755439230359 0 -0.071232423205772347 0.196578841297785 0 -0.07343109628616476 0.1795281642710107 0 -0.071232423205772347 0.196578841297785 0 -0.052432085755774911 0.19586215525424999 0 -0.07343109628616476 0.1795281642710107 0 -0.052432085755774911 0.19586215525424999 0 -0.087581502367225422 0.20090755439230359 0 -0.071232423205772347 0.196578841297785 0 -0.071550317658085144 0.21314666758417561 0 -0.071232423205772347 0.196578841297785 0 -0.071550317658085144 0.21314666758417561 0 -0.051491696441743562 0.21267140691085301 0 -0.095796343715583598 0.21372114289556651 0 -0.071550317658085144 0.21314666758417561 0 -0.087581502367225422 0.20090755439230359 0 -0.071550317658085144 0.21314666758417561 0 -0.095796343715583598 0.21372114289556651 0 -0.087581502367225422 0.20090755439230359 0 -0.071550317658085144 0.21314666758417561 0 -0.095796343715583598 0.21372114289556651 0 -0.071550317658085144 0.21314666758417561 0 -0.081296280545878591 0.22288107606090571 0 -0.095796343715583598 0.21372114289556651 0 -0.081296280545878591 0.22288107606090571 0 -0.086352563947784719 0.23494026172325291 0 -0.081296280545878591 0.22288107606090571 0 -0.071335780688400921 0.23147027654335989 0 -0.086352563947784719 0.23494026172325291 0 -0.071550317658085144 0.21314666758417561 0 -0.081296280545878591 0.22288107606090571 0 -0.071335780688400921 0.23147027654335989 0 -0.071550317658085144 0.21314666758417561 0 -0.071335780688400921 0.23147027654335989 0 -0.056456251632232127 0.22467033136623191 0 -0.071550317658085144 0.21314666758417561 0 -0.056456251632232127 0.22467033136623191 0 -0.071335780688400921 0.23147027654335989 0 -0.059937633912095389 0.23590189953552859 0 -0.056456251632232127 0.22467033136623191 0 -0.074927440894947572 0.25593720907176398 0 -0.071335780688400921 0.23147027654335989 0 -0.067454182248772934 0.24500823851075279 0 -0.074927440894947572 0.25593720907176398 0 -0.071335780688400921 0.23147027654335989 0 -0.074927440894947572 0.25593720907176398 0 -0.071335780688400921 0.23147027654335989 0 -0.083701526325514114 0.24631723366321381 0 -0.071335780688400921 0.23147027654335989 0 -0.067454182248772934 0.24500823851075279 0 -0.059937633912095389 0.23590189953552859 0 -0.070247047430856774 0.25639073688442182 0 -0.067454182248772934 0.24500823851075279 0 -0.055804616518616422 0.24629236601635371 0 -0.095742907043784381 0.25392020069322357 0 -0.086352563947784719 0.23494026172325291 0 -0.095742907043784381 0.25392020069322357 0 -0.083701526325514114 0.24631723366321381 0 -0.086352563947784719 0.23494026172325291 0 -0.071335780688400921 0.23147027654335989 0 -0.083701526325514114 0.24631723366321381 0 -0.086352563947784719 0.23494026172325291 0 -0.041362185606376528 0.2361939951482849 0 -0.043468959687700551 0.24900799977386601 0 -0.02995795028494776 0.24490063345968621 0 -0.041362185606376528 0.2361939951482849 0 -0.029257262179422941 0.24337597733050861 0 -0.02995795028494776 0.24490063345968621 0 -0.041362185606376528 0.2361939951482849 0 -0.02995795028494776 0.24490063345968621 0 -0.041362185606376528 0.2361939951482849 0 -0.055804616518616422 0.24629236601635371 0 -0.059937633912095389 0.23590189953552859 0 -0.041362185606376528 0.2361939951482849 0 -0.043468959687700551 0.24900799977386601 0 -0.055804616518616422 0.24629236601635371 0 -0.067454182248772934 0.24500823851075279 0 -0.055804616518616422 0.24629236601635371 0 -0.059937633912095389 0.23590189953552859 0 -0.041362185606376528 0.2361939951482849 0 -0.055804616518616422 0.24629236601635371 0 -0.041362185606376528 0.2361939951482849 0 -0.059937633912095389 0.23590189953552859 0 -0.056456251632232127 0.22467033136623191 0 -0.041362185606376528 0.2361939951482849 0 -0.056456251632232127 0.22467033136623191 0 -0.041362185606376528 0.2361939951482849 0 -0.056456251632232127 0.22467033136623191 0 -0.042863272847228559 0.2269203949096287 0 -0.056456251632232127 0.22467033136623191 0 -0.040966772814058867 0.21941563623391111 0 -0.051491696441743562 0.21267140691085301 0 -0.056456251632232127 0.22467033136623191 0 -0.040966772814058867 0.21941563623391111 0 -0.042863272847228559 0.2269203949096287 0 -0.041362185606376528 0.2361939951482849 0 -0.033411729766714873 0.22686074488859029 0 -0.019886321758604789 0.22117773928632051 0 -0.040966772814058867 0.21941563623391111 0 -0.042863272847228559 0.2269203949096287 0 -0.033411729766714873 0.22686074488859029 0 -0.041362185606376528 0.2361939951482849 0 -0.042863272847228559 0.2269203949096287 0 -0.033411729766714873 0.22686074488859029 0 -0.040966772814058867 0.21941563623391111 0 -0.033411729766714873 0.22686074488859029 0 -0.030476987535583859 0.21217349309132971 0 -0.033411729766714873 0.22686074488859029 0 -0.030476987535583859 0.21217349309132971 0 -0.052432085755774911 0.19586215525424999 0 -0.030476987535583859 0.21217349309132971 0 -0.051491696441743562 0.21267140691085301 0 -0.052432085755774911 0.19586215525424999 0 -0.030476987535583859 0.21217349309132971 0 -0.051491696441743562 0.21267140691085301 0 -0.030476987535583859 0.21217349309132971 0 -0.040966772814058867 0.21941563623391111 0 -0.051491696441743562 0.21267140691085301 0 -0.030476987535583859 0.21217349309132971 0 -0.071550317658085144 0.21314666758417561 0 -0.051491696441743562 0.21267140691085301 0 -0.071550317658085144 0.21314666758417561 0 -0.056456251632232127 0.22467033136623191 0 -0.051491696441743562 0.21267140691085301 0 -0.071232423205772347 0.196578841297785 0 -0.051491696441743562 0.21267140691085301 0 -0.052432085755774911 0.19586215525424999 0 -0.052432085755774911 0.19586215525424999 0 -0.025861781577325969 0.18907616914756831 0 -0.030476987535583859 0.21217349309132971 0 -0.025861781577325969 0.18907616914756831 0 -0.030476987535583859 0.21217349309132971 0 -0.025861781577325969 0.18907616914756831 0 -0.01470483420102027 0.19908640182702239 0 -0.030476987535583859 0.21217349309132971 0 -0.025861781577325969 0.18907616914756831 0 -0.01470483420102027 0.19908640182702239 0 -0.012809561612933991 0.18687081568107899 0 -0.0021624594623499771 0.19542032956390301 0 -0.01470483420102027 0.19908640182702239 0 -0.0023474800346162629 0.21150700417711171 0 -0.0021624594623499771 0.19542032956390301 0 -0.01470483420102027 0.19908640182702239 0 -0.012809561612933991 0.18687081568107899 0 -0.0021624594623499771 0.19542032956390301 0 -0.0023474800346162629 0.21150700417711171 0 -0.0023474800346162629 0.21150700417711171 0 -0.013292601972848339 0.21656730852149389 0 -0.030476987535583859 0.21217349309132971 0 -0.013292601972848339 0.21656730852149389 0 -0.030476987535583859 0.21217349309132971 0 -0.019886321758604789 0.22117773928632051 0 -0.0023474800346162629 0.21150700417711171 0 -0.030476987535583859 0.21217349309132971 0 -0.01470483420102027 0.19908640182702239 0 -0.0023474800346162629 0.21150700417711171 0 -0.030476987535583859 0.21217349309132971 0 -0.030476987535583859 0.21217349309132971 0 -0.019886321758604789 0.22117773928632051 0 -0.041362185606376528 0.2361939951482849 0 -0.019886321758604789 0.22117773928632051 0 -0.041362185606376528 0.2361939951482849 0 -0.019886321758604789 0.22117773928632051 0 -0.029257262179422941 0.24337597733050861 0 -0.033411729766714873 0.22686074488859029 0 -0.030476987535583859 0.21217349309132971 0 -0.019886321758604789 0.22117773928632051 0 -0.013292601972848339 0.21656730852149389 0 -0.019886321758604789 0.22117773928632051 0 -0.019886321758604789 0.22117773928632051 0 -0.0026132393217787541 0.23461353295705059 0 -0.016111850135328069 0.23884841235065801 0 -0.0023474800346162629 0.21150700417711171 0 -0.013292601972848339 0.21656730852149389 0 -0.0026132393217787541 0.23461353295705059 0 -0.019886321758604789 0.22117773928632051 0 -0.0026132393217787541 0.23461353295705059 0 -0.013292601972848339 0.21656730852149389 0 -0.019886321758604789 0.22117773928632051 0 -0.0026132393217787541 0.23461353295705059 0 -0.0023474800346162629 0.21150700417711171 0 -0.0026132393217787541 0.23461353295705059 0 -0.022967549773417129 0.25023750061389088 0 -0.002897395715083702 0.25931960419232192 0 -0.016111850135328069 0.23884841235065801 0 -0.002897395715083702 0.25931960419232192 0 -0.0026132393217787541 0.23461353295705059 0 0.00065121456722317566 0.23715277452326999 0 -0.002897395715083702 0.25931960419232192 0 -0.0026132393217787541 0.23461353295705059 0 -0.002897395715083702 0.25931960419232192 0 -0.0026132393217787541 0.23461353295705059 0 -0.016111850135328069 0.23884841235065801 0 -0.0026132393217787541 0.23461353295705059 0 0.00065121456722317566 0.23715277452326999 0 -0.022967549773417129 0.25023750061389088 0 -0.016111850135328069 0.23884841235065801 0 -0.029257262179422941 0.24337597733050861 0 -0.019886321758604789 0.22117773928632051 0 -0.016111850135328069 0.23884841235065801 0 -0.029257262179422941 0.24337597733050861 0 -0.029257262179422941 0.24337597733050861 0 -0.02995795028494776 0.24490063345968621 0 -0.022967549773417129 0.25023750061389088 0 -0.029257262179422941 0.24337597733050861 0 -0.02995795028494776 0.24490063345968621 0 -0.022967549773417129 0.25023750061389088 0 -0.02995795028494776 0.24490063345968621 0 -0.03925940792178409 0.14746252585250011 0 -0.033378678264409913 0.12650232823175639 0 -0.053600232026836447 0.1238556453786409 0 -0.064936333712959551 0.14221019259320869 0 -0.03925940792178409 0.14746252585250011 0 -0.053600232026836447 0.1238556453786409 0 -0.064936333712959551 0.14221019259320869 0 -0.03925940792178409 0.14746252585250011 0 -0.055658122307245678 0.15924452632930611 0 -0.07343109628616476 0.1795281642710107 0 -0.055658122307245678 0.15924452632930611 0 -0.040030122262710258 0.1742353563813803 0 -0.07343109628616476 0.1795281642710107 0 -0.052432085755774911 0.19586215525424999 0 -0.040030122262710258 0.1742353563813803 0 -0.052432085755774911 0.19586215525424999 0 -0.025861781577325969 0.18907616914756831 0 -0.040030122262710258 0.1742353563813803 0 -0.03925940792178409 0.14746252585250011 0 -0.040030122262710258 0.1742353563813803 0 -0.021246575619100639 0.16597884520380021 0 -0.03925940792178409 0.14746252585250011 0 -0.055658122307245678 0.15924452632930611 0 -0.040030122262710258 0.1742353563813803 0 -0.025861781577325969 0.18907616914756831 0 -0.040030122262710258 0.1742353563813803 0 -0.021246575619100639 0.16597884520380021 0 -0.025861781577325969 0.18907616914756831 0 -0.021246575619100639 0.16597884520380021 0 -0.012809561612933991 0.18687081568107899 0 -0.025861781577325969 0.18907616914756831 0 -0.021246575619100639 0.16597884520380021 0 -0.0021624594623499771 0.19542032956390301 0 -0.0019774388900832521 0.17933365495069431 0 -0.021246575619100639 0.16597884520380021 0 -0.0019774388900832521 0.17933365495069431 0 -0.012809561612933991 0.18687081568107899 0 -0.0021624594623499771 0.19542032956390301 0 -0.0019774388900832521 0.17933365495069431 0 -0.012809561612933991 0.18687081568107899 0 -0.021246575619100639 0.16597884520380021 0 -0.004656340087667233 0.1603164896445565 0 -0.016631369660875299 0.14288152126003201 0 -0.021246575619100639 0.16597884520380021 0 -0.0019774388900832521 0.17933365495069431 0 -0.004656340087667233 0.1603164896445565 0 -0.004656340087667233 0.1603164896445565 0 -0.016631369660875299 0.14288152126003201 0 0.0036883827908169228 0.14231383301637601 0 -0.021246575619100639 0.16597884520380021 0 -0.016631369660875299 0.14288152126003201 0 -0.03925940792178409 0.14746252585250011 0 -0.021246575619100639 0.16597884520380021 0 -0.016631369660875299 0.14288152126003201 0 -0.033378678264409913 0.12650232823175639 0 -0.016631369660875299 0.14288152126003201 0 -0.01201616370264995 0.1197841973162638 0 -0.03925940792178409 0.14746252585250011 0 -0.033378678264409913 0.12650232823175639 0 -0.016631369660875299 0.14288152126003201 0 -0.016631369660875299 0.14288152126003201 0 -0.01201616370264995 0.1197841973162638 0 -0.016631369660875299 0.14288152126003201 0 -0.01201616370264995 0.1197841973162638 0 0.0036883827908169228 0.14231383301637601 0 -0.01201616370264995 0.1197841973162638 0 -0.006086672243505625 0.1006302604298956 0 -0.026006987173758499 0.10913397016040111 0 -0.01201616370264995 0.1197841973162638 0 -0.006086672243505625 0.1006302604298956 0 0.01581529867037728 0.1212990377443123 0 -0.006086672243505625 0.1006302604298956 0 -0.026006987173758499 0.10913397016040111 0 -0.023406886096940051 0.093081712996457053 0 -0.033378678264409913 0.12650232823175639 0 -0.01201616370264995 0.1197841973162638 0 -0.026006987173758499 0.10913397016040111 0 -0.006086672243505625 0.1006302604298956 0 -0.0075095755999928871 0.074161879026590327 0 0.012921220706065349 0.093772091695060775 0 -0.006086672243505625 0.1006302604298956 0 -0.0075095755999928871 0.074161879026590327 0 -0.023406886096940051 0.093081712996457053 0 -0.0075095755999928871 0.074161879026590327 0 -0.023406886096940051 0.093081712996457053 0 -0.03521452652452791 0.078668734721215217 0 -0.0075095755999928871 0.074161879026590327 0 -0.03521452652452791 0.078668734721215217 0 -0.02873859671712788 0.061450898756173968 0 -0.03521452652452791 0.078668734721215217 0 -0.053217252711544628 0.082580396372990972 0 -0.050244275323584442 0.063144428714685147 0 -0.03521452652452791 0.078668734721215217 0 -0.050244275323584442 0.063144428714685147 0 -0.02873859671712788 0.061450898756173968 0 -0.023406886096940051 0.093081712996457053 0 -0.03521452652452791 0.078668734721215217 0 -0.044857341346276641 0.1012941393063283 0 -0.03521452652452791 0.078668734721215217 0 -0.053217252711544628 0.082580396372990972 0 -0.044857341346276641 0.1012941393063283 0 -0.053217252711544628 0.082580396372990972 0 -0.044857341346276641 0.1012941393063283 0 -0.064554203522426926 0.091258879542516394 0 -0.053217252711544628 0.082580396372990972 0 -0.050244275323584442 0.063144428714685147 0 -0.069971377933192386 0.069584248670979745 0 -0.053217252711544628 0.082580396372990972 0 -0.069971377933192386 0.069584248670979745 0 -0.033378678264409913 0.12650232823175639 0 -0.044857341346276641 0.1012941393063283 0 -0.053600232026836447 0.1238556453786409 0 -0.033378678264409913 0.12650232823175639 0 -0.026006987173758499 0.10913397016040111 0 -0.044857341346276641 0.1012941393063283 0 -0.026006987173758499 0.10913397016040111 0 -0.023406886096940051 0.093081712996457053 0 -0.044857341346276641 0.1012941393063283 0 -0.044857341346276641 0.1012941393063283 0 -0.067104644038818315 0.10624866194468539 0 -0.064554203522426926 0.091258879542516394 0 -0.044857341346276641 0.1012941393063283 0 -0.053600232026836447 0.1238556453786409 0 -0.067104644038818315 0.10624866194468539 0 -0.053600232026836447 0.1238556453786409 0 -0.074898633231777256 0.1218555743094035 0 -0.067104644038818315 0.10624866194468539 0 -0.074898633231777256 0.1218555743094035 0 -0.082292512720555711 0.1101841105989922 0 -0.067104644038818315 0.10624866194468539 0 -0.09266713340918066 0.1239847786600637 0 -0.082292512720555711 0.1101841105989922 0 -0.095637386224670648 0.1049283810004852 0 -0.074898633231777256 0.1218555743094035 0 -0.09266713340918066 0.1239847786600637 0 -0.082292512720555711 0.1101841105989922 0 -0.082292512720555711 0.1101841105989922 0 -0.08115476669833166 0.093903157080323235 0 -0.095637386224670648 0.1049283810004852 0 -0.08115476669833166 0.093903157080323235 0 -0.067104644038818315 0.10624866194468539 0 -0.064554203522426926 0.091258879542516394 0 -0.082292512720555711 0.1101841105989922 0 -0.08115476669833166 0.093903157080323235 0 -0.067104644038818315 0.10624866194468539 0 -0.08115476669833166 0.093903157080323235 0 -0.064554203522426926 0.091258879542516394 0 -0.074365350296565977 0.079645971635893792 0 -0.053217252711544628 0.082580396372990972 0 -0.064554203522426926 0.091258879542516394 0 -0.074365350296565977 0.079645971635893792 0 -0.053217252711544628 0.082580396372990972 0 -0.074365350296565977 0.079645971635893792 0 -0.069971377933192386 0.069584248670979745 0 -0.074365350296565977 0.079645971635893792 0 -0.069971377933192386 0.069584248670979745 0 -0.08384914393777744 0.070320766696738493 0 -0.074365350296565977 0.079645971635893792 0 -0.08384914393777744 0.070320766696738493 0 -0.090753204400512419 0.078494230626548131 0 -0.069971377933192386 0.069584248670979745 0 -0.08384914393777744 0.070320766696738493 0 -0.086725503154839706 0.056588100968967818 0 -0.069971377933192386 0.069584248670979745 0 -0.086725503154839706 0.056588100968967818 0 -0.08384914393777744 0.070320766696738493 0 -0.090753204400512419 0.078494230626548131 0 -0.097430283903776727 0.067291281581303014 0 -0.08384914393777744 0.070320766696738493 0 -0.097430283903776727 0.067291281581303014 0 -0.086725503154839706 0.056588100968967818 0 -0.074365350296565977 0.079645971635893792 0 -0.090753204400512419 0.078494230626548131 0 -0.08115476669833166 0.093903157080323235 0 -0.090753204400512419 0.078494230626548131 0 -0.095637386224670648 0.1049283810004852 0 -0.08115476669833166 0.093903157080323235 0 -0.074365350296565977 0.079645971635893792 0 -0.090753204400512419 0.078494230626548131 0 -0.090753204400512419 0.078494230626548131 0 -0.10714105850445881 0.077342489617201485 0 -0.095637386224670648 0.1049283810004852 0 -0.10714105850445881 0.077342489617201485 0 -0.095637386224670648 0.1049283810004852 0 -0.10714105850445881 0.077342489617201485 0 -0.1104951429221776 0.097253830698885602 0 -0.095637386224670648 0.1049283810004852 0 -0.090753204400512419 0.078494230626548131 0 -0.10714105850445881 0.077342489617201485 0 -0.097430283903776727 0.067291281581303014 0 -0.1118699004144475 0.06600269167051559 0 -0.086725503154839706 0.056588100968967818 0 -0.090753204400512419 0.078494230626548131 0 -0.1039983026852395 0.070769593226341118 0 -0.10714105850445881 0.077342489617201485 0 -0.090753204400512419 0.078494230626548131 0 -0.097430283903776727 0.067291281581303014 0 -0.1039983026852395 0.070769593226341118 0 -0.1039983026852395 0.070769593226341118 0 -0.10714105850445881 0.077342489617201485 0 -0.1118699004144475 0.06600269167051559 0 -0.097430283903776727 0.067291281581303014 0 -0.1039983026852395 0.070769593226341118 0 -0.1118699004144475 0.06600269167051559 0 -0.13259894349772811 0.055494018760000798 0 -0.1118699004144475 0.06600269167051559 0 -0.1167006582322563 0.067811428907814608 0 -0.1288791794315983 0.075814730999198249 0 -0.10714105850445881 0.077342489617201485 0 -0.1288791794315983 0.075814730999198249 0 -0.10714105850445881 0.077342489617201485 0 -0.1167006582322563 0.067811428907814608 0 -0.1118699004144475 0.06600269167051559 0 -0.1167006582322563 0.067811428907814608 0 -0.10714105850445881 0.077342489617201485 0 -0.1118699004144475 0.06600269167051559 0 -0.1167006582322563 0.067811428907814608 0 -0.10714105850445881 0.077342489617201485 0 -0.1118699004144475 0.06600269167051559 0 -0.1288791794315983 0.075814730999198249 0 -0.10714105850445881 0.077342489617201485 0 -0.11790963403483599 0.087162561540225086 0 -0.10714105850445881 0.077342489617201485 0 -0.11790963403483599 0.087162561540225086 0 -0.1104951429221776 0.097253830698885602 0 -0.1288791794315983 0.075814730999198249 0 -0.11790963403483599 0.087162561540225086 0 -0.1240502330414659 0.1021947992690901 0 -0.1104951429221776 0.097253830698885602 0 -0.1240502330414659 0.1021947992690901 0 -0.1070668264056797 0.117113174832098 0 -0.11790963403483599 0.087162561540225086 0 -0.1104951429221776 0.097253830698885602 0 -0.1240502330414659 0.1021947992690901 0 -0.11922128665133259 0.12857486753898181 0 -0.1240502330414659 0.1021947992690901 0 -0.11922128665133259 0.12857486753898181 0 -0.1240502330414659 0.1021947992690901 0 -0.1070668264056797 0.117113174832098 0 -0.10943869378461379 0.13365027097098889 0 -0.09266713340918066 0.1239847786600637 0 -0.1070668264056797 0.117113174832098 0 -0.09266713340918066 0.1239847786600637 0 -0.1070668264056797 0.117113174832098 0 -0.095637386224670648 0.1049283810004852 0 -0.1104951429221776 0.097253830698885602 0 -0.1070668264056797 0.117113174832098 0 -0.095637386224670648 0.1049283810004852 0 -0.10754779399791541 0.02530849785882305 0 -0.098012744982445194 0.0154101050208142 0 -0.11616316277704079 0.0099158352154845933 0 -0.10754779399791541 0.02530849785882305 0 -0.098012744982445194 0.0154101050208142 0 -0.094113587069596605 0.031478268386656308 0 -0.1050927531971689 0.0036021752735347478 0 -0.098012744982445194 0.0154101050208142 0 -0.11616316277704079 0.0099158352154845933 0 -0.093910651169967954 -0.0039116845590388321 0 -0.1050927531971689 0.0036021752735347478 0 -0.098012744982445194 0.0154101050208142 0 -0.1122844538592216 -0.0070055545831209723 0 -0.12657944794855619 -0.0014714323379356809 0 -0.11616316277704079 0.0099158352154845933 0 -0.1122844538592216 -0.0070055545831209723 0 -0.1050927531971689 0.0036021752735347478 0 -0.11616316277704079 0.0099158352154845933 0 -0.1329444662468415 0.015465726615995389 0 -0.11616316277704079 0.0099158352154845933 0 -0.1240578157220496 0.027629486791117319 0 -0.10754779399791541 0.02530849785882305 0 -0.11616316277704079 0.0099158352154845933 0 -0.1240578157220496 0.027629486791117319 0 -0.1240578157220496 0.027629486791117319 0 -0.1053916594384449 0.042108793880042857 0 -0.10754779399791541 0.02530849785882305 0 -0.1240578157220496 0.027629486791117319 0 -0.1053916594384449 0.042108793880042857 0 -0.1240578157220496 0.027629486791117319 0 -0.1224071833306445 0.040734209143255512 0 -0.1053916594384449 0.042108793880042857 0 -0.1118699004144475 0.06600269167051559 0 -0.1224071833306445 0.040734209143255512 0 -0.1118699004144475 0.06600269167051559 0 -0.1224071833306445 0.040734209143255512 0 -0.1053916594384449 0.042108793880042857 0 -0.13259894349772811 0.055494018760000798 0 -0.1118699004144475 0.06600269167051559 0 -0.1224071833306445 0.040734209143255512 0 -0.1118699004144475 0.06600269167051559 0 -0.1053916594384449 0.042108793880042857 0 -0.086725503154839706 0.056588100968967818 0 -0.1118699004144475 0.06600269167051559 0 -0.086725503154839706 0.056588100968967818 0 -0.1053916594384449 0.042108793880042857 0 -0.086725503154839706 0.056588100968967818 0 -0.094113587069596605 0.031478268386656308 0 -0.1053916594384449 0.042108793880042857 0 -0.085428848866893059 0.041220239344114867 0 -0.10754779399791541 0.02530849785882305 0 -0.094113587069596605 0.031478268386656308 0 -0.1053916594384449 0.042108793880042857 0 -0.1053916594384449 0.042108793880042857 0 -0.085428848866893059 0.041220239344114867 0 -0.086725503154839706 0.056588100968967818 0 -0.094113587069596605 0.031478268386656308 0 -0.085428848866893059 0.041220239344114867 0 -0.076333720352265308 0.027629758747496722 0 -0.085428848866893059 0.041220239344114867 0 -0.086725503154839706 0.056588100968967818 0 -0.064579774319318703 0.048296274737410647 0 -0.086725503154839706 0.056588100968967818 0 -0.064579774319318703 0.048296274737410647 0 -0.069971377933192386 0.069584248670979745 0 -0.086725503154839706 0.056588100968967818 0 -0.064579774319318703 0.048296274737410647 0 -0.064579774319318703 0.048296274737410647 0 -0.076333720352265308 0.027629758747496722 0 -0.060462565635056642 0.032693028215377118 0 -0.085428848866893059 0.041220239344114867 0 -0.064579774319318703 0.048296274737410647 0 -0.076333720352265308 0.027629758747496722 0 -0.076333720352265308 0.027629758747496722 0 -0.080266247635083221 0.0087297246631306297 0 -0.058502722384845392 0.01484163087074576 0 -0.076333720352265308 0.027629758747496722 0 -0.058502722384845392 0.01484163087074576 0 -0.060462565635056642 0.032693028215377118 0 -0.098012744982445194 0.0154101050208142 0 -0.094113587069596605 0.031478268386656308 0 -0.076333720352265308 0.027629758747496722 0 -0.098012744982445194 0.0154101050208142 0 -0.076333720352265308 0.027629758747496722 0 -0.080266247635083221 0.0087297246631306297 0 -0.093910651169967954 -0.0039116845590388321 0 -0.098012744982445194 0.0154101050208142 0 -0.080266247635083221 0.0087297246631306297 0 -0.074571399285892265 -0.0103211867643647 0 -0.058502722384845392 0.01484163087074576 0 -0.074571399285892265 -0.0103211867643647 0 -0.080266247635083221 0.0087297246631306297 0 -0.058502722384845392 0.01484163087074576 0 -0.058502722384845392 0.01484163087074576 0 -0.045208759880830049 0.0060239181057523197 0 -0.039717043636994791 0.01436536848643156 0 -0.053029708142403729 -0.010167265893381549 0 -0.058502722384845392 0.01484163087074576 0 -0.045208759880830049 0.0060239181057523197 0 -0.058502722384845392 0.01484163087074576 0 -0.043496351626574122 0.023550762297748249 0 -0.039717043636994791 0.01436536848643156 0 -0.058502722384845392 0.01484163087074576 0 -0.060462565635056642 0.032693028215377118 0 -0.042434045483797138 0.040004448505855328 0 -0.058502722384845392 0.01484163087074576 0 -0.043496351626574122 0.023550762297748249 0 -0.042434045483797138 0.040004448505855328 0 -0.058502722384845392 0.01484163087074576 0 -0.042434045483797138 0.040004448505855328 0 -0.043496351626574122 0.023550762297748249 0 -0.033331595000659159 0.024991601327960369 0 -0.042434045483797138 0.040004448505855328 0 -0.043496351626574122 0.023550762297748249 0 -0.033331595000659159 0.024991601327960369 0 -0.039717043636994791 0.01436536848643156 0 -0.033331595000659159 0.024991601327960369 0 -0.039717043636994791 0.01436536848643156 0 -0.030723568916193319 0.014554647573940869 0 -0.033728605513347228 0.0053346538717681568 0 -0.039717043636994791 0.01436536848643156 0 -0.030723568916193319 0.014554647573940869 0 -0.035108429748779091 -0.0087011650297901047 0 -0.033728605513347228 0.0053346538717681568 0 -0.045208759880830049 0.0060239181057523197 0 -0.033728605513347228 0.0053346538717681568 0 -0.045208759880830049 0.0060239181057523197 0 -0.039717043636994791 0.01436536848643156 0 -0.050244275323584442 0.063144428714685147 0 -0.069971377933192386 0.069584248670979745 0 -0.064579774319318703 0.048296274737410647 0 -0.050244275323584442 0.063144428714685147 0 -0.064579774319318703 0.048296274737410647 0 -0.042434045483797138 0.040004448505855328 0 -0.064579774319318703 0.048296274737410647 0 -0.042434045483797138 0.040004448505855328 0 -0.064579774319318703 0.048296274737410647 0 -0.060462565635056642 0.032693028215377118 0 -0.042434045483797138 0.040004448505855328 0 -0.042434045483797138 0.040004448505855328 0 -0.02873859671712788 0.061450898756173968 0 -0.029966336586952729 0.035336276306779102 0 -0.033331595000659159 0.024991601327960369 0 -0.042434045483797138 0.040004448505855328 0 -0.029966336586952729 0.035336276306779102 0 -0.042434045483797138 0.040004448505855328 0 -0.029966336586952729 0.035336276306779102 0 -0.050244275323584442 0.063144428714685147 0 -0.042434045483797138 0.040004448505855328 0 -0.02873859671712788 0.061450898756173968 0 -0.042434045483797138 0.040004448505855328 0 -0.02873859671712788 0.061450898756173968 0 -0.02873859671712788 0.061450898756173968 0 -0.016541501287505499 0.050002389083884359 0 -0.029966336586952729 0.035336276306779102 0 -0.0075095755999928871 0.074161879026590327 0 -0.02873859671712788 0.061450898756173968 0 -0.016541501287505499 0.050002389083884359 0 -0.016541501287505499 0.050002389083884359 0 -0.029966336586952729 0.035336276306779102 0 -0.017686465785699081 0.035556663905053527 0 -0.017686465785699081 0.035556663905053527 0 -0.0084220501531763019 0.026890485451868909 0 0.0015056314941592069 0.04791373134862395 0 -0.016541501287505499 0.050002389083884359 0 -0.017686465785699081 0.035556663905053527 0 0.0015056314941592069 0.04791373134862395 0 -0.0075095755999928871 0.074161879026590327 0 -0.016541501287505499 0.050002389083884359 0 0.0015056314941592069 0.04791373134862395 0 -0.016228406694026011 0.0032085132347888651 0 -0.02570334997398889 0.0083741306115085457 0 -0.023151681872956499 0.021273188344557169 0 -0.025910480923297331 -0.0026089765172342409 0 -0.016228406694026011 0.0032085132347888651 0 -0.02570334997398889 0.0083741306115085457 0 -0.025910480923297331 -0.0026089765172342409 0 -0.033728605513347228 0.0053346538717681568 0 -0.02570334997398889 0.0083741306115085457 0 -0.033728605513347228 0.0053346538717681568 0 -0.02570334997398889 0.0083741306115085457 0 -0.030723568916193319 0.014554647573940869 0 -0.02570334997398889 0.0083741306115085457 0 -0.030723568916193319 0.014554647573940869 0 -0.023151681872956499 0.021273188344557169 0 -0.033331595000659159 0.024991601327960369 0 -0.030723568916193319 0.014554647573940869 0 -0.023151681872956499 0.021273188344557169 0 -0.016228406694026011 0.0032085132347888651 0 -0.023151681872956499 0.021273188344557169 0 -0.0084220501531763019 0.026890485451868909 0 -0.033331595000659159 0.024991601327960369 0 -0.029966336586952729 0.035336276306779102 0 -0.023151681872956499 0.021273188344557169 0 -0.029966336586952729 0.035336276306779102 0 -0.017686465785699081 0.035556663905053527 0 -0.023151681872956499 0.021273188344557169 0 -0.017686465785699081 0.035556663905053527 0 -0.023151681872956499 0.021273188344557169 0 -0.0084220501531763019 0.026890485451868909 0 -0.0084220501531763019 0.026890485451868909 0 -0.0046729861343637576 0.0096993990033475419 0 0.0075100091313249186 0.014952910622530621 0 -0.016228406694026011 0.0032085132347888651 0 -0.0084220501531763019 0.026890485451868909 0 -0.0046729861343637576 0.0096993990033475419 0 -0.016228406694026011 0.0032085132347888651 0 -0.0084220501531763019 0.026890485451868909 0 -0.016228406694026011 0.0032085132347888651 0 -0.0046729861343637576 0.0096993990033475419 0 -0.009442299847901011 0.0014854962783217021 0 -0.0046729861343637576 0.0096993990033475419 0 -0.009442299847901011 0.0014854962783217021 0 0.0032178168919596161 0.0019595894292276069 0 0.0032178168919596161 0.0019595894292276069 0 0.0075100091313249186 0.014952910622530621 0 0.024489195514857651 0.0028236706736158609 0 -0.0046729861343637576 0.0096993990033475419 0 0.0032178168919596161 0.0019595894292276069 0 0.0075100091313249186 0.014952910622530621 0 0.0075100091313249186 0.014952910622530621 0 0.028557858288933442 0.029286366112228641 0 0.0090416742622489756 0.031499363146865959 0 -0.0084220501531763019 0.026890485451868909 0 0.0075100091313249186 0.014952910622530621 0 0.0090416742622489756 0.031499363146865959 0 0.0075100091313249186 0.014952910622530621 0 0.028557858288933442 0.029286366112228641 0 0.024489195514857651 0.0028236706736158609 0 0.028557858288933442 0.029286366112228641 0 0.024489195514857651 0.0028236706736158609 0 0.028557858288933442 0.029286366112228641 0 0.024489195514857651 0.0028236706736158609 0 0.039902688662683483 0.0098212511077701205 0 0.028557858288933442 0.029286366112228641 0 0.0090416742622489756 0.031499363146865959 0 0.02721264174608955 0.060660361181886141 0 0.0015056314941592069 0.04791373134862395 0 0.02721264174608955 0.060660361181886141 0 0.01338372938483803 0.072687002286372551 0 0.0015056314941592069 0.04791373134862395 0 0.02721264174608955 0.060660361181886141 0 -0.0084220501531763019 0.026890485451868909 0 0.0015056314941592069 0.04791373134862395 0 0.0090416742622489756 0.031499363146865959 0 0.0015056314941592069 0.04791373134862395 0 0.0090416742622489756 0.031499363146865959 0 0.02721264174608955 0.060660361181886141 0 0.028557858288933442 0.029286366112228641 0 0.02721264174608955 0.060660361181886141 0 0.046613428739000283 0.039106741863772262 0 0.02721264174608955 0.060660361181886141 0 0.046613428739000283 0.039106741863772262 0 0.050842862372280681 0.056058980796577132 0 0.046613428739000283 0.039106741863772262 0 0.062779547625456275 0.032476275610253257 0 0.066435014639605938 0.049527077470355209 0 0.046613428739000283 0.039106741863772262 0 0.050842862372280681 0.056058980796577132 0 0.066435014639605938 0.049527077470355209 0 0.050842862372280681 0.056058980796577132 0 0.066435014639605938 0.049527077470355209 0 0.068639964627641492 0.070404995107901144 0 0.024489195514857651 0.0028236706736158609 0 0.039902688662683483 0.0098212511077701205 0 0.049658319354119018 -0.0044323536780991064 0 0.028557858288933442 0.029286366112228641 0 0.046613428739000283 0.039106741863772262 0 0.053594351573360607 0.019775158365270652 0 0.028557858288933442 0.029286366112228641 0 0.039902688662683483 0.0098212511077701205 0 0.053594351573360607 0.019775158365270652 0 0.046613428739000283 0.039106741863772262 0 0.053594351573360607 0.019775158365270652 0 0.062779547625456275 0.032476275610253257 0 0.053594351573360607 0.019775158365270652 0 0.068720056895284876 0.017479298701849451 0 0.062779547625456275 0.032476275610253257 0 0.053594351573360607 0.019775158365270652 0 0.068720056895284876 0.017479298701849451 0 0.053594351573360607 0.019775158365270652 0 0.05929449510074742 0.0063552286792952486 0 0.068720056895284876 0.017479298701849451 0 0.039902688662683483 0.0098212511077701205 0 0.053594351573360607 0.019775158365270652 0 0.05929449510074742 0.0063552286792952486 0 0.039902688662683483 0.0098212511077701205 0 0.05929449510074742 0.0063552286792952486 0 0.049658319354119018 -0.0044323536780991064 0 0.083845762217209296 0.0151834390384293 0 0.068720056895284876 0.017479298701849451 0 0.073713152294288292 -0.0044390369815718034 0 0.05929449510074742 0.0063552286792952486 0 0.068720056895284876 0.017479298701849451 0 0.073713152294288292 -0.0044390369815718034 0 0.083845762217209296 0.0151834390384293 0 0.092945523732250304 -0.0019428404374009971 0 0.073713152294288292 -0.0044390369815718034 0 0.083845762217209296 0.0151834390384293 0 0.073713152294288292 -0.0044390369815718034 0 0.083845762217209296 0.0151834390384293 0 0.096308906760478832 0.039319151041026131 0 0.083845762217209296 0.0151834390384293 0 0.078534886280029692 0.03649310165001874 0 0.096308906760478832 0.039319151041026131 0 0.068720056895284876 0.017479298701849451 0 0.062779547625456275 0.032476275610253257 0 0.078534886280029692 0.03649310165001874 0 0.083845762217209296 0.0151834390384293 0 0.068720056895284876 0.017479298701849451 0 0.078534886280029692 0.03649310165001874 0 0.083845762217209296 0.0151834390384293 0 0.068720056895284876 0.017479298701849451 0 0.062779547625456275 0.032476275610253257 0 0.066435014639605938 0.049527077470355209 0 0.078534886280029692 0.03649310165001874 0 0.066435014639605938 0.049527077470355209 0 0.079846129623115311 0.051381330519826761 0 0.078534886280029692 0.03649310165001874 0 0.066435014639605938 0.049527077470355209 0 0.077103238847131397 0.062191280821136487 0 0.068639964627641492 0.070404995107901144 0 0.066435014639605938 0.049527077470355209 0 0.077103238847131397 0.062191280821136487 0 0.079846129623115311 0.051381330519826761 0 0.077103238847131397 0.062191280821136487 0 0.08536301984349226 0.059511917165156997 0 0.079846129623115311 0.051381330519826761 0 0.08536301984349226 0.059511917165156997 0 0.079846129623115311 0.051381330519826761 0 0.090438994920625085 0.052316119274343431 0 0.08536301984349226 0.059511917165156997 0 0.090438994920625085 0.052316119274343431 0 0.093808975712883172 0.063736352226410387 0 0.079846129623115311 0.051381330519826761 0 0.090438994920625085 0.052316119274343431 0 0.078534886280029692 0.03649310165001874 0 0.090438994920625085 0.052316119274343431 0 0.078534886280029692 0.03649310165001874 0 0.096308906760478832 0.039319151041026131 0 0.096308906760478832 0.039319151041026131 0 0.10877205130375139 0.063454863043621551 0 0.096308906760478832 0.039319151041026131 0 0.1171141824326996 0.058367056396480821 0 0.10877205130375139 0.063454863043621551 0 0.090438994920625085 0.052316119274343431 0 0.10877205130375139 0.063454863043621551 0 0.093808975712883172 0.063736352226410387 0 0.090438994920625085 0.052316119274343431 0 0.096308906760478832 0.039319151041026131 0 0.10877205130375139 0.063454863043621551 0 0.1171141824326996 0.058367056396480821 0 0.12271542002484601 0.068735319603260014 0 0.13153306227158931 0.059895427265793978 0 0.1171141824326996 0.058367056396480821 0 0.1168000500907334 0.037348051459757427 0 0.13634725802915409 0.042287411916193653 0 0.096308906760478832 0.039319151041026131 0 0.1171141824326996 0.058367056396480821 0 0.1168000500907334 0.037348051459757427 0 0.1168000500907334 0.037348051459757427 0 0.10671738583837739 0.011711862871154929 0 0.1313942505745038 0.024055090594606639 0 0.10671738583837739 0.011711862871154929 0 0.1313942505745038 0.024055090594606639 0 0.12958900945954591 0.0082402867038815827 0 0.10671738583837739 0.011711862871154929 0 0.12958900945954591 0.0082402867038815827 0 0.10671738583837739 0.011711862871154929 0 0.12958900945954591 0.0082402867038815827 0 0.1118982545436496 -0.0052729711266230337 0 0.083845762217209296 0.0151834390384293 0 0.10671738583837739 0.011711862871154929 0 0.092945523732250304 -0.0019428404374009971 0 0.10671738583837739 0.011711862871154929 0 0.092945523732250304 -0.0019428404374009971 0 0.1118982545436496 -0.0052729711266230337 0 0.083845762217209296 0.0151834390384293 0 0.10671738583837739 0.011711862871154929 0 0.096308906760478832 0.039319151041026131 0 0.1168000500907334 0.037348051459757427 0 0.10671738583837739 0.011711862871154929 0 0.083845762217209296 0.0151834390384293 0 0.096308906760478832 0.039319151041026131 0 0.10671738583837739 0.011711862871154929 0 0.10463563095770451 0.098601022681769693 0 0.1003271933057741 0.094253270530185146 0 0.117195778739137 0.1020343176716637 0 0.10192870218735089 0.1054518718314264 0 0.10823059128340499 0.1092842258568992 0 0.10463563095770451 0.098601022681769693 0 0.10463563095770451 0.098601022681769693 0 0.1003271933057741 0.094253270530185146 0 0.10192870218735089 0.1054518718314264 0 0.10463563095770451 0.098601022681769693 0 0.092404571418103723 0.10039250902319199 0 0.10192870218735089 0.1054518718314264 0 0.094751513189716446 0.1087419574024218 0 0.092404571418103723 0.10039250902319199 0 0.094751513189716446 0.1087419574024218 0 0.1060339144308949 0.11695925704438601 0 0.090294452436536402 0.1182232291480787 0 0.1060339144308949 0.11695925704438601 0 0.090294452436536402 0.1182232291480787 0 0.096163670843842919 0.1283732991371043 0 0.10192870218735089 0.1054518718314264 0 0.094751513189716446 0.1087419574024218 0 0.1060339144308949 0.11695925704438601 0 0.10192870218735089 0.1054518718314264 0 0.10823059128340499 0.1092842258568992 0 0.1060339144308949 0.11695925704438601 0 0.10823059128340499 0.1092842258568992 0 0.1060339144308949 0.11695925704438601 0 0.11205388371738061 0.1142666999431311 0 0.11721981725032959 0.1162108512493283 0 0.11460180613375349 0.132831505691858 0 0.1235319604932357 0.1257216277279673 0 0.11231849111041441 0.12306315579141559 0 0.11721981725032959 0.1162108512493283 0 0.11460180613375349 0.132831505691858 0 0.11721981725032959 0.1162108512493283 0 0.11460180613375349 0.132831505691858 0 0.10823059128340499 0.1092842258568992 0 0.11205388371738061 0.1142666999431311 0 0.1174296567363417 0.1115117939636923 0 0.1060339144308949 0.11695925704438601 0 0.11205388371738061 0.1142666999431311 0 0.1121072862193474 0.11793352499389639 0 0.11205388371738061 0.1142666999431311 0 0.1121072862193474 0.11793352499389639 0 0.11721981725032959 0.1162108512493283 0 0.11205388371738061 0.1142666999431311 0 0.1174296567363417 0.1115117939636923 0 0.11721981725032959 0.1162108512493283 0 0.1060339144308949 0.11695925704438601 0 0.11231849111041441 0.12306315579141559 0 0.1104907665997748 0.12651490677926161 0 0.1060339144308949 0.11695925704438601 0 0.11231849111041441 0.12306315579141559 0 0.1121072862193474 0.11793352499389639 0 0.11231849111041441 0.12306315579141559 0 0.1121072862193474 0.11793352499389639 0 0.11721981725032959 0.1162108512493283 0 0.1174296567363417 0.1115117939636923 0 0.11721981725032959 0.1162108512493283 0 0.1235319604932357 0.1257216277279673 0 0.1174296567363417 0.1115117939636923 0 0.117195778739137 0.1020343176716637 0 0.12744533855740989 0.1103120138545446 0 0.117195778739137 0.1020343176716637 0 0.12623752338747091 0.098720335390919206 0 0.12744533855740989 0.1103120138545446 0 0.1003271933057741 0.094253270530185146 0 0.117195778739137 0.1020343176716637 0 0.1145391817086882 0.095374174618977431 0 0.10463563095770451 0.098601022681769693 0 0.1174296567363417 0.1115117939636923 0 0.117195778739137 0.1020343176716637 0 0.10823059128340499 0.1092842258568992 0 0.10463563095770451 0.098601022681769693 0 0.1174296567363417 0.1115117939636923 0 0.10463563095770451 0.098601022681769693 0 0.1174296567363417 0.1115117939636923 0 0.117195778739137 0.1020343176716637 0 0.1145391817086882 0.095374174618977431 0 0.12623752338747091 0.098720335390919206 0 0.1145391817086882 0.095374174618977431 0 0.11811631549319231 0.082122585449757035 0 0.12623752338747091 0.098720335390919206 0 0.11811631549319231 0.082122585449757035 0 0.109067667221702 0.089557415571992705 0 0.1043826799098157 0.083456256212572563 0 0.1145391817086882 0.095374174618977431 0 0.11811631549319231 0.082122585449757035 0 0.109067667221702 0.089557415571992705 0 0.1171141824326996 0.058367056396480821 0 0.1141265474011969 0.071034472910284752 0 0.097881106836245096 0.074446700876767968 0 0.11811631549319231 0.082122585449757035 0 0.1141265474011969 0.071034472910284752 0 0.097881106836245096 0.074446700876767968 0 0.1171141824326996 0.058367056396480821 0 0.12271542002484601 0.068735319603260014 0 0.1141265474011969 0.071034472910284752 0 0.11811631549319231 0.082122585449757035 0 0.12271542002484601 0.068735319603260014 0 0.1141265474011969 0.071034472910284752 0 0.11811631549319231 0.082122585449757035 0 0.12271542002484601 0.068735319603260014 0 0.1337361646947102 0.072578054225529598 0 0.1171141824326996 0.058367056396480821 0 0.10877205130375139 0.063454863043621551 0 0.097881106836245096 0.074446700876767968 0 0.1171141824326996 0.058367056396480821 0 0.097881106836245096 0.074446700876767968 0 0.10877205130375139 0.063454863043621551 0 0.097881106836245096 0.074446700876767968 0 0.093808975712883172 0.063736352226410387 0 0.10463563095770451 0.098601022681769693 0 0.1003271933057741 0.094253270530185146 0 0.078626662249950088 0.086153620848410439 0 0.11811631549319231 0.082122585449757035 0 0.097881106836245096 0.074446700876767968 0 0.1043826799098157 0.083456256212572563 0 0.11811631549319231 0.082122585449757035 0 0.097881106836245096 0.074446700876767968 0 0.1003271933057741 0.094253270530185146 0 0.097881106836245096 0.074446700876767968 0 0.089975398387877201 0.07431389782183645 0 0.1003271933057741 0.094253270530185146 0 0.097881106836245096 0.074446700876767968 0 0.1043826799098157 0.083456256212572563 0 0.1003271933057741 0.094253270530185146 0 0.109067667221702 0.089557415571992705 0 0.1043826799098157 0.083456256212572563 0 0.1003271933057741 0.094253270530185146 0 0.1145391817086882 0.095374174618977431 0 0.109067667221702 0.089557415571992705 0 0.1003271933057741 0.094253270530185146 0 0.078626662249950088 0.086153620848410439 0 0.08322472987520653 0.076994747096677987 0 0.1003271933057741 0.094253270530185146 0 0.08322472987520653 0.076994747096677987 0 0.1003271933057741 0.094253270530185146 0 0.089975398387877201 0.07431389782183645 0 0.08322472987520653 0.076994747096677987 0 0.10463563095770451 0.098601022681769693 0 0.078626662249950088 0.086153620848410439 0 0.078626662249950088 0.086153620848410439 0 0.08322472987520653 0.076994747096677987 0 0.077958240600438988 0.072705735762709653 0 0.08536301984349226 0.059511917165156997 0 0.093808975712883172 0.063736352226410387 0 0.084613629001532076 0.06941390728612791 0 0.097881106836245096 0.074446700876767968 0 0.093808975712883172 0.063736352226410387 0 0.084613629001532076 0.06941390728612791 0 0.097881106836245096 0.074446700876767968 0 0.084613629001532076 0.06941390728612791 0 0.097881106836245096 0.074446700876767968 0 0.089975398387877201 0.07431389782183645 0 0.084613629001532076 0.06941390728612791 0 0.08322472987520653 0.076994747096677987 0 0.084613629001532076 0.06941390728612791 0 0.077958240600438988 0.072705735762709653 0 0.089975398387877201 0.07431389782183645 0 0.08322472987520653 0.076994747096677987 0 0.084613629001532076 0.06941390728612791 0 0.077103238847131397 0.062191280821136487 0 0.08536301984349226 0.059511917165156997 0 0.084613629001532076 0.06941390728612791 0 0.077103238847131397 0.062191280821136487 0 0.084613629001532076 0.06941390728612791 0 0.077958240600438988 0.072705735762709653 0 0.078626662249950088 0.086153620848410439 0 0.077958240600438988 0.072705735762709653 0 0.068639964627641492 0.070404995107901144 0 0.078626662249950088 0.086153620848410439 0 0.068639964627641492 0.070404995107901144 0 0.052919651998019908 0.073406991015148332 0 0.077103238847131397 0.062191280821136487 0 0.077958240600438988 0.072705735762709653 0 0.068639964627641492 0.070404995107901144 0 0.078626662249950088 0.086153620848410439 0 0.063884513263719384 0.090827446770883349 0 0.052919651998019908 0.073406991015148332 0 0.078626662249950088 0.086153620848410439 0 0.052919651998019908 0.073406991015148332 0 0.078626662249950088 0.086153620848410439 0 0.063884513263719384 0.090827446770883349 0 0.074726633959046801 0.099340524253941326 0 0.063884513263719384 0.090827446770883349 0 0.074726633959046801 0.099340524253941326 0 0.061927993886576882 0.1041082352513691 0 0.074726633959046801 0.099340524253941326 0 0.073207541513032215 0.1109957852557278 0 0.061927993886576882 0.1041082352513691 0 0.074726633959046801 0.099340524253941326 0 0.084471627714452213 0.10843913653159221 0 0.073207541513032215 0.1109957852557278 0 0.10463563095770451 0.098601022681769693 0 0.078626662249950088 0.086153620848410439 0 0.092404571418103723 0.10039250902319199 0 0.078626662249950088 0.086153620848410439 0 0.074726633959046801 0.099340524253941326 0 0.084846589343918644 0.099228748622131158 0 0.078626662249950088 0.086153620848410439 0 0.084846589343918644 0.099228748622131158 0 0.092404571418103723 0.10039250902319199 0 0.074726633959046801 0.099340524253941326 0 0.084846589343918644 0.099228748622131158 0 0.084471627714452213 0.10843913653159221 0 0.094751513189716446 0.1087419574024218 0 0.084471627714452213 0.10843913653159221 0 0.089118575416547746 0.1042005878948343 0 0.084846589343918644 0.099228748622131158 0 0.084471627714452213 0.10843913653159221 0 0.089118575416547746 0.1042005878948343 0 0.094751513189716446 0.1087419574024218 0 0.089118575416547746 0.1042005878948343 0 0.092404571418103723 0.10039250902319199 0 0.084846589343918644 0.099228748622131158 0 0.089118575416547746 0.1042005878948343 0 0.092404571418103723 0.10039250902319199 0 0.084471627714452213 0.10843913653159221 0 0.079520008662203989 0.1244937424626745 0 0.073207541513032215 0.1109957852557278 0 0.090294452436536402 0.1182232291480787 0 0.079520008662203989 0.1244937424626745 0 0.096163670843842919 0.1283732991371043 0 0.084471627714452213 0.10843913653159221 0 0.090294452436536402 0.1182232291480787 0 0.079520008662203989 0.1244937424626745 0 0.094751513189716446 0.1087419574024218 0 0.084471627714452213 0.10843913653159221 0 0.090294452436536402 0.1182232291480787 0 0.079520008662203989 0.1244937424626745 0 0.073207541513032215 0.1109957852557278 0 0.065391443342881217 0.11859728777906189 0 0.073207541513032215 0.1109957852557278 0 0.065391443342881217 0.11859728777906189 0 0.061927993886576882 0.1041082352513691 0 0.053926858071946818 0.11987647620656181 0 0.061927993886576882 0.1041082352513691 0 0.044556611984145067 0.1087821485093606 0 0.065391443342881217 0.11859728777906189 0 0.053926858071946818 0.11987647620656181 0 0.059545560957538102 0.13344189441397619 0 0.065391443342881217 0.11859728777906189 0 0.053926858071946818 0.11987647620656181 0 0.061927993886576882 0.1041082352513691 0 0.061927993886576882 0.1041082352513691 0 0.044556611984145067 0.1087821485093606 0 0.051221624225003211 0.091127862485547523 0 0.063884513263719384 0.090827446770883349 0 0.061927993886576882 0.1041082352513691 0 0.051221624225003211 0.091127862485547523 0 0.044556611984145067 0.1087821485093606 0 0.051221624225003211 0.091127862485547523 0 0.032788728577868943 0.086926948179701605 0 0.044556611984145067 0.1087821485093606 0 0.032788728577868943 0.086926948179701605 0 0.02708799226275083 0.1066345901855536 0 0.053926858071946818 0.11987647620656181 0 0.044556611984145067 0.1087821485093606 0 0.039736921169613908 0.13019374040032089 0 0.044556611984145067 0.1087821485093606 0 0.02708799226275083 0.1066345901855536 0 0.039736921169613908 0.13019374040032089 0 0.050842862372280681 0.056058980796577132 0 0.068639964627641492 0.070404995107901144 0 0.052919651998019908 0.073406991015148332 0 0.063884513263719384 0.090827446770883349 0 0.052919651998019908 0.073406991015148332 0 0.051221624225003211 0.091127862485547523 0 0.052919651998019908 0.073406991015148332 0 0.051221624225003211 0.091127862485547523 0 0.032788728577868943 0.086926948179701605 0 0.02721264174608955 0.060660361181886141 0 0.050842862372280681 0.056058980796577132 0 0.052919651998019908 0.073406991015148332 0 0.02721264174608955 0.060660361181886141 0 0.052919651998019908 0.073406991015148332 0 0.02721264174608955 0.060660361181886141 0 0.052919651998019908 0.073406991015148332 0 0.032788728577868943 0.086926948179701605 0 0.02721264174608955 0.060660361181886141 0 0.032788728577868943 0.086926948179701605 0 0.01338372938483803 0.072687002286372551 0 0.032788728577868943 0.086926948179701605 0 0.01338372938483803 0.072687002286372551 0 0.012921220706065349 0.093772091695060775 0 -0.0075095755999928871 0.074161879026590327 0 0.01338372938483803 0.072687002286372551 0 0.012921220706065349 0.093772091695060775 0 -0.0075095755999928871 0.074161879026590327 0 0.0015056314941592069 0.04791373134862395 0 0.01338372938483803 0.072687002286372551 0 0.01581529867037728 0.1212990377443123 0 0.02708799226275083 0.1066345901855536 0 0.039736921169613908 0.13019374040032089 0 0.032788728577868943 0.086926948179701605 0 0.02708799226275083 0.1066345901855536 0 0.012921220706065349 0.093772091695060775 0 0.01581529867037728 0.1212990377443123 0 0.02708799226275083 0.1066345901855536 0 0.012921220706065349 0.093772091695060775 0 -0.006086672243505625 0.1006302604298956 0 0.01581529867037728 0.1212990377443123 0 0.012921220706065349 0.093772091695060775 0 -0.01201616370264995 0.1197841973162638 0 0.01581529867037728 0.1212990377443123 0 0.0036883827908169228 0.14231383301637601 0 0.01581529867037728 0.1212990377443123 0 0.027542337641836331 0.1461142729128099 0 0.039736921169613908 0.13019374040032089 0 0.01581529867037728 0.1212990377443123 0 0.027542337641836331 0.1461142729128099 0 0.0036883827908169228 0.14231383301637601 0 0.027542337641836331 0.1461142729128099 0 0.02639077674660166 0.16519656635306831 0 0.036251960768146657 0.15646263292556539 0 -0.004656340087667233 0.1603164896445565 0 0.0036883827908169228 0.14231383301637601 0 0.011863700447821 0.16149087012249219 0 0.027542337641836331 0.1461142729128099 0 0.0036883827908169228 0.14231383301637601 0 0.011863700447821 0.16149087012249219 0 -0.0019774388900832521 0.17933365495069431 0 -0.004656340087667233 0.1603164896445565 0 0.011863700447821 0.16149087012249219 0 -0.0019774388900832521 0.17933365495069431 0 0.011863700447821 0.16149087012249219 0 0.015791616975764051 0.1767104948531176 0 -0.0021624594623499771 0.19542032956390301 0 -0.0019774388900832521 0.17933365495069431 0 0.0093365185404539943 0.18705856355467901 0 -0.0019774388900832521 0.17933365495069431 0 0.0093365185404539943 0.18705856355467901 0 0.015791616975764051 0.1767104948531176 0 0.0093365185404539943 0.18705856355467901 0 0.015791616975764051 0.1767104948531176 0 0.019408643045934749 0.18779998327129641 0 0.015791616975764051 0.1767104948531176 0 0.028229107558455029 0.1790829990047216 0 0.019408643045934749 0.18779998327129641 0 0.015791616975764051 0.1767104948531176 0 0.028229107558455029 0.1790829990047216 0 0.02639077674660166 0.16519656635306831 0 0.028229107558455029 0.1790829990047216 0 0.019408643045934749 0.18779998327129641 0 0.029672430277385139 0.1889623057112059 0 0.027542337641836331 0.1461142729128099 0 0.011863700447821 0.16149087012249219 0 0.02639077674660166 0.16519656635306831 0 0.011863700447821 0.16149087012249219 0 0.015791616975764051 0.1767104948531176 0 0.02639077674660166 0.16519656635306831 0 0.02639077674660166 0.16519656635306831 0 0.036251960768146657 0.15646263292556539 0 0.03985607414216194 0.1740675847692815 0 0.036251960768146657 0.15646263292556539 0 0.03985607414216194 0.1740675847692815 0 0.048342461887556233 0.16011970521507321 0 0.03985607414216194 0.1740675847692815 0 0.048971159243630803 0.17267830469380269 0 0.048342461887556233 0.16011970521507321 0 0.035938237561268058 0.18266778753112431 0 0.029672430277385139 0.1889623057112059 0 0.03866809941927777 0.19057575283742181 0 0.028229107558455029 0.1790829990047216 0 0.035938237561268058 0.18266778753112431 0 0.029672430277385139 0.1889623057112059 0 0.028229107558455029 0.1790829990047216 0 0.035938237561268058 0.18266778753112431 0 0.03985607414216194 0.1740675847692815 0 0.028229107558455029 0.1790829990047216 0 0.02639077674660166 0.16519656635306831 0 0.03985607414216194 0.1740675847692815 0 0.03985607414216194 0.1740675847692815 0 0.043265476409060442 0.18065029533299051 0 0.048971159243630803 0.17267830469380269 0 0.035938237561268058 0.18266778753112431 0 0.03985607414216194 0.1740675847692815 0 0.043265476409060442 0.18065029533299051 0 0.035938237561268058 0.18266778753112431 0 0.043265476409060442 0.18065029533299051 0 0.03866809941927777 0.19057575283742181 0 0.043265476409060442 0.18065029533299051 0 0.053311316919432812 0.18347952910876111 0 0.03866809941927777 0.19057575283742181 0 0.053311316919432812 0.18347952910876111 0 0.070888259250601562 0.1603778854049813 0 0.062592080850729703 0.1831772634090639 0 0.053311316919432812 0.18347952910876111 0 0.070888259250601562 0.1603778854049813 0 0.053311316919432812 0.18347952910876111 0 0.048971159243630803 0.17267830469380269 0 0.056119731137328738 0.16545139194364589 0 0.043265476409060442 0.18065029533299051 0 0.053311316919432812 0.18347952910876111 0 0.048971159243630803 0.17267830469380269 0 0.053311316919432812 0.18347952910876111 0 0.049163227719496758 0.19487921811080239 0 0.062592080850729703 0.1831772634090639 0 0.053311316919432812 0.18347952910876111 0 0.056119731137328738 0.16545139194364589 0 0.070888259250601562 0.1603778854049813 0 0.048342461887556233 0.16011970521507321 0 0.056119731137328738 0.16545139194364589 0 0.059085458385422278 0.1506015352956111 0 0.048971159243630803 0.17267830469380269 0 0.048342461887556233 0.16011970521507321 0 0.056119731137328738 0.16545139194364589 0 0.056119731137328738 0.16545139194364589 0 0.059085458385422278 0.1506015352956111 0 0.070888259250601562 0.1603778854049813 0 0.059085458385422278 0.1506015352956111 0 0.059545560957538102 0.13344189441397619 0 0.044509778355432128 0.14550985594513249 0 0.048342461887556233 0.16011970521507321 0 0.059085458385422278 0.1506015352956111 0 0.044509778355432128 0.14550985594513249 0 0.053926858071946818 0.11987647620656181 0 0.059545560957538102 0.13344189441397619 0 0.039736921169613908 0.13019374040032089 0 0.059545560957538102 0.13344189441397619 0 0.039736921169613908 0.13019374040032089 0 0.044509778355432128 0.14550985594513249 0 0.027542337641836331 0.1461142729128099 0 0.039736921169613908 0.13019374040032089 0 0.044509778355432128 0.14550985594513249 0 0.027542337641836331 0.1461142729128099 0 0.036251960768146657 0.15646263292556539 0 0.044509778355432128 0.14550985594513249 0 0.036251960768146657 0.15646263292556539 0 0.048342461887556233 0.16011970521507321 0 0.044509778355432128 0.14550985594513249 0 0.025675338373186519 0.2453876233781738 0 0.033042737040144793 0.2382404216671315 0 0.034882001398798469 0.24856371893157889 0 0.025675338373186519 0.2453876233781738 0 0.021001659540298909 0.23667885139172051 0 0.033042737040144793 0.2382404216671315 0 0.021001659540298909 0.23667885139172051 0 0.026384857053037919 0.228926210029818 0 0.033042737040144793 0.2382404216671315 0 0.021001659540298909 0.23667885139172051 0 0.013601244171308721 0.24722589994409211 0 0.01276843359274033 0.23624812411590451 0 0.025675338373186519 0.2453876233781738 0 0.021001659540298909 0.23667885139172051 0 0.013601244171308721 0.24722589994409211 0 0.025675338373186519 0.2453876233781738 0 0.013601244171308721 0.24722589994409211 0 0.02655127377539444 0.25729902536491389 0 -0.002897395715083702 0.25931960419232192 0 0.013601244171308721 0.24722589994409211 0 0.00065121456722317566 0.23715277452326999 0 0.013601244171308721 0.24722589994409211 0 0.00065121456722317566 0.23715277452326999 0 0.013601244171308721 0.24722589994409211 0 0.00065121456722317566 0.23715277452326999 0 0.01276843359274033 0.23624812411590451 0 0.00065121456722317566 0.23715277452326999 0 0.015819616092129701 0.22393497060453629 0 -0.0023474800346162629 0.21150700417711171 0 -0.0026132393217787541 0.23461353295705059 0 0.0051660760188368994 0.2236640735386913 0 0.00065121456722317566 0.23715277452326999 0 0.01276843359274033 0.23624812411590451 0 0.015819616092129701 0.22393497060453629 0 0.00065121456722317566 0.23715277452326999 0 0.0051660760188368994 0.2236640735386913 0 0.015819616092129701 0.22393497060453629 0 -0.0026132393217787541 0.23461353295705059 0 0.00065121456722317566 0.23715277452326999 0 0.0051660760188368994 0.2236640735386913 0 0.0051660760188368994 0.2236640735386913 0 0.015819616092129701 0.22393497060453629 0 0.014320268791222999 0.21111208543148871 0 0.015819616092129701 0.22393497060453629 0 0.026384857053037919 0.228926210029818 0 0.023849311443858139 0.22220189278680591 0 0.021001659540298909 0.23667885139172051 0 0.01276843359274033 0.23624812411590451 0 0.015819616092129701 0.22393497060453629 0 0.021001659540298909 0.23667885139172051 0 0.015819616092129701 0.22393497060453629 0 0.026384857053037919 0.228926210029818 0 0.015819616092129701 0.22393497060453629 0 0.023849311443858139 0.22220189278680591 0 0.030988017617061141 0.21071716668583121 0 0.026384857053037919 0.228926210029818 0 0.023849311443858139 0.22220189278680591 0 0.032273532579265421 0.22232449013048991 0 0.030988017617061141 0.21071716668583121 0 0.027044272351880019 0.20448644705020139 0 0.014320268791222999 0.21111208543148871 0 0.015819616092129701 0.22393497060453629 0 0.030988017617061141 0.21071716668583121 0 0.014320268791222999 0.21111208543148871 0 0.030988017617061141 0.21071716668583121 0 0.014320268791222999 0.21111208543148871 0 0.023849311443858139 0.22220189278680591 0 0.032616857111263872 0.21067857363670259 0 0.032273532579265421 0.22232449013048991 0 0.023849311443858139 0.22220189278680591 0 0.032616857111263872 0.21067857363670259 0 0.023849311443858139 0.22220189278680591 0 0.030988017617061141 0.21071716668583121 0 0.032616857111263872 0.21067857363670259 0 0.030988017617061141 0.21071716668583121 0 0.027044272351880019 0.20448644705020139 0 0.035734374588263937 0.2065811728125409 0 0.027044272351880019 0.20448644705020139 0 0.014320268791222999 0.21111208543148871 0 0.02292560346503645 0.19667356016629881 0 0.015819616092129701 0.22393497060453629 0 0.030988017617061141 0.21071716668583121 0 -0.0023474800346162629 0.21150700417711171 0 0.014320268791222999 0.21111208543148871 0 -0.0023474800346162629 0.21150700417711171 0 0.0051660760188368994 0.2236640735386913 0 0.014320268791222999 0.21111208543148871 0 -0.0023474800346162629 0.21150700417711171 0 0.014320268791222999 0.21111208543148871 0 0.01049658145851385 0.19831197633775521 0 -0.0021624594623499771 0.19542032956390301 0 -0.0023474800346162629 0.21150700417711171 0 0.01049658145851385 0.19831197633775521 0 -0.0021624594623499771 0.19542032956390301 0 0.0093365185404539943 0.18705856355467901 0 0.01049658145851385 0.19831197633775521 0 0.0093365185404539943 0.18705856355467901 0 0.01049658145851385 0.19831197633775521 0 0.019408643045934749 0.18779998327129641 0 0.01049658145851385 0.19831197633775521 0 0.019408643045934749 0.18779998327129641 0 0.02292560346503645 0.19667356016629881 0 0.014320268791222999 0.21111208543148871 0 0.01049658145851385 0.19831197633775521 0 0.02292560346503645 0.19667356016629881 0 0.027044272351880019 0.20448644705020139 0 0.02292560346503645 0.19667356016629881 0 0.031253097297814579 0.1973482501548125 0 0.019408643045934749 0.18779998327129641 0 0.02292560346503645 0.19667356016629881 0 0.029672430277385139 0.1889623057112059 0 0.02292560346503645 0.19667356016629881 0 0.031253097297814579 0.1973482501548125 0 0.029672430277385139 0.1889623057112059 0 0.053311316919432812 0.18347952910876111 0 0.03866809941927777 0.19057575283742181 0 0.035734374588263937 0.2065811728125409 0 0.031253097297814579 0.1973482501548125 0 0.03866809941927777 0.19057575283742181 0 0.035734374588263937 0.2065811728125409 0 0.053311316919432812 0.18347952910876111 0 0.049163227719496758 0.19487921811080239 0 0.035734374588263937 0.2065811728125409 0 0.053311316919432812 0.18347952910876111 0 0.035734374588263937 0.2065811728125409 0 0.031253097297814579 0.1973482501548125 0 0.029672430277385139 0.1889623057112059 0 0.03866809941927777 0.19057575283742181 0 0.027044272351880019 0.20448644705020139 0 0.031253097297814579 0.1973482501548125 0 0.035734374588263937 0.2065811728125409 0 0.049163227719496758 0.19487921811080239 0 0.035734374588263937 0.2065811728125409 0 0.049163227719496758 0.19487921811080239 0 0.062592080850729703 0.1831772634090639 0 0.049163227719496758 0.19487921811080239 0 0.059778821681758527 0.19606313032615841 0 0.062592080850729703 0.1831772634090639 0 0.049163227719496758 0.19487921811080239 0 0.059778821681758527 0.19606313032615841 0 0.05594486214385247 0.21012584953570901 0 0.059778821681758527 0.19606313032615841 0 0.05594486214385247 0.21012584953570901 0 0.071415116012955179 0.1960701902490582 0 0.049163227719496758 0.19487921811080239 0 0.05594486214385247 0.21012584953570901 0 0.035734374588263937 0.2065811728125409 0 0.05594486214385247 0.21012584953570901 0 0.032616857111263872 0.21067857363670259 0 0.042887226270629172 0.22134347185225009 0 0.05594486214385247 0.21012584953570901 0 0.035734374588263937 0.2065811728125409 0 0.032616857111263872 0.21067857363670259 0 0.05594486214385247 0.21012584953570901 0 0.032616857111263872 0.21067857363670259 0 0.035734374588263937 0.2065811728125409 0 0.032616857111263872 0.21067857363670259 0 0.030988017617061141 0.21071716668583121 0 0.035734374588263937 0.2065811728125409 0 0.030988017617061141 0.21071716668583121 0 0.035734374588263937 0.2065811728125409 0 0.032616857111263872 0.21067857363670259 0 0.030988017617061141 0.21071716668583121 0 0.032616857111263872 0.21067857363670259 0 0.032616857111263872 0.21067857363670259 0 0.032273532579265421 0.22232449013048991 0 0.042887226270629172 0.22134347185225009 0 0.026384857053037919 0.228926210029818 0 0.032273532579265421 0.22232449013048991 0 0.035629411017537992 0.22847230234687241 0 0.032273532579265421 0.22232449013048991 0 0.035629411017537992 0.22847230234687241 0 0.042887226270629172 0.22134347185225009 0 0.035629411017537992 0.22847230234687241 0 0.044770871044245611 0.2330895514584306 0 0.033042737040144793 0.2382404216671315 0 0.026384857053037919 0.228926210029818 0 0.035629411017537992 0.22847230234687241 0 0.033042737040144793 0.2382404216671315 0 0.035629411017537992 0.22847230234687241 0 0.044770871044245611 0.2330895514584306 0 0.042887226270629172 0.22134347185225009 0 0.044770871044245611 0.2330895514584306 0 0.042887226270629172 0.22134347185225009 0 0.059433393138470972 0.22586996763912989 0 0.05594486214385247 0.21012584953570901 0 0.042887226270629172 0.22134347185225009 0 0.059433393138470972 0.22586996763912989 0 0.044770871044245611 0.2330895514584306 0 0.059433393138470972 0.22586996763912989 0 0.053416015778532597 0.2395940970799692 0 0.044770871044245611 0.2330895514584306 0 0.053416015778532597 0.2395940970799692 0 0.04421644302015823 0.24501704816523059 0 0.059433393138470972 0.22586996763912989 0 0.053416015778532597 0.2395940970799692 0 0.065855740991511896 0.2418824674963585 0 0.0543199210604558 0.24765632030833371 0 0.065855740991511896 0.2418824674963585 0 0.063106660444855522 0.25479082918457391 0 0.053416015778532597 0.2395940970799692 0 0.0543199210604558 0.24765632030833371 0 0.065855740991511896 0.2418824674963585 0 0.0543199210604558 0.24765632030833371 0 0.04421644302015823 0.24501704816523059 0 0.044828967110124927 0.25604492727474332 0 0.053416015778532597 0.2395940970799692 0 0.0543199210604558 0.24765632030833371 0 0.04421644302015823 0.24501704816523059 0 0.04421644302015823 0.24501704816523059 0 0.034882001398798469 0.24856371893157889 0 0.044828967110124927 0.25604492727474332 0 0.044770871044245611 0.2330895514584306 0 0.04421644302015823 0.24501704816523059 0 0.033042737040144793 0.2382404216671315 0 0.04421644302015823 0.24501704816523059 0 0.033042737040144793 0.2382404216671315 0 0.034882001398798469 0.24856371893157889 0 0.083207690724959871 0.2386764374197631 0 0.096308137818200176 0.2489703324653556 0 0.075512138207988008 0.25365717691464151 0 0.083207690724959871 0.2386764374197631 0 0.099454505013624808 0.22899536689954211 0 0.096308137818200176 0.2489703324653556 0 0.083207690724959871 0.2386764374197631 0 0.065855740991511896 0.2418824674963585 0 0.07485280750642137 0.22831479826965689 0 0.083207690724959871 0.2386764374197631 0 0.065855740991511896 0.2418824674963585 0 0.075512138207988008 0.25365717691464151 0 0.059433393138470972 0.22586996763912989 0 0.065855740991511896 0.2418824674963585 0 0.07485280750642137 0.22831479826965689 0 0.059433393138470972 0.22586996763912989 0 0.07485280750642137 0.22831479826965689 0 0.079272867176440887 0.2095731254347151 0 0.083207690724959871 0.2386764374197631 0 0.086648946356463835 0.22286596965748071 0 0.099454505013624808 0.22899536689954211 0 0.083207690724959871 0.2386764374197631 0 0.07485280750642137 0.22831479826965689 0 0.086648946356463835 0.22286596965748071 0 0.07485280750642137 0.22831479826965689 0 0.086648946356463835 0.22286596965748071 0 0.079272867176440887 0.2095731254347151 0 0.079272867176440887 0.2095731254347151 0 0.090494830129436932 0.2008997701420355 0 0.1026008722090294 0.20902040133372549 0 0.086648946356463835 0.22286596965748071 0 0.079272867176440887 0.2095731254347151 0 0.1026008722090294 0.20902040133372549 0 0.079272867176440887 0.2095731254347151 0 0.1026008722090294 0.20902040133372549 0 0.05594486214385247 0.21012584953570901 0 0.079272867176440887 0.2095731254347151 0 0.05594486214385247 0.21012584953570901 0 0.059433393138470972 0.22586996763912989 0 0.079272867176440887 0.2095731254347151 0 0.05594486214385247 0.21012584953570901 0 0.079272867176440887 0.2095731254347151 0 0.071415116012955179 0.1960701902490582 0 0.079272867176440887 0.2095731254347151 0 0.071415116012955179 0.1960701902490582 0 0.08122380033732722 0.19791769240073381 0 0.059778821681758527 0.19606313032615841 0 0.071415116012955179 0.1960701902490582 0 0.062592080850729703 0.1831772634090639 0 0.071415116012955179 0.1960701902490582 0 0.062592080850729703 0.1831772634090639 0 0.074565444968234404 0.18530622430115351 0 0.071415116012955179 0.1960701902490582 0 0.08122380033732722 0.19791769240073381 0 0.074565444968234404 0.18530622430115351 0 0.085230686861783672 0.1887761163464774 0 0.08122380033732722 0.19791769240073381 0 0.074565444968234404 0.18530622430115351 0 0.085230686861783672 0.1887761163464774 0 0.1041459240626056 0.19921151519453009 0 0.089884071817439709 0.18652004296390121 0 0.085230686861783672 0.1887761163464774 0 0.090494830129436932 0.2008997701420355 0 0.1041459240626056 0.19921151519453009 0 0.079272867176440887 0.2095731254347151 0 0.08122380033732722 0.19791769240073381 0 0.090494830129436932 0.2008997701420355 0 0.085230686861783672 0.1887761163464774 0 0.08122380033732722 0.19791769240073381 0 0.090494830129436932 0.2008997701420355 0 0.10061212683151149 0.1880435017101782 0 0.1041459240626056 0.19921151519453009 0 0.10250566740748029 0.18165120888378841 0 0.085230686861783672 0.1887761163464774 0 0.1041459240626056 0.19921151519453009 0 0.10061212683151149 0.1880435017101782 0 0.096947090863487684 0.18780757584310939 0 0.1041459240626056 0.19921151519453009 0 0.096947090863487684 0.18780757584310939 0 0.1041459240626056 0.19921151519453009 0 0.089884071817439709 0.18652004296390121 0 0.1041459240626056 0.19921151519453009 0 0.089884071817439709 0.18652004296390121 0 0.090494830129436932 0.2008997701420355 0 0.1041459240626056 0.19921151519453009 0 0.1026008722090294 0.20902040133372549 0 0.1041459240626056 0.19921151519453009 0 0.1120525655782318 0.1951078169055657 0 0.1121622458379989 0.18707990445014369 0 0.1120525655782318 0.1951078169055657 0 0.12032220825678711 0.19498908300030959 0 0.1121622458379989 0.18707990445014369 0 0.1041459240626056 0.19921151519453009 0 0.1120525655782318 0.1951078169055657 0 0.1211297800288797 0.2085813850568127 0 0.1120525655782318 0.1951078169055657 0 0.12032220825678711 0.19498908300030959 0 0.1211297800288797 0.2085813850568127 0 0.1041459240626056 0.19921151519453009 0 0.1211297800288797 0.2085813850568127 0 0.1041459240626056 0.19921151519453009 0 0.1155304997765432 0.2087140520868267 0 0.1211297800288797 0.2085813850568127 0 0.1041459240626056 0.19921151519453009 0 0.1155304997765432 0.2087140520868267 0 0.1155304997765432 0.2087140520868267 0 0.1211297800288797 0.2085813850568127 0 0.1155304997765432 0.2087140520868267 0 0.1211297800288797 0.2085813850568127 0 0.12705240445399241 0.2186849243631922 0 0.1155304997765432 0.2087140520868267 0 0.12705240445399241 0.2186849243631922 0 0.1155304997765432 0.2087140520868267 0 0.1171309090201185 0.21755801010511081 0 0.12705240445399241 0.2186849243631922 0 0.1155304997765432 0.2087140520868267 0 0.1103653838240814 0.2177160973072618 0 0.1026008722090294 0.20902040133372549 0 0.1155304997765432 0.2087140520868267 0 0.1171309090201185 0.21755801010511081 0 0.1103653838240814 0.2177160973072618 0 0.1103653838240814 0.2177160973072618 0 0.1026008722090294 0.20902040133372549 0 0.099454505013624808 0.22899536689954211 0 0.1041459240626056 0.19921151519453009 0 0.1155304997765432 0.2087140520868267 0 0.1026008722090294 0.20902040133372549 0 0.1041459240626056 0.19921151519453009 0 0.1026008722090294 0.20902040133372549 0 0.1155304997765432 0.2087140520868267 0 0.1026008722090294 0.20902040133372549 0 0.086648946356463835 0.22286596965748071 0 0.1026008722090294 0.20902040133372549 0 0.099454505013624808 0.22899536689954211 0 0.1103653838240814 0.2177160973072618 0 0.099454505013624808 0.22899536689954211 0 0.1155753480258572 0.22511696666316919 0 0.1026008722090294 0.20902040133372549 0 0.099454505013624808 0.22899536689954211 0 0.099454505013624808 0.22899536689954211 0 0.1155753480258572 0.22511696666316919 0 0.1195077661471064 0.24374177643069531 0 0.1155753480258572 0.22511696666316919 0 0.1195077661471064 0.24374177643069531 0 0.12868344444688309 0.2309425368985282 0 0.1171309090201185 0.21755801010511081 0 0.1103653838240814 0.2177160973072618 0 0.1155753480258572 0.22511696666316919 0 0.1171309090201185 0.21755801010511081 0 0.1155753480258572 0.22511696666316919 0 0.12705240445399241 0.2186849243631922 0 0.1155753480258572 0.22511696666316919 0 0.12868344444688309 0.2309425368985282 0 0.12705240445399241 0.2186849243631922 0 0.099454505013624808 0.22899536689954211 0 0.1195077661471064 0.24374177643069531 0 0.096308137818200176 0.2489703324653556 0 0.099454505013624808 0.22899536689954211 0 0.096308137818200176 0.2489703324653556 0 0.1195077661471064 0.24374177643069531 0 0.096308137818200176 0.2489703324653556 0 0.088897783668977409 0.15512805431839211 0 0.08846520158177032 0.13727624170120151 0 0.1003127815781827 0.1431936759138297 0 0.08846520158177032 0.13727624170120151 0 0.070888259250601562 0.1603778854049813 0 0.088897783668977409 0.15512805431839211 0 0.08846520158177032 0.13727624170120151 0 0.070888259250601562 0.1603778854049813 0 0.079520008662203989 0.1244937424626745 0 0.08846520158177032 0.13727624170120151 0 0.096163670843842919 0.1283732991371043 0 0.079520008662203989 0.1244937424626745 0 0.08846520158177032 0.13727624170120151 0 0.071719743669439007 0.14127965630665759 0 0.079520008662203989 0.1244937424626745 0 0.065391443342881217 0.11859728777906189 0 0.059545560957538102 0.13344189441397619 0 0.079520008662203989 0.1244937424626745 0 0.059545560957538102 0.13344189441397619 0 0.071719743669439007 0.14127965630665759 0 0.08846520158177032 0.13727624170120151 0 0.071719743669439007 0.14127965630665759 0 0.070888259250601562 0.1603778854049813 0 0.059085458385422278 0.1506015352956111 0 0.059545560957538102 0.13344189441397619 0 0.071719743669439007 0.14127965630665759 0 0.059085458385422278 0.1506015352956111 0 0.071719743669439007 0.14127965630665759 0 0.070888259250601562 0.1603778854049813 0 0.070888259250601562 0.1603778854049813 0 0.075573772828614091 0.1741361387875997 0 0.082002637031791448 0.1652218191207718 0 0.070888259250601562 0.1603778854049813 0 0.062592080850729703 0.1831772634090639 0 0.075573772828614091 0.1741361387875997 0 0.062592080850729703 0.1831772634090639 0 0.075573772828614091 0.1741361387875997 0 0.074565444968234404 0.18530622430115351 0 0.085230686861783672 0.1887761163464774 0 0.075573772828614091 0.1741361387875997 0 0.089884071817439709 0.18652004296390121 0 0.085230686861783672 0.1887761163464774 0 0.075573772828614091 0.1741361387875997 0 0.074565444968234404 0.18530622430115351 0 0.075573772828614091 0.1741361387875997 0 0.089884071817439709 0.18652004296390121 0 0.075573772828614091 0.1741361387875997 0 0.089201076500118978 0.17748749140993419 0 0.084722770113092746 0.17131040323983671 0 0.075573772828614091 0.1741361387875997 0 0.089201076500118978 0.17748749140993419 0 0.089884071817439709 0.18652004296390121 0 0.089201076500118978 0.17748749140993419 0 0.092113594091846454 0.1683961636410411 0 0.097689595283418126 0.17854516322121369 0 0.089201076500118978 0.17748749140993419 0 0.084722770113092746 0.17131040323983671 0 0.092113594091846454 0.1683961636410411 0 0.089201076500118978 0.17748749140993419 0 0.09426220596523216 0.1827617447182121 0 0.097689595283418126 0.17854516322121369 0 0.089201076500118978 0.17748749140993419 0 0.089884071817439709 0.18652004296390121 0 0.09426220596523216 0.1827617447182121 0 0.096947090863487684 0.18780757584310939 0 0.089884071817439709 0.18652004296390121 0 0.09426220596523216 0.1827617447182121 0 0.088897783668977409 0.15512805431839211 0 0.070888259250601562 0.1603778854049813 0 0.082002637031791448 0.1652218191207718 0 0.075573772828614091 0.1741361387875997 0 0.084722770113092746 0.17131040323983671 0 0.082002637031791448 0.1652218191207718 0 0.084722770113092746 0.17131040323983671 0 0.082002637031791448 0.1652218191207718 0 0.092113594091846454 0.1683961636410411 0 0.088897783668977409 0.15512805431839211 0 0.082002637031791448 0.1652218191207718 0 0.092113594091846454 0.1683961636410411 0 0.1019578180783247 0.16043514192467731 0 0.10808908291172351 0.17417805363729411 0 0.1119837950171776 0.14945216013438781 0 0.088897783668977409 0.15512805431839211 0 0.092113594091846454 0.1683961636410411 0 0.1019578180783247 0.16043514192467731 0 0.092113594091846454 0.1683961636410411 0 0.1002861913490026 0.17079022800846369 0 0.1019578180783247 0.16043514192467731 0 0.1002861913490026 0.17079022800846369 0 0.1019578180783247 0.16043514192467731 0 0.10808908291172351 0.17417805363729411 0 0.1041459240626056 0.19921151519453009 0 0.10808908291172351 0.17417805363729411 0 0.1121622458379989 0.18707990445014369 0 0.1041459240626056 0.19921151519453009 0 0.10808908291172351 0.17417805363729411 0 0.10250566740748029 0.18165120888378841 0 0.1041459240626056 0.19921151519453009 0 0.10808908291172351 0.17417805363729411 0 0.10061212683151149 0.1880435017101782 0 0.096947090863487684 0.18780757584310939 0 0.098846360346589876 0.18342987892992191 0 0.10061212683151149 0.1880435017101782 0 0.098846360346589876 0.18342987892992191 0 0.10250566740748029 0.18165120888378841 0 0.096947090863487684 0.18780757584310939 0 0.09426220596523216 0.1827617447182121 0 0.098846360346589876 0.18342987892992191 0 0.09426220596523216 0.1827617447182121 0 0.098846360346589876 0.18342987892992191 0 0.097689595283418126 0.17854516322121369 0 0.098846360346589876 0.18342987892992191 0 0.097689595283418126 0.17854516322121369 0 0.10250566740748029 0.18165120888378841 0 0.092113594091846454 0.1683961636410411 0 0.1002861913490026 0.17079022800846369 0 0.097689595283418126 0.17854516322121369 0 0.1002861913490026 0.17079022800846369 0 0.097689595283418126 0.17854516322121369 0 0.10250566740748029 0.18165120888378841 0 0.1002861913490026 0.17079022800846369 0 0.10808908291172351 0.17417805363729411 0 0.10250566740748029 0.18165120888378841 0 0.12032220825678711 0.19498908300030959 0 0.1161530016369825 0.1722206215673486 0 0.12032220825678711 0.19498908300030959 0 0.1161530016369825 0.1722206215673486 0 0.12916489057248909 0.18202885725961759 0 0.12032220825678711 0.19498908300030959 0 0.1121622458379989 0.18707990445014369 0 0.1161530016369825 0.1722206215673486 0 0.10808908291172351 0.17417805363729411 0 0.1121622458379989 0.18707990445014369 0 0.1161530016369825 0.1722206215673486 0 0.1161530016369825 0.1722206215673486 0 0.12286546309289011 0.15817059747714529 0 0.13240686580967589 0.1683796253543102 0 0.1161530016369825 0.1722206215673486 0 0.1119837950171776 0.14945216013438781 0 0.10808908291172351 0.17417805363729411 0 0.1161530016369825 0.1722206215673486 0 0.1119837950171776 0.14945216013438781 0 0.1161530016369825 0.1722206215673486 0 0.12286546309289011 0.15817059747714529 0 0.1119837950171776 0.14945216013438781 0 0.10808908291172351 0.17417805363729411 0 0.1119837950171776 0.14945216013438781 0 0.1119837950171776 0.14945216013438781 0 0.11460180613375349 0.132831505691858 0 0.12566288320577171 0.14361641275304801 0 0.1119837950171776 0.14945216013438781 0 0.1090088547240364 0.13320570858938691 0 0.12286546309289011 0.15817059747714529 0 0.1119837950171776 0.14945216013438781 0 0.12566288320577171 0.14361641275304801 0 0.1119837950171776 0.14945216013438781 0 0.11460180613375349 0.132831505691858 0 0.1119837950171776 0.14945216013438781 0 0.1003127815781827 0.1431936759138297 0 0.1090088547240364 0.13320570858938691 0 0.088897783668977409 0.15512805431839211 0 0.1019578180783247 0.16043514192467731 0 0.1003127815781827 0.1431936759138297 0 0.1019578180783247 0.16043514192467731 0 0.1119837950171776 0.14945216013438781 0 0.1003127815781827 0.1431936759138297 0 0.1060339144308949 0.11695925704438601 0 0.096163670843842919 0.1283732991371043 0 0.1090088547240364 0.13320570858938691 0 0.1060339144308949 0.11695925704438601 0 0.1090088547240364 0.13320570858938691 0 0.1104907665997748 0.12651490677926161 0 0.1060339144308949 0.11695925704438601 0 0.1090088547240364 0.13320570858938691 0 0.08846520158177032 0.13727624170120151 0 0.1003127815781827 0.1431936759138297 0 0.096163670843842919 0.1283732991371043 0 0.1003127815781827 0.1431936759138297 0 0.096163670843842919 0.1283732991371043 0 0.1090088547240364 0.13320570858938691 0 0.11231849111041441 0.12306315579141559 0 0.1104907665997748 0.12651490677926161 0 0.11460180613375349 0.132831505691858 0 0.1119837950171776 0.14945216013438781 0 0.1090088547240364 0.13320570858938691 0 0.11460180613375349 0.132831505691858 0 0.1090088547240364 0.13320570858938691 0 0.1104907665997748 0.12651490677926161 0 0.11460180613375349 0.132831505691858 0 0.11460180613375349 0.132831505691858 0 0.1245821924999175 0.13273496589251821 0 0.12566288320577171 0.14361641275304801 0 0.11460180613375349 0.132831505691858 0 0.1245821924999175 0.13273496589251821 0 0.1235319604932357 0.1257216277279673 0 0.1245821924999175 0.13273496589251821 0 0.1235319604932357 0.1257216277279673 0 0.1345321201669093 0.12877031739719949 0 0.1345321201669093 0.12877031739719949 0 0.13806504897467489 0.14727343242677041 0 0.12566288320577171 0.14361641275304801 0 0.1245821924999175 0.13273496589251821 0 0.1345321201669093 0.12877031739719949 0 0.12566288320577171 0.14361641275304801 0 0.1345321201669093 0.12877031739719949 0 0.15163458359747681 0.14602884083070661 0 0.1345321201669093 0.12877031739719949 0 0.15163458359747681 0.14602884083070661 0 0.15959505628113241 0.1236085662253088 0 0.1345321201669093 0.12877031739719949 0 0.15163458359747681 0.14602884083070661 0 0.13806504897467489 0.14727343242677041 0 0.15163458359747681 0.14602884083070661 0 0.13806504897467489 0.14727343242677041 0 0.14613469626297129 0.16141741001357551 0 0.13806504897467489 0.14727343242677041 0 0.13236096164024541 0.1565341811393226 0 0.14613469626297129 0.16141741001357551 0 0.12286546309289011 0.15817059747714529 0 0.12566288320577171 0.14361641275304801 0 0.13236096164024541 0.1565341811393226 0 0.13806504897467489 0.14727343242677041 0 0.12566288320577171 0.14361641275304801 0 0.13236096164024541 0.1565341811393226 0 0.12286546309289011 0.15817059747714529 0 0.13236096164024541 0.1565341811393226 0 0.13240686580967589 0.1683796253543102 0 0.13236096164024541 0.1565341811393226 0 0.13240686580967589 0.1683796253543102 0 0.14613469626297129 0.16141741001357551 0 0.12916489057248909 0.18202885725961759 0 0.14575935401549031 0.17858787451550581 0 0.1358217871075576 0.1947317275868366 0 0.13240686580967589 0.1683796253543102 0 0.12916489057248909 0.18202885725961759 0 0.14575935401549031 0.17858787451550581 0 0.1161530016369825 0.1722206215673486 0 0.13240686580967589 0.1683796253543102 0 0.12916489057248909 0.18202885725961759 0 0.15163458359747681 0.14602884083070661 0 0.14613469626297129 0.16141741001357551 0 0.16432631821239291 0.16523740057230041 0 0.14575935401549031 0.17858787451550581 0 0.14613469626297129 0.16141741001357551 0 0.16432631821239291 0.16523740057230041 0 0.13240686580967589 0.1683796253543102 0 0.14575935401549031 0.17858787451550581 0 0.14613469626297129 0.16141741001357551 0 0.14575935401549031 0.17858787451550581 0 0.16432631821239291 0.16523740057230041 0 0.1695743172432734 0.18250094176453369 0 0.14575935401549031 0.17858787451550581 0 0.1695743172432734 0.18250094176453369 0 0.15596284049037329 0.19474807112319281 0 0.16432631821239291 0.16523740057230041 0 0.1695743172432734 0.18250094176453369 0 0.18434500238613591 0.17503043365544779 0 0.1695743172432734 0.18250094176453369 0 0.18434500238613591 0.17503043365544779 0 0.18423082758418011 0.1885018734066484 0 0.16432631821239291 0.16523740057230041 0 0.18434500238613591 0.17503043365544779 0 0.18213025362437299 0.1579321961370134 0 0.16432631821239291 0.16523740057230041 0 0.18213025362437299 0.1579321961370134 0 0.1692709959169654 0.14414725204378109 0 0.18213025362437299 0.1579321961370134 0 0.18422832907802639 0.13107877954333441 0 0.1692709959169654 0.14414725204378109 0 0.15163458359747681 0.14602884083070661 0 0.1692709959169654 0.14414725204378109 0 0.15959505628113241 0.1236085662253088 0 0.18422832907802639 0.13107877954333441 0 0.1692709959169654 0.14414725204378109 0 0.15959505628113241 0.1236085662253088 0 0.15163458359747681 0.14602884083070661 0 0.16432631821239291 0.16523740057230041 0 0.1692709959169654 0.14414725204378109 0 0.14270739447601219 0.2385132203960337 0 0.1659070228049189 0.23328466436137579 0 0.14270739447601219 0.2385132203960337 0 0.1514258887911632 0.257044783603954 0 0.16487622509235811 0.25007958295157418 0 0.1195077661471064 0.24374177643069531 0 0.14270739447601219 0.2385132203960337 0 0.1195077661471064 0.24374177643069531 0 0.14270739447601219 0.2385132203960337 0 0.13528382026994379 0.25742548662780462 0 0.1195077661471064 0.24374177643069531 0 0.14270739447601219 0.2385132203960337 0 0.12868344444688309 0.2309425368985282 0 0.14270739447601219 0.2385132203960337 0 0.1385743091314475 0.2286557966395508 0 0.12868344444688309 0.2309425368985282 0 0.1385743091314475 0.2286557966395508 0 0.14351840141689851 0.2209330247090957 0 0.12705240445399241 0.2186849243631922 0 0.1385743091314475 0.2286557966395508 0 0.12705240445399241 0.2186849243631922 0 0.1385743091314475 0.2286557966395508 0 0.12868344444688309 0.2309425368985282 0 0.12705240445399241 0.2186849243631922 0 0.14351840141689851 0.2209330247090957 0 0.1659070228049189 0.23328466436137579 0 0.14270739447601219 0.2385132203960337 0 0.14351840141689851 0.2209330247090957 0 0.1659070228049189 0.23328466436137579 0 0.14270739447601219 0.2385132203960337 0 0.1385743091314475 0.2286557966395508 0 0.14351840141689851 0.2209330247090957 0 0.14351840141689851 0.2209330247090957 0 0.15817745816776529 0.21818919992727681 0 0.1659070228049189 0.23328466436137579 0 0.1435482223660754 0.2080502117580581 0 0.1659666647032714 0.207519038459304 0 0.1435482223660754 0.2080502117580581 0 0.15596284049037329 0.19474807112319281 0 0.1659666647032714 0.207519038459304 0 0.1435482223660754 0.2080502117580581 0 0.1659666647032714 0.207519038459304 0 0.15817745816776529 0.21818919992727681 0 0.14351840141689851 0.2209330247090957 0 0.1435482223660754 0.2080502117580581 0 0.15817745816776529 0.21818919992727681 0 0.1211297800288797 0.2085813850568127 0 0.14351840141689851 0.2209330247090957 0 0.1435482223660754 0.2080502117580581 0 0.1211297800288797 0.2085813850568127 0 0.1435482223660754 0.2080502117580581 0 0.1211297800288797 0.2085813850568127 0 0.14351840141689851 0.2209330247090957 0 0.12705240445399241 0.2186849243631922 0 0.1211297800288797 0.2085813850568127 0 0.1435482223660754 0.2080502117580581 0 0.1358217871075576 0.1947317275868366 0 0.1211297800288797 0.2085813850568127 0 0.14351840141689851 0.2209330247090957 0 0.12032220825678711 0.19498908300030959 0 0.1211297800288797 0.2085813850568127 0 0.1358217871075576 0.1947317275868366 0 0.12032220825678711 0.19498908300030959 0 0.12916489057248909 0.18202885725961759 0 0.1358217871075576 0.1947317275868366 0 0.1435482223660754 0.2080502117580581 0 0.1358217871075576 0.1947317275868366 0 0.15596284049037329 0.19474807112319281 0 0.14575935401549031 0.17858787451550581 0 0.1358217871075576 0.1947317275868366 0 0.15596284049037329 0.19474807112319281 0 0.15596284049037329 0.19474807112319281 0 0.17502265414118631 0.1967700467676646 0 0.1659666647032714 0.207519038459304 0 0.1695743172432734 0.18250094176453369 0 0.15596284049037329 0.19474807112319281 0 0.17502265414118631 0.1967700467676646 0 0.18423082758418011 0.1885018734066484 0 0.17502265414118631 0.1967700467676646 0 0.19144758957173791 0.19788794850396119 0 0.1695743172432734 0.18250094176453369 0 0.18423082758418011 0.1885018734066484 0 0.17502265414118631 0.1967700467676646 0 0.17502265414118631 0.1967700467676646 0 0.1883851070404669 0.20698786516054529 0 0.19144758957173791 0.19788794850396119 0 0.17502265414118631 0.1967700467676646 0 0.1883851070404669 0.20698786516054529 0 0.1659666647032714 0.207519038459304 0 0.1883851070404669 0.20698786516054529 0 0.17502265414118631 0.1967700467676646 0 0.1659666647032714 0.207519038459304 0 0.1883851070404669 0.20698786516054529 0 0.1659666647032714 0.207519038459304 0 0.1751490489472918 0.21955514978578611 0 0.1883851070404669 0.20698786516054529 0 0.1751490489472918 0.21955514978578611 0 0.18985365605184279 0.22182859110305969 0 0.1883851070404669 0.20698786516054529 0 0.1659666647032714 0.207519038459304 0 0.15817745816776529 0.21818919992727681 0 0.1751490489472918 0.21955514978578611 0 0.15817745816776529 0.21818919992727681 0 0.1659070228049189 0.23328466436137579 0 0.1751490489472918 0.21955514978578611 0 0.1659070228049189 0.23328466436137579 0 0.1751490489472918 0.21955514978578611 0 0.18260438491548711 0.2295215397031477 0 0.1659070228049189 0.23328466436137579 0 0.18260438491548711 0.2295215397031477 0 0.1751490489472918 0.21955514978578611 0 0.18260438491548711 0.2295215397031477 0 0.18985365605184279 0.22182859110305969 0 0.1659070228049189 0.23328466436137579 0 0.18260438491548711 0.2295215397031477 0 0.19217245761737309 0.24777511379510861 0 0.1659070228049189 0.23328466436137579 0 0.19217245761737309 0.24777511379510861 0 0.16487622509235811 0.25007958295157418 0 0.1659070228049189 0.23328466436137579 0 0.19217245761737309 0.24777511379510861 0 0.14270739447601219 0.2385132203960337 0 0.1659070228049189 0.23328466436137579 0 0.16487622509235811 0.25007958295157418 0 0.21357261213374371 0.2440952407747515 0 0.19217245761737309 0.24777511379510861 0 0.21446470068525969 0.22828307463699929 0 0.19217245761737309 0.24777511379510861 0 0.21446470068525969 0.22828307463699929 0 0.21357261213374371 0.2440952407747515 0 0.21446470068525969 0.22828307463699929 0 0.22768144974660101 0.23703645700979309 0 0.21357261213374371 0.2440952407747515 0 0.19217245761737309 0.24777511379510861 0 0.2077072621939462 0.25634555254043889 0 0.18260438491548711 0.2295215397031477 0 0.19217245761737309 0.24777511379510861 0 0.19829853036206019 0.22946232921788681 0 0.19217245761737309 0.24777511379510861 0 0.19829853036206019 0.22946232921788681 0 0.21446470068525969 0.22828307463699929 0 0.19829853036206019 0.22946232921788681 0 0.18985365605184279 0.22182859110305969 0 0.2080332783935358 0.2220121610851668 0 0.18260438491548711 0.2295215397031477 0 0.19829853036206019 0.22946232921788681 0 0.18985365605184279 0.22182859110305969 0 0.2080332783935358 0.2220121610851668 0 0.22768144974660101 0.23703645700979309 0 0.21446470068525969 0.22828307463699929 0 0.2080332783935358 0.2220121610851668 0 0.22768144974660101 0.23703645700979309 0 0.19829853036206019 0.22946232921788681 0 0.21446470068525969 0.22828307463699929 0 0.2080332783935358 0.2220121610851668 0 0.2080332783935358 0.2220121610851668 0 0.2180187103804046 0.21713885446252371 0 0.22293125481458451 0.22403654141166429 0 0.2080332783935358 0.2220121610851668 0 0.21536781282929671 0.20634854809170169 0 0.1883851070404669 0.20698786516054529 0 0.2080332783935358 0.2220121610851668 0 0.2180187103804046 0.21713885446252371 0 0.21536781282929671 0.20634854809170169 0 0.21536781282929671 0.20634854809170169 0 0.1883851070404669 0.20698786516054529 0 0.20324782205278011 0.19791192789073719 0 0.2080332783935358 0.2220121610851668 0 0.1883851070404669 0.20698786516054529 0 0.18985365605184279 0.22182859110305969 0 0.2080332783935358 0.2220121610851668 0 0.1883851070404669 0.20698786516054529 0 0.21536781282929671 0.20634854809170169 0 0.1883851070404669 0.20698786516054529 0 0.18423082758418011 0.1885018734066484 0 0.19144758957173791 0.19788794850396119 0 0.20450976510698099 0.18589041015077981 0 0.1883851070404669 0.20698786516054529 0 0.19144758957173791 0.19788794850396119 0 0.20324782205278011 0.19791192789073719 0 0.19144758957173791 0.19788794850396119 0 0.20324782205278011 0.19791192789073719 0 0.20450976510698099 0.18589041015077981 0 0.19144758957173791 0.19788794850396119 0 0.20450976510698099 0.18589041015077981 0 0.20324782205278011 0.19791192789073719 0 0.21565524910349279 0.19183411474840911 0 0.20450976510698099 0.18589041015077981 0 0.21536781282929671 0.20634854809170169 0 0.20324782205278011 0.19791192789073719 0 0.21565524910349279 0.19183411474840911 0 0.21536781282929671 0.20634854809170169 0 0.21565524910349279 0.19183411474840911 0 0.22996122963019719 0.18980105141019171 0 0.21536781282929671 0.20634854809170169 0 0.22996122963019719 0.18980105141019171 0 0.2423505186181257 0.20570923102281979 0 0.22996122963019719 0.18980105141019171 0 0.24746203688380269 0.18173233517496171 0 0.25027985120543722 0.19418491433962501 0 0.22996122963019719 0.18980105141019171 0 0.2423505186181257 0.20570923102281979 0 0.25027985120543722 0.19418491433962501 0 0.22996122963019719 0.18980105141019171 0 0.2423505186181257 0.20570923102281979 0 0.2423505186181257 0.20570923102281979 0 0.24366286186963859 0.2073943149834549 0 0.23640755375646971 0.2116911799630127 0 0.2423505186181257 0.20570923102281979 0 0.24366286186963859 0.2073943149834549 0 0.24366286186963859 0.2073943149834549 0 0.2457384699905569 0.21565997180815299 0 0.25505555457826001 0.21627745950666771 0 0.2457384699905569 0.21565997180815299 0 0.23640755375646971 0.2116911799630127 0 0.23911669466570151 0.21980052279487841 0 0.24366286186963859 0.2073943149834549 0 0.2457384699905569 0.21565997180815299 0 0.23640755375646971 0.2116911799630127 0 0.23640755375646971 0.2116911799630127 0 0.22796686688646289 0.21796069052503211 0 0.23911669466570151 0.21980052279487841 0 0.21536781282929671 0.20634854809170169 0 0.2423505186181257 0.20570923102281979 0 0.21536781282929671 0.20634854809170169 0 0.23640755375646971 0.2116911799630127 0 0.22796686688646289 0.21796069052503211 0 0.21536781282929671 0.20634854809170169 0 0.2423505186181257 0.20570923102281979 0 0.23640755375646971 0.2116911799630127 0 0.2180187103804046 0.21713885446252371 0 0.21536781282929671 0.20634854809170169 0 0.22796686688646289 0.21796069052503211 0 0.2080332783935358 0.2220121610851668 0 0.22293125481458451 0.22403654141166429 0 0.22768144974660101 0.23703645700979309 0 0.2180187103804046 0.21713885446252371 0 0.22796686688646289 0.21796069052503211 0 0.22293125481458451 0.22403654141166429 0 0.22293125481458451 0.22403654141166429 0 0.23295596866591811 0.22603454397580591 0 0.22768144974660101 0.23703645700979309 0 0.22796686688646289 0.21796069052503211 0 0.22293125481458451 0.22403654141166429 0 0.23295596866591811 0.22603454397580591 0 0.22796686688646289 0.21796069052503211 0 0.23295596866591811 0.22603454397580591 0 0.23911669466570151 0.21980052279487841 0 0.23295596866591811 0.22603454397580591 0 0.24661902580351111 0.22924547931282879 0 0.22768144974660101 0.23703645700979309 0 0.23295596866591811 0.22603454397580591 0 0.23911669466570151 0.21980052279487841 0 0.24661902580351111 0.22924547931282879 0 0.2457384699905569 0.21565997180815299 0 0.24661902580351111 0.22924547931282879 0 0.25505555457826001 0.21627745950666771 0 0.2457384699905569 0.21565997180815299 0 0.23911669466570151 0.21980052279487841 0 0.24661902580351111 0.22924547931282879 0 0.22768144974660101 0.23703645700979309 0 0.2473296210996663 0.25206075293441937 0 0.24661902580351111 0.22924547931282879 0 0.22768144974660101 0.23703645700979309 0 0.2473296210996663 0.25206075293441937 0 0.22768144974660101 0.23703645700979309 0 0.22390660238889509 0.25089079890903482 0 0.2473296210996663 0.25206075293441937 0 0.21357261213374371 0.2440952407747515 0 0.22768144974660101 0.23703645700979309 0 0.22390660238889509 0.25089079890903482 0 0.2111978790486802 0.12613486340207011 0 0.20090013486012531 0.15248582567046631 0 0.2191488673233391 0.14994446850989199 0 0.18422832907802639 0.13107877954333441 0 0.2111978790486802 0.12613486340207011 0 0.20090013486012531 0.15248582567046631 0 0.18422832907802639 0.13107877954333441 0 0.20090013486012531 0.15248582567046631 0 0.18213025362437299 0.1579321961370134 0 0.18422832907802639 0.13107877954333441 0 0.20090013486012531 0.15248582567046631 0 0.18434500238613591 0.17503043365544779 0 0.18213025362437299 0.1579321961370134 0 0.19789141932396789 0.16904634748226111 0 0.18213025362437299 0.1579321961370134 0 0.20090013486012531 0.15248582567046631 0 0.19789141932396789 0.16904634748226111 0 0.18434500238613591 0.17503043365544779 0 0.19789141932396789 0.16904634748226111 0 0.20450976510698099 0.18589041015077981 0 0.18434500238613591 0.17503043365544779 0 0.18423082758418011 0.1885018734066484 0 0.20450976510698099 0.18589041015077981 0 0.21565524910349279 0.19183411474840911 0 0.20450976510698099 0.18589041015077981 0 0.21757194064222421 0.1738928717975983 0 0.19789141932396789 0.16904634748226111 0 0.20450976510698099 0.18589041015077981 0 0.21757194064222421 0.1738928717975983 0 0.20450976510698099 0.18589041015077981 0 0.21757194064222421 0.1738928717975983 0 0.20090013486012531 0.15248582567046631 0 0.21757194064222421 0.1738928717975983 0 0.2191488673233391 0.14994446850989199 0 0.20090013486012531 0.15248582567046631 0 0.21757194064222421 0.1738928717975983 0 0.20090013486012531 0.15248582567046631 0 0.19789141932396789 0.16904634748226111 0 0.21757194064222421 0.1738928717975983 0 0.21757194064222421 0.1738928717975983 0 0.23366254129873679 0.15911374117105201 0 0.23311275773500331 0.17481212886540881 0 0.21757194064222421 0.1738928717975983 0 0.23366254129873679 0.15911374117105201 0 0.2191488673233391 0.14994446850989199 0 0.21757194064222421 0.1738928717975983 0 0.23366254129873679 0.15911374117105201 0 0.22996122963019719 0.18980105141019171 0 0.21757194064222421 0.1738928717975983 0 0.22996122963019719 0.18980105141019171 0 0.21757194064222421 0.1738928717975983 0 0.23311275773500331 0.17481212886540881 0 0.21565524910349279 0.19183411474840911 0 0.22996122963019719 0.18980105141019171 0 0.21757194064222421 0.1738928717975983 0 0.23311275773500331 0.17481212886540881 0 0.24746203688380269 0.18173233517496171 0 0.24789265203143759 0.16443053735287899 0 0.22996122963019719 0.18980105141019171 0 0.23311275773500331 0.17481212886540881 0 0.24746203688380269 0.18173233517496171 0 0.23366254129873679 0.15911374117105201 0 0.23311275773500331 0.17481212886540881 0 0.24789265203143759 0.16443053735287899 0 0.23366254129873679 0.15911374117105201 0 0.24975314195524931 0.14433461054450569 0 0.23241184076692889 0.13809504050827309 0 0.23366254129873679 0.15911374117105201 0 0.24789265203143759 0.16443053735287899 0 0.24975314195524931 0.14433461054450569 0 0.23366254129873679 0.15911374117105201 0 0.24975314195524931 0.14433461054450569 0 0.23366254129873679 0.15911374117105201 0 0.2191488673233391 0.14994446850989199 0 0.23241184076692889 0.13809504050827309 0 0.2111978790486802 0.12613486340207011 0 0.2191488673233391 0.14994446850989199 0 0.23241184076692889 0.13809504050827309 0 0.2111978790486802 0.12613486340207011 0 0.23241184076692889 0.13809504050827309 0 0.2366335059994131 0.1148143285047399 0 0.24975314195524931 0.14433461054450569 0 0.23241184076692889 0.13809504050827309 0 0.24621252458460241 0.12703884245556199 0 0.23241184076692889 0.13809504050827309 0 0.24621252458460241 0.12703884245556199 0 0.2366335059994131 0.1148143285047399 0 0.24621252458460241 0.12703884245556199 0 0.2366335059994131 0.1148143285047399 0 0.25511944770158329 0.1127523880470236 0 0.2366335059994131 0.1148143285047399 0 0.24496764369805321 0.09860448918972127 0 0.26206913295014589 0.1034937936074098 0 0.2366335059994131 0.1148143285047399 0 0.26206913295014589 0.1034937936074098 0 0.24496764369805321 0.09860448918972127 0 0.2289455455534774 0.1009804309386427 0 0.2401362077077252 0.083190161975305349 0 0.2366335059994131 0.1148143285047399 0 0.24496764369805321 0.09860448918972127 0 0.2289455455534774 0.1009804309386427 0 0.2289455455534774 0.1009804309386427 0 0.21313555961828351 0.1006557577672801 0 0.22256996374223839 0.082157319763352693 0 0.2111978790486802 0.12613486340207011 0 0.2366335059994131 0.1148143285047399 0 0.2289455455534774 0.1009804309386427 0 0.2111978790486802 0.12613486340207011 0 0.2366335059994131 0.1148143285047399 0 0.2111978790486802 0.12613486340207011 0 0.21313555961828351 0.1006557577672801 0 0.1975395987010346 0.1083840919275231 0 0.2111978790486802 0.12613486340207011 0 0.2289455455534774 0.1009804309386427 0 0.21313555961828351 0.1006557577672801 0 0.21313555961828351 0.1006557577672801 0 0.1975395987010346 0.1083840919275231 0 0.2055490388276226 0.085313409493049178 0 0.1975395987010346 0.1083840919275231 0 0.18892591704464129 0.090254726706832392 0 0.2055490388276226 0.085313409493049178 0 0.1975395987010346 0.1083840919275231 0 0.18892591704464129 0.090254726706832392 0 0.17716964884900721 0.1078556052499465 0 0.18422832907802639 0.13107877954333441 0 0.2111978790486802 0.12613486340207011 0 0.1975395987010346 0.1083840919275231 0 0.19452485152400359 0.073623354106977332 0 0.21132583288455661 0.068556042474390538 0 0.19899305847390511 0.057023903017469249 0 0.19452485152400359 0.073623354106977332 0 0.19899305847390511 0.057023903017469249 0 0.18420891012317109 0.059427158318175549 0 0.19452485152400359 0.073623354106977332 0 0.18892591704464129 0.090254726706832392 0 0.2055490388276226 0.085313409493049178 0 0.21313555961828351 0.1006557577672801 0 0.2055490388276226 0.085313409493049178 0 0.22256996374223839 0.082157319763352693 0 0.2055490388276226 0.085313409493049178 0 0.21132583288455661 0.068556042474390538 0 0.22256996374223839 0.082157319763352693 0 0.19452485152400359 0.073623354106977332 0 0.2055490388276226 0.085313409493049178 0 0.21132583288455661 0.068556042474390538 0 0.21132583288455661 0.068556042474390538 0 0.22256996374223839 0.082157319763352693 0 0.23632759786176549 0.054248115931448272 0 0.22256996374223839 0.082157319763352693 0 0.2401362077077252 0.083190161975305349 0 0.23632759786176549 0.054248115931448272 0 0.2289455455534774 0.1009804309386427 0 0.22256996374223839 0.082157319763352693 0 0.2401362077077252 0.083190161975305349 0 0.24496764369805321 0.09860448918972127 0 0.2401362077077252 0.083190161975305349 0 0.25597047726939798 0.090540161233932187 0 0.2401362077077252 0.083190161975305349 0 0.23632759786176549 0.054248115931448272 0 0.26186519419171422 0.063116318558549128 0 0.23632759786176549 0.054248115931448272 0 0.26186519419171422 0.063116318558549128 0 0.23632759786176549 0.054248115931448272 0 0.24812384111072019 0.027879855129794372 0 0.25933970007746171 0.045164520783406339 0 0.23632759786176549 0.054248115931448272 0 0.24812384111072019 0.027879855129794372 0 0.22584466972803879 0.029615458612768399 0 0.23632759786176549 0.054248115931448272 0 0.22584466972803879 0.029615458612768399 0 0.2107900015318169 0.04537991330434693 0 0.21132583288455661 0.068556042474390538 0 0.23632759786176549 0.054248115931448272 0 0.2107900015318169 0.04537991330434693 0 0.23632759786176549 0.054248115931448272 0 0.2107900015318169 0.04537991330434693 0 0.2451261203409961 0.0043847638784739072 0 0.24812384111072019 0.027879855129794372 0 0.2310586355877661 0.01249683388537606 0 0.2451261203409961 0.0043847638784739072 0 0.2310586355877661 0.01249683388537606 0 0.23368652064930381 0.00073941904104069249 0 0.24812384111072019 0.027879855129794372 0 0.22584466972803879 0.029615458612768399 0 0.2310586355877661 0.01249683388537606 0 0.22584466972803879 0.029615458612768399 0 0.2310586355877661 0.01249683388537606 0 0.2197200076896072 0.01381876419099333 0 0.2310586355877661 0.01249683388537606 0 0.2197200076896072 0.01381876419099333 0 0.22164143852297941 0.0021693921146658272 0 0.2310586355877661 0.01249683388537606 0 0.22164143852297941 0.0021693921146658272 0 0.23368652064930381 0.00073941904104069249 0 0.20977352922889511 0.001414786459988571 0 0.21028176538035681 0.023397349882167781 0 0.20977352922889511 0.001414786459988571 0 0.21028176538035681 0.023397349882167781 0 0.19990071527610381 0.0086549279065204765 0 0.2197200076896072 0.01381876419099333 0 0.20977352922889511 0.001414786459988571 0 0.21028176538035681 0.023397349882167781 0 0.20977352922889511 0.001414786459988571 0 0.19990071527610381 0.0086549279065204765 0 0.20004141081272961 -0.0015046789799236699 0 0.2197200076896072 0.01381876419099333 0 0.22164143852297941 0.0021693921146658272 0 0.20977352922889511 0.001414786459988571 0 0.22584466972803879 0.029615458612768399 0 0.2197200076896072 0.01381876419099333 0 0.21028176538035681 0.023397349882167781 0 0.19828831814873871 0.026204760155091131 0 0.19990071527610381 0.0086549279065204765 0 0.18553644736740771 0.01719093352334989 0 0.21028176538035681 0.023397349882167781 0 0.19828831814873871 0.026204760155091131 0 0.19990071527610381 0.0086549279065204765 0 0.19828831814873871 0.026204760155091131 0 0.18493266118800669 0.036400676159070042 0 0.18553644736740771 0.01719093352334989 0 0.19990071527610381 0.0086549279065204765 0 0.18553644736740771 0.01719093352334989 0 0.18614023354680539 -0.002018809112370359 0 0.19990071527610381 0.0086549279065204765 0 0.18614023354680539 -0.002018809112370359 0 0.19990071527610381 0.0086549279065204765 0 0.18614023354680539 -0.002018809112370359 0 0.20004141081272961 -0.0015046789799236699 0 0.21132583288455661 0.068556042474390538 0 0.2107900015318169 0.04537991330434693 0 0.21132583288455661 0.068556042474390538 0 0.2107900015318169 0.04537991330434693 0 0.19899305847390511 0.057023903017469249 0 0.21028176538035681 0.023397349882167781 0 0.2107900015318169 0.04537991330434693 0 0.22584466972803879 0.029615458612768399 0 0.21028176538035681 0.023397349882167781 0 0.2107900015318169 0.04537991330434693 0 0.21028176538035681 0.023397349882167781 0 0.19828831814873871 0.026204760155091131 0 0.2107900015318169 0.04537991330434693 0 0.19828831814873871 0.026204760155091131 0 0.2107900015318169 0.04537991330434693 0 0.18493266118800669 0.036400676159070042 0 0.2107900015318169 0.04537991330434693 0 0.19899305847390511 0.057023903017469249 0 0.18493266118800669 0.036400676159070042 0 0.2107900015318169 0.04537991330434693 0 0.18493266118800669 0.036400676159070042 0 0.19899305847390511 0.057023903017469249 0 0.18420891012317109 0.059427158318175549 0 0.18493266118800669 0.036400676159070042 0 0.18420891012317109 0.059427158318175549 0 0.18493266118800669 0.036400676159070042 0 0.16799154319668119 0.046163824256003967 0 0.18420891012317109 0.059427158318175549 0 0.18493266118800669 0.036400676159070042 0 0.18420891012317109 0.059427158318175549 0 0.16799154319668119 0.046163824256003967 0 0.17000886903095719 0.061598349913547928 0 0.18493266118800669 0.036400676159070042 0 0.16799154319668119 0.046163824256003967 0 0.17041380955659341 0.031358850118888712 0 0.18493266118800669 0.036400676159070042 0 0.17041380955659341 0.031358850118888712 0 0.1611574529080711 0.035940833348024108 0 0.15558033362560719 0.026207767435904809 0 0.15244243317966749 0.041996773565735633 0 0.16799154319668119 0.046163824256003967 0 0.17041380955659341 0.031358850118888712 0 0.1611574529080711 0.035940833348024108 0 0.16799154319668119 0.046163824256003967 0 0.17041380955659341 0.031358850118888712 0 0.16799154319668119 0.046163824256003967 0 0.1611574529080711 0.035940833348024108 0 0.15244243317966749 0.041996773565735633 0 0.16799154319668119 0.046163824256003967 0 0.1592363691767118 0.056622655136074618 0 0.15244243317966749 0.041996773565735633 0 0.16799154319668119 0.046163824256003967 0 0.1592363691767118 0.056622655136074618 0 0.17000886903095719 0.061598349913547928 0 0.17978404603348699 0.0075162598386054272 0 0.18553644736740771 0.01719093352334989 0 0.18614023354680539 -0.002018809112370359 0 0.18553644736740771 0.01719093352334989 0 0.18614023354680539 -0.002018809112370359 0 0.17533225670188299 0.001297134369336352 0 0.18031367860553521 0.00054102776989574559 0 0.17978404603348699 0.0075162598386054272 0 0.17533225670188299 0.001297134369336352 0 0.18031367860553521 0.00054102776989574559 0 0.18031367860553521 0.00054102776989574559 0 0.17978404603348699 0.0075162598386054272 0 0.18614023354680539 -0.002018809112370359 0 0.17978404603348699 0.0075162598386054272 0 0.1728730331292348 0.016327992244111991 0 0.18553644736740771 0.01719093352334989 0 0.17533225670188299 0.001297134369336352 0 0.17978404603348699 0.0075162598386054272 0 0.1728730331292348 0.016327992244111991 0 0.17533225670188299 0.001297134369336352 0 0.1728730331292348 0.016327992244111991 0 0.18493266118800669 0.036400676159070042 0 0.18553644736740771 0.01719093352334989 0 0.18493266118800669 0.036400676159070042 0 0.18553644736740771 0.01719093352334989 0 0.1784389878103082 0.0253196130113547 0 0.1728730331292348 0.016327992244111991 0 0.18553644736740771 0.01719093352334989 0 0.1784389878103082 0.0253196130113547 0 0.17041380955659341 0.031358850118888712 0 0.1728730331292348 0.016327992244111991 0 0.1784389878103082 0.0253196130113547 0 0.18493266118800669 0.036400676159070042 0 0.17041380955659341 0.031358850118888712 0 0.1784389878103082 0.0253196130113547 0 0.1728730331292348 0.016327992244111991 0 0.1626399596918747 0.020305628865294661 0 0.15399915050188839 0.0148637748253735 0 0.17041380955659341 0.031358850118888712 0 0.1728730331292348 0.016327992244111991 0 0.17041380955659341 0.031358850118888712 0 0.1626399596918747 0.020305628865294661 0 0.15558033362560719 0.026207767435904809 0 0.17041380955659341 0.031358850118888712 0 0.15558033362560719 0.026207767435904809 0 0.17041380955659341 0.031358850118888712 0 0.1611574529080711 0.035940833348024108 0 0.15558033362560719 0.026207767435904809 0 0.1626399596918747 0.020305628865294661 0 0.15399915050188839 0.0148637748253735 0 0.15562866053663871 0.021221568878575941 0 0.1626399596918747 0.020305628865294661 0 0.15558033362560719 0.026207767435904809 0 0.1626399596918747 0.020305628865294661 0 0.15562866053663871 0.021221568878575941 0 0.15558033362560719 0.026207767435904809 0 0.17041380955659341 0.031358850118888712 0 0.1728730331292348 0.016327992244111991 0 0.1626399596918747 0.020305628865294661 0 0.17533225670188299 0.001297134369336352 0 0.15246063308071431 0.0047687105366082247 0 0.17533225670188299 0.001297134369336352 0 0.1728730331292348 0.016327992244111991 0 0.15246063308071431 0.0047687105366082247 0 0.1728730331292348 0.016327992244111991 0 0.15246063308071431 0.0047687105366082247 0 0.15399915050188839 0.0148637748253735 0 0.15246063308071431 0.0047687105366082247 0 0.1433077726452171 0.015739031897264579 0 0.12958900945954591 0.0082402867038815827 0 0.15246063308071431 0.0047687105366082247 0 0.12958900945954591 0.0082402867038815827 0 0.14413701637290471 -0.011137100399272881 0 0.15246063308071431 0.0047687105366082247 0 0.12958900945954591 0.0082402867038815827 0 0.15246063308071431 0.0047687105366082247 0 0.15399915050188839 0.0148637748253735 0 0.1433077726452171 0.015739031897264579 0 0.1433077726452171 0.015739031897264579 0 0.15116035595513541 0.024672883060625209 0 0.1313942505745038 0.024055090594606639 0 0.15116035595513541 0.024672883060625209 0 0.15558033362560719 0.026207767435904809 0 0.13634725802915409 0.042287411916193653 0 0.15399915050188839 0.0148637748253735 0 0.1433077726452171 0.015739031897264579 0 0.15116035595513541 0.024672883060625209 0 0.15399915050188839 0.0148637748253735 0 0.15562866053663871 0.021221568878575941 0 0.15116035595513541 0.024672883060625209 0 0.15116035595513541 0.024672883060625209 0 0.15558033362560719 0.026207767435904809 0 0.15562866053663871 0.021221568878575941 0 0.15116035595513541 0.024672883060625209 0 0.15558033362560719 0.026207767435904809 0 0.15116035595513541 0.024672883060625209 0 0.1313942505745038 0.024055090594606639 0 0.13634725802915409 0.042287411916193653 0 0.1433077726452171 0.015739031897264579 0 0.1313942505745038 0.024055090594606639 0 0.12958900945954591 0.0082402867038815827 0 0.1592363691767118 0.056622655136074618 0 0.14560035961625761 0.060342620105762197 0 0.15244243317966749 0.041996773565735633 0 0.14560035961625761 0.060342620105762197 0 0.15244243317966749 0.041996773565735633 0 0.13634725802915409 0.042287411916193653 0 0.15558033362560719 0.026207767435904809 0 0.13634725802915409 0.042287411916193653 0 0.15558033362560719 0.026207767435904809 0 0.15244243317966749 0.041996773565735633 0 0.13634725802915409 0.042287411916193653 0 0.1168000500907334 0.037348051459757427 0 0.1313942505745038 0.024055090594606639 0 0.13634725802915409 0.042287411916193653 0 0.1171141824326996 0.058367056396480821 0 0.13634725802915409 0.042287411916193653 0 0.1171141824326996 0.058367056396480821 0 0.13634725802915409 0.042287411916193653 0 0.13153306227158931 0.059895427265793978 0 0.14560035961625761 0.060342620105762197 0 0.13634725802915409 0.042287411916193653 0 0.13153306227158931 0.059895427265793978 0 0.12271542002484601 0.068735319603260014 0 0.13153306227158931 0.059895427265793978 0 0.1337361646947102 0.072578054225529598 0 0.14560035961625761 0.060342620105762197 0 0.13153306227158931 0.059895427265793978 0 0.1337361646947102 0.072578054225529598 0 0.14560035961625761 0.060342620105762197 0 0.1337361646947102 0.072578054225529598 0 0.1462619821215434 0.07835720600146881 0 0.1592363691767118 0.056622655136074618 0 0.14560035961625761 0.060342620105762197 0 0.16013864085999541 0.073011707839323384 0 0.14560035961625761 0.060342620105762197 0 0.1462619821215434 0.07835720600146881 0 0.16013864085999541 0.073011707839323384 0 0.1462619821215434 0.07835720600146881 0 0.1585867328070866 0.097474354595735099 0 0.16013864085999541 0.073011707839323384 0 0.13835152415013949 0.089798470022746074 0 0.1585867328070866 0.097474354595735099 0 0.1462619821215434 0.07835720600146881 0 0.13835152415013949 0.089798470022746074 0 0.1585867328070866 0.097474354595735099 0 0.11811631549319231 0.082122585449757035 0 0.13835152415013949 0.089798470022746074 0 0.12623752338747091 0.098720335390919206 0 0.11811631549319231 0.082122585449757035 0 0.1337361646947102 0.072578054225529598 0 0.13835152415013949 0.089798470022746074 0 0.11811631549319231 0.082122585449757035 0 0.13835152415013949 0.089798470022746074 0 0.1337361646947102 0.072578054225529598 0 0.1462619821215434 0.07835720600146881 0 0.13835152415013949 0.089798470022746074 0 0.13835152415013949 0.089798470022746074 0 0.12623752338747091 0.098720335390919206 0 0.14048127846236089 0.10879359265397361 0 0.12623752338747091 0.098720335390919206 0 0.14048127846236089 0.10879359265397361 0 0.12744533855740989 0.1103120138545446 0 0.1174296567363417 0.1115117939636923 0 0.1345321201669093 0.12877031739719949 0 0.1345321201669093 0.12877031739719949 0 0.14048127846236089 0.10879359265397361 0 0.12744533855740989 0.1103120138545446 0 0.1174296567363417 0.1115117939636923 0 0.1345321201669093 0.12877031739719949 0 0.12744533855740989 0.1103120138545446 0 0.1174296567363417 0.1115117939636923 0 0.1235319604932357 0.1257216277279673 0 0.1345321201669093 0.12877031739719949 0 0.1345321201669093 0.12877031739719949 0 0.14048127846236089 0.10879359265397361 0 0.15959505628113241 0.1236085662253088 0 0.14048127846236089 0.10879359265397361 0 0.1585867328070866 0.097474354595735099 0 0.15959505628113241 0.1236085662253088 0 0.13835152415013949 0.089798470022746074 0 0.14048127846236089 0.10879359265397361 0 0.1585867328070866 0.097474354595735099 0 0.1585867328070866 0.097474354595735099 0 0.17716964884900721 0.1078556052499465 0 0.17263958985918049 0.088710188797769762 0 0.1585867328070866 0.097474354595735099 0 0.15959505628113241 0.1236085662253088 0 0.17716964884900721 0.1078556052499465 0 0.18422832907802639 0.13107877954333441 0 0.15959505628113241 0.1236085662253088 0 0.17716964884900721 0.1078556052499465 0 0.18422832907802639 0.13107877954333441 0 0.1975395987010346 0.1083840919275231 0 0.17716964884900721 0.1078556052499465 0 0.18892591704464129 0.090254726706832392 0 0.17716964884900721 0.1078556052499465 0 0.17263958985918049 0.088710188797769762 0 0.18892591704464129 0.090254726706832392 0 0.17263958985918049 0.088710188797769762 0 0.17837700973517201 0.07495454959701138 0 0.19452485152400359 0.073623354106977332 0 0.18892591704464129 0.090254726706832392 0 0.17837700973517201 0.07495454959701138 0 0.19452485152400359 0.073623354106977332 0 0.18420891012317109 0.059427158318175549 0 0.17837700973517201 0.07495454959701138 0 0.18420891012317109 0.059427158318175549 0 0.17000886903095719 0.061598349913547928 0 0.17837700973517201 0.07495454959701138 0 0.1592363691767118 0.056622655136074618 0 0.17000886903095719 0.061598349913547928 0 0.16013864085999541 0.073011707839323384 0 0.17000886903095719 0.061598349913547928 0 0.17837700973517201 0.07495454959701138 0 0.16013864085999541 0.073011707839323384 0 0.17263958985918049 0.088710188797769762 0 0.17837700973517201 0.07495454959701138 0 0.16013864085999541 0.073011707839323384 0 0.1585867328070866 0.097474354595735099 0 0.17263958985918049 0.088710188797769762 0 0.16013864085999541 0.073011707839323384 0 0.1018423285261691 0.4757755400578485 0 0.1037150012196541 0.48948479066564649 0 0.087429482697587116 0.48410650157278401 0 0.1086815643672247 0.48427892470930017 0 0.1093115093391092 0.47791337024804031 0 0.1018423285261691 0.4757755400578485 0 0.1086815643672247 0.48427892470930017 0 0.1018423285261691 0.4757755400578485 0 0.1037150012196541 0.48948479066564649 0 0.1093115093391092 0.47791337024804031 0 0.1018423285261691 0.4757755400578485 0 0.10833218346089379 0.46871302172295792 0 0.1018423285261691 0.4757755400578485 0 0.10833218346089379 0.46871302172295792 0 0.1018423285261691 0.4757755400578485 0 0.094263592380174246 0.46568022475671589 0 0.091504105606023761 0.47397349774302122 0 0.1018423285261691 0.4757755400578485 0 0.10833218346089379 0.46871302172295792 0 0.094263592380174246 0.46568022475671589 0 0.1037150012196541 0.48948479066564649 0 0.087429482697587116 0.48410650157278401 0 0.092943865584886487 0.5 0 0.1037150012196541 0.48948479066564649 0 0.1206957337361431 0.50000000000000433 0 0.092943865584886487 0.5 0 0.1037150012196541 0.48948479066564649 0 0.1206957337361431 0.50000000000000433 0 0.1180706275639638 0.49158777217596061 0 0.1206957337361431 0.50000000000000433 0 0.12603119349936301 0.48286276174371051 0 0.1206957337361431 0.50000000000000433 0 0.1180706275639638 0.49158777217596061 0 0.12603119349936301 0.48286276174371051 0 0.1086815643672247 0.48427892470930017 0 0.1037150012196541 0.48948479066564649 0 0.1180706275639638 0.49158777217596061 0 0.1086815643672247 0.48427892470930017 0 0.1180706275639638 0.49158777217596061 0 0.11481191953719989 0.48340012407805982 0 0.1180706275639638 0.49158777217596061 0 0.1217964427483121 0.48360184326375238 0 0.11481191953719989 0.48340012407805982 0 0.1180706275639638 0.49158777217596061 0 0.1217964427483121 0.48360184326375238 0 0.12603119349936301 0.48286276174371051 0 0.1223893471519725 0.47893873839675077 0 0.12410126846679 0.47383132168831232 0 0.12603119349936301 0.48286276174371051 0 0.11706706014888919 0.47837207666331583 0 0.1144565518385452 0.46204824040012882 0 0.10833218346089379 0.46871302172295792 0 0.1217964427483121 0.48360184326375238 0 0.1223893471519725 0.47893873839675077 0 0.12603119349936301 0.48286276174371051 0 0.1223893471519725 0.47893873839675077 0 0.11706706014888919 0.47837207666331583 0 0.12410126846679 0.47383132168831232 0 0.1217964427483121 0.48360184326375238 0 0.1223893471519725 0.47893873839675077 0 0.11706706014888919 0.47837207666331583 0 0.1217964427483121 0.48360184326375238 0 0.11481191953719989 0.48340012407805982 0 0.11706706014888919 0.47837207666331583 0 0.1217964427483121 0.48360184326375238 0 0.11706706014888919 0.47837207666331583 0 0.11481191953719989 0.48340012407805982 0 0.11706706014888919 0.47837207666331583 0 0.1093115093391092 0.47791337024804031 0 0.11481191953719989 0.48340012407805982 0 0.11706706014888919 0.47837207666331583 0 0.1086815643672247 0.48427892470930017 0 0.1093115093391092 0.47791337024804031 0 0.11481191953719989 0.48340012407805982 0 0.11706706014888919 0.47837207666331583 0 0.10833218346089379 0.46871302172295792 0 0.1093115093391092 0.47791337024804031 0 0.11706706014888919 0.47837207666331583 0 0.10833218346089379 0.46871302172295792 0 0.11706706014888919 0.47837207666331583 0 0.12350588417100471 0.46401611486184863 0 0.11706706014888919 0.47837207666331583 0 0.12410126846679 0.47383132168831232 0 0.12350588417100471 0.46401611486184863 0 0.11706706014888919 0.47837207666331583 0 0.12350588417100471 0.46401611486184863 0 0.1144565518385452 0.46204824040012882 0 0.12350588417100471 0.46401611486184863 0 0.1144565518385452 0.46204824040012882 0 0.13385825361728751 0.44093453663961762 0 0.12350588417100471 0.46401611486184863 0 0.1144565518385452 0.46204824040012882 0 0.1096432580114628 0.46100153798594812 0 0.1144565518385452 0.46204824040012882 0 0.1148600673681031 0.44965174533186902 0 0.1096432580114628 0.46100153798594812 0 0.1144565518385452 0.46204824040012882 0 0.1096432580114628 0.46100153798594812 0 0.1144565518385452 0.46204824040012882 0 0.10833218346089379 0.46871302172295792 0 0.1144565518385452 0.46204824040012882 0 0.10833218346089379 0.46871302172295792 0 0.1144565518385452 0.46204824040012882 0 0.1148600673681031 0.44965174533186902 0 0.13385825361728751 0.44093453663961762 0 0.1148600673681031 0.44965174533186902 0 0.1217075382080831 0.43477383390327351 0 0.13385825361728751 0.44093453663961762 0 0.1144565518385452 0.46204824040012882 0 0.13385825361728751 0.44093453663961762 0 0.1096432580114628 0.46100153798594812 0 0.1148600673681031 0.44965174533186902 0 0.1048336793779665 0.44714729971944189 0 0.1148600673681031 0.44965174533186902 0 0.10971503128898349 0.43671493014984641 0 0.1217075382080831 0.43477383390327351 0 0.1148600673681031 0.44965174533186902 0 0.1048336793779665 0.44714729971944189 0 0.10971503128898349 0.43671493014984641 0 0.1048336793779665 0.44714729971944189 0 0.093426752913391836 0.45223054833373499 0 0.096523287307891475 0.43613773679581103 0 0.1048336793779665 0.44714729971944189 0 0.096523287307891475 0.43613773679581103 0 0.10971503128898349 0.43671493014984641 0 0.10833218346089379 0.46871302172295792 0 0.093426752913391836 0.45223054833373499 0 0.1096432580114628 0.46100153798594812 0 0.1048336793779665 0.44714729971944189 0 0.093426752913391836 0.45223054833373499 0 0.10833218346089379 0.46871302172295792 0 0.094263592380174246 0.46568022475671589 0 0.093426752913391836 0.45223054833373499 0 0.1096432580114628 0.46100153798594812 0 0.10833218346089379 0.46871302172295792 0 0.093426752913391836 0.45223054833373499 0 0.094263592380174246 0.46568022475671589 0 0.081387281763570074 0.4566838977662826 0 0.082481018820164578 0.47033172458473649 0 0.094263592380174246 0.46568022475671589 0 0.081387281763570074 0.4566838977662826 0 0.093426752913391836 0.45223054833373499 0 0.093426752913391836 0.45223054833373499 0 0.078521322365890267 0.43574807494451162 0 0.096523287307891475 0.43613773679581103 0 0.093426752913391836 0.45223054833373499 0 0.078521322365890267 0.43574807494451162 0 0.081387281763570074 0.4566838977662826 0 0.093426752913391836 0.45223054833373499 0 0.078521322365890267 0.43574807494451162 0 0.071192014469630388 0.4502800632707975 0 0.061173793779808777 0.43800976759553562 0 0.078521322365890267 0.43574807494451162 0 0.081387281763570074 0.4566838977662826 0 0.071192014469630388 0.4502800632707975 0 0.078521322365890267 0.43574807494451162 0 0.071192014469630388 0.4502800632707975 0 0.078521322365890267 0.43574807494451162 0 0.071192014469630388 0.4502800632707975 0 0.05599119711047168 0.45172771436328979 0 0.061173793779808777 0.43800976759553562 0 0.081387281763570074 0.4566838977662826 0 0.071192014469630388 0.4502800632707975 0 0.063862706573368733 0.46481205159708239 0 0.081387281763570074 0.4566838977662826 0 0.063862706573368733 0.46481205159708239 0 0.082481018820164578 0.47033172458473649 0 0.071192014469630388 0.4502800632707975 0 0.063862706573368733 0.46481205159708239 0 0.071192014469630388 0.4502800632707975 0 0.063862706573368733 0.46481205159708239 0 0.05599119711047168 0.45172771436328979 0 0.063862706573368733 0.46481205159708239 0 0.070077274306276582 0.48027199159404782 0 0.082481018820164578 0.47033172458473649 0 0.070077274306276582 0.48027199159404782 0 0.082481018820164578 0.47033172458473649 0 0.087429482697587116 0.48410650157278401 0 0.1018423285261691 0.4757755400578485 0 0.087429482697587116 0.48410650157278401 0 0.091504105606023761 0.47397349774302122 0 0.094263592380174246 0.46568022475671589 0 0.082481018820164578 0.47033172458473649 0 0.091504105606023761 0.47397349774302122 0 0.082481018820164578 0.47033172458473649 0 0.087429482697587116 0.48410650157278401 0 0.091504105606023761 0.47397349774302122 0 0.087429482697587116 0.48410650157278401 0 0.092943865584886487 0.5 0 0.065191997433629911 0.5 0 0.070077274306276582 0.48027199159404782 0 0.087429482697587116 0.48410650157278401 0 0.065191997433629911 0.5 0 0.070077274306276582 0.48027199159404782 0 0.065191997433629911 0.5 0 0.051421166006632608 0.48210968021563622 0 0.065191997433629911 0.5 0 0.051421166006632608 0.48210968021563622 0 0.037440129282373502 0.5 0 0.063862706573368733 0.46481205159708239 0 0.051421166006632608 0.48210968021563622 0 0.039942599310086667 0.46416901691348889 0 0.063862706573368733 0.46481205159708239 0 0.070077274306276582 0.48027199159404782 0 0.051421166006632608 0.48210968021563622 0 0.051421166006632608 0.48210968021563622 0 0.032001045982154398 0.48148107045779209 0 0.039942599310086667 0.46416901691348889 0 0.051421166006632608 0.48210968021563622 0 0.032001045982154398 0.48148107045779209 0 0.037440129282373502 0.5 0 0.032001045982154398 0.48148107045779209 0 0.014126418400659599 0.47522097953503689 0 0.0096882611311170392 0.50000000000000711 0 0.032001045982154398 0.48148107045779209 0 0.037440129282373502 0.5 0 0.0096882611311170392 0.50000000000000711 0 0.032001045982154398 0.48148107045779209 0 0.014126418400659599 0.47522097953503689 0 0.039942599310086667 0.46416901691348889 0 -0.0031265767522748239 0.48396003887619199 0 0.014126418400659599 0.47522097953503689 0 0.0025542781150765851 0.46070301131444141 0 -0.0031265767522748239 0.48396003887619199 0 0.014126418400659599 0.47522097953503689 0 0.0096882611311170392 0.50000000000000711 0 0.014126418400659599 0.47522097953503689 0 0.0096882611311170392 0.50000000000000711 0 -0.0073622766708320089 0.44816667856366238 0 0.0025542781150765851 0.46070301131444141 0 0.0078202281344544912 0.43691480858437892 0 0.0025542781150765851 0.46070301131444141 0 0.018564575670200971 0.4504419590700664 0 0.0078202281344544912 0.43691480858437892 0 -0.0073622766708320089 0.44816667856366238 0 0.0078202281344544912 0.43691480858437892 0 0.014126418400659599 0.47522097953503689 0 0.0025542781150765851 0.46070301131444141 0 0.018564575670200971 0.4504419590700664 0 0.014126418400659599 0.47522097953503689 0 0.018564575670200971 0.4504419590700664 0 0.014126418400659599 0.47522097953503689 0 0.018564575670200971 0.4504419590700664 0 0.039942599310086667 0.46416901691348889 0 0.018564575670200971 0.4504419590700664 0 0.023002732939741439 0.4256629386050958 0 0.018564575670200971 0.4504419590700664 0 0.023002732939741439 0.4256629386050958 0 0.0078202281344544912 0.43691480858437892 0 0.018564575670200971 0.4504419590700664 0 0.044145034915943827 0.44290123879791149 0 0.035292444309612953 0.43175131328023558 0 0.044145034915943827 0.44290123879791149 0 0.039942599310086667 0.46416901691348889 0 0.05599119711047168 0.45172771436328979 0 0.018564575670200971 0.4504419590700664 0 0.044145034915943827 0.44290123879791149 0 0.039942599310086667 0.46416901691348889 0 0.063862706573368733 0.46481205159708239 0 0.039942599310086667 0.46416901691348889 0 0.05599119711047168 0.45172771436328979 0 0.044145034915943827 0.44290123879791149 0 0.05599119711047168 0.45172771436328979 0 0.061173793779808777 0.43800976759553562 0 0.044145034915943827 0.44290123879791149 0 0.061173793779808777 0.43800976759553562 0 0.050933192747438183 0.4265484394957636 0 0.061173793779808777 0.43800976759553562 0 0.050933192747438183 0.4265484394957636 0 0.066501715309172871 0.42245675452073189 0 0.039816685274739402 0.41320199043234068 0 0.056630637609737751 0.40074104225958612 0 0.057017542231479777 0.41366652211581489 0 0.039816685274739402 0.41320199043234068 0 0.056630637609737751 0.40074104225958612 0 0.050933192747438183 0.4265484394957636 0 0.057017542231479777 0.41366652211581489 0 0.039816685274739402 0.41320199043234068 0 0.050933192747438183 0.4265484394957636 0 0.057017542231479777 0.41366652211581489 0 0.066501715309172871 0.42245675452073189 0 0.039816685274739402 0.41320199043234068 0 0.023002732939741439 0.4256629386050958 0 0.050933192747438183 0.4265484394957636 0 0.039816685274739402 0.41320199043234068 0 0.035292444309612953 0.43175131328023558 0 0.044145034915943827 0.44290123879791149 0 0.050933192747438183 0.4265484394957636 0 0.035292444309612953 0.43175131328023558 0 0.039816685274739402 0.41320199043234068 0 0.035292444309612953 0.43175131328023558 0 0.023002732939741439 0.4256629386050958 0 0.018564575670200971 0.4504419590700664 0 0.035292444309612953 0.43175131328023558 0 0.023002732939741439 0.4256629386050958 0 0.023002732939741439 0.4256629386050958 0 0.011141605590447931 0.41011316813531262 0 0.027845509313293888 0.39862485780272028 0 0.039816685274739402 0.41320199043234068 0 0.023002732939741439 0.4256629386050958 0 0.027845509313293888 0.39862485780272028 0 0.023002732939741439 0.4256629386050958 0 0.027845509313293888 0.39862485780272028 0 -0.004157227082833369 0.42125660297184142 0 0.011141605590447931 0.41011316813531262 0 0.0078202281344544912 0.43691480858437892 0 0.023002732939741439 0.4256629386050958 0 0.011141605590447931 0.41011316813531262 0 0.0078202281344544912 0.43691480858437892 0 0.023002732939741439 0.4256629386050958 0 0.0078202281344544912 0.43691480858437892 0 -0.0058566304595185619 0.37760592622274081 0 0.011723220050822689 0.38555107505297409 0 0.0093062328078225148 0.36630596823047162 0 -0.0081993723314648728 0.40008198065386358 0 0.011141605590447931 0.41011316813531262 0 0.011723220050822689 0.38555107505297409 0 0.011141605590447931 0.41011316813531262 0 0.011723220050822689 0.38555107505297409 0 0.027845509313293888 0.39862485780272028 0 0.011723220050822689 0.38555107505297409 0 0.027845509313293888 0.39862485780272028 0 0.032688285686845467 0.3715867770003447 0 0.027845509313293888 0.39862485780272028 0 0.032688285686845467 0.3715867770003447 0 0.042771926629699038 0.39229495374910361 0 0.056350763052906663 0.38389241418839221 0 0.032688285686845467 0.3715867770003447 0 0.027845509313293888 0.39862485780272028 0 0.042771926629699038 0.39229495374910361 0 0.032688285686845467 0.3715867770003447 0 0.039816685274739402 0.41320199043234068 0 0.027845509313293888 0.39862485780272028 0 0.042771926629699038 0.39229495374910361 0 0.039816685274739402 0.41320199043234068 0 0.042771926629699038 0.39229495374910361 0 0.056630637609737751 0.40074104225958612 0 0.056630637609737751 0.40074104225958612 0 0.056350763052906663 0.38389241418839221 0 0.071848047265914372 0.40425718748610401 0 0.042771926629699038 0.39229495374910361 0 0.056630637609737751 0.40074104225958612 0 0.056350763052906663 0.38389241418839221 0 0.057017542231479777 0.41366652211581489 0 0.056630637609737751 0.40074104225958612 0 0.071848047265914372 0.40425718748610401 0 0.076222536117535739 0.37648539266630809 0 0.071848047265914372 0.40425718748610401 0 0.056350763052906663 0.38389241418839221 0 0.076222536117535739 0.37648539266630809 0 0.071848047265914372 0.40425718748610401 0 0.076222536117535739 0.37648539266630809 0 0.093736006038965564 0.38508393487969672 0 0.08535926506287056 0.39638226414680727 0 0.076222536117535739 0.37648539266630809 0 0.093736006038965564 0.38508393487969672 0 0.090467002655326173 0.37429510281325701 0 0.08535926506287056 0.39638226414680727 0 0.071848047265914372 0.40425718748610401 0 0.08783701941927638 0.41727762688214681 0 0.08535926506287056 0.39638226414680727 0 0.08783701941927638 0.41727762688214681 0 0.097152716472660716 0.39880717881978089 0 0.093736006038965564 0.38508393487969672 0 0.08535926506287056 0.39638226414680727 0 0.097152716472660716 0.39880717881978089 0 0.076222536117535739 0.37648539266630809 0 0.08535926506287056 0.39638226414680727 0 0.071848047265914372 0.40425718748610401 0 0.057017542231479777 0.41366652211581489 0 0.071848047265914372 0.40425718748610401 0 0.066501715309172871 0.42245675452073189 0 0.071848047265914372 0.40425718748610401 0 0.066501715309172871 0.42245675452073189 0 0.08783701941927638 0.41727762688214681 0 0.066501715309172871 0.42245675452073189 0 0.078521322365890267 0.43574807494451162 0 0.08783701941927638 0.41727762688214681 0 0.061173793779808777 0.43800976759553562 0 0.066501715309172871 0.42245675452073189 0 0.078521322365890267 0.43574807494451162 0 0.066501715309172871 0.42245675452073189 0 0.078521322365890267 0.43574807494451162 0 0.078521322365890267 0.43574807494451162 0 0.08783701941927638 0.41727762688214681 0 0.078521322365890267 0.43574807494451162 0 0.08783701941927638 0.41727762688214681 0 0.096523287307891475 0.43613773679581103 0 0.08783701941927638 0.41727762688214681 0 0.097152716472660716 0.39880717881978089 0 0.08783701941927638 0.41727762688214681 0 0.1077698646982678 0.40786971646442732 0 0.105568211174407 0.42292866116963079 0 0.08783701941927638 0.41727762688214681 0 0.1077698646982678 0.40786971646442732 0 0.097152716472660716 0.39880717881978089 0 0.08783701941927638 0.41727762688214681 0 0.096523287307891475 0.43613773679581103 0 0.105568211174407 0.42292866116963079 0 0.096523287307891475 0.43613773679581103 0 0.105568211174407 0.42292866116963079 0 0.10971503128898349 0.43671493014984641 0 0.10971503128898349 0.43671493014984641 0 0.1167526842343047 0.42544968654628612 0 0.1217075382080831 0.43477383390327351 0 0.105568211174407 0.42292866116963079 0 0.10971503128898349 0.43671493014984641 0 0.1167526842343047 0.42544968654628612 0 0.1167526842343047 0.42544968654628612 0 0.1251982450290918 0.41816898570839922 0 0.12511058835301209 0.4271225137504463 0 0.1167526842343047 0.42544968654628612 0 0.1217075382080831 0.43477383390327351 0 0.12511058835301209 0.4271225137504463 0 0.1077698646982678 0.40786971646442732 0 0.1174884761293024 0.41513657775203427 0 0.1178996949445343 0.40537210272991642 0 0.1077698646982678 0.40786971646442732 0 0.105568211174407 0.42292866116963079 0 0.1174884761293024 0.41513657775203427 0 0.105568211174407 0.42292866116963079 0 0.1167526842343047 0.42544968654628612 0 0.1174884761293024 0.41513657775203427 0 0.1167526842343047 0.42544968654628612 0 0.1174884761293024 0.41513657775203427 0 0.1251982450290918 0.41816898570839922 0 0.1174884761293024 0.41513657775203427 0 0.1238155958056588 0.40889237209761298 0 0.1178996949445343 0.40537210272991642 0 0.1174884761293024 0.41513657775203427 0 0.1238155958056588 0.40889237209761298 0 0.1251982450290918 0.41816898570839922 0 0.1238155958056588 0.40889237209761298 0 0.1178996949445343 0.40537210272991642 0 0.1239236510880275 0.39919305957400469 0 0.1178996949445343 0.40537210272991642 0 0.1239236510880275 0.39919305957400469 0 0.11596321235376859 0.39816991669942869 0 0.1077698646982678 0.40786971646442732 0 0.1178996949445343 0.40537210272991642 0 0.11596321235376859 0.39816991669942869 0 0.1077698646982678 0.40786971646442732 0 0.11596321235376859 0.39816991669942869 0 0.1088957442682101 0.39658209473440981 0 0.11596321235376859 0.39816991669942869 0 0.11579495458290941 0.38970812498261598 0 0.1088957442682101 0.39658209473440981 0 0.11579495458290941 0.38970812498261598 0 0.10803009382132769 0.38943326694787622 0 0.1088957442682101 0.39658209473440981 0 0.1239236510880275 0.39919305957400469 0 0.11596321235376859 0.39816991669942869 0 0.1220524539515839 0.39288095429219039 0 0.11596321235376859 0.39816991669942869 0 0.1220524539515839 0.39288095429219039 0 0.11579495458290941 0.38970812498261598 0 0.1239236510880275 0.39919305957400469 0 0.1220524539515839 0.39288095429219039 0 0.12778348476280141 0.39418217829447638 0 0.1220524539515839 0.39288095429219039 0 0.1223444043345062 0.38759342499011101 0 0.1275538893698642 0.38890642382991691 0 0.1223444043345062 0.38759342499011101 0 0.11967057428090951 0.38281099203064078 0 0.1260579234178828 0.38263202141224029 0 0.1223444043345062 0.38759342499011101 0 0.11967057428090951 0.38281099203064078 0 0.11579495458290941 0.38970812498261598 0 0.1220524539515839 0.39288095429219039 0 0.1223444043345062 0.38759342499011101 0 0.11579495458290941 0.38970812498261598 0 0.1225320868682631 0.37886035254372008 0 0.1217299874871204 0.37350790567680692 0 0.1286166276704446 0.37624001503393151 0 0.1225320868682631 0.37886035254372008 0 0.11967057428090951 0.38281099203064078 0 0.1260579234178828 0.38263202141224029 0 0.1225320868682631 0.37886035254372008 0 0.11967057428090951 0.38281099203064078 0 0.1172291458914692 0.37674975185673742 0 0.1225320868682631 0.37886035254372008 0 0.1172291458914692 0.37674975185673742 0 0.1217299874871204 0.37350790567680692 0 0.1172291458914692 0.37674975185673742 0 0.11341273391687209 0.38173794760145913 0 0.11002128808280121 0.37417263616978003 0 0.11967057428090951 0.38281099203064078 0 0.1172291458914692 0.37674975185673742 0 0.11341273391687209 0.38173794760145913 0 0.11341273391687209 0.38173794760145913 0 0.106468413526045 0.3803367307574152 0 0.11002128808280121 0.37417263616978003 0 0.11967057428090951 0.38281099203064078 0 0.11341273391687209 0.38173794760145913 0 0.11579495458290941 0.38970812498261598 0 0.11341273391687209 0.38173794760145913 0 0.11579495458290941 0.38970812498261598 0 0.10803009382132769 0.38943326694787622 0 0.11341273391687209 0.38173794760145913 0 0.10803009382132769 0.38943326694787622 0 0.106468413526045 0.3803367307574152 0 0.093736006038965564 0.38508393487969672 0 0.106468413526045 0.3803367307574152 0 0.097152716472660716 0.39880717881978089 0 0.10803009382132769 0.38943326694787622 0 0.106468413526045 0.3803367307574152 0 0.097152716472660716 0.39880717881978089 0 0.106468413526045 0.3803367307574152 0 0.097152716472660716 0.39880717881978089 0 0.106468413526045 0.3803367307574152 0 0.1024031166482882 0.37509533326294092 0 0.11002128808280121 0.37417263616978003 0 0.093736006038965564 0.38508393487969672 0 0.1024031166482882 0.37509533326294092 0 0.090467002655326173 0.37429510281325701 0 0.093736006038965564 0.38508393487969672 0 0.106468413526045 0.3803367307574152 0 0.1024031166482882 0.37509533326294092 0 0.1077698646982678 0.40786971646442732 0 0.097152716472660716 0.39880717881978089 0 0.1088957442682101 0.39658209473440981 0 0.10803009382132769 0.38943326694787622 0 0.097152716472660716 0.39880717881978089 0 0.1088957442682101 0.39658209473440981 0 0.1029633609918313 0.34977551973048632 0 0.1053271471107791 0.36284540583469288 0 0.1159139431247391 0.35050238417121099 0 0.1029633609918313 0.34977551973048632 0 0.1053271471107791 0.36284540583469288 0 0.091500070808722592 0.36190446555472661 0 0.1024031166482882 0.37509533326294092 0 0.1053271471107791 0.36284540583469288 0 0.091500070808722592 0.36190446555472661 0 0.1024031166482882 0.37509533326294092 0 0.091500070808722592 0.36190446555472661 0 0.1024031166482882 0.37509533326294092 0 0.090467002655326173 0.37429510281325701 0 0.091500070808722592 0.36190446555472661 0 0.1024031166482882 0.37509533326294092 0 0.1053271471107791 0.36284540583469288 0 0.11002128808280121 0.37417263616978003 0 0.1053271471107791 0.36284540583469288 0 0.1152166331212429 0.36248159073727038 0 0.1155382522452538 0.36911511939624769 0 0.1152166331212429 0.36248159073727038 0 0.1240871900041997 0.36746345354692977 0 0.1159139431247391 0.35050238417121099 0 0.1053271471107791 0.36284540583469288 0 0.11002128808280121 0.37417263616978003 0 0.1155382522452538 0.36911511939624769 0 0.1172291458914692 0.37674975185673742 0 0.11002128808280121 0.37417263616978003 0 0.1155382522452538 0.36911511939624769 0 0.1240871900041997 0.36746345354692977 0 0.1217299874871204 0.37350790567680692 0 0.1286166276704446 0.37624001503393151 0 0.1155382522452538 0.36911511939624769 0 0.1240871900041997 0.36746345354692977 0 0.1217299874871204 0.37350790567680692 0 0.1172291458914692 0.37674975185673742 0 0.1155382522452538 0.36911511939624769 0 0.1217299874871204 0.37350790567680692 0 0.1152166331212429 0.36248159073727038 0 0.1155382522452538 0.36911511939624769 0 0.1240871900041997 0.36746345354692977 0 0.1159139431247391 0.35050238417121099 0 0.118924640762007 0.33671592541483247 0 0.1314416912234545 0.35283601225360878 0 0.1029633609918313 0.34977551973048632 0 0.1159139431247391 0.35050238417121099 0 0.118924640762007 0.33671592541483247 0 0.1053271471107791 0.36284540583469288 0 0.1152166331212429 0.36248159073727038 0 0.1159139431247391 0.35050238417121099 0 0.118924640762007 0.33671592541483247 0 0.1109107705703725 0.32639526051045592 0 0.118924640762007 0.33671592541483247 0 0.1109107705703725 0.32639526051045592 0 0.12845270399723721 0.3210458321406448 0 0.1109107705703725 0.32639526051045592 0 0.1166855612788753 0.31389543672874748 0 0.12845270399723721 0.3210458321406448 0 0.1109107705703725 0.32639526051045592 0 0.1166855612788753 0.31389543672874748 0 0.1040463109007605 0.31269617869580513 0 0.1109107705703725 0.32639526051045592 0 0.1040463109007605 0.31269617869580513 0 0.099847103515805558 0.32373745384987579 0 0.099847103515805558 0.32373745384987579 0 0.093838680077161313 0.32213854215045301 0 0.090846944550745393 0.32884014201188161 0 0.099847103515805558 0.32373745384987579 0 0.093838680077161313 0.32213854215045301 0 0.093578137133384753 0.31564555969124308 0 0.1040463109007605 0.31269617869580513 0 0.099847103515805558 0.32373745384987579 0 0.093578137133384753 0.31564555969124308 0 0.118924640762007 0.33671592541483247 0 0.096013828908205992 0.3388233549529161 0 0.118924640762007 0.33671592541483247 0 0.1109107705703725 0.32639526051045592 0 0.096013828908205992 0.3388233549529161 0 0.1029633609918313 0.34977551973048632 0 0.118924640762007 0.33671592541483247 0 0.096013828908205992 0.3388233549529161 0 0.1109107705703725 0.32639526051045592 0 0.099847103515805558 0.32373745384987579 0 0.096013828908205992 0.3388233549529161 0 0.099847103515805558 0.32373745384987579 0 0.096013828908205992 0.3388233549529161 0 0.090846944550745393 0.32884014201188161 0 0.090846944550745393 0.32884014201188161 0 0.085212312606718188 0.31941307253892198 0 0.080597024969157077 0.34871359784651218 0 0.085212312606718188 0.31941307253892198 0 0.080597024969157077 0.34871359784651218 0 0.096013828908205992 0.3388233549529161 0 0.090846944550745393 0.32884014201188161 0 0.080597024969157077 0.34871359784651218 0 0.093578137133384753 0.31564555969124308 0 0.089041091212886503 0.32017392146634222 0 0.085212312606718188 0.31941307253892198 0 0.093838680077161313 0.32213854215045301 0 0.093578137133384753 0.31564555969124308 0 0.089041091212886503 0.32017392146634222 0 0.089041091212886503 0.32017392146634222 0 0.085212312606718188 0.31941307253892198 0 0.090846944550745393 0.32884014201188161 0 0.089041091212886503 0.32017392146634222 0 0.085212312606718188 0.31941307253892198 0 0.093838680077161313 0.32213854215045301 0 0.090846944550745393 0.32884014201188161 0 0.089041091212886503 0.32017392146634222 0 0.085212312606718188 0.31941307253892198 0 0.07646008679652111 0.31424968178674312 0 0.078111775232029487 0.30509852246354868 0 0.085212312606718188 0.31941307253892198 0 0.07646008679652111 0.31424968178674312 0 0.064828531655653082 0.31536243930345698 0 0.085212312606718188 0.31941307253892198 0 0.064828531655653082 0.31536243930345698 0 0.067245943359952445 0.33256101499397522 0 0.085212312606718188 0.31941307253892198 0 0.064828531655653082 0.31536243930345698 0 0.07646008679652111 0.31424968178674312 0 0.064828531655653082 0.31536243930345698 0 0.067245943359952445 0.33256101499397522 0 0.065190166714979986 0.34545228094696218 0 0.080597024969157077 0.34871359784651218 0 0.085212312606718188 0.31941307253892198 0 0.067245943359952445 0.33256101499397522 0 0.080597024969157077 0.34871359784651218 0 0.067245943359952445 0.33256101499397522 0 0.080597024969157077 0.34871359784651218 0 0.065190166714979986 0.34545228094696218 0 0.080597024969157077 0.34871359784651218 0 0.05783319663042185 0.35935836383096192 0 0.1029633609918313 0.34977551973048632 0 0.080597024969157077 0.34871359784651218 0 0.091500070808722592 0.36190446555472661 0 0.1029633609918313 0.34977551973048632 0 0.096013828908205992 0.3388233549529161 0 0.080597024969157077 0.34871359784651218 0 0.080597024969157077 0.34871359784651218 0 0.091500070808722592 0.36190446555472661 0 0.076222536117535739 0.37648539266630809 0 0.080597024969157077 0.34871359784651218 0 0.091500070808722592 0.36190446555472661 0 0.076222536117535739 0.37648539266630809 0 0.080597024969157077 0.34871359784651218 0 0.076222536117535739 0.37648539266630809 0 0.090467002655326173 0.37429510281325701 0 0.091500070808722592 0.36190446555472661 0 0.076222536117535739 0.37648539266630809 0 0.080597024969157077 0.34871359784651218 0 0.05783319663042185 0.35935836383096192 0 0.056350763052906663 0.38389241418839221 0 0.076222536117535739 0.37648539266630809 0 0.05783319663042185 0.35935836383096192 0 0.056350763052906663 0.38389241418839221 0 0.05783319663042185 0.35935836383096192 0 0.032688285686845467 0.3715867770003447 0 0.065190166714979986 0.34545228094696218 0 0.05783319663042185 0.35935836383096192 0 0.051943113308669409 0.33454907255965832 0 0.05783319663042185 0.35935836383096192 0 0.037531062060397032 0.34454869619796907 0 0.051943113308669409 0.33454907255965832 0 0.037531062060397032 0.34454869619796907 0 0.032688285686845467 0.3715867770003447 0 0.05783319663042185 0.35935836383096192 0 0.037531062060397032 0.34454869619796907 0 0.032688285686845467 0.3715867770003447 0 0.011723220050822689 0.38555107505297409 0 0.032688285686845467 0.3715867770003447 0 0.0093062328078225148 0.36630596823047162 0 0.032688285686845467 0.3715867770003447 0 0.020158647588023808 0.34846044008662441 0 0.0093062328078225148 0.36630596823047162 0 0.037531062060397032 0.34454869619796907 0 0.032688285686845467 0.3715867770003447 0 0.020158647588023808 0.34846044008662441 0 0.020158647588023808 0.34846044008662441 0 0.00091490841758586072 0.35171420747292209 0 0.0093062328078225148 0.36630596823047162 0 0.020158647588023808 0.34846044008662441 0 0.00091490841758586072 0.35171420747292209 0 0.0067839313662321661 0.33952205721666939 0 -0.0054457561154861176 0.36343098419941078 0 0.00091490841758586072 0.35171420747292209 0 0.0093062328078225148 0.36630596823047162 0 -0.0080347084968897531 0.32233305649006833 0 0.017169564968529959 0.31992183594283119 0 0.017169564968529959 0.31992183594283119 0 0.019713259844455239 0.30639720268399689 0 0.0036112744821826278 0.31212534438346318 0 -0.0080347084968897531 0.32233305649006833 0 0.0046151383358662553 0.33017038165289891 0 0.017169564968529959 0.31992183594283119 0 -0.0080347084968897531 0.32233305649006833 0 0.017169564968529959 0.31992183594283119 0 0.0036112744821826278 0.31212534438346318 0 0.0046151383358662553 0.33017038165289891 0 0.015792227439440028 0.33298270015175718 0 0.017169564968529959 0.31992183594283119 0 -0.008915276249387703 0.33674602879762522 0 0.0046151383358662553 0.33017038165289891 0 0.0067839313662321661 0.33952205721666939 0 0.020158647588023808 0.34846044008662441 0 0.0067839313662321661 0.33952205721666939 0 0.015792227439440028 0.33298270015175718 0 0.0046151383358662553 0.33017038165289891 0 0.0067839313662321661 0.33952205721666939 0 0.015792227439440028 0.33298270015175718 0 0.037531062060397032 0.34454869619796907 0 0.020158647588023808 0.34846044008662441 0 0.026849660160004771 0.33255169676942431 0 0.015792227439440028 0.33298270015175718 0 0.026849660160004771 0.33255169676942431 0 0.017169564968529959 0.31992183594283119 0 0.020158647588023808 0.34846044008662441 0 0.015792227439440028 0.33298270015175718 0 0.026849660160004771 0.33255169676942431 0 0.026849660160004771 0.33255169676942431 0 0.017169564968529959 0.31992183594283119 0 0.042373838433949651 0.31751061539559378 0 0.017169564968529959 0.31992183594283119 0 0.042373838433949651 0.31751061539559378 0 0.019713259844455239 0.30639720268399689 0 0.017169564968529959 0.31992183594283119 0 0.042373838433949651 0.31751061539559378 0 0.042373838433949651 0.31751061539559378 0 0.050711529258681352 0.31255713055177542 0 0.043517120445031088 0.31112746882611098 0 0.042373838433949651 0.31751061539559378 0 0.043517120445031088 0.31112746882611098 0 0.037531062060397032 0.34454869619796907 0 0.042373838433949651 0.31751061539559378 0 0.037531062060397032 0.34454869619796907 0 0.026849660160004771 0.33255169676942431 0 0.042373838433949651 0.31751061539559378 0 0.037531062060397032 0.34454869619796907 0 0.042373838433949651 0.31751061539559378 0 0.051943113308669409 0.33454907255965832 0 0.067245943359952445 0.33256101499397522 0 0.065190166714979986 0.34545228094696218 0 0.051943113308669409 0.33454907255965832 0 0.042373838433949651 0.31751061539559378 0 0.051943113308669409 0.33454907255965832 0 0.053894861750746773 0.31640843214143921 0 0.067245943359952445 0.33256101499397522 0 0.053894861750746773 0.31640843214143921 0 0.067245943359952445 0.33256101499397522 0 0.051943113308669409 0.33454907255965832 0 0.053894861750746773 0.31640843214143921 0 0.064828531655653082 0.31536243930345698 0 0.067245943359952445 0.33256101499397522 0 0.053894861750746773 0.31640843214143921 0 0.042373838433949651 0.31751061539559378 0 0.053894861750746773 0.31640843214143921 0 0.050711529258681352 0.31255713055177542 0 0.042373838433949651 0.31751061539559378 0 0.053894861750746773 0.31640843214143921 0 0.053894861750746773 0.31640843214143921 0 0.050711529258681352 0.31255713055177542 0 0.064828531655653082 0.31536243930345698 0 0.053894861750746773 0.31640843214143921 0 0.050711529258681352 0.31255713055177542 0 0.064828531655653082 0.31536243930345698 0 0.050711529258681352 0.31255713055177542 0 0.064828531655653082 0.31536243930345698 0 0.053894861750746773 0.31640843214143921 0 0.064828531655653082 0.31536243930345698 0 0.050711529258681352 0.31255713055177542 0 0.055155426812247187 0.30264900596597899 0 0.055155426812247187 0.30264900596597899 0 0.05966223603364601 0.29227946685858908 0 0.068244879469436387 0.30353783384575539 0 0.055155426812247187 0.30264900596597899 0 0.046112509415168597 0.29663695114056021 0 0.044587981888248272 0.30514865915241168 0 0.055155426812247187 0.30264900596597899 0 0.05966223603364601 0.29227946685858908 0 0.046112509415168597 0.29663695114056021 0 0.050711529258681352 0.31255713055177542 0 0.055155426812247187 0.30264900596597899 0 0.044587981888248272 0.30514865915241168 0 0.050711529258681352 0.31255713055177542 0 0.043517120445031088 0.31112746882611098 0 0.050711529258681352 0.31255713055177542 0 0.044587981888248272 0.30514865915241168 0 0.05742293175305116 0.28131241315358962 0 0.05966223603364601 0.29227946685858908 0 0.068453454529319072 0.28117011361721023 0 0.05742293175305116 0.28131241315358962 0 0.05966223603364601 0.29227946685858908 0 0.049831342829595393 0.28806835489466442 0 0.05966223603364601 0.29227946685858908 0 0.049831342829595393 0.28806835489466442 0 0.046112509415168597 0.29663695114056021 0 0.05742293175305116 0.28131241315358962 0 0.049831342829595393 0.28806835489466442 0 0.041851086646868568 0.28194930455163408 0 0.041851086646868568 0.28194930455163408 0 0.041699617644501717 0.29092058064065057 0 0.026115167442629431 0.2827996334639829 0 0.044587981888248272 0.30514865915241168 0 0.026115167442629431 0.2827996334639829 0 0.041699617644501717 0.29092058064065057 0 0.044587981888248272 0.30514865915241168 0 0.026115167442629431 0.2827996334639829 0 0.049831342829595393 0.28806835489466442 0 0.041851086646868568 0.28194930455163408 0 0.041699617644501717 0.29092058064065057 0 0.049831342829595393 0.28806835489466442 0 0.046112509415168597 0.29663695114056021 0 0.041699617644501717 0.29092058064065057 0 0.042373838433949651 0.31751061539559378 0 0.043517120445031088 0.31112746882611098 0 0.019713259844455239 0.30639720268399689 0 0.043517120445031088 0.31112746882611098 0 0.019713259844455239 0.30639720268399689 0 0.043517120445031088 0.31112746882611098 0 0.044587981888248272 0.30514865915241168 0 0.019713259844455239 0.30639720268399689 0 0.050711529258681352 0.31255713055177542 0 0.043517120445031088 0.31112746882611098 0 0.044587981888248272 0.30514865915241168 0 0.043517120445031088 0.31112746882611098 0 0.044587981888248272 0.30514865915241168 0 0.046112509415168597 0.29663695114056021 0 0.041699617644501717 0.29092058064065057 0 0.044587981888248272 0.30514865915241168 0 0.046112509415168597 0.29663695114056021 0 0.044587981888248272 0.30514865915241168 0 0.044587981888248272 0.30514865915241168 0 0.019713259844455239 0.30639720268399689 0 0.026115167442629431 0.2827996334639829 0 0.019713259844455239 0.30639720268399689 0 0.026115167442629431 0.2827996334639829 0 0.01004554758279907 0.29434725394590522 0 -0.0030358750037680761 0.27135973157054161 0 -0.0032725204696375828 0.2919349495668262 0 0.01065724548230587 0.28148792740551942 0 0.026115167442629431 0.2827996334639829 0 0.01004554758279907 0.29434725394590522 0 0.01065724548230587 0.28148792740551942 0 -0.0040906007561206451 0.30166693654188298 0 -0.0032725204696375828 0.2919349495668262 0 0.01004554758279907 0.29434725394590522 0 -0.0032725204696375828 0.2919349495668262 0 0.01004554758279907 0.29434725394590522 0 0.01065724548230587 0.28148792740551942 0 -0.0040906007561206451 0.30166693654188298 0 0.019713259844455239 0.30639720268399689 0 0.0036112744821826278 0.31212534438346318 0 -0.0040906007561206451 0.30166693654188298 0 0.019713259844455239 0.30639720268399689 0 -0.0040906007561206451 0.30166693654188298 0 0.019713259844455239 0.30639720268399689 0 0.01004554758279907 0.29434725394590522 0 -0.002897395715083702 0.25931960419232192 0 0.013601244171308721 0.24722589994409211 0 0.02655127377539444 0.25729902536491389 0 -0.002897395715083702 0.25931960419232192 0 0.02655127377539444 0.25729902536491389 0 -0.002897395715083702 0.25931960419232192 0 0.02320366069901136 0.26544606429965151 0 0.02655127377539444 0.25729902536491389 0 -0.0029387237082632248 0.2629128801755295 0 0.02320366069901136 0.26544606429965151 0 -0.0029387237082632248 0.2629128801755295 0 -0.002897395715083702 0.25931960419232192 0 0.02320366069901136 0.26544606429965151 0 -0.0030358750037680761 0.27135973157054161 0 0.01065724548230587 0.28148792740551942 0 0.02320366069901136 0.26544606429965151 0 -0.0030358750037680761 0.27135973157054161 0 -0.0029387237082632248 0.2629128801755295 0 0.02320366069901136 0.26544606429965151 0 -0.0030358750037680761 0.27135973157054161 0 0.02320366069901136 0.26544606429965151 0 0.02320366069901136 0.26544606429965151 0 0.038991934286740818 0.26697594020449161 0 0.026115167442629431 0.2827996334639829 0 0.02320366069901136 0.26544606429965151 0 0.033914322527542132 0.27547275043530389 0 0.026115167442629431 0.2827996334639829 0 0.01065724548230587 0.28148792740551942 0 0.02320366069901136 0.26544606429965151 0 0.02320366069901136 0.26544606429965151 0 0.033920138987563159 0.26303086581321078 0 0.02320366069901136 0.26544606429965151 0 0.02655127377539444 0.25729902536491389 0 0.033920138987563159 0.26303086581321078 0 0.02655127377539444 0.25729902536491389 0 0.033920138987563159 0.26303086581321078 0 0.013601244171308721 0.24722589994409211 0 0.02655127377539444 0.25729902536491389 0 0.025675338373186519 0.2453876233781738 0 0.034882001398798469 0.24856371893157889 0 0.02655127377539444 0.25729902536491389 0 0.034882001398798469 0.24856371893157889 0 0.02655127377539444 0.25729902536491389 0 0.044828967110124927 0.25604492727474332 0 0.033920138987563159 0.26303086581321078 0 0.044828967110124927 0.25604492727474332 0 0.054716138597775577 0.25834402136392598 0 0.02655127377539444 0.25729902536491389 0 0.033920138987563159 0.26303086581321078 0 0.044828967110124927 0.25604492727474332 0 0.033920138987563159 0.26303086581321078 0 0.038991934286740818 0.26697594020449161 0 0.054716138597775577 0.25834402136392598 0 0.02320366069901136 0.26544606429965151 0 0.033920138987563159 0.26303086581321078 0 0.038991934286740818 0.26697594020449161 0 0.033920138987563159 0.26303086581321078 0 0.054716138597775577 0.25834402136392598 0 0.02655127377539444 0.25729902536491389 0 0.044828967110124927 0.25604492727474332 0 0.033920138987563159 0.26303086581321078 0 0.038991934286740818 0.26697594020449161 0 0.05742293175305116 0.28131241315358962 0 0.038991934286740818 0.26697594020449161 0 0.043045068803550621 0.27642760208625528 0 0.041851086646868568 0.28194930455163408 0 0.026115167442629431 0.2827996334639829 0 0.033914322527542132 0.27547275043530389 0 0.02320366069901136 0.26544606429965151 0 0.033914322527542132 0.27547275043530389 0 0.038991934286740818 0.26697594020449161 0 0.033914322527542132 0.27547275043530389 0 0.038991934286740818 0.26697594020449161 0 0.043045068803550621 0.27642760208625528 0 0.041851086646868568 0.28194930455163408 0 0.033914322527542132 0.27547275043530389 0 0.043045068803550621 0.27642760208625528 0 0.038991934286740818 0.26697594020449161 0 0.056435714487637727 0.26866623388165789 0 0.05742293175305116 0.28131241315358962 0 0.038991934286740818 0.26697594020449161 0 0.05742293175305116 0.28131241315358962 0 0.038991934286740818 0.26697594020449161 0 0.056435714487637727 0.26866623388165789 0 0.05742293175305116 0.28131241315358962 0 0.041851086646868568 0.28194930455163408 0 0.043045068803550621 0.27642760208625528 0 0.05742293175305116 0.28131241315358962 0 0.056435714487637727 0.26866623388165789 0 0.068453454529319072 0.28117011361721023 0 0.038991934286740818 0.26697594020449161 0 0.056435714487637727 0.26866623388165789 0 0.054716138597775577 0.25834402136392598 0 0.0543199210604558 0.24765632030833371 0 0.044828967110124927 0.25604492727474332 0 0.063106660444855522 0.25479082918457391 0 0.044828967110124927 0.25604492727474332 0 0.054716138597775577 0.25834402136392598 0 0.063106660444855522 0.25479082918457391 0 0.044828967110124927 0.25604492727474332 0 0.063106660444855522 0.25479082918457391 0 0.056435714487637727 0.26866623388165789 0 0.054716138597775577 0.25834402136392598 0 0.065135871495484027 0.2627559899297619 0 0.065135871495484027 0.2627559899297619 0 0.075512138207988008 0.25365717691464151 0 0.073879494688534803 0.27035652755882239 0 0.065855740991511896 0.2418824674963585 0 0.063106660444855522 0.25479082918457391 0 0.075512138207988008 0.25365717691464151 0 0.075512138207988008 0.25365717691464151 0 0.084454905331733165 0.26178455791111638 0 0.073879494688534803 0.27035652755882239 0 0.054716138597775577 0.25834402136392598 0 0.075512138207988008 0.25365717691464151 0 0.054716138597775577 0.25834402136392598 0 0.063106660444855522 0.25479082918457391 0 0.075512138207988008 0.25365717691464151 0 0.054716138597775577 0.25834402136392598 0 0.065135871495484027 0.2627559899297619 0 0.075512138207988008 0.25365717691464151 0 0.096308137818200176 0.2489703324653556 0 0.084454905331733165 0.26178455791111638 0 0.092629918145317611 0.27232180632257391 0 0.096308137818200176 0.2489703324653556 0 0.075512138207988008 0.25365717691464151 0 0.084454905331733165 0.26178455791111638 0 0.096308137818200176 0.2489703324653556 0 0.075512138207988008 0.25365717691464151 0 0.092629918145317611 0.27232180632257391 0 0.073879494688534803 0.27035652755882239 0 0.079265934652462886 0.28242066461415288 0 0.084454905331733165 0.26178455791111638 0 0.092629918145317611 0.27232180632257391 0 0.073879494688534803 0.27035652755882239 0 0.056435714487637727 0.26866623388165789 0 0.073879494688534803 0.27035652755882239 0 0.056435714487637727 0.26866623388165789 0 0.065135871495484027 0.2627559899297619 0 0.073879494688534803 0.27035652755882239 0 0.056435714487637727 0.26866623388165789 0 0.073879494688534803 0.27035652755882239 0 0.068453454529319072 0.28117011361721023 0 0.073879494688534803 0.27035652755882239 0 0.068453454529319072 0.28117011361721023 0 0.079265934652462886 0.28242066461415288 0 0.05966223603364601 0.29227946685858908 0 0.068453454529319072 0.28117011361721023 0 0.071689898815033098 0.29261874396653009 0 0.05966223603364601 0.29227946685858908 0 0.071689898815033098 0.29261874396653009 0 0.068244879469436387 0.30353783384575539 0 0.068453454529319072 0.28117011361721023 0 0.071689898815033098 0.29261874396653009 0 0.079265934652462886 0.28242066461415288 0 0.064828531655653082 0.31536243930345698 0 0.055155426812247187 0.30264900596597899 0 0.068244879469436387 0.30353783384575539 0 0.07646008679652111 0.31424968178674312 0 0.064828531655653082 0.31536243930345698 0 0.068244879469436387 0.30353783384575539 0 0.071689898815033098 0.29261874396653009 0 0.068244879469436387 0.30353783384575539 0 0.078111775232029487 0.30509852246354868 0 0.07646008679652111 0.31424968178674312 0 0.068244879469436387 0.30353783384575539 0 0.078111775232029487 0.30509852246354868 0 0.085212312606718188 0.31941307253892198 0 0.078111775232029487 0.30509852246354868 0 0.08895169847243653 0.2956732801797925 0 0.093578137133384753 0.31564555969124308 0 0.085212312606718188 0.31941307253892198 0 0.08895169847243653 0.2956732801797925 0 0.071689898815033098 0.29261874396653009 0 0.078111775232029487 0.30509852246354868 0 0.08895169847243653 0.2956732801797925 0 0.085212312606718188 0.31941307253892198 0 0.08895169847243653 0.2956732801797925 0 0.092629918145317611 0.27232180632257391 0 0.08895169847243653 0.2956732801797925 0 0.079265934652462886 0.28242066461415288 0 0.071689898815033098 0.29261874396653009 0 0.08895169847243653 0.2956732801797925 0 0.092629918145317611 0.27232180632257391 0 0.08895169847243653 0.2956732801797925 0 0.071689898815033098 0.29261874396653009 0 0.08895169847243653 0.2956732801797925 0 0.079265934652462886 0.28242066461415288 0 0.08895169847243653 0.2956732801797925 0 0.10304786390609171 0.28567284851011299 0 0.1117291319173615 0.29970382720753858 0 0.092629918145317611 0.27232180632257391 0 0.08895169847243653 0.2956732801797925 0 0.10304786390609171 0.28567284851011299 0 0.1040463109007605 0.31269617869580513 0 0.093578137133384753 0.31564555969124308 0 0.08895169847243653 0.2956732801797925 0 0.1040463109007605 0.31269617869580513 0 0.08895169847243653 0.2956732801797925 0 0.1117291319173615 0.29970382720753858 0 0.08895169847243653 0.2956732801797925 0 0.1117291319173615 0.29970382720753858 0 0.1166855612788753 0.31389543672874748 0 0.1117291319173615 0.29970382720753858 0 0.13450656536228661 0.30373437423528482 0 0.1117291319173615 0.29970382720753858 0 0.13450656536228661 0.30373437423528482 0 0.1117291319173615 0.29970382720753858 0 0.1226794545299469 0.2878494113923683 0 0.13450656536228661 0.30373437423528482 0 0.1166855612788753 0.31389543672874748 0 0.1040463109007605 0.31269617869580513 0 0.1117291319173615 0.29970382720753858 0 0.10304786390609171 0.28567284851011299 0 0.1226794545299469 0.2878494113923683 0 0.1115236677249672 0.27422240218936439 0 0.10304786390609171 0.28567284851011299 0 0.1117291319173615 0.29970382720753858 0 0.1226794545299469 0.2878494113923683 0 0.1226794545299469 0.2878494113923683 0 0.1115236677249672 0.27422240218936439 0 0.13343869796690569 0.27709566024648241 0 0.1115236677249672 0.27422240218936439 0 0.11962550658586529 0.26137988421949993 0 0.13343869796690569 0.27709566024648241 0 0.1115236677249672 0.27422240218936439 0 0.13343869796690569 0.27709566024648241 0 0.1195077661471064 0.24374177643069531 0 0.11962550658586529 0.26137988421949993 0 0.10561177601644731 0.2610556086922855 0 0.1195077661471064 0.24374177643069531 0 0.11962550658586529 0.26137988421949993 0 0.13528382026994379 0.25742548662780462 0 0.1115236677249672 0.27422240218936439 0 0.11962550658586529 0.26137988421949993 0 0.10561177601644731 0.2610556086922855 0 0.096308137818200176 0.2489703324653556 0 0.092629918145317611 0.27232180632257391 0 0.10561177601644731 0.2610556086922855 0 0.1195077661471064 0.24374177643069531 0 0.096308137818200176 0.2489703324653556 0 0.10561177601644731 0.2610556086922855 0 0.096308137818200176 0.2489703324653556 0 0.092629918145317611 0.27232180632257391 0 0.092629918145317611 0.27232180632257391 0 0.10304786390609171 0.28567284851011299 0 0.1115236677249672 0.27422240218936439 0 0.092629918145317611 0.27232180632257391 0 0.1115236677249672 0.27422240218936439 0 0.10561177601644731 0.2610556086922855 0 0.15535372820884411 0.2799689183036006 0 0.13343869796690569 0.27709566024648241 0 0.1460049254912294 0.26836271225999619 0 0.15535372820884411 0.2799689183036006 0 0.13343869796690569 0.27709566024648241 0 0.15535372820884411 0.2799689183036006 0 0.13343869796690569 0.27709566024648241 0 0.15386052115128271 0.28127455858163519 0 0.15535372820884411 0.2799689183036006 0 0.15386052115128271 0.28127455858163519 0 0.1460049254912294 0.26836271225999619 0 0.15535372820884411 0.2799689183036006 0 0.15761745315942111 0.26666463830898268 0 0.14270739447601219 0.2385132203960337 0 0.1514258887911632 0.257044783603954 0 0.13528382026994379 0.25742548662780462 0 0.1460049254912294 0.26836271225999619 0 0.1514258887911632 0.257044783603954 0 0.15761745315942111 0.26666463830898268 0 0.1460049254912294 0.26836271225999619 0 0.1514258887911632 0.257044783603954 0 0.13528382026994379 0.25742548662780462 0 0.11962550658586529 0.26137988421949993 0 0.13528382026994379 0.25742548662780462 0 0.13343869796690569 0.27709566024648241 0 0.1460049254912294 0.26836271225999619 0 0.13528382026994379 0.25742548662780462 0 0.13343869796690569 0.27709566024648241 0 0.1226794545299469 0.2878494113923683 0 0.13450656536228661 0.30373437423528482 0 0.1418308003020689 0.28666735596542658 0 0.1226794545299469 0.2878494113923683 0 0.13343869796690569 0.27709566024648241 0 0.1418308003020689 0.28666735596542658 0 0.14725822720745049 0.29655011121408781 0 0.15483037242862421 0.28946784048092028 0 0.1572839988072115 0.30776492126303101 0 0.13450656536228661 0.30373437423528482 0 0.14725822720745049 0.29655011121408781 0 0.1572839988072115 0.30776492126303101 0 0.13450656536228661 0.30373437423528482 0 0.1572839988072115 0.30776492126303101 0 0.14186205186194309 0.3166649290803431 0 0.13450656536228661 0.30373437423528482 0 0.1572839988072115 0.30776492126303101 0 0.13450656536228661 0.30373437423528482 0 0.1418308003020689 0.28666735596542658 0 0.14725822720745049 0.29655011121408781 0 0.13343869796690569 0.27709566024648241 0 0.1418308003020689 0.28666735596542658 0 0.15386052115128271 0.28127455858163519 0 0.1418308003020689 0.28666735596542658 0 0.14725822720745049 0.29655011121408781 0 0.15483037242862421 0.28946784048092028 0 0.1418308003020689 0.28666735596542658 0 0.15483037242862421 0.28946784048092028 0 0.15386052115128271 0.28127455858163519 0 0.15483037242862421 0.28946784048092028 0 0.15386052115128271 0.28127455858163519 0 0.15885486901625459 0.28497491324175939 0 0.15535372820884411 0.2799689183036006 0 0.15386052115128271 0.28127455858163519 0 0.15885486901625459 0.28497491324175939 0 0.15483037242862421 0.28946784048092028 0 0.16433539274555711 0.29296198012031871 0 0.1572839988072115 0.30776492126303101 0 0.15535372820884411 0.2799689183036006 0 0.15885486901625459 0.28497491324175939 0 0.1731253360949688 0.28229893633154879 0 0.15483037242862421 0.28946784048092028 0 0.15885486901625459 0.28497491324175939 0 0.16433539274555711 0.29296198012031871 0 0.15885486901625459 0.28497491324175939 0 0.16433539274555711 0.29296198012031871 0 0.1731253360949688 0.28229893633154879 0 0.16433539274555711 0.29296198012031871 0 0.1572839988072115 0.30776492126303101 0 0.18075492559264331 0.30433403914379942 0 0.1731253360949688 0.28229893633154879 0 0.19089694398109339 0.28462895435949709 0 0.16433539274555711 0.29296198012031871 0 0.18075492559264331 0.30433403914379942 0 0.1731253360949688 0.28229893633154879 0 0.18075492559264331 0.30433403914379942 0 0.1731253360949688 0.28229893633154879 0 0.19089694398109339 0.28462895435949709 0 0.1731253360949688 0.28229893633154879 0 0.1737630929131106 0.26387201604935678 0 0.1915932191353063 0.26667383634030373 0 0.1731253360949688 0.28229893633154879 0 0.1915932191353063 0.26667383634030373 0 0.19089694398109339 0.28462895435949709 0 0.15535372820884411 0.2799689183036006 0 0.1737630929131106 0.26387201604935678 0 0.15535372820884411 0.2799689183036006 0 0.1731253360949688 0.28229893633154879 0 0.15535372820884411 0.2799689183036006 0 0.1731253360949688 0.28229893633154879 0 0.1737630929131106 0.26387201604935678 0 0.15535372820884411 0.2799689183036006 0 0.15761745315942111 0.26666463830898268 0 0.1737630929131106 0.26387201604935678 0 0.15761745315942111 0.26666463830898268 0 0.1619206649890132 0.25941525522846692 0 0.1737630929131106 0.26387201604935678 0 0.1514258887911632 0.257044783603954 0 0.1619206649890132 0.25941525522846692 0 0.16487622509235811 0.25007958295157418 0 0.1514258887911632 0.257044783603954 0 0.15761745315942111 0.26666463830898268 0 0.1619206649890132 0.25941525522846692 0 0.1619206649890132 0.25941525522846692 0 0.16487622509235811 0.25007958295157418 0 0.1737630929131106 0.26387201604935678 0 0.19217245761737309 0.24777511379510861 0 0.1737630929131106 0.26387201604935678 0 0.19217245761737309 0.24777511379510861 0 0.1737630929131106 0.26387201604935678 0 0.1915932191353063 0.26667383634030373 0 0.19217245761737309 0.24777511379510861 0 0.16487622509235811 0.25007958295157418 0 0.1737630929131106 0.26387201604935678 0 0.19217245761737309 0.24777511379510861 0 0.1915932191353063 0.26667383634030373 0 0.2077072621939462 0.25634555254043889 0 0.19217245761737309 0.24777511379510861 0 0.2077072621939462 0.25634555254043889 0 0.1915932191353063 0.26667383634030373 0 0.20816171047373841 0.2776596217094876 0 0.2077072621939462 0.25634555254043889 0 0.1915932191353063 0.26667383634030373 0 0.20816171047373841 0.2776596217094876 0 0.19089694398109339 0.28462895435949709 0 0.20816171047373841 0.2776596217094876 0 0.2077072621939462 0.25634555254043889 0 0.2232420667705183 0.26491599128577098 0 0.20816171047373841 0.2776596217094876 0 0.2232420667705183 0.26491599128577098 0 0.222551462948685 0.27737495033274578 0 0.21357261213374371 0.2440952407747515 0 0.2077072621939462 0.25634555254043889 0 0.22390660238889509 0.25089079890903482 0 0.2077072621939462 0.25634555254043889 0 0.22390660238889509 0.25089079890903482 0 0.2232420667705183 0.26491599128577098 0 0.2077072621939462 0.25634555254043889 0 0.2232420667705183 0.26491599128577098 0 0.22390660238889509 0.25089079890903482 0 0.2232420667705183 0.26491599128577098 0 0.2473296210996663 0.25206075293441937 0 0.2232420667705183 0.26491599128577098 0 0.222551462948685 0.27737495033274578 0 0.23674176420502821 0.27621934768323458 0 0.23674176420502821 0.27621934768323458 0 0.2473296210996663 0.25206075293441937 0 0.26125235627430821 0.27284235374216859 0 0.2232420667705183 0.26491599128577098 0 0.23674176420502821 0.27621934768323458 0 0.2473296210996663 0.25206075293441937 0 0.23674176420502821 0.27621934768323458 0 0.24554501401955439 0.29796694992592643 0 0.2220603103454552 0.29070484065249003 0 0.23674176420502821 0.27621934768323458 0 0.24554501401955439 0.29796694992592643 0 0.26125235627430821 0.27284235374216859 0 0.222551462948685 0.27737495033274578 0 0.23674176420502821 0.27621934768323458 0 0.2220603103454552 0.29070484065249003 0 0.24554501401955439 0.29796694992592643 0 0.2220603103454552 0.29070484065249003 0 0.2212574591241438 0.30887920820658921 0 0.24554501401955439 0.29796694992592643 0 0.2212574591241438 0.30887920820658921 0 0.23204583483812799 0.32631057848515271 0 0.2220603103454552 0.29070484065249003 0 0.2212574591241438 0.30887920820658921 0 0.20287060009848379 0.30050175675180463 0 0.20816171047373841 0.2776596217094876 0 0.2220603103454552 0.29070484065249003 0 0.20287060009848379 0.30050175675180463 0 0.20816171047373841 0.2776596217094876 0 0.222551462948685 0.27737495033274578 0 0.2220603103454552 0.29070484065249003 0 0.18075492559264331 0.30433403914379942 0 0.19089694398109339 0.28462895435949709 0 0.20287060009848379 0.30050175675180463 0 0.20816171047373841 0.2776596217094876 0 0.19089694398109339 0.28462895435949709 0 0.20287060009848379 0.30050175675180463 0 0.18075492559264331 0.30433403914379942 0 0.20287060009848379 0.30050175675180463 0 0.20376553631909769 0.32891191521757251 0 0.20376553631909769 0.32891191521757251 0 0.2065855900425394 0.35176856188044148 0 0.1871597538823668 0.35042419955437198 0 0.20376553631909769 0.32891191521757251 0 0.17548523780006739 0.33151325194999209 0 0.20376553631909769 0.32891191521757251 0 0.1871597538823668 0.35042419955437198 0 0.17548523780006739 0.33151325194999209 0 0.20376553631909769 0.32891191521757251 0 0.23204583483812799 0.32631057848515271 0 0.2065855900425394 0.35176856188044148 0 0.2212574591241438 0.30887920820658921 0 0.20287060009848379 0.30050175675180463 0 0.20376553631909769 0.32891191521757251 0 0.20376553631909769 0.32891191521757251 0 0.23204583483812799 0.32631057848515271 0 0.2212574591241438 0.30887920820658921 0 0.20376553631909769 0.32891191521757251 0 0.23204583483812799 0.32631057848515271 0 0.23204583483812799 0.32631057848515271 0 0.23220013569415021 0.35062688468561493 0 0.2065855900425394 0.35176856188044148 0 0.23204583483812799 0.32631057848515271 0 0.24791100189887619 0.3413887820885585 0 0.25753568847131048 0.32254585318931522 0 0.23204583483812799 0.32631057848515271 0 0.24791100189887619 0.3413887820885585 0 0.23220013569415021 0.35062688468561493 0 0.24554501401955439 0.29796694992592643 0 0.23204583483812799 0.32631057848515271 0 0.25753568847131048 0.32254585318931522 0 0.24930950522295969 0.36634064837762392 0 0.23220013569415021 0.35062688468561493 0 0.2240868745155101 0.36980220590377838 0 0.24791100189887619 0.3413887820885585 0 0.24930950522295969 0.36634064837762392 0 0.23220013569415021 0.35062688468561493 0 0.23220013569415021 0.35062688468561493 0 0.2240868745155101 0.36980220590377838 0 0.2065855900425394 0.35176856188044148 0 0.2240868745155101 0.36980220590377838 0 0.20735716366877449 0.37114559783022638 0 0.2065855900425394 0.35176856188044148 0 0.2240868745155101 0.36980220590377838 0 0.20735716366877449 0.37114559783022638 0 0.21393394665703491 0.38234254329000811 0 0.2065855900425394 0.35176856188044148 0 0.1924907047666598 0.36879874822472358 0 0.1871597538823668 0.35042419955437198 0 0.20735716366877449 0.37114559783022638 0 0.2065855900425394 0.35176856188044148 0 0.1924907047666598 0.36879874822472358 0 0.20735716366877449 0.37114559783022638 0 0.1924907047666598 0.36879874822472358 0 0.1996887023621283 0.38301592985218053 0 0.1924907047666598 0.36879874822472358 0 0.17927870562987649 0.36498888859937101 0 0.18054437642893631 0.37791373584149179 0 0.1924907047666598 0.36879874822472358 0 0.17927870562987649 0.36498888859937101 0 0.1871597538823668 0.35042419955437198 0 0.17927870562987649 0.36498888859937101 0 0.1704667018022287 0.37564524117085307 0 0.18054437642893631 0.37791373584149179 0 0.1653527487359604 0.35656383145413179 0 0.1564757921463556 0.38507618593115661 0 0.1704667018022287 0.37564524117085307 0 0.1653527487359604 0.35656383145413179 0 0.1564757921463556 0.38507618593115661 0 0.17927870562987649 0.36498888859937101 0 0.1653527487359604 0.35656383145413179 0 0.1704667018022287 0.37564524117085307 0 0.17927870562987649 0.36498888859937101 0 0.1653527487359604 0.35656383145413179 0 0.1871597538823668 0.35042419955437198 0 0.1653527487359604 0.35656383145413179 0 0.1871597538823668 0.35042419955437198 0 0.17548523780006739 0.33151325194999209 0 0.18075492559264331 0.30433403914379942 0 0.20376553631909769 0.32891191521757251 0 0.17548523780006739 0.33151325194999209 0 0.1572839988072115 0.30776492126303101 0 0.18075492559264331 0.30433403914379942 0 0.17548523780006739 0.33151325194999209 0 0.1572839988072115 0.30776492126303101 0 0.17548523780006739 0.33151325194999209 0 0.14720493928103709 0.33411458868241201 0 0.1653527487359604 0.35656383145413179 0 0.17548523780006739 0.33151325194999209 0 0.14720493928103709 0.33411458868241201 0 0.17548523780006739 0.33151325194999209 0 0.14720493928103709 0.33411458868241201 0 0.1572839988072115 0.30776492126303101 0 0.14720493928103709 0.33411458868241201 0 0.14186205186194309 0.3166649290803431 0 0.14720493928103709 0.33411458868241201 0 0.14186205186194309 0.3166649290803431 0 0.12845270399723721 0.3210458321406448 0 0.1166855612788753 0.31389543672874748 0 0.13450656536228661 0.30373437423528482 0 0.12845270399723721 0.3210458321406448 0 0.13450656536228661 0.30373437423528482 0 0.14186205186194309 0.3166649290803431 0 0.12845270399723721 0.3210458321406448 0 0.118924640762007 0.33671592541483247 0 0.14720493928103709 0.33411458868241201 0 0.1314416912234545 0.35283601225360878 0 0.118924640762007 0.33671592541483247 0 0.14720493928103709 0.33411458868241201 0 0.12845270399723721 0.3210458321406448 0 0.118924640762007 0.33671592541483247 0 0.14720493928103709 0.33411458868241201 0 0.118924640762007 0.33671592541483247 0 0.1314416912234545 0.35283601225360878 0 0.1159139431247391 0.35050238417121099 0 0.1314416912234545 0.35283601225360878 0 0.13566461547928799 0.36949242928635018 0 0.1240871900041997 0.36746345354692977 0 0.1159139431247391 0.35050238417121099 0 0.13566461547928799 0.36949242928635018 0 0.1314416912234545 0.35283601225360878 0 0.1439587416849033 0.36895609909238403 0 0.1314416912234545 0.35283601225360878 0 0.13566461547928799 0.36949242928635018 0 0.1439587416849033 0.36895609909238403 0 0.1159139431247391 0.35050238417121099 0 0.13566461547928799 0.36949242928635018 0 0.1240871900041997 0.36746345354692977 0 0.13566461547928799 0.36949242928635018 0 0.1286166276704446 0.37624001503393151 0 0.1653527487359604 0.35656383145413179 0 0.1439587416849033 0.36895609909238403 0 0.1564757921463556 0.38507618593115661 0 0.1653527487359604 0.35656383145413179 0 0.1439587416849033 0.36895609909238403 0 0.14698953023133879 0.35311763287063408 0 0.1653527487359604 0.35656383145413179 0 0.14720493928103709 0.33411458868241201 0 0.14698953023133879 0.35311763287063408 0 0.14720493928103709 0.33411458868241201 0 0.1314416912234545 0.35283601225360878 0 0.14698953023133879 0.35311763287063408 0 0.1314416912234545 0.35283601225360878 0 0.1439587416849033 0.36895609909238403 0 0.14698953023133879 0.35311763287063408 0 0.14664024597152869 0.39730016796070422 0 0.15541528783384251 0.38848247440148331 0 0.14727166290681379 0.41102808311229622 0 0.15541528783384251 0.38848247440148331 0 0.14727166290681379 0.41102808311229622 0 0.15853024273081351 0.40570592230580071 0 0.15541528783384251 0.38848247440148331 0 0.14727166290681379 0.41102808311229622 0 0.14664024597152869 0.39730016796070422 0 0.14261411513672301 0.3936518214149286 0 0.1469877196746196 0.38993068680390058 0 0.14261411513672301 0.3936518214149286 0 0.1469877196746196 0.38993068680390058 0 0.1407274072309698 0.38871175320405132 0 0.14664024597152869 0.39730016796070422 0 0.14261411513672301 0.3936518214149286 0 0.13963437435569201 0.39790086613046988 0 0.14664024597152869 0.39730016796070422 0 0.1429450436044348 0.40261222399555441 0 0.14727166290681379 0.41102808311229622 0 0.14664024597152869 0.39730016796070422 0 0.1429450436044348 0.40261222399555441 0 0.13963437435569201 0.39790086613046988 0 0.1429450436044348 0.40261222399555441 0 0.14475821503125749 0.4082120220020562 0 0.1418806286970857 0.40658261787966682 0 0.1429450436044348 0.40261222399555441 0 0.14023631928545449 0.40448443241906629 0 0.1418806286970857 0.40658261787966682 0 0.14664024597152869 0.39730016796070422 0 0.15541528783384251 0.38848247440148331 0 0.1469877196746196 0.38993068680390058 0 0.13566461547928799 0.36949242928635018 0 0.1439587416849033 0.36895609909238403 0 0.15541528783384251 0.38848247440148331 0 0.13566461547928799 0.36949242928635018 0 0.15541528783384251 0.38848247440148331 0 0.1392943076815723 0.38337784996714069 0 0.15541528783384251 0.38848247440148331 0 0.1469877196746196 0.38993068680390058 0 0.1392943076815723 0.38337784996714069 0 0.1439587416849033 0.36895609909238403 0 0.15541528783384251 0.38848247440148331 0 0.1564757921463556 0.38507618593115661 0 0.1439587416849033 0.36895609909238403 0 0.1564757921463556 0.38507618593115661 0 0.13566461547928799 0.36949242928635018 0 0.15541528783384251 0.38848247440148331 0 0.15541528783384251 0.38848247440148331 0 0.1564757921463556 0.38507618593115661 0 0.1469877196746196 0.38993068680390058 0 0.1407274072309698 0.38871175320405132 0 0.1392943076815723 0.38337784996714069 0 0.1407274072309698 0.38871175320405132 0 0.13577519073821159 0.3870124048656387 0 0.13640839884088829 0.39384100636362918 0 0.1407274072309698 0.38871175320405132 0 0.1392943076815723 0.38337784996714069 0 0.13577519073821159 0.3870124048656387 0 0.1392943076815723 0.38337784996714069 0 0.13577519073821159 0.3870124048656387 0 0.13187330514363599 0.38377518617462381 0 0.13577519073821159 0.3870124048656387 0 0.13247107123438209 0.38992506878923477 0 0.13187330514363599 0.38377518617462381 0 0.13577519073821159 0.3870124048656387 0 0.13247107123438209 0.38992506878923477 0 0.13640839884088829 0.39384100636362918 0 0.13566461547928799 0.36949242928635018 0 0.1392943076815723 0.38337784996714069 0 0.1286166276704446 0.37624001503393151 0 0.1392943076815723 0.38337784996714069 0 0.1286166276704446 0.37624001503393151 0 0.13187330514363599 0.38377518617462381 0 0.1225320868682631 0.37886035254372008 0 0.1260579234178828 0.38263202141224029 0 0.1286166276704446 0.37624001503393151 0 0.1260579234178828 0.38263202141224029 0 0.1286166276704446 0.37624001503393151 0 0.13187330514363599 0.38377518617462381 0 0.13247107123438209 0.38992506878923477 0 0.13187330514363599 0.38377518617462381 0 0.1275538893698642 0.38890642382991691 0 0.1223444043345062 0.38759342499011101 0 0.1260579234178828 0.38263202141224029 0 0.1275538893698642 0.38890642382991691 0 0.1260579234178828 0.38263202141224029 0 0.13187330514363599 0.38377518617462381 0 0.1275538893698642 0.38890642382991691 0 0.1220524539515839 0.39288095429219039 0 0.1275538893698642 0.38890642382991691 0 0.12778348476280141 0.39418217829447638 0 0.1239236510880275 0.39919305957400469 0 0.12778348476280141 0.39418217829447638 0 0.12870922137003871 0.39845297580829497 0 0.12778348476280141 0.39418217829447638 0 0.12870922137003871 0.39845297580829497 0 0.1319457812938534 0.39534540216532582 0 0.12870922137003871 0.39845297580829497 0 0.1319457812938534 0.39534540216532582 0 0.13343713498879531 0.3993169149382555 0 0.13247107123438209 0.38992506878923477 0 0.1275538893698642 0.38890642382991691 0 0.12778348476280141 0.39418217829447638 0 0.13247107123438209 0.38992506878923477 0 0.12778348476280141 0.39418217829447638 0 0.1319457812938534 0.39534540216532582 0 0.13247107123438209 0.38992506878923477 0 0.1319457812938534 0.39534540216532582 0 0.13640839884088829 0.39384100636362918 0 0.1319457812938534 0.39534540216532582 0 0.13640839884088829 0.39384100636362918 0 0.13343713498879531 0.3993169149382555 0 0.13640839884088829 0.39384100636362918 0 0.13963437435569201 0.39790086613046988 0 0.13343713498879531 0.3993169149382555 0 0.14261411513672301 0.3936518214149286 0 0.13640839884088829 0.39384100636362918 0 0.13963437435569201 0.39790086613046988 0 0.14261411513672301 0.3936518214149286 0 0.1407274072309698 0.38871175320405132 0 0.13640839884088829 0.39384100636362918 0 0.14023631928545449 0.40448443241906629 0 0.13802537321918221 0.40219221448261638 0 0.13805672224254731 0.40644980886065601 0 0.1429450436044348 0.40261222399555441 0 0.14023631928545449 0.40448443241906629 0 0.13802537321918221 0.40219221448261638 0 0.14023631928545449 0.40448443241906629 0 0.13805672224254731 0.40644980886065601 0 0.1418806286970857 0.40658261787966682 0 0.13963437435569201 0.39790086613046988 0 0.13802537321918221 0.40219221448261638 0 0.13343713498879531 0.3993169149382555 0 0.1429450436044348 0.40261222399555441 0 0.13963437435569201 0.39790086613046988 0 0.13802537321918221 0.40219221448261638 0 0.13802537321918221 0.40219221448261638 0 0.13343713498879531 0.3993169149382555 0 0.13411271757775201 0.40334374239858412 0 0.13411271757775201 0.40334374239858412 0 0.13805672224254731 0.40644980886065601 0 0.13364139350185511 0.40734586651792698 0 0.13802537321918221 0.40219221448261638 0 0.13411271757775201 0.40334374239858412 0 0.13805672224254731 0.40644980886065601 0 0.1238155958056588 0.40889237209761298 0 0.1239236510880275 0.39919305957400469 0 0.1291859606061542 0.40338825646738508 0 0.13411271757775201 0.40334374239858412 0 0.1291859606061542 0.40338825646738508 0 0.13364139350185511 0.40734586651792698 0 0.13343713498879531 0.3993169149382555 0 0.13411271757775201 0.40334374239858412 0 0.1291859606061542 0.40338825646738508 0 0.12870922137003871 0.39845297580829497 0 0.13343713498879531 0.3993169149382555 0 0.1291859606061542 0.40338825646738508 0 0.1239236510880275 0.39919305957400469 0 0.12870922137003871 0.39845297580829497 0 0.1291859606061542 0.40338825646738508 0 0.1238155958056588 0.40889237209761298 0 0.12929493314773111 0.41194593329692952 0 0.1251982450290918 0.41816898570839922 0 0.1238155958056588 0.40889237209761298 0 0.1291859606061542 0.40338825646738508 0 0.12929493314773111 0.41194593329692952 0 0.1291859606061542 0.40338825646738508 0 0.12929493314773111 0.41194593329692952 0 0.13364139350185511 0.40734586651792698 0 0.12929493314773111 0.41194593329692952 0 0.13467453608218069 0.41649723648270298 0 0.13390893334555881 0.41173912973937871 0 0.12929493314773111 0.41194593329692952 0 0.13364139350185511 0.40734586651792698 0 0.13390893334555881 0.41173912973937871 0 0.12929493314773111 0.41194593329692952 0 0.1251982450290918 0.41816898570839922 0 0.13467453608218069 0.41649723648270298 0 0.1251982450290918 0.41816898570839922 0 0.13467453608218069 0.41649723648270298 0 0.131030895108558 0.4230333230144136 0 0.13467453608218069 0.41649723648270298 0 0.1394850032953337 0.41867284753365303 0 0.13595551155894969 0.42256605382221651 0 0.13467453608218069 0.41649723648270298 0 0.131030895108558 0.4230333230144136 0 0.13595551155894969 0.42256605382221651 0 0.13467453608218069 0.41649723648270298 0 0.1394850032953337 0.41867284753365303 0 0.14013656959471599 0.41445462399726252 0 0.1394850032953337 0.41867284753365303 0 0.14013656959471599 0.41445462399726252 0 0.14223290515002909 0.41539652130860683 0 0.13467453608218069 0.41649723648270298 0 0.14013656959471599 0.41445462399726252 0 0.1380248706504682 0.41116748265995512 0 0.14013656959471599 0.41445462399726252 0 0.1380248706504682 0.41116748265995512 0 0.14182240043380789 0.41147305244581822 0 0.1380248706504682 0.41116748265995512 0 0.14047469743706401 0.40896241572584818 0 0.14182240043380789 0.41147305244581822 0 0.1380248706504682 0.41116748265995512 0 0.14047469743706401 0.40896241572584818 0 0.13805672224254731 0.40644980886065601 0 0.14047469743706401 0.40896241572584818 0 0.13805672224254731 0.40644980886065601 0 0.1418806286970857 0.40658261787966682 0 0.1380248706504682 0.41116748265995512 0 0.13364139350185511 0.40734586651792698 0 0.13390893334555881 0.41173912973937871 0 0.1380248706504682 0.41116748265995512 0 0.13805672224254731 0.40644980886065601 0 0.13364139350185511 0.40734586651792698 0 0.13467453608218069 0.41649723648270298 0 0.1380248706504682 0.41116748265995512 0 0.13390893334555881 0.41173912973937871 0 0.1217075382080831 0.43477383390327351 0 0.1317285980439129 0.42966433398320691 0 0.13385825361728751 0.44093453663961762 0 0.1217075382080831 0.43477383390327351 0 0.1317285980439129 0.42966433398320691 0 0.12511058835301209 0.4271225137504463 0 0.1251982450290918 0.41816898570839922 0 0.12511058835301209 0.4271225137504463 0 0.131030895108558 0.4230333230144136 0 0.1317285980439129 0.42966433398320691 0 0.12511058835301209 0.4271225137504463 0 0.131030895108558 0.4230333230144136 0 0.1317285980439129 0.42966433398320691 0 0.13595551155894969 0.42256605382221651 0 0.14056495826205079 0.42598130987595689 0 0.1317285980439129 0.42966433398320691 0 0.131030895108558 0.4230333230144136 0 0.13595551155894969 0.42256605382221651 0 0.1394850032953337 0.41867284753365303 0 0.13595551155894969 0.42256605382221651 0 0.14056495826205079 0.42598130987595689 0 0.14056495826205079 0.42598130987595689 0 0.14176332223283489 0.43233192647384072 0 0.13385825361728751 0.44093453663961762 0 0.14176332223283489 0.43233192647384072 0 0.13385825361728751 0.44093453663961762 0 0.14056495826205079 0.42598130987595689 0 0.13385825361728751 0.44093453663961762 0 0.1317285980439129 0.42966433398320691 0 0.14056495826205079 0.42598130987595689 0 0.13385825361728751 0.44093453663961762 0 0.14056495826205079 0.42598130987595689 0 0.14176332223283489 0.43233192647384072 0 0.14727166290681379 0.41102808311229622 0 0.14176332223283489 0.43233192647384072 0 0.1558542732322962 0.43314092397575688 0 0.15517800864467371 0.41773353102534938 0 0.14176332223283489 0.43233192647384072 0 0.15517800864467371 0.41773353102534938 0 0.14176332223283489 0.43233192647384072 0 0.1558542732322962 0.43314092397575688 0 0.14938352799387961 0.4438619966972378 0 0.14176332223283489 0.43233192647384072 0 0.14727166290681379 0.41102808311229622 0 0.14176332223283489 0.43233192647384072 0 0.14727166290681379 0.41102808311229622 0 0.15517800864467371 0.41773353102534938 0 0.1429450436044348 0.40261222399555441 0 0.14727166290681379 0.41102808311229622 0 0.14475821503125749 0.4082120220020562 0 0.14727166290681379 0.41102808311229622 0 0.14475821503125749 0.4082120220020562 0 0.14411683640745249 0.4107692108866543 0 0.14475821503125749 0.4082120220020562 0 0.14261055560133351 0.40919986378800871 0 0.14411683640745249 0.4107692108866543 0 0.14475821503125749 0.4082120220020562 0 0.14261055560133351 0.40919986378800871 0 0.1418806286970857 0.40658261787966682 0 0.14047469743706401 0.40896241572584818 0 0.14261055560133351 0.40919986378800871 0 0.14182240043380789 0.41147305244581822 0 0.14047469743706401 0.40896241572584818 0 0.14261055560133351 0.40919986378800871 0 0.1418806286970857 0.40658261787966682 0 0.14182240043380789 0.41147305244581822 0 0.14411683640745249 0.4107692108866543 0 0.14223290515002909 0.41539652130860683 0 0.14727166290681379 0.41102808311229622 0 0.14411683640745249 0.4107692108866543 0 0.14223290515002909 0.41539652130860683 0 0.14013656959471599 0.41445462399726252 0 0.14182240043380789 0.41147305244581822 0 0.14223290515002909 0.41539652130860683 0 0.14261055560133351 0.40919986378800871 0 0.14182240043380789 0.41147305244581822 0 0.14411683640745249 0.4107692108866543 0 0.14056495826205079 0.42598130987595689 0 0.14727166290681379 0.41102808311229622 0 0.14056495826205079 0.42598130987595689 0 0.14727166290681379 0.41102808311229622 0 0.14223290515002909 0.41539652130860683 0 0.1394850032953337 0.41867284753365303 0 0.14056495826205079 0.42598130987595689 0 0.14223290515002909 0.41539652130860683 0 0.14727166290681379 0.41102808311229622 0 0.15517800864467371 0.41773353102534938 0 0.15853024273081351 0.40570592230580071 0 0.15517800864467371 0.41773353102534938 0 0.16636509163660171 0.41218582950278759 0 0.15853024273081351 0.40570592230580071 0 0.15517800864467371 0.41773353102534938 0 0.16636509163660171 0.41218582950278759 0 0.16840699619677471 0.42560181285416709 0 0.16636509163660171 0.41218582950278759 0 0.16840699619677471 0.42560181285416709 0 0.17879175317739121 0.41095867792194019 0 0.16636509163660171 0.41218582950278759 0 0.17879175317739121 0.41095867792194019 0 0.16710352050561411 0.39972057616171458 0 0.1558542732322962 0.43314092397575688 0 0.16840699619677471 0.42560181285416709 0 0.16453951109331699 0.44617535282818888 0 0.1558542732322962 0.43314092397575688 0 0.15517800864467371 0.41773353102534938 0 0.16840699619677471 0.42560181285416709 0 0.16840699619677471 0.42560181285416709 0 0.17879175317739121 0.41095867792194019 0 0.1901227175557049 0.43511603198504989 0 0.17879175317739121 0.41095867792194019 0 0.1901227175557049 0.43511603198504989 0 0.16840699619677471 0.42560181285416709 0 0.1901227175557049 0.43511603198504989 0 0.16453951109331699 0.44617535282818888 0 0.17879175317739121 0.41095867792194019 0 0.19464449585937829 0.42620090832936658 0 0.17879175317739121 0.41095867792194019 0 0.18818012620085439 0.40045117530442131 0 0.19321703382191929 0.40827688597232697 0 0.17879175317739121 0.41095867792194019 0 0.17984952248814451 0.39572052221182857 0 0.18818012620085439 0.40045117530442131 0 0.17879175317739121 0.41095867792194019 0 0.1674393538181802 0.38675562497517219 0 0.17879175317739121 0.41095867792194019 0 0.17984952248814451 0.39572052221182857 0 0.1674393538181802 0.38675562497517219 0 0.17984952248814451 0.39572052221182857 0 0.18655918732930671 0.39206446007550061 0 0.17816477729002481 0.38826685202230232 0 0.17984952248814451 0.39572052221182857 0 0.18655918732930671 0.39206446007550061 0 0.18818012620085439 0.40045117530442131 0 0.17879175317739121 0.41095867792194019 0 0.16710352050561411 0.39972057616171458 0 0.17879175317739121 0.41095867792194019 0 0.16710352050561411 0.39972057616171458 0 0.1674393538181802 0.38675562497517219 0 0.15541528783384251 0.38848247440148331 0 0.16710352050561411 0.39972057616171458 0 0.15853024273081351 0.40570592230580071 0 0.16710352050561411 0.39972057616171458 0 0.1639571130827743 0.39471100713247242 0 0.1674393538181802 0.38675562497517219 0 0.15541528783384251 0.38848247440148331 0 0.16710352050561411 0.39972057616171458 0 0.15541528783384251 0.38848247440148331 0 0.16710352050561411 0.39972057616171458 0 0.1639571130827743 0.39471100713247242 0 0.16636509163660171 0.41218582950278759 0 0.16710352050561411 0.39972057616171458 0 0.15853024273081351 0.40570592230580071 0 0.1639571130827743 0.39471100713247242 0 0.1564757921463556 0.38507618593115661 0 0.1674393538181802 0.38675562497517219 0 0.15541528783384251 0.38848247440148331 0 0.1639571130827743 0.39471100713247242 0 0.1564757921463556 0.38507618593115661 0 0.1639571130827743 0.39471100713247242 0 0.1564757921463556 0.38507618593115661 0 0.1674393538181802 0.38675562497517219 0 0.1704667018022287 0.37564524117085307 0 0.17382495882519519 0.38246181602103102 0 0.1564757921463556 0.38507618593115661 0 0.1674393538181802 0.38675562497517219 0 0.1704667018022287 0.37564524117085307 0 0.1704667018022287 0.37564524117085307 0 0.17382495882519519 0.38246181602103102 0 0.18054437642893631 0.37791373584149179 0 0.17382495882519519 0.38246181602103102 0 0.17816477729002481 0.38826685202230232 0 0.18054437642893631 0.37791373584149179 0 0.1674393538181802 0.38675562497517219 0 0.17382495882519519 0.38246181602103102 0 0.17816477729002481 0.38826685202230232 0 0.17984952248814451 0.39572052221182857 0 0.1674393538181802 0.38675562497517219 0 0.17816477729002481 0.38826685202230232 0 0.17816477729002481 0.38826685202230232 0 0.18371839791273409 0.38531761865131842 0 0.18054437642893631 0.37791373584149179 0 0.18655918732930671 0.39206446007550061 0 0.17816477729002481 0.38826685202230232 0 0.18371839791273409 0.38531761865131842 0 0.18655918732930671 0.39206446007550061 0 0.18371839791273409 0.38531761865131842 0 0.18960525060266839 0.38302542666597872 0 0.18371839791273409 0.38531761865131842 0 0.18054437642893631 0.37791373584149179 0 0.18960525060266839 0.38302542666597872 0 0.1924907047666598 0.36879874822472358 0 0.18054437642893631 0.37791373584149179 0 0.18960525060266839 0.38302542666597872 0 0.1924907047666598 0.36879874822472358 0 0.18960525060266839 0.38302542666597872 0 0.1996887023621283 0.38301592985218053 0 0.18655918732930671 0.39206446007550061 0 0.18960525060266839 0.38302542666597872 0 0.19360075656592329 0.3920761615619025 0 0.18960525060266839 0.38302542666597872 0 0.1996887023621283 0.38301592985218053 0 0.19360075656592329 0.3920761615619025 0 0.1996887023621283 0.38301592985218053 0 0.20131886389594661 0.39343626865430698 0 0.20663631883810279 0.38737347682323969 0 0.1996887023621283 0.38301592985218053 0 0.19360075656592329 0.3920761615619025 0 0.20131886389594661 0.39343626865430698 0 0.18818012620085439 0.40045117530442131 0 0.19625240900463581 0.40046370881902732 0 0.19321703382191929 0.40827688597232697 0 0.18655918732930671 0.39206446007550061 0 0.18818012620085439 0.40045117530442131 0 0.19360075656592329 0.3920761615619025 0 0.18818012620085439 0.40045117530442131 0 0.19360075656592329 0.3920761615619025 0 0.19625240900463581 0.40046370881902732 0 0.19360075656592329 0.3920761615619025 0 0.20131886389594661 0.39343626865430698 0 0.19625240900463581 0.40046370881902732 0 0.20131886389594661 0.39343626865430698 0 0.19625240900463581 0.40046370881902732 0 0.20309037915163769 0.39942101851975659 0 0.19625240900463581 0.40046370881902732 0 0.20052893097525179 0.40500708132933849 0 0.19321703382191929 0.40827688597232697 0 0.19625240900463581 0.40046370881902732 0 0.20309037915163769 0.39942101851975659 0 0.20052893097525179 0.40500708132933849 0 0.2091139963617642 0.40278134971313873 0 0.20823769552059029 0.39541668408297143 0 0.23479985453077179 0.39469466891445693 0 0.20309037915163769 0.39942101851975659 0 0.20052893097525179 0.40500708132933849 0 0.2091139963617642 0.40278134971313873 0 0.20309037915163769 0.39942101851975659 0 0.2091139963617642 0.40278134971313873 0 0.20823769552059029 0.39541668408297143 0 0.20131886389594661 0.39343626865430698 0 0.20823769552059029 0.39541668408297143 0 0.20663631883810279 0.38737347682323969 0 0.20131886389594661 0.39343626865430698 0 0.20309037915163769 0.39942101851975659 0 0.20823769552059029 0.39541668408297143 0 0.20735716366877449 0.37114559783022638 0 0.1996887023621283 0.38301592985218053 0 0.21393394665703491 0.38234254329000811 0 0.1996887023621283 0.38301592985218053 0 0.20663631883810279 0.38737347682323969 0 0.21393394665703491 0.38234254329000811 0 0.20823769552059029 0.39541668408297143 0 0.20663631883810279 0.38737347682323969 0 0.21393394665703491 0.38234254329000811 0 0.2240868745155101 0.36980220590377838 0 0.21393394665703491 0.38234254329000811 0 0.23479985453077179 0.39469466891445693 0 0.20823769552059029 0.39541668408297143 0 0.21393394665703491 0.38234254329000811 0 0.23479985453077179 0.39469466891445693 0 0.2091139963617642 0.40278134971313873 0 0.23479985453077179 0.39469466891445693 0 0.2261703587837659 0.41212120741519642 0 0.20823769552059029 0.39541668408297143 0 0.23479985453077179 0.39469466891445693 0 0.23479985453077179 0.39469466891445693 0 0.26136201354095318 0.39397265374594242 0 0.23479985453077179 0.39469466891445693 0 0.24739082964546669 0.41085114646716159 0 0.2261703587837659 0.41212120741519642 0 0.23479985453077179 0.39469466891445693 0 0.24739082964546669 0.41085114646716159 0 0.26136201354095318 0.39397265374594242 0 0.24930950522295969 0.36634064837762392 0 0.23479985453077179 0.39469466891445693 0 0.26136201354095318 0.39397265374594242 0 0.24930950522295969 0.36634064837762392 0 0.2240868745155101 0.36980220590377838 0 0.23479985453077179 0.39469466891445693 0 0.23766238947459151 0.42878510554551302 0 0.248183222075121 0.44849845515780612 0 0.25740304227580602 0.42505560293530892 0 0.23766238947459151 0.42878510554551302 0 0.24739082964546669 0.41085114646716159 0 0.25740304227580602 0.42505560293530892 0 0.23766238947459151 0.42878510554551302 0 0.24739082964546669 0.41085114646716159 0 0.2261703587837659 0.41212120741519642 0 0.23766238947459151 0.42878510554551302 0 0.2261703587837659 0.41212120741519642 0 0.21681519428391949 0.42916917908769109 0 0.23766238947459151 0.42878510554551302 0 0.21681519428391949 0.42916917908769109 0 0.23393082965222681 0.44391707142323772 0 0.20551008574658469 0.42289111323381351 0 0.19464449585937829 0.42620090832936658 0 0.21049723854136529 0.44144313873679308 0 0.21681519428391949 0.42916917908769109 0 0.20551008574658469 0.42289111323381351 0 0.21049723854136529 0.44144313873679308 0 0.2091139963617642 0.40278134971313873 0 0.2261703587837659 0.41212120741519642 0 0.21681519428391949 0.42916917908769109 0 0.2091139963617642 0.40278134971313873 0 0.20551008574658469 0.42289111323381351 0 0.20072650118164759 0.41377891904319491 0 0.2091139963617642 0.40278134971313873 0 0.21681519428391949 0.42916917908769109 0 0.20551008574658469 0.42289111323381351 0 0.2091139963617642 0.40278134971313873 0 0.21681519428391949 0.42916917908769109 0 0.20052893097525179 0.40500708132933849 0 0.2091139963617642 0.40278134971313873 0 0.20072650118164759 0.41377891904319491 0 0.17879175317739121 0.41095867792194019 0 0.19339653521243591 0.4160288183169456 0 0.19464449585937829 0.42620090832936658 0 0.20052893097525179 0.40500708132933849 0 0.20072650118164759 0.41377891904319491 0 0.19321703382191929 0.40827688597232697 0 0.20072650118164759 0.41377891904319491 0 0.19339653521243591 0.4160288183169456 0 0.19321703382191929 0.40827688597232697 0 0.20551008574658469 0.42289111323381351 0 0.20072650118164759 0.41377891904319491 0 0.19886468664910631 0.42006887132713577 0 0.19886468664910631 0.42006887132713577 0 0.19339653521243591 0.4160288183169456 0 0.19464449585937829 0.42620090832936658 0 0.20072650118164759 0.41377891904319491 0 0.19886468664910631 0.42006887132713577 0 0.19339653521243591 0.4160288183169456 0 0.17879175317739121 0.41095867792194019 0 0.19339653521243591 0.4160288183169456 0 0.19321703382191929 0.40827688597232697 0 0.17879175317739121 0.41095867792194019 0 0.1901227175557049 0.43511603198504989 0 0.19464449585937829 0.42620090832936658 0 0.19464449585937829 0.42620090832936658 0 0.21049723854136529 0.44144313873679308 0 0.1901227175557049 0.43511603198504989 0 0.19464449585937829 0.42620090832936658 0 0.21049723854136529 0.44144313873679308 0 0.20551008574658469 0.42289111323381351 0 0.19886468664910631 0.42006887132713577 0 0.19464449585937829 0.42620090832936658 0 0.1901227175557049 0.43511603198504989 0 0.20145368193401861 0.45927338604815943 0 0.1901227175557049 0.43511603198504989 0 0.20145368193401861 0.45927338604815943 0 0.21049723854136529 0.44144313873679308 0 0.1901227175557049 0.43511603198504989 0 0.20145368193401861 0.45927338604815943 0 0.18005344203159071 0.45794420689201842 0 0.20145368193401861 0.45927338604815943 0 0.1856453152957486 0.47752900123665409 0 0.18005344203159071 0.45794420689201842 0 0.20145368193401861 0.45927338604815943 0 0.22451639220607489 0.45555700846224362 0 0.21884127455778779 0.47024526893151619 0 0.21681519428391949 0.42916917908769109 0 0.21049723854136529 0.44144313873679308 0 0.22451639220607489 0.45555700846224362 0 0.20145368193401861 0.45927338604815943 0 0.21049723854136529 0.44144313873679308 0 0.22451639220607489 0.45555700846224362 0 0.21681519428391949 0.42916917908769109 0 0.22451639220607489 0.45555700846224362 0 0.21681519428391949 0.42916917908769109 0 0.23393082965222681 0.44391707142323772 0 0.22451639220607489 0.45555700846224362 0 0.22451639220607489 0.45555700846224362 0 0.23221759012823029 0.48194483783679609 0 0.23393082965222681 0.44391707142323772 0 0.22451639220607489 0.45555700846224362 0 0.24105157893961571 0.46826264542988721 0 0.22451639220607489 0.45555700846224362 0 0.24105157893961571 0.46826264542988721 0 0.23221759012823029 0.48194483783679609 0 0.24105157893961571 0.46826264542988721 0 0.248183222075121 0.44849845515780612 0 0.24105157893961571 0.46826264542988721 0 0.248183222075121 0.44849845515780612 0 0.25373728751647162 0.46698903846998702 0 0.23393082965222681 0.44391707142323772 0 0.24105157893961571 0.46826264542988721 0 0.248183222075121 0.44849845515780612 0 0.23766238947459151 0.42878510554551302 0 0.23393082965222681 0.44391707142323772 0 0.248183222075121 0.44849845515780612 0 0.2339199358041088 0.48802683570196781 0 0.22959957995846911 0.50000000000000111 0 0.25814829631105463 0.5 0 0.2339199358041088 0.48802683570196781 0 0.2618309442684002 0.49409638412166668 0 0.24105157893961571 0.46826264542988721 0 0.2339199358041088 0.48802683570196781 0 0.24105157893961571 0.46826264542988721 0 0.24954949415829381 0.47699720464627271 0 0.2339199358041088 0.48802683570196781 0 0.24105157893961571 0.46826264542988721 0 0.23221759012823029 0.48194483783679609 0 0.2339199358041088 0.48802683570196781 0 0.24954949415829381 0.47699720464627271 0 0.2339199358041088 0.48802683570196781 0 0.25592324696427571 0.48408864606300089 0 0.24105157893961571 0.46826264542988721 0 0.24954949415829381 0.47699720464627271 0 0.25373728751647162 0.46698903846998702 0 0.21884127455778779 0.47024526893151619 0 0.23221759012823029 0.48194483783679609 0 0.21278464631233249 0.48343074011126869 0 0.22451639220607489 0.45555700846224362 0 0.21884127455778779 0.47024526893151619 0 0.23221759012823029 0.48194483783679609 0 0.2339199358041088 0.48802683570196781 0 0.21278464631233249 0.48343074011126869 0 0.23221759012823029 0.48194483783679609 0 0.2339199358041088 0.48802683570196781 0 0.21278464631233249 0.48343074011126869 0 0.2339199358041088 0.48802683570196781 0 0.2205700534243249 0.50002904806198534 0 0.21278464631233249 0.48343074011126869 0 0.2339199358041088 0.48802683570196781 0 0.22959957995846911 0.50000000000000111 0 0.2205700534243249 0.50002904806198534 0 0.2339199358041088 0.48802683570196781 0 0.22959957995846911 0.50000000000000111 0 0.2205700534243249 0.50002904806198534 0 0.21278464631233249 0.48343074011126869 0 0.19560147350227941 0.5 0 0.2205700534243249 0.50002904806198534 0 0.21278464631233249 0.48343074011126869 0 0.20145368193401861 0.45927338604815943 0 0.21884127455778779 0.47024526893151619 0 0.21278464631233249 0.48343074011126869 0 0.20145368193401861 0.45927338604815943 0 0.21278464631233249 0.48343074011126869 0 0.21278464631233249 0.48343074011126869 0 0.1856453152957486 0.47752900123665409 0 0.20145368193401861 0.45927338604815943 0 0.21278464631233249 0.48343074011126869 0 0.1856453152957486 0.47752900123665409 0 0.21278464631233249 0.48343074011126869 0 0.19560147350227941 0.5 0 0.1856453152957486 0.47752900123665409 0 0.19560147350227941 0.5 0 0.17063289358023401 0.5 0 0.1856453152957486 0.47752900123665409 0 0.17063289358023401 0.5 0 0.15850598427916451 0.47162726236203972 0 0.14566431365818849 0.5 0 0.17063289358023401 0.5 0 0.15850598427916451 0.47162726236203972 0 0.1856453152957486 0.47752900123665409 0 0.15850598427916451 0.47162726236203972 0 0.1856453152957486 0.47752900123665409 0 0.15850598427916451 0.47162726236203972 0 0.1856453152957486 0.47752900123665409 0 0.18005344203159071 0.45794420689201842 0 0.1901227175557049 0.43511603198504989 0 0.18005344203159071 0.45794420689201842 0 0.16453951109331699 0.44617535282818888 0 0.1558542732322962 0.43314092397575688 0 0.16453951109331699 0.44617535282818888 0 0.14938352799387961 0.4438619966972378 0 0.15850598427916451 0.47162726236203972 0 0.18005344203159071 0.45794420689201842 0 0.16453951109331699 0.44617535282818888 0 0.15850598427916451 0.47162726236203972 0 0.16453951109331699 0.44617535282818888 0 0.14813122146177601 0.45651874257463582 0 0.15850598427916451 0.47162726236203972 0 0.14813122146177601 0.45651874257463582 0 0.1313666532625824 0.46572552348741642 0 0.15850598427916451 0.47162726236203972 0 0.1313666532625824 0.46572552348741642 0 0.16453951109331699 0.44617535282818888 0 0.14813122146177601 0.45651874257463582 0 0.14938352799387961 0.4438619966972378 0 0.14176332223283489 0.43233192647384072 0 0.14938352799387961 0.4438619966972378 0 0.13656498774770881 0.44902872498062862 0 0.14813122146177601 0.45651874257463582 0 0.14938352799387961 0.4438619966972378 0 0.13656498774770881 0.44902872498062862 0 0.12350588417100471 0.46401611486184863 0 0.13385825361728751 0.44093453663961762 0 0.12350588417100471 0.46401611486184863 0 0.13385825361728751 0.44093453663961762 0 0.13656498774770881 0.44902872498062862 0 0.14176332223283489 0.43233192647384072 0 0.13656498774770881 0.44902872498062862 0 0.14176332223283489 0.43233192647384072 0 0.13385825361728751 0.44093453663961762 0 0.13656498774770881 0.44902872498062862 0 0.14813122146177601 0.45651874257463582 0 0.13656498774770881 0.44902872498062862 0 0.1313666532625824 0.46572552348741642 0 0.13656498774770881 0.44902872498062862 0 0.1313666532625824 0.46572552348741642 0 0.12350588417100471 0.46401611486184863 0 0.13656498774770881 0.44902872498062862 0 0.1313666532625824 0.46572552348741642 0 0.12410126846679 0.47383132168831232 0 0.12350588417100471 0.46401611486184863 0 0.1313666532625824 0.46572552348741642 0 0.12350588417100471 0.46401611486184863 0 0.1313666532625824 0.46572552348741642 0 0.1313666532625824 0.46572552348741642 0 0.12603119349936301 0.48286276174371051 0 0.1410693179218824 0.47965925181662572 0 0.1313666532625824 0.46572552348741642 0 0.12603119349936301 0.48286276174371051 0 0.12410126846679 0.47383132168831232 0 0.1313666532625824 0.46572552348741642 0 0.12603119349936301 0.48286276174371051 0 0.1206957337361431 0.50000000000000433 0 0.12603119349936301 0.48286276174371051 0 0.14566431365818849 0.5 0 0.12603119349936301 0.48286276174371051 0 0.14566431365818849 0.5 0 0.1410693179218824 0.47965925181662572 0 0.15850598427916451 0.47162726236203972 0 0.1313666532625824 0.46572552348741642 0 0.1410693179218824 0.47965925181662572 0 0.15850598427916451 0.47162726236203972 0 0.14566431365818849 0.5 0 0.1410693179218824 0.47965925181662572 0 0.34826634776537058 0.47471623211989711 0 0.36073500123125413 0.47030529173796409 0 0.34492525246451899 0.46184131427795633 0 0.34826634776537058 0.47471623211989711 0 0.36060477765451071 0.4826928849788053 0 0.36073500123125413 0.47030529173796409 0 0.34826634776537058 0.47471623211989711 0 0.34541182341682758 0.48707114987553579 0 0.36060477765451071 0.4826928849788053 0 0.34541182341682758 0.48707114987553579 0 0.37234316172139531 0.50000000000000067 0 0.34541182341682758 0.48707114987553579 0 0.3437944453688101 0.5 0 0.37234316172139531 0.50000000000000067 0 0.37234316172139531 0.50000000000000067 0 0.36060477765451071 0.4826928849788053 0 0.37626755413770602 0.48137175116062952 0 0.34541182341682758 0.48707114987553579 0 0.37234316172139531 0.50000000000000067 0 0.36060477765451071 0.4826928849788053 0 0.36073500123125413 0.47030529173796409 0 0.37947251592170722 0.46362975544621438 0 0.37626755413770602 0.48137175116062952 0 0.36060477765451071 0.4826928849788053 0 0.36073500123125413 0.47030529173796409 0 0.37626755413770602 0.48137175116062952 0 0.36073500123125413 0.47030529173796409 0 0.36290401702953268 0.45347996010062569 0 0.37947251592170722 0.46362975544621438 0 0.36290401702953268 0.45347996010062569 0 0.38152211293332111 0.44384165270417247 0 0.37947251592170722 0.46362975544621438 0 0.36290401702953268 0.45347996010062569 0 0.36381029270335669 0.4386108929793861 0 0.38152211293332111 0.44384165270417247 0 0.36290401702953268 0.45347996010062569 0 0.34695892692303859 0.44265085345806121 0 0.34492525246451899 0.46184131427795633 0 0.36290401702953268 0.45347996010062569 0 0.36381029270335669 0.4386108929793861 0 0.34695892692303859 0.44265085345806121 0 0.36073500123125413 0.47030529173796409 0 0.36290401702953268 0.45347996010062569 0 0.34492525246451899 0.46184131427795633 0 0.34492525246451899 0.46184131427795633 0 0.32949804515704151 0.46375223824797601 0 0.33575000392653659 0.472683146063404 0 0.34492525246451899 0.46184131427795633 0 0.32949804515704151 0.46375223824797601 0 0.33502853338041499 0.45148300749505338 0 0.32949804515704151 0.46375223824797601 0 0.33502853338041499 0.45148300749505338 0 0.32361595899206352 0.45584913227938723 0 0.34695892692303859 0.44265085345806121 0 0.34492525246451899 0.46184131427795633 0 0.33502853338041499 0.45148300749505338 0 0.34695892692303859 0.44265085345806121 0 0.33502853338041499 0.45148300749505338 0 0.33400076520677202 0.44096449770483592 0 0.34695892692303859 0.44265085345806121 0 0.33400076520677202 0.44096449770483592 0 0.33744631337331737 0.43055968573147402 0 0.33502853338041499 0.45148300749505338 0 0.33400076520677202 0.44096449770483592 0 0.32538430385351619 0.44579213963485531 0 0.33400076520677202 0.44096449770483592 0 0.32538430385351619 0.44579213963485531 0 0.32586322586623662 0.43470765825711299 0 0.32538430385351619 0.44579213963485531 0 0.31787573657985491 0.44088803639790758 0 0.32586322586623662 0.43470765825711299 0 0.33502853338041499 0.45148300749505338 0 0.32538430385351619 0.44579213963485531 0 0.32361595899206352 0.45584913227938723 0 0.32538430385351619 0.44579213963485531 0 0.31558212605901931 0.45097500282624892 0 0.32361595899206352 0.45584913227938723 0 0.32538430385351619 0.44579213963485531 0 0.31558212605901931 0.45097500282624892 0 0.31787573657985491 0.44088803639790758 0 0.31558212605901931 0.45097500282624892 0 0.31787573657985491 0.44088803639790758 0 0.30864494675452159 0.44651470018036188 0 0.32949804515704151 0.46375223824797601 0 0.31994807581287821 0.46332330503183511 0 0.31848048511226051 0.47414229975107047 0 0.32949804515704151 0.46375223824797601 0 0.32361595899206352 0.45584913227938723 0 0.31994807581287821 0.46332330503183511 0 0.31558212605901931 0.45097500282624892 0 0.32361595899206352 0.45584913227938723 0 0.31641856244162059 0.4581396982077437 0 0.32361595899206352 0.45584913227938723 0 0.31641856244162059 0.4581396982077437 0 0.31994807581287821 0.46332330503183511 0 0.31558212605901931 0.45097500282624892 0 0.31641856244162059 0.4581396982077437 0 0.31061035304215151 0.45719323075669288 0 0.31641856244162059 0.4581396982077437 0 0.31061035304215151 0.45719323075669288 0 0.31233629830199039 0.46335782014455468 0 0.31994807581287821 0.46332330503183511 0 0.31848048511226051 0.47414229975107047 0 0.31233629830199039 0.46335782014455468 0 0.31641856244162059 0.4581396982077437 0 0.31994807581287821 0.46332330503183511 0 0.31233629830199039 0.46335782014455468 0 0.32949804515704151 0.46375223824797601 0 0.31848048511226051 0.47414229975107047 0 0.33575000392653659 0.472683146063404 0 0.31848048511226051 0.47414229975107047 0 0.31312606303892038 0.48406158530284371 0 0.32052752439903442 0.48348658775071007 0 0.31848048511226051 0.47414229975107047 0 0.32052752439903442 0.48348658775071007 0 0.32874534107031689 0.48570061654742369 0 0.34541182341682758 0.48707114987553579 0 0.31848048511226051 0.47414229975107047 0 0.33575000392653659 0.472683146063404 0 0.34541182341682758 0.48707114987553579 0 0.31848048511226051 0.47414229975107047 0 0.32874534107031689 0.48570061654742369 0 0.34541182341682758 0.48707114987553579 0 0.31848048511226051 0.47414229975107047 0 0.34826634776537058 0.47471623211989711 0 0.34541182341682758 0.48707114987553579 0 0.33575000392653659 0.472683146063404 0 0.34826634776537058 0.47471623211989711 0 0.34492525246451899 0.46184131427795633 0 0.33575000392653659 0.472683146063404 0 0.34541182341682758 0.48707114987553579 0 0.32874534107031689 0.48570061654742369 0 0.33099110944936389 0.49256272316489241 0 0.3437944453688101 0.5 0 0.33099110944936389 0.49256272316489241 0 0.31524572901622488 0.5 0 0.34541182341682758 0.48707114987553579 0 0.3437944453688101 0.5 0 0.33099110944936389 0.49256272316489241 0 0.33099110944936389 0.49256272316489241 0 0.31524572901622488 0.5 0 0.32175820837463998 0.49004184940150231 0 0.31312606303892038 0.48406158530284371 0 0.31524572901622488 0.5 0 0.32175820837463998 0.49004184940150231 0 0.32052752439903442 0.48348658775071007 0 0.32874534107031689 0.48570061654742369 0 0.32175820837463998 0.49004184940150231 0 0.32874534107031689 0.48570061654742369 0 0.33099110944936389 0.49256272316489241 0 0.32175820837463998 0.49004184940150231 0 0.31312606303892038 0.48406158530284371 0 0.32052752439903442 0.48348658775071007 0 0.32175820837463998 0.49004184940150231 0 0.31524572901622488 0.5 0 0.28669701266363973 0.5 0 0.29555841570279062 0.48629778976878341 0 0.31312606303892038 0.48406158530284371 0 0.31524572901622488 0.5 0 0.29555841570279062 0.48629778976878341 0 0.31312606303892038 0.48406158530284371 0 0.30233760492330708 0.47263751746472399 0 0.29555841570279062 0.48629778976878341 0 0.31848048511226051 0.47414229975107047 0 0.31312606303892038 0.48406158530284371 0 0.30233760492330708 0.47263751746472399 0 0.31848048511226051 0.47414229975107047 0 0.30233760492330708 0.47263751746472399 0 0.29154914680769339 0.46121344962660482 0 0.31312606303892038 0.48406158530284371 0 0.30233760492330708 0.47263751746472399 0 0.30233760492330708 0.47263751746472399 0 0.2927580120783756 0.47679432557830098 0 0.28893130724193838 0.46837352250556841 0 0.30233760492330708 0.47263751746472399 0 0.2927580120783756 0.47679432557830098 0 0.29555841570279062 0.48629778976878341 0 0.2927580120783756 0.47679432557830098 0 0.28291166555181629 0.47833260170383318 0 0.29555841570279062 0.48629778976878341 0 0.28291166555181629 0.47833260170383318 0 0.2783908407118118 0.46556200274855553 0 0.28893130724193838 0.46837352250556841 0 0.2927580120783756 0.47679432557830098 0 0.28291166555181629 0.47833260170383318 0 0.28893130724193838 0.46837352250556841 0 0.28669701266363973 0.5 0 0.29555841570279062 0.48629778976878341 0 0.27549608960202832 0.49185853195930868 0 0.28291166555181629 0.47833260170383318 0 0.29555841570279062 0.48629778976878341 0 0.27549608960202832 0.49185853195930868 0 0.28669701266363973 0.5 0 0.27549608960202832 0.49185853195930868 0 0.25814829631105463 0.5 0 0.26566124801886959 0.4876026237015626 0 0.27549608960202832 0.49185853195930868 0 0.2618309442684002 0.49409638412166668 0 0.26566124801886959 0.4876026237015626 0 0.27549608960202832 0.49185853195930868 0 0.27172886701365911 0.48149494601501602 0 0.28291166555181629 0.47833260170383318 0 0.27429173346244068 0.47382982948718161 0 0.27172886701365911 0.48149494601501602 0 0.28291166555181629 0.47833260170383318 0 0.27549608960202832 0.49185853195930868 0 0.27172886701365911 0.48149494601501602 0 0.28291166555181629 0.47833260170383318 0 0.27429173346244068 0.47382982948718161 0 0.2783908407118118 0.46556200274855553 0 0.27429173346244068 0.47382982948718161 0 0.26719372872725727 0.47602243255904042 0 0.26628674893056992 0.46923854841690299 0 0.27429173346244068 0.47382982948718161 0 0.26719372872725727 0.47602243255904042 0 0.27172886701365911 0.48149494601501602 0 0.26719372872725727 0.47602243255904042 0 0.27172886701365911 0.48149494601501602 0 0.26508273691052953 0.48170316949201941 0 0.26566124801886959 0.4876026237015626 0 0.27172886701365911 0.48149494601501602 0 0.26508273691052953 0.48170316949201941 0 0.26508273691052953 0.48170316949201941 0 0.25984575823582617 0.47566733088575902 0 0.25592324696427571 0.48408864606300089 0 0.26719372872725727 0.47602243255904042 0 0.26508273691052953 0.48170316949201941 0 0.25984575823582617 0.47566733088575902 0 0.26628674893056992 0.46923854841690299 0 0.25984575823582617 0.47566733088575902 0 0.25373728751647162 0.46698903846998702 0 0.26719372872725727 0.47602243255904042 0 0.26628674893056992 0.46923854841690299 0 0.25984575823582617 0.47566733088575902 0 0.24954949415829381 0.47699720464627271 0 0.25984575823582617 0.47566733088575902 0 0.25373728751647162 0.46698903846998702 0 0.24954949415829381 0.47699720464627271 0 0.25984575823582617 0.47566733088575902 0 0.25592324696427571 0.48408864606300089 0 0.2339199358041088 0.48802683570196781 0 0.25814829631105463 0.5 0 0.2618309442684002 0.49409638412166668 0 0.2339199358041088 0.48802683570196781 0 0.25592324696427571 0.48408864606300089 0 0.2618309442684002 0.49409638412166668 0 0.27549608960202832 0.49185853195930868 0 0.25814829631105463 0.5 0 0.2618309442684002 0.49409638412166668 0 0.26566124801886959 0.4876026237015626 0 0.25592324696427571 0.48408864606300089 0 0.2618309442684002 0.49409638412166668 0 0.26566124801886959 0.4876026237015626 0 0.26508273691052953 0.48170316949201941 0 0.25592324696427571 0.48408864606300089 0 0.248183222075121 0.44849845515780612 0 0.27447609454174993 0.44313452628095668 0 0.25740304227580602 0.42505560293530892 0 0.248183222075121 0.44849845515780612 0 0.2666031942319898 0.45445631908424611 0 0.27447609454174993 0.44313452628095668 0 0.248183222075121 0.44849845515780612 0 0.26123297402736562 0.46130238202040841 0 0.2666031942319898 0.45445631908424611 0 0.248183222075121 0.44849845515780612 0 0.25373728751647162 0.46698903846998702 0 0.26123297402736562 0.46130238202040841 0 0.26628674893056992 0.46923854841690299 0 0.25373728751647162 0.46698903846998702 0 0.26123297402736562 0.46130238202040841 0 0.27785881224475423 0.45699937353946729 0 0.27447609454174993 0.44313452628095668 0 0.28996294256564631 0.46045196511810088 0 0.26123297402736562 0.46130238202040841 0 0.2666031942319898 0.45445631908424611 0 0.2710342334298052 0.46310533891118372 0 0.2666031942319898 0.45445631908424611 0 0.2710342334298052 0.46310533891118372 0 0.27785881224475423 0.45699937353946729 0 0.27429173346244068 0.47382982948718161 0 0.26628674893056992 0.46923854841690299 0 0.2710342334298052 0.46310533891118372 0 0.26628674893056992 0.46923854841690299 0 0.26123297402736562 0.46130238202040841 0 0.2710342334298052 0.46310533891118372 0 0.27429173346244068 0.47382982948718161 0 0.2710342334298052 0.46310533891118372 0 0.2783908407118118 0.46556200274855553 0 0.2710342334298052 0.46310533891118372 0 0.2783908407118118 0.46556200274855553 0 0.27785881224475423 0.45699937353946729 0 0.2783908407118118 0.46556200274855553 0 0.27785881224475423 0.45699937353946729 0 0.28427220500969658 0.4632228289263865 0 0.2666031942319898 0.45445631908424611 0 0.27785881224475423 0.45699937353946729 0 0.27447609454174993 0.44313452628095668 0 0.27447609454174993 0.44313452628095668 0 0.28884504539653821 0.44734192349538199 0 0.29154914680769339 0.46121344962660482 0 0.27447609454174993 0.44313452628095668 0 0.29154914680769339 0.46121344962660482 0 0.27447609454174993 0.44313452628095668 0 0.28884504539653821 0.44734192349538199 0 0.28688395921287818 0.43561463228136799 0 0.28884504539653821 0.44734192349538199 0 0.29394862665218707 0.45367987982883318 0 0.29736739976818199 0.4430671294591475 0 0.28884504539653821 0.44734192349538199 0 0.29736739976818199 0.4430671294591475 0 0.28688395921287818 0.43561463228136799 0 0.27447609454174993 0.44313452628095668 0 0.28996294256564631 0.46045196511810088 0 0.29154914680769339 0.46121344962660482 0 0.28893130724193838 0.46837352250556841 0 0.28427220500969658 0.4632228289263865 0 0.28996294256564631 0.46045196511810088 0 0.2783908407118118 0.46556200274855553 0 0.28893130724193838 0.46837352250556841 0 0.28427220500969658 0.4632228289263865 0 0.27785881224475423 0.45699937353946729 0 0.28427220500969658 0.4632228289263865 0 0.28996294256564631 0.46045196511810088 0 0.28884504539653821 0.44734192349538199 0 0.29394862665218707 0.45367987982883318 0 0.29154914680769339 0.46121344962660482 0 0.29533905460894139 0.4584473375153052 0 0.29154914680769339 0.46121344962660482 0 0.3012183413958186 0.46218878732426338 0 0.29394862665218707 0.45367987982883318 0 0.29533905460894139 0.4584473375153052 0 0.29856367363452019 0.45751115763996408 0 0.29394862665218707 0.45367987982883318 0 0.29533905460894139 0.4584473375153052 0 0.29154914680769339 0.46121344962660482 0 0.28996294256564631 0.46045196511810088 0 0.29154914680769339 0.46121344962660482 0 0.28893130724193838 0.46837352250556841 0 0.28996294256564631 0.46045196511810088 0 0.29154914680769339 0.46121344962660482 0 0.30233760492330708 0.47263751746472399 0 0.28893130724193838 0.46837352250556841 0 0.29154914680769339 0.46121344962660482 0 0.31848048511226051 0.47414229975107047 0 0.29154914680769339 0.46121344962660482 0 0.3012183413958186 0.46218878732426338 0 0.31848048511226051 0.47414229975107047 0 0.29154914680769339 0.46121344962660482 0 0.31848048511226051 0.47414229975107047 0 0.3012183413958186 0.46218878732426338 0 0.31233629830199039 0.46335782014455468 0 0.30233760492330708 0.47263751746472399 0 0.29154914680769339 0.46121344962660482 0 0.3012183413958186 0.46218878732426338 0 0.30383873898261282 0.4567303889962569 0 0.30701359193931221 0.46000380578939309 0 0.3012183413958186 0.46218878732426338 0 0.29856367363452019 0.45751115763996408 0 0.30383873898261282 0.4567303889962569 0 0.29533905460894139 0.4584473375153052 0 0.3012183413958186 0.46218878732426338 0 0.29856367363452019 0.45751115763996408 0 0.29394862665218707 0.45367987982883318 0 0.29856367363452019 0.45751115763996408 0 0.3015174392700794 0.45186687084563582 0 0.30383873898261282 0.4567303889962569 0 0.3015174392700794 0.45186687084563582 0 0.30758146405994258 0.45239814825358871 0 0.29856367363452019 0.45751115763996408 0 0.30383873898261282 0.4567303889962569 0 0.3015174392700794 0.45186687084563582 0 0.31558212605901931 0.45097500282624892 0 0.31061035304215151 0.45719323075669288 0 0.30758146405994258 0.45239814825358871 0 0.30383873898261282 0.4567303889962569 0 0.31061035304215151 0.45719323075669288 0 0.30758146405994258 0.45239814825358871 0 0.31061035304215151 0.45719323075669288 0 0.30701359193931221 0.46000380578939309 0 0.31233629830199039 0.46335782014455468 0 0.30383873898261282 0.4567303889962569 0 0.31061035304215151 0.45719323075669288 0 0.30701359193931221 0.46000380578939309 0 0.3012183413958186 0.46218878732426338 0 0.30701359193931221 0.46000380578939309 0 0.31233629830199039 0.46335782014455468 0 0.29736739976818199 0.4430671294591475 0 0.3015174392700794 0.45186687084563582 0 0.30864494675452159 0.44651470018036188 0 0.29394862665218707 0.45367987982883318 0 0.29736739976818199 0.4430671294591475 0 0.3015174392700794 0.45186687084563582 0 0.31558212605901931 0.45097500282624892 0 0.30758146405994258 0.45239814825358871 0 0.30864494675452159 0.44651470018036188 0 0.3015174392700794 0.45186687084563582 0 0.30758146405994258 0.45239814825358871 0 0.30864494675452159 0.44651470018036188 0 0.29736739976818199 0.4430671294591475 0 0.30864494675452159 0.44651470018036188 0 0.30854555279023238 0.4369378474078392 0 0.31787573657985491 0.44088803639790758 0 0.30864494675452159 0.44651470018036188 0 0.30854555279023238 0.4369378474078392 0 0.30854555279023238 0.4369378474078392 0 0.31071008386638738 0.42838753756421633 0 0.29785058058300917 0.43005944985957562 0 0.30854555279023238 0.4369378474078392 0 0.31071008386638738 0.42838753756421633 0 0.31750181927551829 0.43306388049110872 0 0.31071008386638738 0.42838753756421633 0 0.30382099044667782 0.41777650649741588 0 0.31373301833695399 0.41971985146442919 0 0.31071008386638738 0.42838753756421633 0 0.29785058058300917 0.43005944985957562 0 0.30382099044667782 0.41777650649741588 0 0.29736739976818199 0.4430671294591475 0 0.30854555279023238 0.4369378474078392 0 0.29785058058300917 0.43005944985957562 0 0.30382099044667782 0.41777650649741588 0 0.30813516972540639 0.40555487507812682 0 0.31332308530395292 0.41098698817942347 0 0.30813516972540639 0.40555487507812682 0 0.3134300062073726 0.4048034174822443 0 0.31332308530395292 0.41098698817942347 0 0.30382099044667782 0.41777650649741588 0 0.31332308530395292 0.41098698817942347 0 0.31373301833695399 0.41971985146442919 0 0.30382099044667782 0.41777650649741588 0 0.2987830970667042 0.40454310081938749 0 0.30813516972540639 0.40555487507812682 0 0.30382099044667782 0.41777650649741588 0 0.28123995593570472 0.42044412189714631 0 0.2987830970667042 0.40454310081938749 0 0.29785058058300917 0.43005944985957562 0 0.28688395921287818 0.43561463228136799 0 0.28123995593570472 0.42044412189714631 0 0.29785058058300917 0.43005944985957562 0 0.30382099044667782 0.41777650649741588 0 0.28123995593570472 0.42044412189714631 0 0.29736739976818199 0.4430671294591475 0 0.29785058058300917 0.43005944985957562 0 0.28688395921287818 0.43561463228136799 0 0.27447609454174993 0.44313452628095668 0 0.25740304227580602 0.42505560293530892 0 0.27447609454174993 0.44313452628095668 0 0.28688395921287818 0.43561463228136799 0 0.28123995593570472 0.42044412189714631 0 0.27447609454174993 0.44313452628095668 0 0.28123995593570472 0.42044412189714631 0 0.25740304227580602 0.42505560293530892 0 0.26697769294530149 0.41001876698490219 0 0.28123995593570472 0.42044412189714631 0 0.25740304227580602 0.42505560293530892 0 0.26697769294530149 0.41001876698490219 0 0.28123995593570472 0.42044412189714631 0 0.28792417255113473 0.39325063857742781 0 0.24739082964546669 0.41085114646716159 0 0.26697769294530149 0.41001876698490219 0 0.25740304227580602 0.42505560293530892 0 0.24930950522295969 0.36634064837762392 0 0.26136201354095318 0.39397265374594242 0 0.27365474770264953 0.37031793278039388 0 0.24739082964546669 0.41085114646716159 0 0.26697769294530149 0.41001876698490219 0 0.26136201354095318 0.39397265374594242 0 0.26136201354095318 0.39397265374594242 0 0.28792417255113473 0.39325063857742781 0 0.26697769294530149 0.41001876698490219 0 0.26136201354095318 0.39397265374594242 0 0.28792417255113473 0.39325063857742781 0 0.26136201354095318 0.39397265374594242 0 0.28792417255113473 0.39325063857742781 0 0.27365474770264953 0.37031793278039388 0 0.28792417255113473 0.39325063857742781 0 0.29141245386215869 0.37256426201019022 0 0.27365474770264953 0.37031793278039388 0 0.28792417255113473 0.39325063857742781 0 0.30235654496716291 0.38157561761762521 0 0.29141245386215869 0.37256426201019022 0 0.28123995593570472 0.42044412189714631 0 0.28792417255113473 0.39325063857742781 0 0.2987830970667042 0.40454310081938749 0 0.28792417255113473 0.39325063857742781 0 0.31195981725372612 0.39606902327467158 0 0.31448633156131622 0.39252862340891331 0 0.28792417255113473 0.39325063857742781 0 0.31448633156131622 0.39252862340891331 0 0.28792417255113473 0.39325063857742781 0 0.2987830970667042 0.40454310081938749 0 0.31195981725372612 0.39606902327467158 0 0.2987830970667042 0.40454310081938749 0 0.31195981725372612 0.39606902327467158 0 0.30813516972540639 0.40555487507812682 0 0.31195981725372612 0.39606902327467158 0 0.30813516972540639 0.40555487507812682 0 0.3134300062073726 0.4048034174822443 0 0.28792417255113473 0.39325063857742781 0 0.30235654496716291 0.38157561761762521 0 0.31448633156131622 0.39252862340891331 0 0.30235654496716291 0.38157561761762521 0 0.31309978976200131 0.38300045117629528 0 0.31448633156131622 0.39252862340891331 0 0.30235654496716291 0.38157561761762521 0 0.31309978976200131 0.38300045117629528 0 0.31428915182240591 0.37415962385443929 0 0.31309978976200131 0.38300045117629528 0 0.32126713069712032 0.38373793982420351 0 0.31428915182240591 0.37415962385443929 0 0.32126713069712032 0.38373793982420351 0 0.32228399849991463 0.39357812546837501 0 0.31448633156131622 0.39252862340891331 0 0.31309978976200131 0.38300045117629528 0 0.32126713069712032 0.38373793982420351 0 0.31448633156131622 0.39252862340891331 0 0.32126713069712032 0.38373793982420351 0 0.33011759030460558 0.39105699067261779 0 0.32228399849991463 0.39357812546837501 0 0.32126713069712032 0.38373793982420351 0 0.32662554411065181 0.37048668954820912 0 0.31428915182240591 0.37415962385443929 0 0.32126713069712032 0.38373793982420351 0 0.33496986441566717 0.37994058085698762 0 0.32662554411065181 0.37048668954820912 0 0.33496986441566717 0.37994058085698762 0 0.33011759030460558 0.39105699067261779 0 0.35673545023905462 0.38846651358584339 0 0.32126713069712032 0.38373793982420351 0 0.33496986441566717 0.37994058085698762 0 0.33011759030460558 0.39105699067261779 0 0.33011759030460558 0.39105699067261779 0 0.33358912268280771 0.40449805016147272 0 0.35673545023905462 0.38846651358584339 0 0.33011759030460558 0.39105699067261779 0 0.33358912268280771 0.40449805016147272 0 0.32228399849991463 0.39357812546837501 0 0.31195981725372612 0.39606902327467158 0 0.33358912268280771 0.40449805016147272 0 0.32228399849991463 0.39357812546837501 0 0.31195981725372612 0.39606902327467158 0 0.33358912268280771 0.40449805016147272 0 0.31195981725372612 0.39606902327467158 0 0.33358912268280771 0.40449805016147272 0 0.32030195254640492 0.40660278339675532 0 0.31195981725372612 0.39606902327467158 0 0.32228399849991463 0.39357812546837501 0 0.31448633156131622 0.39252862340891331 0 0.31195981725372612 0.39606902327467158 0 0.3134300062073726 0.4048034174822443 0 0.32030195254640492 0.40660278339675532 0 0.3134300062073726 0.4048034174822443 0 0.32030195254640492 0.40660278339675532 0 0.31332308530395292 0.41098698817942347 0 0.32030195254640492 0.40660278339675532 0 0.31332308530395292 0.41098698817942347 0 0.3209399816264783 0.41492543600192677 0 0.31373301833695399 0.41971985146442919 0 0.3209399816264783 0.41492543600192677 0 0.32095348596544582 0.42446440848485778 0 0.31332308530395292 0.41098698817942347 0 0.31373301833695399 0.41971985146442919 0 0.3209399816264783 0.41492543600192677 0 0.3209399816264783 0.41492543600192677 0 0.32095348596544582 0.42446440848485778 0 0.33039327205485108 0.41839920449904539 0 0.3209399816264783 0.41492543600192677 0 0.32716060378546369 0.40895055069656933 0 0.33039327205485108 0.41839920449904539 0 0.32030195254640492 0.40660278339675532 0 0.3209399816264783 0.41492543600192677 0 0.32716060378546369 0.40895055069656933 0 0.33358912268280771 0.40449805016147272 0 0.32030195254640492 0.40660278339675532 0 0.32716060378546369 0.40895055069656933 0 0.31787573657985491 0.44088803639790758 0 0.30854555279023238 0.4369378474078392 0 0.31750181927551829 0.43306388049110872 0 0.31071008386638738 0.42838753756421633 0 0.31373301833695399 0.41971985146442919 0 0.32095348596544582 0.42446440848485778 0 0.31071008386638738 0.42838753756421633 0 0.31750181927551829 0.43306388049110872 0 0.32095348596544582 0.42446440848485778 0 0.32095348596544582 0.42446440848485778 0 0.32586322586623662 0.43470765825711299 0 0.3286640743149627 0.42703273924312252 0 0.32095348596544582 0.42446440848485778 0 0.3286640743149627 0.42703273924312252 0 0.33039327205485108 0.41839920449904539 0 0.31750181927551829 0.43306388049110872 0 0.32095348596544582 0.42446440848485778 0 0.32586322586623662 0.43470765825711299 0 0.31787573657985491 0.44088803639790758 0 0.31750181927551829 0.43306388049110872 0 0.32586322586623662 0.43470765825711299 0 0.33400076520677202 0.44096449770483592 0 0.32586322586623662 0.43470765825711299 0 0.33744631337331737 0.43055968573147402 0 0.32586322586623662 0.43470765825711299 0 0.3286640743149627 0.42703273924312252 0 0.33744631337331737 0.43055968573147402 0 0.3286640743149627 0.42703273924312252 0 0.33744631337331737 0.43055968573147402 0 0.33039327205485108 0.41839920449904539 0 0.33744631337331737 0.43055968573147402 0 0.33039327205485108 0.41839920449904539 0 0.34248376235593181 0.41888477349028957 0 0.33358912268280771 0.40449805016147272 0 0.32716060378546369 0.40895055069656933 0 0.33039327205485108 0.41839920449904539 0 0.33358912268280771 0.40449805016147272 0 0.33039327205485108 0.41839920449904539 0 0.34248376235593181 0.41888477349028957 0 0.33358912268280771 0.40449805016147272 0 0.32716060378546369 0.40895055069656933 0 0.33358912268280771 0.40449805016147272 0 0.35629831172742149 0.41334791201497761 0 0.33358912268280771 0.40449805016147272 0 0.34248376235593181 0.41888477349028957 0 0.35629831172742149 0.41334791201497761 0 0.34248376235593181 0.41888477349028957 0 0.35629831172742149 0.41334791201497761 0 0.3546917919412641 0.42761901504448241 0 0.34695892692303859 0.44265085345806121 0 0.33744631337331737 0.43055968573147402 0 0.3546917919412641 0.42761901504448241 0 0.36381029270335669 0.4386108929793861 0 0.34695892692303859 0.44265085345806121 0 0.3546917919412641 0.42761901504448241 0 0.33744631337331737 0.43055968573147402 0 0.34248376235593181 0.41888477349028957 0 0.3546917919412641 0.42761901504448241 0 0.36381029270335669 0.4386108929793861 0 0.3546917919412641 0.42761901504448241 0 0.37900750077203638 0.42219777386847979 0 0.36381029270335669 0.4386108929793861 0 0.37900750077203638 0.42219777386847979 0 0.38152211293332111 0.44384165270417247 0 0.35629831172742149 0.41334791201497761 0 0.3546917919412641 0.42761901504448241 0 0.37900750077203638 0.42219777386847979 0 0.35629831172742149 0.41334791201497761 0 0.36706010153077601 0.39956194836620662 0 0.37706074077422902 0.40811885852102658 0 0.35629831172742149 0.41334791201497761 0 0.37900750077203638 0.42219777386847979 0 0.35629831172742149 0.41334791201497761 0 0.37706074077422902 0.40811885852102658 0 0.37900750077203638 0.42219777386847979 0 0.35629831172742149 0.41334791201497761 0 0.36706010153077601 0.39956194836620662 0 0.35673545023905462 0.38846651358584339 0 0.36706010153077601 0.39956194836620662 0 0.35673545023905462 0.38846651358584339 0 0.37847125928476633 0.39027691776562218 0 0.36706010153077601 0.39956194836620662 0 0.37847125928476633 0.39027691776562218 0 0.37706074077422902 0.40811885852102658 0 0.35673545023905462 0.38846651358584339 0 0.37988177779530408 0.37243497701021783 0 0.35673545023905462 0.38846651358584339 0 0.37988177779530408 0.37243497701021783 0 0.37847125928476633 0.39027691776562218 0 0.33496986441566717 0.37994058085698762 0 0.35673545023905462 0.38846651358584339 0 0.34066938980517658 0.36638506523112357 0 0.33358912268280771 0.40449805016147272 0 0.35673545023905462 0.38846651358584339 0 0.33358912268280771 0.40449805016147272 0 0.35629831172742149 0.41334791201497761 0 0.35673545023905462 0.38846651358584339 0 0.35589683601826 0.3498651420312463 0 0.35719992237353421 0.36375475509988697 0 0.34330440489280167 0.35323441522976912 0 0.35589683601826 0.3498651420312463 0 0.34677047880437922 0.3399765437206782 0 0.34330440489280167 0.35323441522976912 0 0.35673545023905462 0.38846651358584339 0 0.35719992237353421 0.36375475509988697 0 0.34066938980517658 0.36638506523112357 0 0.35719992237353421 0.36375475509988697 0 0.34330440489280167 0.35323441522976912 0 0.34066938980517658 0.36638506523112357 0 0.35673545023905462 0.38846651358584339 0 0.35719992237353421 0.36375475509988697 0 0.37988177779530408 0.37243497701021783 0 0.35719992237353421 0.36375475509988697 0 0.36769647663340399 0.35378736866089111 0 0.37988177779530408 0.37243497701021783 0 0.36769647663340399 0.35378736866089111 0 0.36451289738718118 0.33857262744500621 0 0.38186196520119858 0.34738717642010852 0 0.35589683601826 0.3498651420312463 0 0.35719992237353421 0.36375475509988697 0 0.36769647663340399 0.35378736866089111 0 0.35589683601826 0.3498651420312463 0 0.36769647663340399 0.35378736866089111 0 0.36451289738718118 0.33857262744500621 0 0.36451289738718118 0.33857262744500621 0 0.38186196520119858 0.34738717642010852 0 0.36745903947267122 0.32914287027121231 0 0.36451289738718118 0.33857262744500621 0 0.38246028942242799 0.33981884943402801 0 0.36745903947267122 0.32914287027121231 0 0.36451289738718118 0.33857262744500621 0 0.35316609663111032 0.32357426034258752 0 0.36745903947267122 0.32914287027121231 0 0.3696968744499648 0.31460574386322759 0 0.38246028942242799 0.33981884943402801 0 0.36745903947267122 0.32914287027121231 0 0.3696968744499648 0.31460574386322759 0 0.35316609663111032 0.32357426034258752 0 0.35316609663111032 0.32357426034258752 0 0.33619917930862081 0.3158029542009167 0 0.34946046799979458 0.3082920415342798 0 0.3696968744499648 0.31460574386322759 0 0.35316609663111032 0.32357426034258752 0 0.34946046799979458 0.3082920415342798 0 0.36451289738718118 0.33857262744500621 0 0.35316609663111032 0.32357426034258752 0 0.34677047880437922 0.3399765437206782 0 0.35316609663111032 0.32357426034258752 0 0.34677047880437922 0.3399765437206782 0 0.33352858288624337 0.33109752471290749 0 0.35589683601826 0.3498651420312463 0 0.36451289738718118 0.33857262744500621 0 0.34677047880437922 0.3399765437206782 0 0.34677047880437922 0.3399765437206782 0 0.33352858288624337 0.33109752471290749 0 0.33152936749394191 0.34423896513078223 0 0.35316609663111032 0.32357426034258752 0 0.33352858288624337 0.33109752471290749 0 0.33619917930862081 0.3158029542009167 0 0.33352858288624337 0.33109752471290749 0 0.33619917930862081 0.3158029542009167 0 0.31785490446770398 0.31750477766204438 0 0.33352858288624337 0.33109752471290749 0 0.31785490446770398 0.31750477766204438 0 0.31910994127834869 0.33584738814319542 0 0.31785490446770398 0.31750477766204438 0 0.31910994127834869 0.33584738814319542 0 0.30233856170943058 0.33226111830223271 0 0.31910994127834869 0.33584738814319542 0 0.31281529755594201 0.3504873767637125 0 0.33152936749394191 0.34423896513078223 0 0.33352858288624337 0.33109752471290749 0 0.31910994127834869 0.33584738814319542 0 0.33152936749394191 0.34423896513078223 0 0.31281529755594201 0.3504873767637125 0 0.32943516195728112 0.35710911806568779 0 0.31731954285029063 0.36350257809532149 0 0.31281529755594201 0.3504873767637125 0 0.33152936749394191 0.34423896513078223 0 0.32943516195728112 0.35710911806568779 0 0.33152936749394191 0.34423896513078223 0 0.32943516195728112 0.35710911806568779 0 0.34330440489280167 0.35323441522976912 0 0.32943516195728112 0.35710911806568779 0 0.34330440489280167 0.35323441522976912 0 0.34066938980517658 0.36638506523112357 0 0.34677047880437922 0.3399765437206782 0 0.33152936749394191 0.34423896513078223 0 0.34330440489280167 0.35323441522976912 0 0.32943516195728112 0.35710911806568779 0 0.34066938980517658 0.36638506523112357 0 0.32662554411065181 0.37048668954820912 0 0.33496986441566717 0.37994058085698762 0 0.34066938980517658 0.36638506523112357 0 0.32662554411065181 0.37048668954820912 0 0.32943516195728112 0.35710911806568779 0 0.32662554411065181 0.37048668954820912 0 0.31731954285029063 0.36350257809532149 0 0.32662554411065181 0.37048668954820912 0 0.31731954285029063 0.36350257809532149 0 0.31428915182240591 0.37415962385443929 0 0.30235654496716291 0.38157561761762521 0 0.31428915182240591 0.37415962385443929 0 0.30343255880517239 0.36527008224455898 0 0.31731954285029063 0.36350257809532149 0 0.31428915182240591 0.37415962385443929 0 0.30343255880517239 0.36527008224455898 0 0.30235654496716291 0.38157561761762521 0 0.30343255880517239 0.36527008224455898 0 0.29141245386215869 0.37256426201019022 0 0.31281529755594201 0.3504873767637125 0 0.31731954285029063 0.36350257809532149 0 0.30343255880517239 0.36527008224455898 0 0.31281529755594201 0.3504873767637125 0 0.2896942452846743 0.35240703883094499 0 0.30233856170943058 0.33226111830223271 0 0.31281529755594201 0.3504873767637125 0 0.30343255880517239 0.36527008224455898 0 0.2896942452846743 0.35240703883094499 0 0.30343255880517239 0.36527008224455898 0 0.2896942452846743 0.35240703883094499 0 0.29141245386215869 0.37256426201019022 0 0.2896942452846743 0.35240703883094499 0 0.29141245386215869 0.37256426201019022 0 0.27365474770264953 0.37031793278039388 0 0.2896942452846743 0.35240703883094499 0 0.27365474770264953 0.37031793278039388 0 0.26634010136235731 0.34607265232004619 0 0.24791100189887619 0.3413887820885585 0 0.24930950522295969 0.36634064837762392 0 0.26634010136235731 0.34607265232004619 0 0.24930950522295969 0.36634064837762392 0 0.27365474770264953 0.37031793278039388 0 0.26634010136235731 0.34607265232004619 0 0.24791100189887619 0.3413887820885585 0 0.26634010136235731 0.34607265232004619 0 0.25753568847131048 0.32254585318931522 0 0.2896942452846743 0.35240703883094499 0 0.26634010136235731 0.34607265232004619 0 0.27990689912636751 0.32757193782052341 0 0.26634010136235731 0.34607265232004619 0 0.25753568847131048 0.32254585318931522 0 0.27990689912636751 0.32757193782052341 0 0.25753568847131048 0.32254585318931522 0 0.27990689912636751 0.32757193782052341 0 0.27349681194728281 0.30699507415469718 0 0.27990689912636751 0.32757193782052341 0 0.30233856170943058 0.33226111830223271 0 0.29608964162564783 0.31190119500300689 0 0.27990689912636751 0.32757193782052341 0 0.29608964162564783 0.31190119500300689 0 0.27349681194728281 0.30699507415469718 0 0.2896942452846743 0.35240703883094499 0 0.27990689912636751 0.32757193782052341 0 0.30233856170943058 0.33226111830223271 0 0.31910994127834869 0.33584738814319542 0 0.31281529755594201 0.3504873767637125 0 0.30233856170943058 0.33226111830223271 0 0.31785490446770398 0.31750477766204438 0 0.30233856170943058 0.33226111830223271 0 0.29608964162564783 0.31190119500300689 0 0.31148711830455589 0.29366827196606121 0 0.29145355419854602 0.29340599011248319 0 0.29608964162564783 0.31190119500300689 0 0.31785490446770398 0.31750477766204438 0 0.31148711830455589 0.29366827196606121 0 0.29608964162564783 0.31190119500300689 0 0.31148711830455589 0.29366827196606121 0 0.29145355419854602 0.29340599011248319 0 0.30340821542320651 0.26416296078786061 0 0.29145355419854602 0.29340599011248319 0 0.27027372080827711 0.28922263426437889 0 0.28357243066750049 0.275488749165059 0 0.29145355419854602 0.29340599011248319 0 0.29608964162564783 0.31190119500300689 0 0.27349681194728281 0.30699507415469718 0 0.29145355419854602 0.29340599011248319 0 0.27349681194728281 0.30699507415469718 0 0.27027372080827711 0.28922263426437889 0 0.24554501401955439 0.29796694992592643 0 0.26125235627430821 0.27284235374216859 0 0.24554501401955439 0.29796694992592643 0 0.27027372080827711 0.28922263426437889 0 0.26125235627430821 0.27284235374216859 0 0.24554501401955439 0.29796694992592643 0 0.25753568847131048 0.32254585318931522 0 0.27349681194728281 0.30699507415469718 0 0.24554501401955439 0.29796694992592643 0 0.27349681194728281 0.30699507415469718 0 0.27027372080827711 0.28922263426437889 0 0.2473296210996663 0.25206075293441937 0 0.26125235627430821 0.27284235374216859 0 0.27695969852906288 0.24771775755841141 0 0.26125235627430821 0.27284235374216859 0 0.27837410683097952 0.25417337602654111 0 0.28357243066750049 0.275488749165059 0 0.27027372080827711 0.28922263426437889 0 0.26125235627430821 0.27284235374216859 0 0.28357243066750049 0.275488749165059 0 0.26125235627430821 0.27284235374216859 0 0.27695969852906288 0.24771775755841141 0 0.26125235627430821 0.27284235374216859 0 0.27837410683097952 0.25417337602654111 0 0.27695969852906288 0.24771775755841141 0 0.27837410683097952 0.25417337602654111 0 0.27695969852906288 0.24771775755841141 0 0.27837410683097952 0.25417337602654111 0 0.28896116196861188 0.25019635267523371 0 0.27695969852906288 0.24771775755841141 0 0.27837410683097952 0.25417337602654111 0 0.28978775036645271 0.26193333887861597 0 0.28357243066750049 0.275488749165059 0 0.27837410683097952 0.25417337602654111 0 0.28896116196861188 0.25019635267523371 0 0.28978775036645271 0.26193333887861597 0 0.28896116196861188 0.25019635267523371 0 0.28978775036645271 0.26193333887861597 0 0.30340821542320651 0.26416296078786061 0 0.29145355419854602 0.29340599011248319 0 0.28357243066750049 0.275488749165059 0 0.30340821542320651 0.26416296078786061 0 0.28978775036645271 0.26193333887861597 0 0.28357243066750049 0.275488749165059 0 0.30340821542320651 0.26416296078786061 0 0.30340821542320651 0.26416296078786061 0 0.32115388909985593 0.24377570027840681 0 0.28896116196861188 0.25019635267523371 0 0.30340821542320651 0.26416296078786061 0 0.29939849858089562 0.2377216534567074 0 0.30340821542320651 0.26416296078786061 0 0.32831557859389598 0.27564019804934248 0 0.32115388909985593 0.24377570027840681 0 0.32831557859389598 0.27564019804934248 0 0.34777173608135259 0.26434062380836271 0 0.32115388909985593 0.24377570027840681 0 0.34777173608135259 0.26434062380836271 0 0.32115388909985593 0.24377570027840681 0 0.34914526320868788 0.2427341120546278 0 0.31148711830455589 0.29366827196606121 0 0.30340821542320651 0.26416296078786061 0 0.32831557859389598 0.27564019804934248 0 0.31148711830455589 0.29366827196606121 0 0.32831557859389598 0.27564019804934248 0 0.33130673013177631 0.29808461097223959 0 0.31785490446770398 0.31750477766204438 0 0.31148711830455589 0.29366827196606121 0 0.33130673013177631 0.29808461097223959 0 0.33619917930862081 0.3158029542009167 0 0.33130673013177631 0.29808461097223959 0 0.34946046799979458 0.3082920415342798 0 0.33619917930862081 0.3158029542009167 0 0.31785490446770398 0.31750477766204438 0 0.33130673013177631 0.29808461097223959 0 0.32831557859389598 0.27564019804934248 0 0.33130673013177631 0.29808461097223959 0 0.35693345947750099 0.28939263829242762 0 0.33130673013177631 0.29808461097223959 0 0.35693345947750099 0.28939263829242762 0 0.34946046799979458 0.3082920415342798 0 0.3696968744499648 0.31460574386322759 0 0.35693345947750099 0.28939263829242762 0 0.34946046799979458 0.3082920415342798 0 0.3696968744499648 0.31460574386322759 0 0.35693345947750099 0.28939263829242762 0 0.37717537314614502 0.29684914697173698 0 0.3696968744499648 0.31460574386322759 0 0.35693345947750099 0.28939263829242762 0 0.35693345947750099 0.28939263829242762 0 0.37253404679788749 0.27636974387154412 0 0.37717537314614502 0.29684914697173698 0 0.37253404679788749 0.27636974387154412 0 0.36375060400198012 0.25713203304615639 0 0.34777173608135259 0.26434062380836271 0 0.37253404679788749 0.27636974387154412 0 0.36375060400198012 0.25713203304615639 0 0.38092028986169441 0.26002383355944159 0 0.36375060400198012 0.25713203304615639 0 0.34777173608135259 0.26434062380836271 0 0.34914526320868788 0.2427341120546278 0 0.32831557859389598 0.27564019804934248 0 0.35693345947750099 0.28939263829242762 0 0.34777173608135259 0.26434062380836271 0 0.35693345947750099 0.28939263829242762 0 0.37253404679788749 0.27636974387154412 0 0.34777173608135259 0.26434062380836271 0 0.39374263136585902 0.2705820005625339 0 0.38692086586773672 0.28659149633293252 0 0.40210385240140889 0.28647840552362958 0 0.39374263136585902 0.2705820005625339 0 0.40984934225192071 0.2742404673143149 0 0.40983389272536819 0.2594676429656167 0 0.39374263136585902 0.2705820005625339 0 0.40210385240140889 0.28647840552362958 0 0.40984934225192071 0.2742404673143149 0 0.39374263136585902 0.2705820005625339 0 0.39412914348324429 0.25151601636080712 0 0.40983389272536819 0.2594676429656167 0 0.39412914348324429 0.25151601636080712 0 0.40983389272536819 0.2594676429656167 0 0.4099860569781118 0.24280118449828331 0 0.39374263136585902 0.2705820005625339 0 0.39412914348324429 0.25151601636080712 0 0.38092028986169441 0.26002383355944159 0 0.36375060400198012 0.25713203304615639 0 0.38092028986169441 0.26002383355944159 0 0.38044502365950122 0.2445193739561668 0 0.39412914348324429 0.25151601636080712 0 0.38092028986169441 0.26002383355944159 0 0.38044502365950122 0.2445193739561668 0 0.37253404679788749 0.27636974387154412 0 0.39374263136585902 0.2705820005625339 0 0.38092028986169441 0.26002383355944159 0 0.37253404679788749 0.27636974387154412 0 0.39374263136585902 0.2705820005625339 0 0.38692086586773672 0.28659149633293252 0 0.37717537314614502 0.29684914697173698 0 0.38692086586773672 0.28659149633293252 0 0.39335518056421998 0.29997806038272362 0 0.37253404679788749 0.27636974387154412 0 0.37717537314614502 0.29684914697173698 0 0.38692086586773672 0.28659149633293252 0 0.37717537314614502 0.29684914697173698 0 0.38463323707017821 0.31233278462442871 0 0.39335518056421998 0.29997806038272362 0 0.3696968744499648 0.31460574386322759 0 0.37717537314614502 0.29684914697173698 0 0.38463323707017821 0.31233278462442871 0 0.38463323707017821 0.31233278462442871 0 0.39335518056421998 0.29997806038272362 0 0.40093331965002299 0.31325267736103962 0 0.39335518056421998 0.29997806038272362 0 0.40959818973242951 0.30066893043780052 0 0.40093331965002299 0.31325267736103962 0 0.39335518056421998 0.29997806038272362 0 0.40210385240140889 0.28647840552362958 0 0.40959818973242951 0.30066893043780052 0 0.38692086586773672 0.28659149633293252 0 0.39335518056421998 0.29997806038272362 0 0.40210385240140889 0.28647840552362958 0 0.40210385240140889 0.28647840552362958 0 0.41915690462628741 0.28680947811147228 0 0.40959818973242951 0.30066893043780052 0 0.40210385240140889 0.28647840552362958 0 0.41915690462628741 0.28680947811147228 0 0.40984934225192071 0.2742404673143149 0 0.41915690462628741 0.28680947811147228 0 0.40959818973242951 0.30066893043780052 0 0.4251176271224365 0.30072089377295702 0 0.40959818973242951 0.30066893043780052 0 0.42009443846921801 0.31439281644811651 0 0.40093331965002299 0.31325267736103962 0 0.40959818973242951 0.30066893043780052 0 0.4251176271224365 0.30072089377295702 0 0.42009443846921801 0.31439281644811651 0 0.4251176271224365 0.30072089377295702 0 0.44079793157890579 0.31308125058209912 0 0.42009443846921801 0.31439281644811651 0 0.4251176271224365 0.30072089377295702 0 0.43803109114333449 0.28904463780253659 0 0.44079793157890579 0.31308125058209912 0 0.41915690462628741 0.28680947811147228 0 0.4251176271224365 0.30072089377295702 0 0.43803109114333449 0.28904463780253659 0 0.41915690462628741 0.28680947811147228 0 0.42767542666621011 0.26818481081031581 0 0.43803109114333449 0.28904463780253659 0 0.41915690462628741 0.28680947811147228 0 0.42767542666621011 0.26818481081031581 0 0.40984934225192071 0.2742404673143149 0 0.42767542666621011 0.26818481081031581 0 0.40984934225192071 0.2742404673143149 0 0.40983389272536819 0.2594676429656167 0 0.42767542666621011 0.26818481081031581 0 0.40983389272536819 0.2594676429656167 0 0.42362075560686269 0.24948137824744521 0 0.40983389272536819 0.2594676429656167 0 0.42362075560686269 0.24948137824744521 0 0.4099860569781118 0.24280118449828331 0 0.42767542666621011 0.26818481081031581 0 0.42362075560686269 0.24948137824744521 0 0.44411471448451068 0.24882935926865121 0 0.42767542666621011 0.26818481081031581 0 0.45466518301631548 0.26819187551991391 0 0.44411471448451068 0.24882935926865121 0 0.42767542666621011 0.26818481081031581 0 0.45466518301631548 0.26819187551991391 0 0.43803109114333449 0.28904463780253659 0 0.45466518301631548 0.26819187551991391 0 0.4783260241027707 0.27359910190858139 0 0.4609092626154685 0.29460120109935878 0 0.45466518301631548 0.26819187551991391 0 0.44411471448451068 0.24882935926865121 0 0.4723665485238302 0.2463561755010408 0 0.45466518301631548 0.26819187551991391 0 0.4783260241027707 0.27359910190858139 0 0.4723665485238302 0.2463561755010408 0 0.4783260241027707 0.27359910190858139 0 0.5 0.25528656727589433 0 0.4723665485238302 0.2463561755010408 0 0.4783260241027707 0.27359910190858139 0 0.5 0.25528656727589433 0 0.5 0.28452211737790611 0 0.5 0.28452211737790611 0 0.48178432504399482 0.30306430050541228 0 0.5 0.31375766747991768 0 0.4783260241027707 0.27359910190858139 0 0.5 0.28452211737790611 0 0.48178432504399482 0.30306430050541228 0 0.4783260241027707 0.27359910190858139 0 0.48178432504399482 0.30306430050541228 0 0.4609092626154685 0.29460120109935878 0 0.48178432504399482 0.30306430050541228 0 0.4609092626154685 0.29460120109935878 0 0.46715334221462163 0.32101052667880359 0 0.4609092626154685 0.29460120109935878 0 0.46715334221462163 0.32101052667880359 0 0.4609092626154685 0.29460120109935878 0 0.44079793157890579 0.31308125058209912 0 0.46715334221462163 0.32101052667880359 0 0.45466518301631548 0.26819187551991391 0 0.4609092626154685 0.29460120109935878 0 0.45466518301631548 0.26819187551991391 0 0.4609092626154685 0.29460120109935878 0 0.43803109114333449 0.28904463780253659 0 0.4609092626154685 0.29460120109935878 0 0.43803109114333449 0.28904463780253659 0 0.44079793157890579 0.31308125058209912 0 0.44079793157890579 0.31308125058209912 0 0.45157079912517861 0.33109015019043497 0 0.43184879930870129 0.32983888489381918 0 0.45157079912517861 0.33109015019043497 0 0.44582032491270013 0.34874162068414077 0 0.43184879930870129 0.32983888489381918 0 0.45157079912517861 0.33109015019043497 0 0.47339742181377459 0.34741985225824867 0 0.44582032491270013 0.34874162068414077 0 0.45157079912517861 0.33109015019043497 0 0.46715334221462163 0.32101052667880359 0 0.47339742181377459 0.34741985225824867 0 0.44079793157890579 0.31308125058209912 0 0.45157079912517861 0.33109015019043497 0 0.46715334221462163 0.32101052667880359 0 0.48178432504399482 0.30306430050541228 0 0.46715334221462163 0.32101052667880359 0 0.48431732133110839 0.33089518848790628 0 0.46715334221462163 0.32101052667880359 0 0.48431732133110839 0.33089518848790628 0 0.47339742181377459 0.34741985225824867 0 0.48431732133110839 0.33089518848790628 0 0.48769320645875369 0.35118311704373101 0 0.47339742181377459 0.34741985225824867 0 0.46715334221462163 0.32101052667880359 0 0.47339742181377459 0.34741985225824867 0 0.48431732133110839 0.33089518848790628 0 0.5 0.34299321758192952 0 0.48769320645875369 0.35118311704373101 0 0.48431732133110839 0.33089518848790628 0 0.5 0.34299321758192952 0 0.5 0.31375766747991768 0 0.48178432504399482 0.30306430050541228 0 0.48431732133110839 0.33089518848790628 0 0.5 0.31375766747991768 0 0.49479246006051758 0.36414969788677148 0 0.4914940220637446 0.38278092281664661 0 0.5 0.37222876768394142 0 0.49479246006051758 0.36414969788677148 0 0.4914940220637446 0.38278092281664661 0 0.5 0.34299321758192952 0 0.5 0.37222876768394142 0 0.49479246006051758 0.36414969788677148 0 0.49479246006051758 0.36414969788677148 0 0.47964150141292772 0.37382917783769359 0 0.4914940220637446 0.38278092281664661 0 0.49479246006051758 0.36414969788677148 0 0.48769320645875369 0.35118311704373101 0 0.47964150141292772 0.37382917783769359 0 0.5 0.34299321758192952 0 0.49479246006051758 0.36414969788677148 0 0.48769320645875369 0.35118311704373101 0 0.48769320645875369 0.35118311704373101 0 0.47339742181377459 0.34741985225824867 0 0.47964150141292772 0.37382917783769359 0 0.47339742181377459 0.34741985225824867 0 0.47964150141292772 0.37382917783769359 0 0.47339742181377459 0.34741985225824867 0 0.47964150141292772 0.37382917783769359 0 0.45911791254477408 0.36613325801312901 0 0.47339742181377459 0.34741985225824867 0 0.45911791254477408 0.36613325801312901 0 0.44582032491270013 0.34874162068414077 0 0.45911791254477408 0.36613325801312901 0 0.44582032491270013 0.34874162068414077 0 0.43685543094096652 0.37532773220502391 0 0.41234035590541002 0.36287234659896611 0 0.42017260730309058 0.37840111611577387 0 0.43685543094096652 0.37532773220502391 0 0.41234035590541002 0.36287234659896611 0 0.42321087038279243 0.34564654640684889 0 0.43685543094096652 0.37532773220502391 0 0.41234035590541002 0.36287234659896611 0 0.43685543094096652 0.37532773220502391 0 0.41234035590541002 0.36287234659896611 0 0.40147906830911989 0.36909366212484152 0 0.40745890625383913 0.38003592797928809 0 0.41234035590541002 0.36287234659896611 0 0.42017260730309058 0.37840111611577387 0 0.40745890625383913 0.38003592797928809 0 0.41234035590541002 0.36287234659896611 0 0.40142250536803198 0.3573253091848389 0 0.41234035590541002 0.36287234659896611 0 0.42321087038279243 0.34564654640684889 0 0.40440213722142831 0.34321572643366899 0 0.44582032491270013 0.34874162068414077 0 0.42321087038279243 0.34564654640684889 0 0.43685543094096652 0.37532773220502391 0 0.42321087038279243 0.34564654640684889 0 0.43184879930870129 0.32983888489381918 0 0.41227076342281171 0.32879426164098352 0 0.44582032491270013 0.34874162068414077 0 0.42321087038279243 0.34564654640684889 0 0.43184879930870129 0.32983888489381918 0 0.44079793157890579 0.31308125058209912 0 0.43184879930870129 0.32983888489381918 0 0.42009443846921801 0.31439281644811651 0 0.42009443846921801 0.31439281644811651 0 0.41227076342281171 0.32879426164098352 0 0.40093331965002299 0.31325267736103962 0 0.43184879930870129 0.32983888489381918 0 0.42009443846921801 0.31439281644811651 0 0.41227076342281171 0.32879426164098352 0 0.42321087038279243 0.34564654640684889 0 0.41227076342281171 0.32879426164098352 0 0.40440213722142831 0.34321572643366899 0 0.41227076342281171 0.32879426164098352 0 0.40440213722142831 0.34321572643366899 0 0.39625881906567212 0.32708078561902482 0 0.40440213722142831 0.34321572643366899 0 0.39294868702373248 0.34006459655425569 0 0.39625881906567212 0.32708078561902482 0 0.39294868702373248 0.34006459655425569 0 0.39625881906567212 0.32708078561902482 0 0.38907525814550281 0.3298242540579342 0 0.41227076342281171 0.32879426164098352 0 0.40093331965002299 0.31325267736103962 0 0.39625881906567212 0.32708078561902482 0 0.38463323707017821 0.31233278462442871 0 0.40093331965002299 0.31325267736103962 0 0.39625881906567212 0.32708078561902482 0 0.38463323707017821 0.31233278462442871 0 0.38246028942242799 0.33981884943402801 0 0.3696968744499648 0.31460574386322759 0 0.38246028942242799 0.33981884943402801 0 0.38463323707017821 0.31233278462442871 0 0.38907525814550281 0.3298242540579342 0 0.38246028942242799 0.33981884943402801 0 0.3696968744499648 0.31460574386322759 0 0.38463323707017821 0.31233278462442871 0 0.38246028942242799 0.33981884943402801 0 0.38463323707017821 0.31233278462442871 0 0.39625881906567212 0.32708078561902482 0 0.38907525814550281 0.3298242540579342 0 0.36451289738718118 0.33857262744500621 0 0.38246028942242799 0.33981884943402801 0 0.38186196520119858 0.34738717642010852 0 0.39294868702373248 0.34006459655425569 0 0.38907525814550281 0.3298242540579342 0 0.38246028942242799 0.33981884943402801 0 0.39294868702373248 0.34006459655425569 0 0.38246028942242799 0.33981884943402801 0 0.38782528086985418 0.35041696099290681 0 0.38246028942242799 0.33981884943402801 0 0.38186196520119858 0.34738717642010852 0 0.36769647663340399 0.35378736866089111 0 0.38186196520119858 0.34738717642010852 0 0.37988177779530408 0.37243497701021783 0 0.38186196520119858 0.34738717642010852 0 0.37988177779530408 0.37243497701021783 0 0.39129291173382341 0.35726698845361288 0 0.38246028942242799 0.33981884943402801 0 0.38782528086985418 0.35041696099290681 0 0.38246028942242799 0.33981884943402801 0 0.38186196520119858 0.34738717642010852 0 0.38782528086985418 0.35041696099290681 0 0.38186196520119858 0.34738717642010852 0 0.38782528086985418 0.35041696099290681 0 0.38186196520119858 0.34738717642010852 0 0.38782528086985418 0.35041696099290681 0 0.39129291173382341 0.35726698845361288 0 0.38782528086985418 0.35041696099290681 0 0.39129291173382341 0.35726698845361288 0 0.38186196520119858 0.34738717642010852 0 0.37988177779530408 0.37243497701021783 0 0.37988177779530408 0.37243497701021783 0 0.40142250536803198 0.3573253091848389 0 0.37988177779530408 0.37243497701021783 0 0.40147906830911989 0.36909366212484152 0 0.39597364517442879 0.37743911875843073 0 0.37988177779530408 0.37243497701021783 0 0.40142250536803198 0.3573253091848389 0 0.39129291173382341 0.35726698845361288 0 0.37988177779530408 0.37243497701021783 0 0.40147906830911989 0.36909366212484152 0 0.40142250536803198 0.3573253091848389 0 0.41234035590541002 0.36287234659896611 0 0.40147906830911989 0.36909366212484152 0 0.40142250536803198 0.3573253091848389 0 0.40440213722142831 0.34321572643366899 0 0.39294868702373248 0.34006459655425569 0 0.38782528086985418 0.35041696099290681 0 0.41234035590541002 0.36287234659896611 0 0.40440213722142831 0.34321572643366899 0 0.40142250536803198 0.3573253091848389 0 0.40440213722142831 0.34321572643366899 0 0.38782528086985418 0.35041696099290681 0 0.40142250536803198 0.3573253091848389 0 0.38782528086985418 0.35041696099290681 0 0.40142250536803198 0.3573253091848389 0 0.39129291173382341 0.35726698845361288 0 0.38782528086985418 0.35041696099290681 0 0.40142250536803198 0.3573253091848389 0 0.39481353940260688 0.40054560418915908 0 0.3914045505912635 0.3878324523117529 0 0.41254519432191011 0.39448440705620819 0 0.39481353940260688 0.40054560418915908 0 0.40544541257855621 0.41204034471907119 0 0.41254519432191011 0.39448440705620819 0 0.3914045505912635 0.3878324523117529 0 0.41254519432191011 0.39448440705620819 0 0.40745890625383913 0.38003592797928809 0 0.3914045505912635 0.3878324523117529 0 0.39597364517442879 0.37743911875843073 0 0.40745890625383913 0.38003592797928809 0 0.40147906830911989 0.36909366212484152 0 0.39597364517442879 0.37743911875843073 0 0.40745890625383913 0.38003592797928809 0 0.37988177779530408 0.37243497701021783 0 0.37847125928476633 0.39027691776562218 0 0.37988177779530408 0.37243497701021783 0 0.3914045505912635 0.3878324523117529 0 0.37847125928476633 0.39027691776562218 0 0.37988177779530408 0.37243497701021783 0 0.3914045505912635 0.3878324523117529 0 0.39597364517442879 0.37743911875843073 0 0.37847125928476633 0.39027691776562218 0 0.37706074077422902 0.40811885852102658 0 0.39481353940260688 0.40054560418915908 0 0.37847125928476633 0.39027691776562218 0 0.37706074077422902 0.40811885852102658 0 0.39481353940260688 0.40054560418915908 0 0.3914045505912635 0.3878324523117529 0 0.37847125928476633 0.39027691776562218 0 0.39481353940260688 0.40054560418915908 0 0.37706074077422902 0.40811885852102658 0 0.39160877666881588 0.41479004340394382 0 0.37706074077422902 0.40811885852102658 0 0.37900750077203638 0.42219777386847979 0 0.39160877666881588 0.41479004340394382 0 0.37900750077203638 0.42219777386847979 0 0.40171668981665132 0.43104763572198201 0 0.37900750077203638 0.42219777386847979 0 0.40171668981665132 0.43104763572198201 0 0.38152211293332111 0.44384165270417247 0 0.37900750077203638 0.42219777386847979 0 0.40171668981665132 0.43104763572198201 0 0.39160877666881588 0.41479004340394382 0 0.40171668981665132 0.43104763572198201 0 0.39160877666881588 0.41479004340394382 0 0.40544541257855621 0.41204034471907119 0 0.39481353940260688 0.40054560418915908 0 0.39160877666881588 0.41479004340394382 0 0.40544541257855621 0.41204034471907119 0 0.40171668981665132 0.43104763572198201 0 0.40544541257855621 0.41204034471907119 0 0.42316640412582779 0.41627767779718411 0 0.40544541257855621 0.41204034471907119 0 0.42316640412582779 0.41627767779718411 0 0.41254519432191011 0.39448440705620819 0 0.40171668981665132 0.43104763572198201 0 0.42442587886126631 0.43989749757548419 0 0.40171668981665132 0.43104763572198201 0 0.42316640412582779 0.41627767779718411 0 0.42442587886126631 0.43989749757548419 0 0.42316640412582779 0.41627767779718411 0 0.445476216324031 0.42857642784745542 0 0.42442587886126631 0.43989749757548419 0 0.42316640412582779 0.41627767779718411 0 0.44381736474218209 0.40840549626592249 0 0.445476216324031 0.42857642784745542 0 0.42316640412582779 0.41627767779718411 0 0.42873807223619781 0.39949193539416572 0 0.44381736474218209 0.40840549626592249 0 0.42873807223619781 0.39949193539416572 0 0.41254519432191011 0.39448440705620819 0 0.42809396359249968 0.38718795109111231 0 0.42873807223619781 0.39949193539416572 0 0.42809396359249968 0.38718795109111231 0 0.44215851316033328 0.38823456468438972 0 0.42316640412582779 0.41627767779718411 0 0.42873807223619781 0.39949193539416572 0 0.41254519432191011 0.39448440705620819 0 0.41254519432191011 0.39448440705620819 0 0.42017260730309058 0.37840111611577387 0 0.40745890625383913 0.38003592797928809 0 0.41254519432191011 0.39448440705620819 0 0.42017260730309058 0.37840111611577387 0 0.42809396359249968 0.38718795109111231 0 0.42017260730309058 0.37840111611577387 0 0.42809396359249968 0.38718795109111231 0 0.43685543094096652 0.37532773220502391 0 0.42809396359249968 0.38718795109111231 0 0.43685543094096652 0.37532773220502391 0 0.44215851316033328 0.38823456468438972 0 0.45911791254477408 0.36613325801312901 0 0.43685543094096652 0.37532773220502391 0 0.46137050597652313 0.38778311781108171 0 0.43685543094096652 0.37532773220502391 0 0.44215851316033328 0.38823456468438972 0 0.46137050597652313 0.38778311781108171 0 0.43685543094096652 0.37532773220502391 0 0.46137050597652313 0.38778311781108171 0 0.42873807223619781 0.39949193539416572 0 0.44215851316033328 0.38823456468438972 0 0.44381736474218209 0.40840549626592249 0 0.45198940856110498 0.39757975221676678 0 0.46140170169662842 0.40697813546101169 0 0.44381736474218209 0.40840549626592249 0 0.44215851316033328 0.38823456468438972 0 0.45198940856110498 0.39757975221676678 0 0.46137050597652313 0.38778311781108171 0 0.44215851316033328 0.38823456468438972 0 0.44381736474218209 0.40840549626592249 0 0.44215851316033328 0.38823456468438972 0 0.45198940856110498 0.39757975221676678 0 0.44381736474218209 0.40840549626592249 0 0.45198940856110498 0.39757975221676678 0 0.46137050597652313 0.38778311781108171 0 0.46140170169662842 0.40697813546101169 0 0.46137050597652313 0.38778311781108171 0 0.47417349583208318 0.40437137018044511 0 0.46140170169662842 0.40697813546101169 0 0.47964150141292772 0.37382917783769359 0 0.45911791254477408 0.36613325801312901 0 0.46137050597652313 0.38778311781108171 0 0.47964150141292772 0.37382917783769359 0 0.46137050597652313 0.38778311781108171 0 0.48588558101207979 0.40023850341713901 0 0.47964150141292772 0.37382917783769359 0 0.48588558101207979 0.40023850341713901 0 0.46137050597652313 0.38778311781108171 0 0.47417349583208318 0.40437137018044511 0 0.48588558101207979 0.40023850341713901 0 0.46137050597652313 0.38778311781108171 0 0.48588558101207979 0.40023850341713901 0 0.47417349583208318 0.40437137018044511 0 0.48588558101207979 0.40023850341713901 0 0.48732531558659281 0.4063278587052056 0 0.48819558406697189 0.40141214774652167 0 0.49413572067259548 0.39285619148937562 0 0.4914940220637446 0.38278092281664661 0 0.48819558406697189 0.40141214774652167 0 0.48588558101207979 0.40023850341713901 0 0.4914940220637446 0.38278092281664661 0 0.48819558406697189 0.40141214774652167 0 0.4914940220637446 0.38278092281664661 0 0.48819558406697189 0.40141214774652167 0 0.49786017802367333 0.40632244250524041 0 0.48732531558659281 0.4063278587052056 0 0.48819558406697189 0.40141214774652167 0 0.48732531558659281 0.4063278587052056 0 0.48819558406697189 0.40141214774652167 0 0.48588558101207979 0.40023850341713901 0 0.48732531558659281 0.4063278587052056 0 0.48588558101207979 0.40023850341713901 0 0.48732531558659281 0.4063278587052056 0 0.48819558406697189 0.40141214774652167 0 0.48588558101207979 0.40023850341713901 0 0.48819558406697189 0.40141214774652167 0 0.4947760079132878 0.40087106765470842 0 0.49786017802367333 0.40632244250524041 0 0.48819558406697189 0.40141214774652167 0 0.49786017802367333 0.40632244250524041 0 0.4947760079132878 0.40087106765470842 0 0.5 0.40146431778595332 0 0.49786017802367333 0.40632244250524041 0 0.4947760079132878 0.40087106765470842 0 0.5 0.40146431778595332 0 0.49413572067259548 0.39285619148937562 0 0.48819558406697189 0.40141214774652167 0 0.4947760079132878 0.40087106765470842 0 0.49413572067259548 0.39285619148937562 0 0.5 0.37222876768394142 0 0.49413572067259548 0.39285619148937562 0 0.4914940220637446 0.38278092281664661 0 0.5 0.37222876768394142 0 0.5 0.40146431778595332 0 0.49413572067259548 0.39285619148937562 0 0.47964150141292772 0.37382917783769359 0 0.48588558101207979 0.40023850341713901 0 0.4914940220637446 0.38278092281664661 0 0.4936626577932951 0.43313163834759161 0 0.48732531558659281 0.4063278587052056 0 0.48251578884841378 0.43349446743120562 0 0.5 0.43069986788796522 0 0.4936626577932951 0.43313163834759161 0 0.48732531558659281 0.4063278587052056 0 0.48732531558659281 0.4063278587052056 0 0.48251578884841378 0.43349446743120562 0 0.4936626577932951 0.43313163834759161 0 0.48732531558659281 0.4063278587052056 0 0.5 0.40146431778595332 0 0.5 0.43069986788796522 0 0.49786017802367333 0.40632244250524041 0 0.5 0.43069986788796522 0 0.49786017802367333 0.40632244250524041 0 0.48732531558659281 0.4063278587052056 0 0.48732531558659281 0.4063278587052056 0 0.47098913394900582 0.41778642481713119 0 0.48251578884841378 0.43349446743120562 0 0.47417349583208318 0.40437137018044511 0 0.48732531558659281 0.4063278587052056 0 0.47098913394900582 0.41778642481713119 0 0.47417349583208318 0.40437137018044511 0 0.47098913394900582 0.41778642481713119 0 0.46140170169662842 0.40697813546101169 0 0.47098913394900582 0.41778642481713119 0 0.48251578884841378 0.43349446743120562 0 0.46199938892892878 0.43466961442381241 0 0.47098913394900582 0.41778642481713119 0 0.46199938892892878 0.43466961442381241 0 0.45851911280138991 0.42087710270110668 0 0.46199938892892878 0.43466961442381241 0 0.45851911280138991 0.42087710270110668 0 0.445476216324031 0.42857642784745542 0 0.46140170169662842 0.40697813546101169 0 0.45851911280138991 0.42087710270110668 0 0.44381736474218209 0.40840549626592249 0 0.47098913394900582 0.41778642481713119 0 0.46140170169662842 0.40697813546101169 0 0.45851911280138991 0.42087710270110668 0 0.45851911280138991 0.42087710270110668 0 0.44381736474218209 0.40840549626592249 0 0.445476216324031 0.42857642784745542 0 0.44381736474218209 0.40840549626592249 0 0.445476216324031 0.42857642784745542 0 0.46199938892892878 0.43466961442381241 0 0.445476216324031 0.42857642784745542 0 0.44713506790588059 0.44874735942898808 0 0.445476216324031 0.42857642784745542 0 0.44713506790588059 0.44874735942898808 0 0.445476216324031 0.42857642784745542 0 0.44713506790588059 0.44874735942898808 0 0.42442587886126631 0.43989749757548419 0 0.44713506790588059 0.44874735942898808 0 0.44843133907396637 0.46450946697898771 0 0.43128095041812631 0.45829420538826671 0 0.44843133907396637 0.46450946697898771 0 0.43585029922422452 0.47346641961468139 0 0.43128095041812631 0.45829420538826671 0 0.44713506790588059 0.44874735942898808 0 0.44843133907396637 0.46450946697898771 0 0.4624206650080574 0.45470421779309572 0 0.44713506790588059 0.44874735942898808 0 0.44843133907396637 0.46450946697898771 0 0.44843133907396637 0.46450946697898771 0 0.4624206650080574 0.45470421779309572 0 0.46276475486946478 0.47007717346285738 0 0.4624206650080574 0.45470421779309572 0 0.47770626211023359 0.4606610761572052 0 0.46276475486946478 0.47007717346285738 0 0.46199938892892878 0.43466961442381241 0 0.44713506790588059 0.44874735942898808 0 0.4624206650080574 0.45470421779309572 0 0.44713506790588059 0.44874735942898808 0 0.4624206650080574 0.45470421779309572 0 0.48251578884841378 0.43349446743120562 0 0.47770626211023359 0.4606610761572052 0 0.4885830262555127 0.44848371270091908 0 0.48251578884841378 0.43349446743120562 0 0.46199938892892878 0.43466961442381241 0 0.4624206650080574 0.45470421779309572 0 0.48251578884841378 0.43349446743120562 0 0.47770626211023359 0.4606610761572052 0 0.48251578884841378 0.43349446743120562 0 0.4624206650080574 0.45470421779309572 0 0.47770626211023359 0.4606610761572052 0 0.4624206650080574 0.45470421779309572 0 0.47770626211023359 0.4606610761572052 0 0.47770626211023359 0.4606610761572052 0 0.49999999999999972 0.45993541798997711 0 0.49999999999999978 0.46923260870158873 0 0.47770626211023359 0.4606610761572052 0 0.49999999999999978 0.46923260870158873 0 0.47770626211023359 0.4606610761572052 0 0.49999999999999972 0.45993541798997711 0 0.4885830262555127 0.44848371270091908 0 0.47770626211023359 0.4606610761572052 0 0.49999999999999978 0.46923260870158873 0 0.48515784053652478 0.47312932806020042 0 0.4936626577932951 0.43313163834759161 0 0.49999999999999972 0.45993541798997711 0 0.4936626577932951 0.43313163834759161 0 0.49999999999999972 0.45993541798997711 0 0.4885830262555127 0.44848371270091908 0 0.5 0.43069986788796522 0 0.4936626577932951 0.43313163834759161 0 0.49999999999999972 0.45993541798997711 0 0.4936626577932951 0.43313163834759161 0 0.48251578884841378 0.43349446743120562 0 0.4885830262555127 0.44848371270091908 0 0.5 0.5 0 0.48760859892043201 0.48439667567696199 0 0.47074177095929609 0.49999999999999828 0 0.5 0.5 0 0.49999999999999978 0.46923260870158873 0 0.48760859892043201 0.48439667567696199 0 0.49999999999999978 0.46923260870158873 0 0.48515784053652478 0.47312932806020042 0 0.48760859892043201 0.48439667567696199 0 0.47770626211023359 0.4606610761572052 0 0.47422401653476431 0.48033053807860171 0 0.47770626211023359 0.4606610761572052 0 0.48515784053652478 0.47312932806020042 0 0.47422401653476431 0.48033053807860171 0 0.47770626211023359 0.4606610761572052 0 0.47422401653476431 0.48033053807860171 0 0.46276475486946478 0.47007717346285738 0 0.48515784053652478 0.47312932806020042 0 0.48760859892043201 0.48439667567696199 0 0.47422401653476431 0.48033053807860171 0 0.47422401653476431 0.48033053807860171 0 0.47074177095929609 0.49999999999999828 0 0.48760859892043201 0.48439667567696199 0 0.47422401653476431 0.48033053807860171 0 0.47074177095929609 0.49999999999999828 0 0.47422401653476431 0.48033053807860171 0 0.47074177095929609 0.49999999999999828 0 0.46132568756364561 0.48719668080525391 0 0.47074177095929609 0.49999999999999828 0 0.46132568756364561 0.48719668080525391 0 0.44614211864982078 0.5 0 0.44843133907396637 0.46450946697898771 0 0.46276475486946478 0.47007717346285738 0 0.44972761024205288 0.48027157452898722 0 0.47422401653476431 0.48033053807860171 0 0.46132568756364561 0.48719668080525391 0 0.46276475486946478 0.47007717346285738 0 0.46132568756364561 0.48719668080525391 0 0.46276475486946478 0.47007717346285738 0 0.44972761024205288 0.48027157452898722 0 0.44843133907396637 0.46450946697898771 0 0.44972761024205288 0.48027157452898722 0 0.43585029922422452 0.47346641961468139 0 0.44843133907396637 0.46450946697898771 0 0.44972761024205288 0.48027157452898722 0 0.44972761024205288 0.48027157452898722 0 0.43551745741205111 0.48647567313254553 0 0.43585029922422452 0.47346641961468139 0 0.46132568756364561 0.48719668080525391 0 0.44972761024205288 0.48027157452898722 0 0.44614211864982078 0.5 0 0.44972761024205288 0.48027157452898722 0 0.44614211864982078 0.5 0 0.43551745741205111 0.48647567313254553 0 0.44614211864982078 0.5 0 0.43551745741205111 0.48647567313254553 0 0.42154246634034548 0.5 0 0.43551745741205111 0.48647567313254553 0 0.42154246634034548 0.5 0 0.420898938089453 0.47521105916175599 0 0.42154246634034548 0.5 0 0.420898938089453 0.47521105916175599 0 0.39936805592870089 0.47882307949042568 0 0.420898938089453 0.47521105916175599 0 0.40533631552427019 0.45545996693151253 0 0.39936805592870089 0.47882307949042568 0 0.420898938089453 0.47521105916175599 0 0.43585029922422452 0.47346641961468139 0 0.43128095041812631 0.45829420538826671 0 0.43551745741205111 0.48647567313254553 0 0.420898938089453 0.47521105916175599 0 0.43585029922422452 0.47346641961468139 0 0.44713506790588059 0.44874735942898808 0 0.42442587886126631 0.43989749757548419 0 0.44713506790588059 0.44874735942898808 0 0.43128095041812631 0.45829420538826671 0 0.42442587886126631 0.43989749757548419 0 0.43128095041812631 0.45829420538826671 0 0.42442587886126631 0.43989749757548419 0 0.40533631552427019 0.45545996693151253 0 0.40171668981665132 0.43104763572198201 0 0.42442587886126631 0.43989749757548419 0 0.40533631552427019 0.45545996693151253 0 0.420898938089453 0.47521105916175599 0 0.43128095041812631 0.45829420538826671 0 0.40533631552427019 0.45545996693151253 0 0.40533631552427019 0.45545996693151253 0 0.37947251592170722 0.46362975544621438 0 0.39936805592870089 0.47882307949042568 0 0.40171668981665132 0.43104763572198201 0 0.40533631552427019 0.45545996693151253 0 0.38152211293332111 0.44384165270417247 0 0.40533631552427019 0.45545996693151253 0 0.38152211293332111 0.44384165270417247 0 0.37947251592170722 0.46362975544621438 0 0.37947251592170722 0.46362975544621438 0 0.37626755413770602 0.48137175116062952 0 0.39936805592870089 0.47882307949042568 0 0.37234316172139531 0.50000000000000067 0 0.37626755413770602 0.48137175116062952 0 0.39694281403087028 0.5 0 0.37626755413770602 0.48137175116062952 0 0.39694281403087028 0.5 0 0.39936805592870089 0.47882307949042568 0 0.42154246634034548 0.5 0 0.39694281403087028 0.5 0 0.39936805592870089 0.47882307949042568 0 0.33693019728575252 0.089183441283846726 0 0.32054392145358168 0.09174151425645849 0 0.33322493426912242 0.09979238073902727 0 0.32886553428760001 0.073764980796096946 0 0.34479068172358701 0.066677237779441664 0 0.33252082091054908 0.057701543676438212 0 0.32886553428760001 0.073764980796096946 0 0.34479068172358701 0.066677237779441664 0 0.33693019728575252 0.089183441283846726 0 0.34479068172358701 0.066677237779441664 0 0.33693019728575252 0.089183441283846726 0 0.32886553428760001 0.073764980796096946 0 0.34479068172358701 0.066677237779441664 0 0.32886553428760001 0.073764980796096946 0 0.31294038685161191 0.080852723812749994 0 0.311884913010332 0.057479318954556158 0 0.32886553428760001 0.073764980796096946 0 0.33252082091054908 0.057701543676438212 0 0.311884913010332 0.057479318954556158 0 0.32886553428760001 0.073764980796096946 0 0.31294038685161191 0.080852723812749994 0 0.33693019728575252 0.089183441283846726 0 0.31294038685161191 0.080852723812749994 0 0.33693019728575252 0.089183441283846726 0 0.31294038685161191 0.080852723812749994 0 0.32054392145358168 0.09174151425645849 0 0.33693019728575252 0.089183441283846726 0 0.32886553428760001 0.073764980796096946 0 0.31294038685161191 0.080852723812749994 0 0.31294038685161191 0.080852723812749994 0 0.32054392145358168 0.09174151425645849 0 0.30682851453320892 0.092839688037229431 0 0.32054392145358168 0.09174151425645849 0 0.31701787624132027 0.096917944198801287 0 0.30682851453320892 0.092839688037229431 0 0.32054392145358168 0.09174151425645849 0 0.31701787624132027 0.096917944198801287 0 0.33322493426912242 0.09979238073902727 0 0.31701787624132027 0.096917944198801287 0 0.33322493426912242 0.09979238073902727 0 0.30730351713171372 0.10378670741001229 0 0.33322493426912242 0.09979238073902727 0 0.30730351713171372 0.10378670741001229 0 0.33322493426912242 0.09979238073902727 0 0.30435118344307399 0.1061370741726388 0 0.33322493426912242 0.09979238073902727 0 0.30730351713171372 0.10378670741001229 0 0.30435118344307399 0.1061370741726388 0 0.31837182782989998 0.1127142223689676 0 0.33322493426912242 0.09979238073902727 0 0.30435118344307399 0.1061370741726388 0 0.31837182782989998 0.1127142223689676 0 0.33322493426912242 0.09979238073902727 0 0.32408924352956853 0.12594976538419289 0 0.31837182782989998 0.1127142223689676 0 0.30884403811303113 0.1240555573320965 0 0.32408924352956853 0.12594976538419289 0 0.33859978398760721 0.1128274004935424 0 0.33322493426912242 0.09979238073902727 0 0.32408924352956853 0.12594976538419289 0 0.33859978398760721 0.1128274004935424 0 0.3397544652564054 0.1232600886979773 0 0.32408924352956853 0.12594976538419289 0 0.33322493426912242 0.09979238073902727 0 0.32408924352956853 0.12594976538419289 0 0.33859978398760721 0.1128274004935424 0 0.3397544652564054 0.1232600886979773 0 0.3500525477834549 0.11723668581766281 0 0.33693019728575252 0.089183441283846726 0 0.33322493426912242 0.09979238073902727 0 0.33859978398760721 0.1128274004935424 0 0.34122729073877722 0.1040954879947482 0 0.34871111697701918 0.1064195284967903 0 0.33859978398760721 0.1128274004935424 0 0.33322493426912242 0.09979238073902727 0 0.34122729073877722 0.1040954879947482 0 0.33322493426912242 0.09979238073902727 0 0.34438923966820839 0.097415055139769002 0 0.33693019728575252 0.089183441283846726 0 0.33322493426912242 0.09979238073902727 0 0.34438923966820839 0.097415055139769002 0 0.33322493426912242 0.09979238073902727 0 0.34122729073877722 0.1040954879947482 0 0.34438923966820839 0.097415055139769002 0 0.34438923966820839 0.097415055139769002 0 0.34871111697701918 0.1064195284967903 0 0.35420489105236952 0.095182262890394206 0 0.33693019728575252 0.089183441283846726 0 0.34438923966820839 0.097415055139769002 0 0.35420489105236952 0.095182262890394206 0 0.34438923966820839 0.097415055139769002 0 0.35420489105236952 0.095182262890394206 0 0.34122729073877722 0.1040954879947482 0 0.34438923966820839 0.097415055139769002 0 0.34871111697701918 0.1064195284967903 0 0.34871111697701918 0.1064195284967903 0 0.35804109498091208 0.1026568446119447 0 0.3595093286273448 0.11185694514114369 0 0.34871111697701918 0.1064195284967903 0 0.35804109498091208 0.1026568446119447 0 0.35420489105236952 0.095182262890394206 0 0.3397544652564054 0.1232600886979773 0 0.3500525477834549 0.11723668581766281 0 0.34925316466414252 0.1247326808086055 0 0.33859978398760721 0.1128274004935424 0 0.34871111697701918 0.1064195284967903 0 0.3500525477834549 0.11723668581766281 0 0.3500525477834549 0.11723668581766281 0 0.35999400394256259 0.1186380206135678 0 0.3595093286273448 0.11185694514114369 0 0.34871111697701918 0.1064195284967903 0 0.3500525477834549 0.11723668581766281 0 0.3595093286273448 0.11185694514114369 0 0.3500525477834549 0.11723668581766281 0 0.34925316466414252 0.1247326808086055 0 0.3571307446820034 0.12374990999753691 0 0.3500525477834549 0.11723668581766281 0 0.3571307446820034 0.12374990999753691 0 0.35999400394256259 0.1186380206135678 0 0.3571307446820034 0.12374990999753691 0 0.35999400394256259 0.1186380206135678 0 0.36587540021398618 0.1265829376553958 0 0.35999400394256259 0.1186380206135678 0 0.36558998975418611 0.1176450194638089 0 0.36587540021398618 0.1265829376553958 0 0.36558998975418611 0.1176450194638089 0 0.3595093286273448 0.11185694514114369 0 0.36864003401457368 0.11346193702779379 0 0.3595093286273448 0.11185694514114369 0 0.36864003401457368 0.11346193702779379 0 0.36579330872818211 0.1080690564405019 0 0.35999400394256259 0.1186380206135678 0 0.36558998975418611 0.1176450194638089 0 0.3595093286273448 0.11185694514114369 0 0.37346154281377519 0.1119794477644452 0 0.36579330872818211 0.1080690564405019 0 0.38050763687202449 0.1092898541078693 0 0.37346154281377519 0.1119794477644452 0 0.36864003401457368 0.11346193702779379 0 0.36579330872818211 0.1080690564405019 0 0.37346154281377519 0.1119794477644452 0 0.37432513884830138 0.11506987313801791 0 0.36864003401457368 0.11346193702779379 0 0.37432513884830138 0.11506987313801791 0 0.36864003401457368 0.11346193702779379 0 0.37159834618381882 0.1195457288754307 0 0.36558998975418611 0.1176450194638089 0 0.36864003401457368 0.11346193702779379 0 0.37159834618381882 0.1195457288754307 0 0.36558998975418611 0.1176450194638089 0 0.37159834618381882 0.1195457288754307 0 0.36587540021398618 0.1265829376553958 0 0.37159834618381882 0.1195457288754307 0 0.36587540021398618 0.1265829376553958 0 0.37423148078132151 0.12508883210959021 0 0.37432513884830138 0.11506987313801791 0 0.37159834618381882 0.1195457288754307 0 0.37721520221638 0.1187806919970425 0 0.37159834618381882 0.1195457288754307 0 0.37423148078132151 0.12508883210959021 0 0.37721520221638 0.1187806919970425 0 0.35804109498091208 0.1026568446119447 0 0.37942301960415792 0.1039395269251209 0 0.38050763687202449 0.1092898541078693 0 0.35804109498091208 0.1026568446119447 0 0.36579330872818211 0.1080690564405019 0 0.38050763687202449 0.1092898541078693 0 0.35804109498091208 0.1026568446119447 0 0.35420489105236952 0.095182262890394206 0 0.37942301960415792 0.1039395269251209 0 0.35420489105236952 0.095182262890394206 0 0.38026181212050603 0.089456537230528155 0 0.37942301960415792 0.1039395269251209 0 0.35420489105236952 0.095182262890394206 0 0.37942301960415792 0.1039395269251209 0 0.35804109498091208 0.1026568446119447 0 0.38050763687202449 0.1092898541078693 0 0.35804109498091208 0.1026568446119447 0 0.3595093286273448 0.11185694514114369 0 0.36579330872818211 0.1080690564405019 0 0.35420489105236952 0.095182262890394206 0 0.38026181212050603 0.089456537230528155 0 0.35420489105236952 0.095182262890394206 0 0.36369992054358757 0.076239283887823972 0 0.38026181212050603 0.089456537230528155 0 0.33693019728575252 0.089183441283846726 0 0.35420489105236952 0.095182262890394206 0 0.33693019728575252 0.089183441283846726 0 0.35420489105236952 0.095182262890394206 0 0.34990642265132149 0.081820556460375102 0 0.35420489105236952 0.095182262890394206 0 0.34990642265132149 0.081820556460375102 0 0.36369992054358757 0.076239283887823972 0 0.33693019728575252 0.089183441283846726 0 0.34990642265132149 0.081820556460375102 0 0.34479068172358701 0.066677237779441664 0 0.34990642265132149 0.081820556460375102 0 0.34479068172358701 0.066677237779441664 0 0.36369992054358757 0.076239283887823972 0 0.34479068172358701 0.066677237779441664 0 0.36369992054358757 0.076239283887823972 0 0.3706593006089357 0.055163992857094647 0 0.36369992054358757 0.076239283887823972 0 0.3706593006089357 0.055163992857094647 0 0.38907668885254082 0.06695711089121939 0 0.35459634632389109 0.038601578481876342 0 0.37433922338616188 0.02137822479571308 0 0.37751357204530611 0.035746392361119789 0 0.3706593006089357 0.055163992857094647 0 0.35459634632389109 0.038601578481876342 0 0.37751357204530611 0.035746392361119789 0 0.34479068172358701 0.066677237779441664 0 0.35459634632389109 0.038601578481876342 0 0.34479068172358701 0.066677237779441664 0 0.3706593006089357 0.055163992857094647 0 0.35459634632389109 0.038601578481876342 0 0.34479068172358701 0.066677237779441664 0 0.35459634632389109 0.038601578481876342 0 0.33252082091054908 0.057701543676438212 0 0.34479068172358701 0.066677237779441664 0 0.3706593006089357 0.055163992857094647 0 0.36440201092419938 0.01052591918431248 0 0.37433922338616188 0.02137822479571308 0 0.38148902526390549 0.00047700613930369741 0 0.35459634632389109 0.038601578481876342 0 0.36440201092419938 0.01052591918431248 0 0.37433922338616188 0.02137822479571308 0 0.35459634632389109 0.038601578481876342 0 0.36440201092419938 0.01052591918431248 0 0.35459634632389109 0.038601578481876342 0 0.36440201092419938 0.01052591918431248 0 0.34035823478160959 0.0088168533948942973 0 0.36440201092419938 0.01052591918431248 0 0.34035823478160959 0.0088168533948942973 0 0.3556936977787889 -0.011292844580381141 0 0.35459634632389109 0.038601578481876342 0 0.34035823478160959 0.0088168533948942973 0 0.32780647026675908 0.02445791917519986 0 0.32780647026675908 0.02445791917519986 0 0.31479536851749013 0.0025060759579054949 0 0.30408301679787458 0.027880562140582311 0 0.34035823478160959 0.0088168533948942973 0 0.32780647026675908 0.02445791917519986 0 0.31479536851749013 0.0025060759579054949 0 0.35459634632389109 0.038601578481876342 0 0.33252082091054908 0.057701543676438212 0 0.32519938491293038 0.044484525900740847 0 0.35459634632389109 0.038601578481876342 0 0.32780647026675908 0.02445791917519986 0 0.32519938491293038 0.044484525900740847 0 0.32519938491293038 0.044484525900740847 0 0.311884913010332 0.057479318954556158 0 0.30408301679787458 0.027880562140582311 0 0.32780647026675908 0.02445791917519986 0 0.32519938491293038 0.044484525900740847 0 0.30408301679787458 0.027880562140582311 0 0.33252082091054908 0.057701543676438212 0 0.32519938491293038 0.044484525900740847 0 0.311884913010332 0.057479318954556158 0 0.311884913010332 0.057479318954556158 0 0.29275178089542719 0.044123859238493629 0 0.2874027905216629 0.071984521185649963 0 0.311884913010332 0.057479318954556158 0 0.29275178089542719 0.044123859238493629 0 0.30408301679787458 0.027880562140582311 0 0.29275178089542719 0.044123859238493629 0 0.30408301679787458 0.027880562140582311 0 0.27481621271185941 0.035724037715359577 0 0.29275178089542719 0.044123859238493629 0 0.27626765750900939 0.052832720300484748 0 0.27481621271185941 0.035724037715359577 0 0.29275178089542719 0.044123859238493629 0 0.27626765750900939 0.052832720300484748 0 0.2874027905216629 0.071984521185649963 0 0.31479536851749013 0.0025060759579054949 0 0.30408301679787458 0.027880562140582311 0 0.29117906892999468 -0.00037141647386060652 0 0.30408301679787458 0.027880562140582311 0 0.27970509316802539 0.01618372699641376 0 0.27481621271185941 0.035724037715359577 0 0.30408301679787458 0.027880562140582311 0 0.27970509316802539 0.01618372699641376 0 0.29117906892999468 -0.00037141647386060652 0 0.27970509316802539 0.01618372699641376 0 0.26197366707304642 0.011663475428773809 0 0.2725532433285674 -0.0023790205409777009 0 0.27970509316802539 0.01618372699641376 0 0.2725532433285674 -0.0023790205409777009 0 0.29117906892999468 -0.00037141647386060652 0 0.27970509316802539 0.01618372699641376 0 0.26197366707304642 0.011663475428773809 0 0.27481621271185941 0.035724037715359577 0 0.24812384111072019 0.027879855129794372 0 0.26197366707304642 0.011663475428773809 0 0.27481621271185941 0.035724037715359577 0 0.2451261203409961 0.0043847638784739072 0 0.24812384111072019 0.027879855129794372 0 0.26197366707304642 0.011663475428773809 0 0.2451261203409961 0.0043847638784739072 0 0.26197366707304642 0.011663475428773809 0 0.25508029436526169 -0.0064403887472080264 0 0.26197366707304642 0.011663475428773809 0 0.25508029436526169 -0.0064403887472080264 0 0.2725532433285674 -0.0023790205409777009 0 0.27626765750900939 0.052832720300484748 0 0.25933970007746171 0.045164520783406339 0 0.26186519419171422 0.063116318558549128 0 0.27626765750900939 0.052832720300484748 0 0.27481621271185941 0.035724037715359577 0 0.25933970007746171 0.045164520783406339 0 0.24812384111072019 0.027879855129794372 0 0.27481621271185941 0.035724037715359577 0 0.25933970007746171 0.045164520783406339 0 0.23632759786176549 0.054248115931448272 0 0.25933970007746171 0.045164520783406339 0 0.26186519419171422 0.063116318558549128 0 0.25597047726939798 0.090540161233932187 0 0.27096247096675991 0.084261610659124131 0 0.26206913295014589 0.1034937936074098 0 0.26186519419171422 0.063116318558549128 0 0.25597047726939798 0.090540161233932187 0 0.27096247096675991 0.084261610659124131 0 0.2401362077077252 0.083190161975305349 0 0.26186519419171422 0.063116318558549128 0 0.25597047726939798 0.090540161233932187 0 0.27096247096675991 0.084261610659124131 0 0.28750475990087881 0.092173258710079572 0 0.26206913295014589 0.1034937936074098 0 0.26186519419171422 0.063116318558549128 0 0.2874027905216629 0.071984521185649963 0 0.26186519419171422 0.063116318558549128 0 0.27096247096675991 0.084261610659124131 0 0.2874027905216629 0.071984521185649963 0 0.27626765750900939 0.052832720300484748 0 0.26186519419171422 0.063116318558549128 0 0.2874027905216629 0.071984521185649963 0 0.31294038685161191 0.080852723812749994 0 0.2874027905216629 0.071984521185649963 0 0.28750475990087881 0.092173258710079572 0 0.27096247096675991 0.084261610659124131 0 0.2874027905216629 0.071984521185649963 0 0.28750475990087881 0.092173258710079572 0 0.31294038685161191 0.080852723812749994 0 0.28750475990087881 0.092173258710079572 0 0.31294038685161191 0.080852723812749994 0 0.28750475990087881 0.092173258710079572 0 0.30682851453320892 0.092839688037229431 0 0.31294038685161191 0.080852723812749994 0 0.311884913010332 0.057479318954556158 0 0.2874027905216629 0.071984521185649963 0 0.31294038685161191 0.080852723812749994 0 0.2874027905216629 0.071984521185649963 0 0.30884403811303113 0.1240555573320965 0 0.30435118344307399 0.1061370741726388 0 0.29432684878137072 0.11812278872015371 0 0.31837182782989998 0.1127142223689676 0 0.30884403811303113 0.1240555573320965 0 0.30435118344307399 0.1061370741726388 0 0.30884403811303113 0.1240555573320965 0 0.29432684878137072 0.11812278872015371 0 0.29511037732626288 0.13247602341232251 0 0.30730351713171372 0.10378670741001229 0 0.30435118344307399 0.1061370741726388 0 0.28121148241664851 0.10826954772851791 0 0.28750475990087881 0.092173258710079572 0 0.30682851453320892 0.092839688037229431 0 0.29758197596666569 0.097676803479424174 0 0.31701787624132027 0.096917944198801287 0 0.30682851453320892 0.092839688037229431 0 0.30730351713171372 0.10378670741001229 0 0.30682851453320892 0.092839688037229431 0 0.30730351713171372 0.10378670741001229 0 0.29758197596666569 0.097676803479424174 0 0.28750475990087881 0.092173258710079572 0 0.29758197596666569 0.097676803479424174 0 0.28121148241664851 0.10826954772851791 0 0.30730351713171372 0.10378670741001229 0 0.29758197596666569 0.097676803479424174 0 0.28121148241664851 0.10826954772851791 0 0.30730351713171372 0.10378670741001229 0 0.28121148241664851 0.10826954772851791 0 0.29432684878137072 0.11812278872015371 0 0.2818880448606807 0.1232899598539221 0 0.28121148241664851 0.10826954772851791 0 0.30435118344307399 0.1061370741726388 0 0.29432684878137072 0.11812278872015371 0 0.28121148241664851 0.10826954772851791 0 0.29432684878137072 0.11812278872015371 0 0.2818880448606807 0.1232899598539221 0 0.29511037732626288 0.13247602341232251 0 0.2818880448606807 0.1232899598539221 0 0.26884554243098241 0.120846618040462 0 0.28121148241664851 0.10826954772851791 0 0.28121148241664851 0.10826954772851791 0 0.25511944770158329 0.1127523880470236 0 0.26884554243098241 0.120846618040462 0 0.28121148241664851 0.10826954772851791 0 0.25511944770158329 0.1127523880470236 0 0.28750475990087881 0.092173258710079572 0 0.26206913295014589 0.1034937936074098 0 0.28750475990087881 0.092173258710079572 0 0.28121148241664851 0.10826954772851791 0 0.26206913295014589 0.1034937936074098 0 0.28121148241664851 0.10826954772851791 0 0.26206913295014589 0.1034937936074098 0 0.25511944770158329 0.1127523880470236 0 0.24496764369805321 0.09860448918972127 0 0.25597047726939798 0.090540161233932187 0 0.26206913295014589 0.1034937936074098 0 0.2366335059994131 0.1148143285047399 0 0.26206913295014589 0.1034937936074098 0 0.25511944770158329 0.1127523880470236 0 0.26884554243098241 0.120846618040462 0 0.25511944770158329 0.1127523880470236 0 0.25793081662871969 0.12689641579738101 0 0.24621252458460241 0.12703884245556199 0 0.25511944770158329 0.1127523880470236 0 0.25793081662871969 0.12689641579738101 0 0.24975314195524931 0.14433461054450569 0 0.25793081662871969 0.12689641579738101 0 0.26799024053975529 0.13384187936484279 0 0.24975314195524931 0.14433461054450569 0 0.24621252458460241 0.12703884245556199 0 0.25793081662871969 0.12689641579738101 0 0.26884554243098241 0.120846618040462 0 0.25793081662871969 0.12689641579738101 0 0.26799024053975529 0.13384187936484279 0 0.2818880448606807 0.1232899598539221 0 0.26799024053975529 0.13384187936484279 0 0.28036865460202681 0.14190120477792489 0 0.2818880448606807 0.1232899598539221 0 0.26884554243098241 0.120846618040462 0 0.26799024053975529 0.13384187936484279 0 0.26799024053975529 0.13384187936484279 0 0.28036865460202681 0.14190120477792489 0 0.26376139112637292 0.15419943997548821 0 0.28036865460202681 0.14190120477792489 0 0.26376139112637292 0.15419943997548821 0 0.27997357959953462 0.15822825927183479 0 0.24975314195524931 0.14433461054450569 0 0.26799024053975529 0.13384187936484279 0 0.26376139112637292 0.15419943997548821 0 0.24789265203143759 0.16443053735287899 0 0.24975314195524931 0.14433461054450569 0 0.26376139112637292 0.15419943997548821 0 0.24789265203143759 0.16443053735287899 0 0.26376139112637292 0.15419943997548821 0 0.26037731260186098 0.17203271195142961 0 0.24746203688380269 0.18173233517496171 0 0.24789265203143759 0.16443053735287899 0 0.26037731260186098 0.17203271195142961 0 0.24746203688380269 0.18173233517496171 0 0.26037731260186098 0.17203271195142961 0 0.26400092783230089 0.18857155534718509 0 0.26037731260186098 0.17203271195142961 0 0.26400092783230089 0.18857155534718509 0 0.28090663097239771 0.17598314895359021 0 0.26400092783230089 0.18857155534718509 0 0.28131290586614738 0.1927672002906862 0 0.26037731260186098 0.17203271195142961 0 0.28090663097239771 0.17598314895359021 0 0.26400092783230089 0.18857155534718509 0 0.26037731260186098 0.17203271195142961 0 0.28090663097239771 0.17598314895359021 0 0.27997357959953462 0.15822825927183479 0 0.26376139112637292 0.15419943997548821 0 0.26037731260186098 0.17203271195142961 0 0.27997357959953462 0.15822825927183479 0 0.28090663097239771 0.17598314895359021 0 0.27997357959953462 0.15822825927183479 0 0.29505509246919559 0.16393276116630259 0 0.27997357959953462 0.15822825927183479 0 0.29505509246919559 0.16393276116630259 0 0.2934882941595543 0.1493716667891391 0 0.28090663097239771 0.17598314895359021 0 0.30581786205045269 0.17826453467452141 0 0.28131290586614738 0.1927672002906862 0 0.28090663097239771 0.17598314895359021 0 0.29505509246919559 0.16393276116630259 0 0.30581786205045269 0.17826453467452141 0 0.29505509246919559 0.16393276116630259 0 0.30581786205045269 0.17826453467452141 0 0.31495355279001058 0.15210715002935729 0 0.30581786205045269 0.17826453467452141 0 0.31495355279001058 0.15210715002935729 0 0.29511037732626288 0.13247602341232251 0 0.2934882941595543 0.1493716667891391 0 0.31495355279001058 0.15210715002935729 0 0.29505509246919559 0.16393276116630259 0 0.2934882941595543 0.1493716667891391 0 0.31495355279001058 0.15210715002935729 0 0.30884403811303113 0.1240555573320965 0 0.29511037732626288 0.13247602341232251 0 0.31495355279001058 0.15210715002935729 0 0.2818880448606807 0.1232899598539221 0 0.28036865460202681 0.14190120477792489 0 0.29511037732626288 0.13247602341232251 0 0.28036865460202681 0.14190120477792489 0 0.29511037732626288 0.13247602341232251 0 0.2934882941595543 0.1493716667891391 0 0.28036865460202681 0.14190120477792489 0 0.27997357959953462 0.15822825927183479 0 0.2934882941595543 0.1493716667891391 0 0.27695969852906288 0.24771775755841141 0 0.27229212079590281 0.2264140781506758 0 0.28738471092143503 0.23104248415308459 0 0.27695969852906288 0.24771775755841141 0 0.27229212079590281 0.2264140781506758 0 0.27695969852906288 0.24771775755841141 0 0.26073141773363651 0.23760457411619099 0 0.27229212079590281 0.2264140781506758 0 0.2473296210996663 0.25206075293441937 0 0.27695969852906288 0.24771775755841141 0 0.26073141773363651 0.23760457411619099 0 0.24661902580351111 0.22924547931282879 0 0.2473296210996663 0.25206075293441937 0 0.26073141773363651 0.23760457411619099 0 0.26073141773363651 0.23760457411619099 0 0.25988935316844508 0.22769791213731039 0 0.27229212079590281 0.2264140781506758 0 0.25988935316844508 0.22769791213731039 0 0.27229212079590281 0.2264140781506758 0 0.25505555457826001 0.21627745950666771 0 0.24661902580351111 0.22924547931282879 0 0.26073141773363651 0.23760457411619099 0 0.25988935316844508 0.22769791213731039 0 0.24661902580351111 0.22924547931282879 0 0.25988935316844508 0.22769791213731039 0 0.25505555457826001 0.21627745950666771 0 0.27229212079590281 0.2264140781506758 0 0.26762454306275901 0.2051103987429366 0 0.27229212079590281 0.2264140781506758 0 0.26762454306275901 0.2051103987429366 0 0.29668217131088842 0.2044219193196832 0 0.2423505186181257 0.20570923102281979 0 0.26762454306275901 0.2051103987429366 0 0.24366286186963859 0.2073943149834549 0 0.26762454306275901 0.2051103987429366 0 0.25505555457826001 0.21627745950666771 0 0.2423505186181257 0.20570923102281979 0 0.24366286186963859 0.2073943149834549 0 0.26762454306275901 0.2051103987429366 0 0.27229212079590281 0.2264140781506758 0 0.26762454306275901 0.2051103987429366 0 0.25505555457826001 0.21627745950666771 0 0.2423505186181257 0.20570923102281979 0 0.26762454306275901 0.2051103987429366 0 0.25027985120543722 0.19418491433962501 0 0.26762454306275901 0.2051103987429366 0 0.26400092783230089 0.18857155534718509 0 0.25027985120543722 0.19418491433962501 0 0.24746203688380269 0.18173233517496171 0 0.26400092783230089 0.18857155534718509 0 0.25027985120543722 0.19418491433962501 0 0.26762454306275901 0.2051103987429366 0 0.26400092783230089 0.18857155534718509 0 0.26762454306275901 0.2051103987429366 0 0.26400092783230089 0.18857155534718509 0 0.28131290586614738 0.1927672002906862 0 0.30581786205045269 0.17826453467452141 0 0.28131290586614738 0.1927672002906862 0 0.29668217131088842 0.2044219193196832 0 0.26762454306275901 0.2051103987429366 0 0.28131290586614738 0.1927672002906862 0 0.29668217131088842 0.2044219193196832 0 0.30581786205045269 0.17826453467452141 0 0.29668217131088842 0.2044219193196832 0 0.32666370388202559 0.20371154928959681 0 0.30581786205045269 0.17826453467452141 0 0.29668217131088842 0.2044219193196832 0 0.29668217131088842 0.2044219193196832 0 0.32666370388202559 0.20371154928959681 0 0.29668217131088842 0.2044219193196832 0 0.2959067806975807 0.21741105253958781 0 0.31311743439129303 0.22173838577548949 0 0.29668217131088842 0.2044219193196832 0 0.31311743439129303 0.22173838577548949 0 0.32666370388202559 0.20371154928959681 0 0.29668217131088842 0.2044219193196832 0 0.28738471092143503 0.23104248415308459 0 0.29668217131088842 0.2044219193196832 0 0.2959067806975807 0.21741105253958781 0 0.28738471092143503 0.23104248415308459 0 0.26762454306275901 0.2051103987429366 0 0.29668217131088842 0.2044219193196832 0 0.27229212079590281 0.2264140781506758 0 0.29668217131088842 0.2044219193196832 0 0.28738471092143503 0.23104248415308459 0 0.2959067806975807 0.21741105253958781 0 0.28738471092143503 0.23104248415308459 0 0.29939849858089562 0.2377216534567074 0 0.28738471092143503 0.23104248415308459 0 0.28583870208107282 0.2354690293432663 0 0.2959067806975807 0.21741105253958781 0 0.28738471092143503 0.23104248415308459 0 0.2959067806975807 0.21741105253958781 0 0.29939849858089562 0.2377216534567074 0 0.31311743439129303 0.22173838577548949 0 0.30340821542320651 0.26416296078786061 0 0.29939849858089562 0.2377216534567074 0 0.32115388909985593 0.24377570027840681 0 0.29939849858089562 0.2377216534567074 0 0.32115388909985593 0.24377570027840681 0 0.31311743439129303 0.22173838577548949 0 0.27695969852906288 0.24771775755841141 0 0.28738471092143503 0.23104248415308459 0 0.27695969852906288 0.24771775755841141 0 0.28738471092143503 0.23104248415308459 0 0.28583870208107282 0.2354690293432663 0 0.28896116196861188 0.25019635267523371 0 0.29939849858089562 0.2377216534567074 0 0.28583870208107282 0.2354690293432663 0 0.28738471092143503 0.23104248415308459 0 0.29939849858089562 0.2377216534567074 0 0.28583870208107282 0.2354690293432663 0 0.28896116196861188 0.25019635267523371 0 0.27695969852906288 0.24771775755841141 0 0.28583870208107282 0.2354690293432663 0 0.32115388909985593 0.24377570027840681 0 0.3388995627765054 0.22338843976895281 0 0.34914526320868788 0.2427341120546278 0 0.32115388909985593 0.24377570027840681 0 0.31311743439129303 0.22173838577548949 0 0.3388995627765054 0.22338843976895281 0 0.32115388909985593 0.24377570027840681 0 0.3388995627765054 0.22338843976895281 0 0.32666370388202559 0.20371154928959681 0 0.35664523645316271 0.2030011792595057 0 0.3388995627765054 0.22338843976895281 0 0.32666370388202559 0.20371154928959681 0 0.35664523645316271 0.2030011792595057 0 0.31311743439129303 0.22173838577548949 0 0.3388995627765054 0.22338843976895281 0 0.32666370388202559 0.20371154928959681 0 0.30581786205045269 0.17826453467452141 0 0.32666370388202559 0.20371154928959681 0 0.33185715332290888 0.18082801273820939 0 0.32666370388202559 0.20371154928959681 0 0.3491837268169305 0.19380307066862179 0 0.33185715332290888 0.18082801273820939 0 0.32666370388202559 0.20371154928959681 0 0.3491837268169305 0.19380307066862179 0 0.35664523645316271 0.2030011792595057 0 0.3491837268169305 0.19380307066862179 0 0.35664523645316271 0.2030011792595057 0 0.35932280473756872 0.1999250333131195 0 0.35664523645316271 0.2030011792595057 0 0.35932280473756872 0.1999250333131195 0 0.3491837268169305 0.19380307066862179 0 0.35932280473756872 0.1999250333131195 0 0.35803831239646672 0.19222519170484609 0 0.3491837268169305 0.19380307066862179 0 0.35803831239646672 0.19222519170484609 0 0.35687042329716179 0.18554135829579951 0 0.35803831239646672 0.19222519170484609 0 0.36082918803941882 0.1880058232083055 0 0.35687042329716179 0.18554135829579951 0 0.35803831239646672 0.19222519170484609 0 0.36082918803941882 0.1880058232083055 0 0.36507339959951041 0.19034605321205381 0 0.35664523645316271 0.2030011792595057 0 0.38056827225311668 0.20243435674566709 0 0.35932280473756872 0.1999250333131195 0 0.35803831239646672 0.19222519170484609 0 0.36507339959951041 0.19034605321205381 0 0.35932280473756872 0.1999250333131195 0 0.36507339959951041 0.19034605321205381 0 0.37558328428883619 0.19195080116177249 0 0.35932280473756872 0.1999250333131195 0 0.38056827225311668 0.20243435674566709 0 0.37558328428883619 0.19195080116177249 0 0.35664523645316271 0.2030011792595057 0 0.35932280473756872 0.1999250333131195 0 0.38056827225311668 0.20243435674566709 0 0.36507339959951041 0.19034605321205381 0 0.37089310859703489 0.18224304737484509 0 0.37558328428883619 0.19195080116177249 0 0.35664523645316271 0.2030011792595057 0 0.37354415507364691 0.21624925293610511 0 0.38056827225311668 0.20243435674566709 0 0.35664523645316271 0.2030011792595057 0 0.37354415507364691 0.21624925293610511 0 0.36126382173161281 0.22570351080819709 0 0.3388995627765054 0.22338843976895281 0 0.35664523645316271 0.2030011792595057 0 0.36126382173161281 0.22570351080819709 0 0.3388995627765054 0.22338843976895281 0 0.35664523645316271 0.2030011792595057 0 0.3388995627765054 0.22338843976895281 0 0.36126382173161281 0.22570351080819709 0 0.34914526320868788 0.2427341120546278 0 0.36126382173161281 0.22570351080819709 0 0.36785464199898238 0.23942579081800611 0 0.38466849739312992 0.22703992422488251 0 0.37354415507364691 0.21624925293610511 0 0.36126382173161281 0.22570351080819709 0 0.38466849739312992 0.22703992422488251 0 0.36126382173161281 0.22570351080819709 0 0.38466849739312992 0.22703992422488251 0 0.36126382173161281 0.22570351080819709 0 0.36785464199898238 0.23942579081800611 0 0.34914526320868788 0.2427341120546278 0 0.36375060400198012 0.25713203304615639 0 0.36785464199898238 0.23942579081800611 0 0.38044502365950122 0.2445193739561668 0 0.36375060400198012 0.25713203304615639 0 0.36785464199898238 0.23942579081800611 0 0.34914526320868788 0.2427341120546278 0 0.33124096737674069 0.1523917963984911 0 0.33972642383425072 0.14392972531822559 0 0.33228221100338012 0.13796731758141889 0 0.33124096737674069 0.1523917963984911 0 0.33972642383425072 0.14392972531822559 0 0.34380675318428772 0.15434861760021651 0 0.3397544652564054 0.1232600886979773 0 0.33228221100338012 0.13796731758141889 0 0.32408924352956853 0.12594976538419289 0 0.33972642383425072 0.14392972531822559 0 0.33228221100338012 0.13796731758141889 0 0.34389467120699679 0.13115002648590629 0 0.3397544652564054 0.1232600886979773 0 0.33228221100338012 0.13796731758141889 0 0.34389467120699679 0.13115002648590629 0 0.30884403811303113 0.1240555573320965 0 0.32408924352956853 0.12594976538419289 0 0.31495355279001058 0.15210715002935729 0 0.33228221100338012 0.13796731758141889 0 0.32408924352956853 0.12594976538419289 0 0.31495355279001058 0.15210715002935729 0 0.32408924352956853 0.12594976538419289 0 0.31495355279001058 0.15210715002935729 0 0.33124096737674069 0.1523917963984911 0 0.33228221100338012 0.13796731758141889 0 0.31495355279001058 0.15210715002935729 0 0.33124096737674069 0.1523917963984911 0 0.31495355279001058 0.15210715002935729 0 0.32403788705094438 0.16571086421486189 0 0.30581786205045269 0.17826453467452141 0 0.31495355279001058 0.15210715002935729 0 0.32403788705094438 0.16571086421486189 0 0.30581786205045269 0.17826453467452141 0 0.32403788705094438 0.16571086421486189 0 0.33185715332290888 0.18082801273820939 0 0.3491837268169305 0.19380307066862179 0 0.33185715332290888 0.18082801273820939 0 0.34490473463857169 0.17763273338242749 0 0.33185715332290888 0.18082801273820939 0 0.33905786933036958 0.1658129394453362 0 0.34490473463857169 0.17763273338242749 0 0.33124096737674069 0.1523917963984911 0 0.32403788705094438 0.16571086421486189 0 0.33905786933036958 0.1658129394453362 0 0.32403788705094438 0.16571086421486189 0 0.33185715332290888 0.18082801273820939 0 0.33905786933036958 0.1658129394453362 0 0.33905786933036958 0.1658129394453362 0 0.34717238801870343 0.16950308136359379 0 0.34490473463857169 0.17763273338242749 0 0.33124096737674069 0.1523917963984911 0 0.33905786933036958 0.1658129394453362 0 0.34380675318428772 0.15434861760021651 0 0.35193706447759121 0.16252349505303221 0 0.34380675318428772 0.15434861760021651 0 0.35132582095956449 0.15449500652584239 0 0.33905786933036958 0.1658129394453362 0 0.35193706447759121 0.16252349505303221 0 0.34380675318428772 0.15434861760021651 0 0.33905786933036958 0.1658129394453362 0 0.34717238801870343 0.16950308136359379 0 0.35193706447759121 0.16252349505303221 0 0.34717238801870343 0.16950308136359379 0 0.35536551356960128 0.1684834195750044 0 0.35193706447759121 0.16252349505303221 0 0.34717238801870343 0.16950308136359379 0 0.35536551356960128 0.1684834195750044 0 0.35218076271052451 0.17497686442621219 0 0.35536551356960128 0.1684834195750044 0 0.35193706447759121 0.16252349505303221 0 0.36039921759194188 0.161822531569041 0 0.35536551356960128 0.1684834195750044 0 0.35817399720310439 0.17465478016046929 0 0.36251439602344848 0.16892407538056131 0 0.35193706447759121 0.16252349505303221 0 0.36039921759194188 0.161822531569041 0 0.35832004745248991 0.1548544715787516 0 0.35193706447759121 0.16252349505303221 0 0.35832004745248991 0.1548544715787516 0 0.35132582095956449 0.15449500652584239 0 0.3491837268169305 0.19380307066862179 0 0.3515193967006684 0.18180769510302011 0 0.34490473463857169 0.17763273338242749 0 0.34717238801870343 0.16950308136359379 0 0.34490473463857169 0.17763273338242749 0 0.35218076271052451 0.17497686442621219 0 0.3515193967006684 0.18180769510302011 0 0.34490473463857169 0.17763273338242749 0 0.35218076271052451 0.17497686442621219 0 0.35536551356960128 0.1684834195750044 0 0.35218076271052451 0.17497686442621219 0 0.35817399720310439 0.17465478016046929 0 0.35817399720310439 0.17465478016046929 0 0.35537299353081497 0.17864375895457099 0 0.35936072895427351 0.1804150221635305 0 0.35218076271052451 0.17497686442621219 0 0.35817399720310439 0.17465478016046929 0 0.35537299353081497 0.17864375895457099 0 0.3515193967006684 0.18180769510302011 0 0.35218076271052451 0.17497686442621219 0 0.35537299353081497 0.17864375895457099 0 0.3491837268169305 0.19380307066862179 0 0.3515193967006684 0.18180769510302011 0 0.35687042329716179 0.18554135829579951 0 0.3515193967006684 0.18180769510302011 0 0.35537299353081497 0.17864375895457099 0 0.35687042329716179 0.18554135829579951 0 0.35537299353081497 0.17864375895457099 0 0.35936072895427351 0.1804150221635305 0 0.35687042329716179 0.18554135829579951 0 0.36507339959951041 0.19034605321205381 0 0.3633346168645365 0.1839106896205227 0 0.37089310859703489 0.18224304737484509 0 0.36082918803941882 0.1880058232083055 0 0.36507339959951041 0.19034605321205381 0 0.3633346168645365 0.1839106896205227 0 0.36082918803941882 0.1880058232083055 0 0.35687042329716179 0.18554135829579951 0 0.3633346168645365 0.1839106896205227 0 0.35936072895427351 0.1804150221635305 0 0.35687042329716179 0.18554135829579951 0 0.3633346168645365 0.1839106896205227 0 0.35936072895427351 0.1804150221635305 0 0.3633346168645365 0.1839106896205227 0 0.36424958842996352 0.17648554046293649 0 0.3633346168645365 0.1839106896205227 0 0.36424958842996352 0.17648554046293649 0 0.37089310859703489 0.18224304737484509 0 0.35817399720310439 0.17465478016046929 0 0.35936072895427351 0.1804150221635305 0 0.36424958842996352 0.17648554046293649 0 0.35817399720310439 0.17465478016046929 0 0.36424958842996352 0.17648554046293649 0 0.36251439602344848 0.16892407538056131 0 0.36424958842996352 0.17648554046293649 0 0.36251439602344848 0.16892407538056131 0 0.36960529658843821 0.17083208298838021 0 0.37089310859703489 0.18224304737484509 0 0.36960529658843821 0.17083208298838021 0 0.38012236155625417 0.17490392104184019 0 0.36424958842996352 0.17648554046293649 0 0.37089310859703489 0.18224304737484509 0 0.36960529658843821 0.17083208298838021 0 0.36679625196248539 0.1637435350598743 0 0.36039921759194188 0.161822531569041 0 0.36717043066644223 0.1553815835455151 0 0.36039921759194188 0.161822531569041 0 0.36717043066644223 0.1553815835455151 0 0.35832004745248991 0.1548544715787516 0 0.36679625196248539 0.1637435350598743 0 0.36039921759194188 0.161822531569041 0 0.36251439602344848 0.16892407538056131 0 0.35536551356960128 0.1684834195750044 0 0.36039921759194188 0.161822531569041 0 0.36251439602344848 0.16892407538056131 0 0.36679625196248539 0.1637435350598743 0 0.36251439602344848 0.16892407538056131 0 0.36960529658843821 0.17083208298838021 0 0.36960529658843821 0.17083208298838021 0 0.37429191894215652 0.1617574018158737 0 0.38012236155625417 0.17490392104184019 0 0.36679625196248539 0.1637435350598743 0 0.36960529658843821 0.17083208298838021 0 0.37429191894215652 0.1617574018158737 0 0.36679625196248539 0.1637435350598743 0 0.37429191894215652 0.1617574018158737 0 0.36717043066644223 0.1553815835455151 0 0.37429191894215652 0.1617574018158737 0 0.36717043066644223 0.1553815835455151 0 0.37929336770861238 0.1541496930706262 0 0.3709446750407478 0.14696516135180809 0 0.36717043066644223 0.1553815835455151 0 0.37929336770861238 0.1541496930706262 0 0.3709446750407478 0.14696516135180809 0 0.36617535363457948 0.1424926421517925 0 0.37528346175318189 0.13506316627261969 0 0.3709446750407478 0.14696516135180809 0 0.37528346175318189 0.13506316627261969 0 0.37820031856121561 0.1455197753618292 0 0.36096833495067199 0.14844579518731929 0 0.36617535363457948 0.1424926421517925 0 0.35750494279371642 0.13949644579542281 0 0.3709446750407478 0.14696516135180809 0 0.36096833495067199 0.14844579518731929 0 0.36617535363457948 0.1424926421517925 0 0.36096833495067199 0.14844579518731929 0 0.36717043066644223 0.1553815835455151 0 0.35832004745248991 0.1548544715787516 0 0.3709446750407478 0.14696516135180809 0 0.36096833495067199 0.14844579518731929 0 0.36717043066644223 0.1553815835455151 0 0.33972642383425072 0.14392972531822559 0 0.35750494279371642 0.13949644579542281 0 0.36096833495067199 0.14844579518731929 0 0.35832004745248991 0.1548544715787516 0 0.35229034274297011 0.14778885507197709 0 0.33972642383425072 0.14392972531822559 0 0.35229034274297011 0.14778885507197709 0 0.35750494279371642 0.13949644579542281 0 0.35832004745248991 0.1548544715787516 0 0.35229034274297011 0.14778885507197709 0 0.35132582095956449 0.15449500652584239 0 0.36096833495067199 0.14844579518731929 0 0.35229034274297011 0.14778885507197709 0 0.35750494279371642 0.13949644579542281 0 0.33972642383425072 0.14392972531822559 0 0.35229034274297011 0.14778885507197709 0 0.34380675318428772 0.15434861760021651 0 0.35229034274297011 0.14778885507197709 0 0.34380675318428772 0.15434861760021651 0 0.35132582095956449 0.15449500652584239 0 0.34925316466414252 0.1247326808086055 0 0.34389467120699679 0.13115002648590629 0 0.35958906648008943 0.13310659637926289 0 0.33972642383425072 0.14392972531822559 0 0.34389467120699679 0.13115002648590629 0 0.35750494279371642 0.13949644579542281 0 0.34389467120699679 0.13115002648590629 0 0.35958906648008943 0.13310659637926289 0 0.34389467120699679 0.13115002648590629 0 0.35750494279371642 0.13949644579542281 0 0.35958906648008943 0.13310659637926289 0 0.3397544652564054 0.1232600886979773 0 0.34925316466414252 0.1247326808086055 0 0.34389467120699679 0.13115002648590629 0 0.34925316466414252 0.1247326808086055 0 0.3571307446820034 0.12374990999753691 0 0.35958906648008943 0.13310659637926289 0 0.35958906648008943 0.13310659637926289 0 0.37528346175318189 0.13506316627261969 0 0.3571307446820034 0.12374990999753691 0 0.36587540021398618 0.1265829376553958 0 0.35958906648008943 0.13310659637926289 0 0.36587540021398618 0.1265829376553958 0 0.35958906648008943 0.13310659637926289 0 0.37528346175318189 0.13506316627261969 0 0.36617535363457948 0.1424926421517925 0 0.35750494279371642 0.13949644579542281 0 0.37528346175318189 0.13506316627261969 0 0.35750494279371642 0.13949644579542281 0 0.37528346175318189 0.13506316627261969 0 0.35750494279371642 0.13949644579542281 0 0.35958906648008943 0.13310659637926289 0 0.37528346175318189 0.13506316627261969 0 0.36587540021398618 0.1265829376553958 0 0.37423148078132151 0.12508883210959021 0 0.37528346175318189 0.13506316627261969 0 0.37423148078132151 0.12508883210959021 0 0.37528346175318189 0.13506316627261969 0 0.38320946608044659 0.12383219125706151 0 0.37528346175318189 0.13506316627261969 0 0.40036209120371569 0.12880951968616919 0 0.37528346175318189 0.13506316627261969 0 0.40036209120371569 0.12880951968616919 0 0.38320946608044659 0.12383219125706151 0 0.37528346175318189 0.13506316627261969 0 0.4021168140488538 0.13840839419163059 0 0.37528346175318189 0.13506316627261969 0 0.4021168140488538 0.13840839419163059 0 0.38727976974232031 0.14590108075226271 0 0.4021168140488538 0.13840839419163059 0 0.40036209120371569 0.12880951968616919 0 0.41624507752523859 0.132840259060929 0 0.37528346175318189 0.13506316627261969 0 0.4021168140488538 0.13840839419163059 0 0.40036209120371569 0.12880951968616919 0 0.4021168140488538 0.13840839419163059 0 0.40357130259386792 0.1532946936241166 0 0.39622031183890077 0.14822734228258669 0 0.4021168140488538 0.13840839419163059 0 0.39622031183890077 0.14822734228258669 0 0.38727976974232031 0.14590108075226271 0 0.40357130259386792 0.1532946936241166 0 0.39622031183890077 0.14822734228258669 0 0.3919133609705614 0.15530520056233671 0 0.39622031183890077 0.14822734228258669 0 0.3919133609705614 0.15530520056233671 0 0.38727976974232031 0.14590108075226271 0 0.3919133609705614 0.15530520056233671 0 0.38727976974232031 0.14590108075226271 0 0.37929336770861238 0.1541496930706262 0 0.37528346175318189 0.13506316627261969 0 0.38727976974232031 0.14590108075226271 0 0.37820031856121561 0.1455197753618292 0 0.38727976974232031 0.14590108075226271 0 0.37820031856121561 0.1455197753618292 0 0.37929336770861238 0.1541496930706262 0 0.3709446750407478 0.14696516135180809 0 0.37820031856121561 0.1455197753618292 0 0.37929336770861238 0.1541496930706262 0 0.37429191894215652 0.1617574018158737 0 0.37929336770861238 0.1541496930706262 0 0.38562917919302209 0.1642331895922636 0 0.37429191894215652 0.1617574018158737 0 0.38562917919302209 0.1642331895922636 0 0.38012236155625417 0.17490392104184019 0 0.38562917919302209 0.1642331895922636 0 0.38012236155625417 0.17490392104184019 0 0.38924269988104249 0.17320664893145399 0 0.3919133609705614 0.15530520056233671 0 0.37929336770861238 0.1541496930706262 0 0.38562917919302209 0.1642331895922636 0 0.37089310859703489 0.18224304737484509 0 0.38012236155625417 0.17490392104184019 0 0.37558328428883619 0.19195080116177249 0 0.38012236155625417 0.17490392104184019 0 0.39203226078124298 0.18510076491006361 0 0.37558328428883619 0.19195080116177249 0 0.38012236155625417 0.17490392104184019 0 0.38924269988104249 0.17320664893145399 0 0.39203226078124298 0.18510076491006361 0 0.38924269988104249 0.17320664893145399 0 0.39203226078124298 0.18510076491006361 0 0.39918699799365093 0.16858872018164861 0 0.39203226078124298 0.18510076491006361 0 0.39918699799365093 0.16858872018164861 0 0.41378225625685361 0.18383057377969281 0 0.40357130259386792 0.1532946936241166 0 0.3919133609705614 0.15530520056233671 0 0.39918699799365093 0.16858872018164861 0 0.3919133609705614 0.15530520056233671 0 0.38562917919302209 0.1642331895922636 0 0.39918699799365093 0.16858872018164861 0 0.38562917919302209 0.1642331895922636 0 0.38924269988104249 0.17320664893145399 0 0.39918699799365093 0.16858872018164861 0 0.40357130259386792 0.1532946936241166 0 0.41764647809006161 0.16523760021536699 0 0.41552122141995018 0.15107584252158429 0 0.40357130259386792 0.1532946936241166 0 0.39918699799365093 0.16858872018164861 0 0.41764647809006161 0.16523760021536699 0 0.41764647809006161 0.16523760021536699 0 0.42776404266445839 0.15497792621654871 0 0.41552122141995018 0.15107584252158429 0 0.41764647809006161 0.16523760021536699 0 0.41378225625685361 0.18383057377969281 0 0.43102585671778693 0.1815459499891561 0 0.39918699799365093 0.16858872018164861 0 0.41764647809006161 0.16523760021536699 0 0.41378225625685361 0.18383057377969281 0 0.41764647809006161 0.16523760021536699 0 0.43102585671778693 0.1815459499891561 0 0.43718674227389881 0.16495601501078411 0 0.41764647809006161 0.16523760021536699 0 0.43718674227389881 0.16495601501078411 0 0.42776404266445839 0.15497792621654871 0 0.43718674227389881 0.16495601501078411 0 0.42776404266445839 0.15497792621654871 0 0.44440099847788928 0.1484525987251325 0 0.42776404266445839 0.15497792621654871 0 0.42895016634452571 0.1417536221106416 0 0.44440099847788928 0.1484525987251325 0 0.42776404266445839 0.15497792621654871 0 0.42895016634452571 0.1417536221106416 0 0.41552122141995018 0.15107584252158429 0 0.42693118667484242 0.1315427640117566 0 0.44120972825534688 0.12721150624817229 0 0.42544072065424932 0.12255587309971849 0 0.42895016634452571 0.1417536221106416 0 0.42693118667484242 0.1315427640117566 0 0.44120972825534688 0.12721150624817229 0 0.42693118667484242 0.1315427640117566 0 0.41624507752523859 0.132840259060929 0 0.42544072065424932 0.12255587309971849 0 0.42895016634452571 0.1417536221106416 0 0.42693118667484242 0.1315427640117566 0 0.41624507752523859 0.132840259060929 0 0.40036209120371569 0.12880951968616919 0 0.42544072065424932 0.12255587309971849 0 0.4021168140488538 0.13840839419163059 0 0.42895016634452571 0.1417536221106416 0 0.41624507752523859 0.132840259060929 0 0.40036209120371569 0.12880951968616919 0 0.41624507752523859 0.132840259060929 0 0.42544072065424932 0.12255587309971849 0 0.4021168140488538 0.13840839419163059 0 0.42895016634452571 0.1417536221106416 0 0.4021168140488538 0.13840839419163059 0 0.40357130259386792 0.1532946936241166 0 0.41552122141995018 0.15107584252158429 0 0.4021168140488538 0.13840839419163059 0 0.42895016634452571 0.1417536221106416 0 0.41552122141995018 0.15107584252158429 0 0.39412914348324429 0.25151601636080712 0 0.39506736082356281 0.23836258382691641 0 0.4099860569781118 0.24280118449828331 0 0.39506736082356281 0.23836258382691641 0 0.40807317305464708 0.22837633764156781 0 0.4099860569781118 0.24280118449828331 0 0.39412914348324429 0.25151601636080712 0 0.39506736082356281 0.23836258382691641 0 0.38044502365950122 0.2445193739561668 0 0.39506736082356281 0.23836258382691641 0 0.38044502365950122 0.2445193739561668 0 0.38466849739312992 0.22703992422488251 0 0.36785464199898238 0.23942579081800611 0 0.38044502365950122 0.2445193739561668 0 0.38466849739312992 0.22703992422488251 0 0.39506736082356281 0.23836258382691641 0 0.38466849739312992 0.22703992422488251 0 0.40807317305464708 0.22837633764156781 0 0.38466849739312992 0.22703992422488251 0 0.40169548759707502 0.220180630969114 0 0.39161104562983839 0.21127772499411879 0 0.38466849739312992 0.22703992422488251 0 0.40169548759707502 0.220180630969114 0 0.40807317305464708 0.22837633764156781 0 0.38466849739312992 0.22703992422488251 0 0.40807317305464708 0.22837633764156781 0 0.39161104562983839 0.21127772499411879 0 0.38056827225311668 0.20243435674566709 0 0.40449130805307087 0.20186753423182149 0 0.40169548759707502 0.220180630969114 0 0.40323465454753438 0.21085591427642611 0 0.39161104562983839 0.21127772499411879 0 0.40323465454753438 0.21085591427642611 0 0.39161104562983839 0.21127772499411879 0 0.40449130805307087 0.20186753423182149 0 0.37354415507364691 0.21624925293610511 0 0.39161104562983839 0.21127772499411879 0 0.38056827225311668 0.20243435674566709 0 0.37354415507364691 0.21624925293610511 0 0.38466849739312992 0.22703992422488251 0 0.39161104562983839 0.21127772499411879 0 0.39203226078124298 0.18510076491006361 0 0.38056827225311668 0.20243435674566709 0 0.37558328428883619 0.19195080116177249 0 0.39203226078124298 0.18510076491006361 0 0.41378225625685361 0.18383057377969281 0 0.40449130805307087 0.20186753423182149 0 0.38056827225311668 0.20243435674566709 0 0.40449130805307087 0.20186753423182149 0 0.39203226078124298 0.18510076491006361 0 0.38056827225311668 0.20243435674566709 0 0.40449130805307087 0.20186753423182149 0 0.40449130805307087 0.20186753423182149 0 0.42841434385302529 0.20130071171798869 0 0.41378225625685361 0.18383057377969281 0 0.40449130805307087 0.20186753423182149 0 0.42841434385302529 0.20130071171798869 0 0.41378225625685361 0.18383057377969281 0 0.43102585671778693 0.1815459499891561 0 0.42841434385302529 0.20130071171798869 0 0.43102585671778693 0.1815459499891561 0 0.42841434385302529 0.20130071171798869 0 0.45120000179662728 0.1852000456588932 0 0.42841434385302529 0.20130071171798869 0 0.42820476026712367 0.2156692302769844 0 0.41505491572505471 0.21074067134355759 0 0.42841434385302529 0.20130071171798869 0 0.42820476026712367 0.2156692302769844 0 0.44276807121365758 0.21445577010366931 0 0.42820476026712367 0.2156692302769844 0 0.41505491572505471 0.21074067134355759 0 0.41690123707201288 0.22093592425789541 0 0.40449130805307087 0.20186753423182149 0 0.42841434385302529 0.20130071171798869 0 0.41505491572505471 0.21074067134355759 0 0.42841434385302529 0.20130071171798869 0 0.41505491572505471 0.21074067134355759 0 0.40323465454753438 0.21085591427642611 0 0.40449130805307087 0.20186753423182149 0 0.41505491572505471 0.21074067134355759 0 0.40169548759707502 0.220180630969114 0 0.41505491572505471 0.21074067134355759 0 0.41690123707201288 0.22093592425789541 0 0.40169548759707502 0.220180630969114 0 0.41505491572505471 0.21074067134355759 0 0.40169548759707502 0.220180630969114 0 0.40323465454753438 0.21085591427642611 0 0.41505491572505471 0.21074067134355759 0 0.40807317305464708 0.22837633764156781 0 0.41690123707201288 0.22093592425789541 0 0.43147784871616418 0.2297127510582532 0 0.40807317305464708 0.22837633764156781 0 0.43147784871616418 0.2297127510582532 0 0.40807317305464708 0.22837633764156781 0 0.43147784871616418 0.2297127510582532 0 0.4099860569781118 0.24280118449828331 0 0.40169548759707502 0.220180630969114 0 0.40807317305464708 0.22837633764156781 0 0.41690123707201288 0.22093592425789541 0 0.42820476026712367 0.2156692302769844 0 0.41690123707201288 0.22093592425789541 0 0.43147784871616418 0.2297127510582532 0 0.42820476026712367 0.2156692302769844 0 0.43147784871616418 0.2297127510582532 0 0.44276807121365758 0.21445577010366931 0 0.43147784871616418 0.2297127510582532 0 0.42362075560686269 0.24948137824744521 0 0.44411471448451068 0.24882935926865121 0 0.43147784871616418 0.2297127510582532 0 0.42362075560686269 0.24948137824744521 0 0.4099860569781118 0.24280118449828331 0 0.44411471448451068 0.24882935926865121 0 0.4548825243776814 0.23104916447493859 0 0.4723665485238302 0.2463561755010408 0 0.43147784871616418 0.2297127510582532 0 0.44411471448451068 0.24882935926865121 0 0.4548825243776814 0.23104916447493859 0 0.43147784871616418 0.2297127510582532 0 0.4548825243776814 0.23104916447493859 0 0.43147784871616418 0.2297127510582532 0 0.4548825243776814 0.23104916447493859 0 0.44276807121365758 0.21445577010366931 0 0.4548825243776814 0.23104916447493859 0 0.47563224691150252 0.2208573329851323 0 0.4723665485238302 0.2463561755010408 0 0.4548825243776814 0.23104916447493859 0 0.45823174974821101 0.2005942304374565 0 0.47563224691150252 0.2208573329851323 0 0.4548825243776814 0.23104916447493859 0 0.44276807121365758 0.21445577010366931 0 0.45823174974821101 0.2005942304374565 0 0.42841434385302529 0.20130071171798869 0 0.44276807121365758 0.21445577010366931 0 0.45823174974821101 0.2005942304374565 0 0.42841434385302529 0.20130071171798869 0 0.45823174974821101 0.2005942304374565 0 0.42841434385302529 0.20130071171798869 0 0.45120000179662728 0.1852000456588932 0 0.42841434385302529 0.20130071171798869 0 0.45823174974821101 0.2005942304374565 0 0.45120000179662728 0.1852000456588932 0 0.45823174974821101 0.2005942304374565 0 0.46838020423253102 0.1877607856870192 0 0.45120000179662728 0.1852000456588932 0 0.45823174974821101 0.2005942304374565 0 0.48804915564339668 0.19988774915692459 0 0.45823174974821101 0.2005942304374565 0 0.46838020423253102 0.1877607856870192 0 0.48804915564339668 0.19988774915692459 0 0.46838020423253102 0.1877607856870192 0 0.48804915564339668 0.19988774915692459 0 0.48101740769180779 0.1844935643783509 0 0.49999999999994399 0.19960459079453821 0 0.48804915564339668 0.19988774915692459 0 0.48101740769180779 0.1844935643783509 0 0.48804915564339668 0.19988774915692459 0 0.48101740769180779 0.1844935643783509 0 0.49999999999994399 0.19960459079453821 0 0.48804915564339668 0.19988774915692459 0 0.48804915564339668 0.19988774915692459 0 0.49999999999999389 0.22605101717388251 0 0.49999999999994399 0.19960459079453821 0 0.48804915564339668 0.19988774915692459 0 0.49999999999999389 0.22605101717388251 0 0.48804915564339668 0.19988774915692459 0 0.47563224691150252 0.2208573329851323 0 0.49999999999999389 0.22605101717388251 0 0.45823174974821101 0.2005942304374565 0 0.48804915564339668 0.19988774915692459 0 0.47563224691150252 0.2208573329851323 0 0.47563224691150252 0.2208573329851323 0 0.49999999999999389 0.22605101717388251 0 0.4723665485238302 0.2463561755010408 0 0.5 0.25528656727589433 0 0.49999999999999389 0.22605101717388251 0 0.4723665485238302 0.2463561755010408 0 0.46548219779833161 0.15048325949819971 0 0.45643825043658448 0.13068388702740111 0 0.44440099847788928 0.1484525987251325 0 0.46548219779833161 0.15048325949819971 0 0.44440099847788928 0.1484525987251325 0 0.45480167795363241 0.1643735415976397 0 0.45643825043658448 0.13068388702740111 0 0.46921831108265188 0.12563146451737589 0 0.47611637244801458 0.13751732471916919 0 0.46548219779833161 0.15048325949819971 0 0.45643825043658448 0.13068388702740111 0 0.45643825043658448 0.13068388702740111 0 0.47611637244801458 0.13751732471916919 0 0.46548219779833161 0.15048325949819971 0 0.45643825043658448 0.13068388702740111 0 0.47611637244801458 0.13751732471916919 0 0.45643825043658448 0.13068388702740111 0 0.42985927670773699 0.12145405499456841 0 0.45643825043658448 0.13068388702740111 0 0.44120972825534688 0.12721150624817229 0 0.42985927670773699 0.12145405499456841 0 0.45643825043658448 0.13068388702740111 0 0.44120972825534688 0.12721150624817229 0 0.44440099847788928 0.1484525987251325 0 0.42895016634452571 0.1417536221106416 0 0.44120972825534688 0.12721150624817229 0 0.44440099847788928 0.1484525987251325 0 0.45643825043658448 0.13068388702740111 0 0.44120972825534688 0.12721150624817229 0 0.43718674227389881 0.16495601501078411 0 0.44440099847788928 0.1484525987251325 0 0.45480167795363241 0.1643735415976397 0 0.43718674227389881 0.16495601501078411 0 0.45120000179662728 0.1852000456588932 0 0.45480167795363241 0.1643735415976397 0 0.43102585671778693 0.1815459499891561 0 0.43718674227389881 0.16495601501078411 0 0.45120000179662728 0.1852000456588932 0 0.45120000179662728 0.1852000456588932 0 0.47398565974021578 0.16909937959977869 0 0.46838020423253102 0.1877607856870192 0 0.45120000179662728 0.1852000456588932 0 0.47398565974021578 0.16909937959977869 0 0.45120000179662728 0.1852000456588932 0 0.45480167795363241 0.1643735415976397 0 0.47398565974021578 0.16909937959977869 0 0.46548219779833161 0.15048325949819971 0 0.45480167795363241 0.1643735415976397 0 0.47398565974021578 0.16909937959977869 0 0.47398565974021578 0.16909937959977869 0 0.48699282987010861 0.15990833042517821 0 0.47817472882531581 0.1531637841153406 0 0.46548219779833161 0.15048325949819971 0 0.47398565974021578 0.16909937959977869 0 0.46548219779833161 0.15048325949819971 0 0.47398565974021578 0.16909937959977869 0 0.47817472882531581 0.1531637841153406 0 0.47398565974021578 0.16909937959977869 0 0.48699282987010861 0.15990833042517821 0 0.47398565974021578 0.16909937959977869 0 0.48549897432553268 0.1721655526064659 0 0.48699282987010861 0.15990833042517821 0 0.46838020423253102 0.1877607856870192 0 0.47398565974021578 0.16909937959977869 0 0.48101740769180779 0.1844935643783509 0 0.47398565974021578 0.16909937959977869 0 0.48101740769180779 0.1844935643783509 0 0.47398565974021578 0.16909937959977869 0 0.48101740769180779 0.1844935643783509 0 0.48549897432553268 0.1721655526064659 0 0.48101740769180779 0.1844935643783509 0 0.48549897432553268 0.1721655526064659 0 0.5 0.17516093602255531 0 0.49999999999994399 0.19960459079453821 0 0.48101740769180779 0.1844935643783509 0 0.5 0.17516093602255531 0 0.5 0.17516093602255531 0 0.48699282987010861 0.15990833042517821 0 0.49999999999999772 0.1507172812505724 0 0.48549897432553268 0.1721655526064659 0 0.5 0.17516093602255531 0 0.48699282987010861 0.15990833042517821 0 0.48699282987010861 0.15990833042517821 0 0.49999999999999772 0.1507172812505724 0 0.49999999999999989 0.14456871380776271 0 0.48829658426991052 0.1488106263343757 0 0.47611637244801458 0.13751732471916919 0 0.49999999999999989 0.14456871380776271 0 0.47611637244801458 0.13751732471916919 0 0.49999999999999772 0.1507172812505724 0 0.49999999999999989 0.14456871380776271 0 0.48829658426991052 0.1488106263343757 0 0.48699282987010861 0.15990833042517821 0 0.49999999999999772 0.1507172812505724 0 0.48829658426991052 0.1488106263343757 0 0.48699282987010861 0.15990833042517821 0 0.48829658426991052 0.1488106263343757 0 0.47817472882531581 0.1531637841153406 0 0.46548219779833161 0.15048325949819971 0 0.47817472882531581 0.1531637841153406 0 0.47611637244801458 0.13751732471916919 0 0.48829658426991052 0.1488106263343757 0 0.47817472882531581 0.1531637841153406 0 0.47611637244801458 0.13751732471916919 0 0.46921831108265188 0.12563146451737589 0 0.47611637244801458 0.13751732471916919 0 0.4807282579861718 0.1232568484589449 0 0.49999999999999989 0.14456871380776271 0 0.47611637244801458 0.13751732471916919 0 0.5 0.13080827168511791 0 0.47611637244801458 0.13751732471916919 0 0.5 0.13080827168511791 0 0.4807282579861718 0.1232568484589449 0 0.5 0.13080827168511791 0 0.49030553255063808 0.1103842250598414 0 0.4807282579861718 0.1232568484589449 0 0.5 0.13080827168511791 0 0.49030553255063808 0.1103842250598414 0 0.5 0.1022295174674356 0 0.5 0.13080827168511791 0 0.49030553255063808 0.1103842250598414 0 0.49030553255063808 0.1103842250598414 0 0.49146092908536709 0.090848585070899934 0 0.48061106510127638 0.089960178434564858 0 0.49030553255063808 0.1103842250598414 0 0.48061106510127638 0.089960178434564858 0 0.49030553255063808 0.1103842250598414 0 0.5 0.1022295174674356 0 0.49146092908536709 0.090848585070899934 0 0.48061106510127638 0.089960178434564858 0 0.46800107384955492 0.11194295631321929 0 0.46138039627457711 0.096762521427340459 0 0.49030553255063808 0.1103842250598414 0 0.48061106510127638 0.089960178434564858 0 0.46800107384955492 0.11194295631321929 0 0.49030553255063808 0.1103842250598414 0 0.4807282579861718 0.1232568484589449 0 0.46800107384955492 0.11194295631321929 0 0.46921831108265188 0.12563146451737589 0 0.4807282579861718 0.1232568484589449 0 0.46800107384955492 0.11194295631321929 0 0.48682160724776369 0.06604117853659601 0 0.5 0.073650763249753504 0 0.4920779033309397 0.05581540704570935 0 0.48682160724776369 0.06604117853659601 0 0.5 0.073650763249753504 0 0.48638804777492051 0.078018241142904343 0 0.5 0.1022295174674356 0 0.5 0.073650763249753504 0 0.49146092908536709 0.090848585070899934 0 0.5 0.073650763249753504 0 0.48638804777492051 0.078018241142904343 0 0.49146092908536709 0.090848585070899934 0 0.48638804777492051 0.078018241142904343 0 0.49146092908536709 0.090848585070899934 0 0.48061106510127638 0.089960178434564858 0 0.48638804777492051 0.078018241142904343 0 0.48061106510127638 0.089960178434564858 0 0.47091659765191501 0.069536131809288193 0 0.48061106510127638 0.089960178434564858 0 0.47091659765191501 0.069536131809288193 0 0.48061106510127638 0.089960178434564858 0 0.47091659765191501 0.069536131809288193 0 0.46225036973666561 0.083037378110150689 0 0.48682160724776369 0.06604117853659601 0 0.47091659765191501 0.069536131809288193 0 0.48682160724776369 0.06604117853659601 0 0.47091659765191501 0.069536131809288193 0 0.47590813451888742 0.059975528317591342 0 0.48682160724776369 0.06604117853659601 0 0.48638804777492051 0.078018241142904343 0 0.47091659765191501 0.069536131809288193 0 0.47091659765191501 0.069536131809288193 0 0.44962040417263238 0.074215739240369089 0 0.46396366743167688 0.054887883027992357 0 0.47091659765191501 0.069536131809288193 0 0.46225036973666561 0.083037378110150689 0 0.44962040417263238 0.074215739240369089 0 0.47091659765191501 0.069536131809288193 0 0.44962040417263238 0.074215739240369089 0 0.48061106510127638 0.089960178434564858 0 0.46225036973666561 0.083037378110150689 0 0.46138039627457711 0.096762521427340459 0 0.46225036973666561 0.083037378110150689 0 0.44829552025421793 0.089564208766725578 0 0.44962040417263238 0.074215739240369089 0 0.46225036973666561 0.083037378110150689 0 0.44829552025421793 0.089564208766725578 0 0.46138039627457711 0.096762521427340459 0 0.44829552025421793 0.089564208766725578 0 0.44962040417263238 0.074215739240369089 0 0.43237565425677837 0.078005085910793873 0 0.44829552025421793 0.089564208766725578 0 0.44115557947815848 0.09722645051748631 0 0.43237565425677837 0.078005085910793873 0 0.44829552025421793 0.089564208766725578 0 0.44962040417263238 0.074215739240369089 0 0.44962040417263238 0.074215739240369089 0 0.43237565425677837 0.078005085910793873 0 0.43846548952557129 0.061715781580912017 0 0.44962040417263238 0.074215739240369089 0 0.43846548952557129 0.061715781580912017 0 0.45120700244578282 0.05583537028305214 0 0.44962040417263238 0.074215739240369089 0 0.45120700244578282 0.05583537028305214 0 0.44962040417263238 0.074215739240369089 0 0.43237565425677837 0.078005085910793873 0 0.46800107384955492 0.11194295631321929 0 0.45607514445626818 0.106370071258074 0 0.44993550469953558 0.1164478151241803 0 0.45643825043658448 0.13068388702740111 0 0.46921831108265188 0.12563146451737589 0 0.44993550469953558 0.1164478151241803 0 0.46921831108265188 0.12563146451737589 0 0.46800107384955492 0.11194295631321929 0 0.44993550469953558 0.1164478151241803 0 0.46800107384955492 0.11194295631321929 0 0.44993550469953558 0.1164478151241803 0 0.45643825043658448 0.13068388702740111 0 0.44993550469953558 0.1164478151241803 0 0.46800107384955492 0.11194295631321929 0 0.46138039627457711 0.096762521427340459 0 0.45607514445626818 0.106370071258074 0 0.44829552025421793 0.089564208766725578 0 0.46138039627457711 0.096762521427340459 0 0.45318042433021699 0.099402369936305524 0 0.46138039627457711 0.096762521427340459 0 0.45318042433021699 0.099402369936305524 0 0.45607514445626818 0.106370071258074 0 0.45318042433021699 0.099402369936305524 0 0.45607514445626818 0.106370071258074 0 0.44697063633580503 0.104912678293082 0 0.45607514445626818 0.106370071258074 0 0.44697063633580503 0.104912678293082 0 0.44993550469953558 0.1164478151241803 0 0.44697063633580503 0.104912678293082 0 0.44115557947815848 0.09722645051748631 0 0.44993550469953558 0.1164478151241803 0 0.44115557947815848 0.09722645051748631 0 0.44993550469953558 0.1164478151241803 0 0.44829552025421793 0.089564208766725578 0 0.44697063633580503 0.104912678293082 0 0.44829552025421793 0.089564208766725578 0 0.44697063633580503 0.104912678293082 0 0.44115557947815848 0.09722645051748631 0 0.44829552025421793 0.089564208766725578 0 0.45318042433021699 0.099402369936305524 0 0.44697063633580503 0.104912678293082 0 0.44993550469953558 0.1164478151241803 0 0.42985927670773699 0.12145405499456841 0 0.44115557947815848 0.09722645051748631 0 0.44993550469953558 0.1164478151241803 0 0.42985927670773699 0.12145405499456841 0 0.45643825043658448 0.13068388702740111 0 0.44993550469953558 0.1164478151241803 0 0.42985927670773699 0.12145405499456841 0 0.44120972825534688 0.12721150624817229 0 0.42985927670773699 0.12145405499456841 0 0.42544072065424932 0.12255587309971849 0 0.44120972825534688 0.12721150624817229 0 0.42544072065424932 0.12255587309971849 0 0.42985927670773699 0.12145405499456841 0 0.42544072065424932 0.12255587309971849 0 0.40036209120371569 0.12880951968616919 0 0.42544072065424932 0.12255587309971849 0 0.4029741787631369 0.1159228636037939 0 0.42985927670773699 0.12145405499456841 0 0.42544072065424932 0.12255587309971849 0 0.40464114815594759 0.1126967909598445 0 0.42985927670773699 0.12145405499456841 0 0.4194216760727506 0.099783699441775703 0 0.40464114815594759 0.1126967909598445 0 0.42985927670773699 0.12145405499456841 0 0.40464114815594759 0.1126967909598445 0 0.42544072065424932 0.12255587309971849 0 0.40464114815594759 0.1126967909598445 0 0.4029741787631369 0.1159228636037939 0 0.42544072065424932 0.12255587309971849 0 0.4029741787631369 0.1159228636037939 0 0.4194216760727506 0.099783699441775703 0 0.40464114815594759 0.1126967909598445 0 0.39573688073604069 0.097649525108660526 0 0.44115557947815848 0.09722645051748631 0 0.42985927670773699 0.12145405499456841 0 0.4194216760727506 0.099783699441775703 0 0.44115557947815848 0.09722645051748631 0 0.43237565425677837 0.078005085910793873 0 0.44115557947815848 0.09722645051748631 0 0.4194216760727506 0.099783699441775703 0 0.43237565425677837 0.078005085910793873 0 0.43237565425677837 0.078005085910793873 0 0.42200041268085192 0.055291190725462139 0 0.43846548952557129 0.061715781580912017 0 0.43237565425677837 0.078005085910793873 0 0.42200041268085192 0.055291190725462139 0 0.43237565425677837 0.078005085910793873 0 0.40631873318864309 0.083730811570664934 0 0.42200041268085192 0.055291190725462139 0 0.40631873318864309 0.083730811570664934 0 0.40510978506424861 0.056441431332444461 0 0.42200041268085192 0.055291190725462139 0 0.4194216760727506 0.099783699441775703 0 0.40631873318864309 0.083730811570664934 0 0.39573688073604069 0.097649525108660526 0 0.43237565425677837 0.078005085910793873 0 0.40631873318864309 0.083730811570664934 0 0.4194216760727506 0.099783699441775703 0 0.43237565425677837 0.078005085910793873 0 0.40631873318864309 0.083730811570664934 0 0.40631873318864309 0.083730811570664934 0 0.38026181212050603 0.089456537230528155 0 0.39573688073604069 0.097649525108660526 0 0.40631873318864309 0.083730811570664934 0 0.38907668885254082 0.06695711089121939 0 0.38026181212050603 0.089456537230528155 0 0.40631873318864309 0.083730811570664934 0 0.38026181212050603 0.089456537230528155 0 0.40631873318864309 0.083730811570664934 0 0.38907668885254082 0.06695711089121939 0 0.40510978506424861 0.056441431332444461 0 0.36369992054358757 0.076239283887823972 0 0.38907668885254082 0.06695711089121939 0 0.38026181212050603 0.089456537230528155 0 0.37942301960415792 0.1039395269251209 0 0.38050763687202449 0.1092898541078693 0 0.40464114815594759 0.1126967909598445 0 0.38026181212050603 0.089456537230528155 0 0.37942301960415792 0.1039395269251209 0 0.39573688073604069 0.097649525108660526 0 0.37346154281377519 0.1119794477644452 0 0.38050763687202449 0.1092898541078693 0 0.37804159560579448 0.1140065181080429 0 0.37432513884830138 0.11506987313801791 0 0.37804159560579448 0.1140065181080429 0 0.37721520221638 0.1187806919970425 0 0.37346154281377519 0.1119794477644452 0 0.37432513884830138 0.11506987313801791 0 0.37804159560579448 0.1140065181080429 0 0.37804159560579448 0.1140065181080429 0 0.38202088027434261 0.1166671024830027 0 0.37721520221638 0.1187806919970425 0 0.38050763687202449 0.1092898541078693 0 0.37804159560579448 0.1140065181080429 0 0.38202088027434261 0.1166671024830027 0 0.37423148078132151 0.12508883210959021 0 0.37721520221638 0.1187806919970425 0 0.38320946608044659 0.12383219125706151 0 0.38202088027434261 0.1166671024830027 0 0.37721520221638 0.1187806919970425 0 0.38320946608044659 0.12383219125706151 0 0.38202088027434261 0.1166671024830027 0 0.3901436802537378 0.1185838349939445 0 0.38320946608044659 0.12383219125706151 0 0.38050763687202449 0.1092898541078693 0 0.38202088027434261 0.1166671024830027 0 0.3901436802537378 0.1185838349939445 0 0.38050763687202449 0.1092898541078693 0 0.3901436802537378 0.1185838349939445 0 0.4029741787631369 0.1159228636037939 0 0.38050763687202449 0.1092898541078693 0 0.4029741787631369 0.1159228636037939 0 0.38050763687202449 0.1092898541078693 0 0.40464114815594759 0.1126967909598445 0 0.4029741787631369 0.1159228636037939 0 0.40036209120371569 0.12880951968616919 0 0.3901436802537378 0.1185838349939445 0 0.38320946608044659 0.12383219125706151 0 0.40036209120371569 0.12880951968616919 0 0.3901436802537378 0.1185838349939445 0 0.4029741787631369 0.1159228636037939 0 0.37942301960415792 0.1039395269251209 0 0.40464114815594759 0.1126967909598445 0 0.39573688073604069 0.097649525108660526 0 0.37942301960415792 0.1039395269251209 0 0.40464114815594759 0.1126967909598445 0 0.39680363231758109 0.028978827344810072 0 0.40124992952899552 0.0098634003548001559 0 0.38877037500330219 0.018503752391858749 0 0.39680363231758109 0.028978827344810072 0 0.40124992952899552 0.0098634003548001559 0 0.41162517110492369 0.032577295540131168 0 0.40124992952899552 0.0098634003548001559 0 0.40135187156371549 0.003487323786051127 0 0.39087468795306729 -0.012850494830531 0 0.38148902526390549 0.00047700613930369741 0 0.38877037500330219 0.018503752391858749 0 0.40124992952899552 0.0098634003548001559 0 0.38148902526390549 0.00047700613930369741 0 0.38877037500330219 0.018503752391858749 0 0.37433922338616188 0.02137822479571308 0 0.38148902526390549 0.00047700613930369741 0 0.38877037500330219 0.018503752391858749 0 0.37433922338616188 0.02137822479571308 0 0.38877037500330219 0.018503752391858749 0 0.37751357204530611 0.035746392361119789 0 0.39680363231758109 0.028978827344810072 0 0.38877037500330219 0.018503752391858749 0 0.37751357204530611 0.035746392361119789 0 0.39680363231758109 0.028978827344810072 0 0.37751357204530611 0.035746392361119789 0 0.3965279194942834 0.043650747934744702 0 0.3706593006089357 0.055163992857094647 0 0.37751357204530611 0.035746392361119789 0 0.3965279194942834 0.043650747934744702 0 0.3706593006089357 0.055163992857094647 0 0.3965279194942834 0.043650747934744702 0 0.3706593006089357 0.055163992857094647 0 0.38907668885254082 0.06695711089121939 0 0.3965279194942834 0.043650747934744702 0 0.38907668885254082 0.06695711089121939 0 0.40510978506424861 0.056441431332444461 0 0.3965279194942834 0.043650747934744702 0 0.40510978506424861 0.056441431332444461 0 0.3965279194942834 0.043650747934744702 0 0.41162517110492369 0.032577295540131168 0 0.39680363231758109 0.028978827344810072 0 0.3965279194942834 0.043650747934744702 0 0.41162517110492369 0.032577295540131168 0 0.41162517110492369 0.032577295540131168 0 0.42200041268085192 0.055291190725462139 0 0.42525275149307312 0.035381685372373288 0 0.41162517110492369 0.032577295540131168 0 0.42200041268085192 0.055291190725462139 0 0.40510978506424861 0.056441431332444461 0 0.41162517110492369 0.032577295540131168 0 0.42200041268085192 0.055291190725462139 0 0.42200041268085192 0.055291190725462139 0 0.43712397407181081 0.045231521744883769 0 0.43846548952557129 0.061715781580912017 0 0.42525275149307312 0.035381685372373288 0 0.43712397407181081 0.045231521744883769 0 0.43564635766720511 0.026132442145832959 0 0.42200041268085192 0.055291190725462139 0 0.42525275149307312 0.035381685372373288 0 0.43712397407181081 0.045231521744883769 0 0.43564635766720511 0.026132442145832959 0 0.4184991146154603 0.014809882965942029 0 0.43084267034133072 0.0125901402774098 0 0.42525275149307312 0.035381685372373288 0 0.43564635766720511 0.026132442145832959 0 0.4184991146154603 0.014809882965942029 0 0.43564635766720511 0.026132442145832959 0 0.4184991146154603 0.014809882965942029 0 0.40124992952899552 0.0098634003548001559 0 0.41162517110492369 0.032577295540131168 0 0.41162517110492369 0.032577295540131168 0 0.42525275149307312 0.035381685372373288 0 0.4184991146154603 0.014809882965942029 0 0.40124992952899552 0.0098634003548001559 0 0.41162517110492369 0.032577295540131168 0 0.4184991146154603 0.014809882965942029 0 0.40124992952899552 0.0098634003548001559 0 0.40135187156371549 0.003487323786051127 0 0.4184991146154603 0.014809882965942029 0 0.40135187156371549 0.003487323786051127 0 0.4184991146154603 0.014809882965942029 0 0.4138818807055239 -0.002709361001928064 0 0.40135187156371549 0.003487323786051127 0 0.4184991146154603 0.014809882965942029 0 0.4184991146154603 0.014809882965942029 0 0.42777239663759409 0.0019556245717380571 0 0.4138818807055239 -0.002709361001928064 0 0.43564635766720511 0.026132442145832959 0 0.43084267034133072 0.0125901402774098 0 0.4414528124450634 0.0074626114261261561 0 0.4184991146154603 0.014809882965942029 0 0.42777239663759409 0.0019556245717380571 0 0.43084267034133072 0.0125901402774098 0 0.42777239663759409 0.0019556245717380571 0 0.43084267034133072 0.0125901402774098 0 0.4414528124450634 0.0074626114261261561 0 0.4414528124450634 0.0074626114261261561 0 0.45522006163250672 0.0093450206162817712 0 0.45720099788376051 -0.01360366135009562 0 0.43564635766720511 0.026132442145832959 0 0.4414528124450634 0.0074626114261261561 0 0.4532391253812596 0.032293702582659671 0 0.4414528124450634 0.0074626114261261561 0 0.45522006163250672 0.0093450206162817712 0 0.4532391253812596 0.032293702582659671 0 0.4414528124450634 0.0074626114261261561 0 0.4532391253812596 0.032293702582659671 0 0.4640695458204851 0.025261355792016601 0 0.45522006163250672 0.0093450206162817712 0 0.4532391253812596 0.032293702582659671 0 0.45522006163250672 0.0093450206162817712 0 0.4532391253812596 0.032293702582659671 0 0.4640695458204851 0.025261355792016601 0 0.45522006163250672 0.0093450206162817712 0 0.47651815311894652 0.0040287734290051806 0 0.43712397407181081 0.045231521744883769 0 0.43846548952557129 0.061715781580912017 0 0.45120700244578282 0.05583537028305214 0 0.43712397407181081 0.045231521744883769 0 0.43564635766720511 0.026132442145832959 0 0.45279360071894181 0.037455001325735947 0 0.45120700244578282 0.05583537028305214 0 0.45279360071894181 0.037455001325735947 0 0.43712397407181081 0.045231521744883769 0 0.45120700244578282 0.05583537028305214 0 0.45279360071894181 0.037455001325735947 0 0.43564635766720511 0.026132442145832959 0 0.45279360071894181 0.037455001325735947 0 0.4532391253812596 0.032293702582659671 0 0.43564635766720511 0.026132442145832959 0 0.45279360071894181 0.037455001325735947 0 0.45279360071894181 0.037455001325735947 0 0.4532391253812596 0.032293702582659671 0 0.45120700244578282 0.05583537028305214 0 0.45279360071894181 0.037455001325735947 0 0.45701073721143748 0.040239634246697263 0 0.45279360071894181 0.037455001325735947 0 0.4532391253812596 0.032293702582659671 0 0.45701073721143748 0.040239634246697263 0 0.4640695458204851 0.025261355792016601 0 0.4532391253812596 0.032293702582659671 0 0.45701073721143748 0.040239634246697263 0 0.4532391253812596 0.032293702582659671 0 0.45701073721143748 0.040239634246697263 0 0.45279360071894181 0.037455001325735947 0 0.45701073721143748 0.040239634246697263 0 0.4640695458204851 0.025261355792016601 0 0.45701073721143748 0.040239634246697263 0 0.46972146276179039 0.036872029465967009 0 0.45701073721143748 0.040239634246697263 0 0.47161651249150599 0.049884027486926392 0 0.46972146276179039 0.036872029465967009 0 0.45701073721143748 0.040239634246697263 0 0.47161651249150599 0.049884027486926392 0 0.44962040417263238 0.074215739240369089 0 0.45120700244578282 0.05583537028305214 0 0.46396366743167688 0.054887883027992357 0 0.45120700244578282 0.05583537028305214 0 0.45701073721143748 0.040239634246697263 0 0.46396366743167688 0.054887883027992357 0 0.45701073721143748 0.040239634246697263 0 0.46396366743167688 0.054887883027992357 0 0.45701073721143748 0.040239634246697263 0 0.46396366743167688 0.054887883027992357 0 0.47161651249150599 0.049884027486926392 0 0.47091659765191501 0.069536131809288193 0 0.46396366743167688 0.054887883027992357 0 0.47161651249150599 0.049884027486926392 0 0.48625985121566279 0.042749716309840778 0 0.486222287771576 0.059528420727153558 0 0.47161651249150599 0.049884027486926392 0 0.486222287771576 0.059528420727153558 0 0.47590813451888742 0.059975528317591342 0 0.47161651249150599 0.049884027486926392 0 0.486222287771576 0.059528420727153558 0 0.48682160724776369 0.06604117853659601 0 0.47590813451888742 0.059975528317591342 0 0.486222287771576 0.059528420727153558 0 0.47091659765191501 0.069536131809288193 0 0.46396366743167688 0.054887883027992357 0 0.47590813451888742 0.059975528317591342 0 0.46396366743167688 0.054887883027992357 0 0.47590813451888742 0.059975528317591342 0 0.47161651249150599 0.049884027486926392 0 0.47161651249150599 0.049884027486926392 0 0.4766908272166116 0.040239439410508587 0 0.48625985121566279 0.042749716309840778 0 0.47161651249150599 0.049884027486926392 0 0.4766908272166116 0.040239439410508587 0 0.46972146276179039 0.036872029465967009 0 0.4766908272166116 0.040239439410508587 0 0.46972146276179039 0.036872029465967009 0 0.47910662880110783 0.027842033302148461 0 0.4766908272166116 0.040239439410508587 0 0.48625985121566279 0.042749716309840778 0 0.47910662880110783 0.027842033302148461 0 0.5 0.045072009032071432 0 0.48625985121566279 0.042749716309840778 0 0.5 0.01649325481438935 0 0.48625985121566279 0.042749716309840778 0 0.4920779033309397 0.05581540704570935 0 0.486222287771576 0.059528420727153558 0 0.5 0.073650763249753504 0 0.5 0.045072009032071432 0 0.4920779033309397 0.05581540704570935 0 0.5 0.045072009032071432 0 0.48625985121566279 0.042749716309840778 0 0.4920779033309397 0.05581540704570935 0 0.48682160724776369 0.06604117853659601 0 0.4920779033309397 0.05581540704570935 0 0.486222287771576 0.059528420727153558 0 0.4640695458204851 0.025261355792016601 0 0.47651815311894652 0.0040287734290051806 0 0.47910662880110783 0.027842033302148461 0 0.4640695458204851 0.025261355792016601 0 0.46972146276179039 0.036872029465967009 0 0.47910662880110783 0.027842033302148461 0 0.47651815311894652 0.0040287734290051806 0 0.47910662880110783 0.027842033302148461 0 0.5 0.01649325481438935 0 0.48625985121566279 0.042749716309840778 0 0.47910662880110783 0.027842033302148461 0 0.5 0.01649325481438935 0 0.47651815311894652 0.0040287734290051806 0 0.5 0.01649325481438935 0 0.5 -0.01208549940329273 0 0.47651815311894652 0.0040287734290051806 0 0.5 -0.01208549940329273 0 0.47831814493180042 -0.024449470546669089 0 0.47651815311894652 0.0040287734290051806 0 0.47831814493180042 -0.024449470546669089 0 0.45720099788376051 -0.01360366135009562 0 0.5 -0.01208549940329273 0 0.47831814493180042 -0.024449470546669089 0 0.5 -0.040664253620974922 0 0.47831814493180042 -0.024449470546669089 0 0.5 -0.040664253620974922 0 0.47700778445308101 -0.04781983901818352 0 0.5 -0.040664253620974922 0 0.48609307495348791 -0.057592873528956597 0 0.47700778445308101 -0.04781983901818352 0 0.5 -0.040664253620974922 0 0.48609307495348791 -0.057592873528956597 0 0.49418796880251159 -0.064624193508554223 0 0.5 -0.040664253620974922 0 0.49418796880251159 -0.064624193508554223 0 0.5 -0.069243007838657111 0 0.47700778445308101 -0.04781983901818352 0 0.46116287038627191 -0.059501025282849923 0 0.47445212486905503 -0.067980748929956744 0 0.48609307495348791 -0.057592873528956597 0 0.47700778445308101 -0.04781983901818352 0 0.47445212486905503 -0.067980748929956744 0 0.47831814493180042 -0.024449470546669089 0 0.47700778445308101 -0.04781983901818352 0 0.4591819341350144 -0.036552343316472953 0 0.4591819341350144 -0.036552343316472953 0 0.46116287038627191 -0.059501025282849923 0 0.4591819341350144 -0.036552343316472953 0 0.46116287038627191 -0.059501025282849923 0 0.44069698550753572 -0.046441974589655911 0 0.47700778445308101 -0.04781983901818352 0 0.4591819341350144 -0.036552343316472953 0 0.46116287038627191 -0.059501025282849923 0 0.46116287038627191 -0.059501025282849923 0 0.43914563285004321 -0.060902621997137307 0 0.44069698550753572 -0.046441974589655911 0 0.46116287038627191 -0.059501025282849923 0 0.44069698550753572 -0.046441974589655911 0 0.4591819341350144 -0.036552343316472953 0 0.44069698550753572 -0.046441974589655911 0 0.44294722061300829 -0.02842779580033198 0 0.44294722061300829 -0.02842779580033198 0 0.43915587050685179 -0.01067392693024694 0 0.45720099788376051 -0.01360366135009562 0 0.4591819341350144 -0.036552343316472953 0 0.44294722061300829 -0.02842779580033198 0 0.45720099788376051 -0.01360366135009562 0 0.4414528124450634 0.0074626114261261561 0 0.43915587050685179 -0.01067392693024694 0 0.45720099788376051 -0.01360366135009562 0 0.45522006163250672 0.0093450206162817712 0 0.47651815311894652 0.0040287734290051806 0 0.45720099788376051 -0.01360366135009562 0 0.45522006163250672 0.0093450206162817712 0 0.45720099788376051 -0.01360366135009562 0 0.4591819341350144 -0.036552343316472953 0 0.45720099788376051 -0.01360366135009562 0 0.47831814493180042 -0.024449470546669089 0 0.4591819341350144 -0.036552343316472953 0 0.45720099788376051 -0.01360366135009562 0 0.48817973174323109 -0.1118793940761036 0 0.46606264572823591 -0.1162637736844449 0 0.48183660779717158 -0.1302179679924606 0 0.48817973174323109 -0.1118793940761036 0 0.5 -0.097821762056339245 0 0.50000000000000155 -0.12640051627402141 0 0.48817973174323109 -0.1118793940761036 0 0.50000000000000155 -0.12640051627402141 0 0.48183660779717158 -0.1302179679924606 0 0.48817973174323109 -0.1118793940761036 0 0.50000000000000155 -0.12640051627402141 0 0.48817973174323109 -0.1118793940761036 0 0.5 -0.097821762056339245 0 0.48992139621549952 -0.093219294211413145 0 0.48817973174323109 -0.1118793940761036 0 0.47635946348645919 -0.097358271878187269 0 0.48992139621549952 -0.093219294211413145 0 0.48817973174323109 -0.1118793940761036 0 0.47635946348645919 -0.097358271878187269 0 0.46606264572823591 -0.1162637736844449 0 0.47635946348645919 -0.097358271878187269 0 0.46453916918846722 -0.098614655207124008 0 0.46606264572823591 -0.1162637736844449 0 0.47635946348645919 -0.097358271878187269 0 0.46606264572823591 -0.1162637736844449 0 0.48817973174323109 -0.1118793940761036 0 0.47635946348645919 -0.097358271878187269 0 0.47635946348645919 -0.097358271878187269 0 0.46301569264869941 -0.080965536729803042 0 0.47635946348645919 -0.097358271878187269 0 0.47539216508901228 -0.080691257528753668 0 0.46301569264869941 -0.080965536729803042 0 0.47635946348645919 -0.097358271878187269 0 0.47539216508901228 -0.080691257528753668 0 0.4877413793518357 -0.076460472577067201 0 0.47635946348645919 -0.097358271878187269 0 0.4877413793518357 -0.076460472577067201 0 0.48992139621549952 -0.093219294211413145 0 0.49732640649597248 -0.082576570469367255 0 0.4877413793518357 -0.076460472577067201 0 0.5 -0.097821762056339245 0 0.49732640649597248 -0.082576570469367255 0 0.5 -0.069243007838657111 0 0.47635946348645919 -0.097358271878187269 0 0.48992139621549952 -0.093219294211413145 0 0.4877413793518357 -0.076460472577067201 0 0.5 -0.097821762056339245 0 0.48992139621549952 -0.093219294211413145 0 0.49732640649597248 -0.082576570469367255 0 0.49732640649597248 -0.082576570469367255 0 0.4877413793518357 -0.076460472577067201 0 0.4877413793518357 -0.076460472577067201 0 0.49418796880251159 -0.064624193508554223 0 0.49732640649597248 -0.082576570469367255 0 0.4877413793518357 -0.076460472577067201 0 0.5 -0.069243007838657111 0 0.4877413793518357 -0.076460472577067201 0 0.49418796880251159 -0.064624193508554223 0 0.5 -0.069243007838657111 0 0.4877413793518357 -0.076460472577067201 0 0.49418796880251159 -0.064624193508554223 0 0.4848174966427915 -0.066875332567113616 0 0.48609307495348791 -0.057592873528956597 0 0.49418796880251159 -0.064624193508554223 0 0.4848174966427915 -0.066875332567113616 0 0.48609307495348791 -0.057592873528956597 0 0.4848174966427915 -0.066875332567113616 0 0.47445212486905503 -0.067980748929956744 0 0.4877413793518357 -0.076460472577067201 0 0.47445212486905503 -0.067980748929956744 0 0.47539216508901228 -0.080691257528753668 0 0.4877413793518357 -0.076460472577067201 0 0.47445212486905503 -0.067980748929956744 0 0.4877413793518357 -0.076460472577067201 0 0.4848174966427915 -0.066875332567113616 0 0.47445212486905503 -0.067980748929956744 0 0.47539216508901228 -0.080691257528753668 0 0.47445212486905503 -0.067980748929956744 0 0.46301569264869941 -0.080965536729803042 0 0.46116287038627191 -0.059501025282849923 0 0.47445212486905503 -0.067980748929956744 0 0.46301569264869941 -0.080965536729803042 0 0.46116287038627191 -0.059501025282849923 0 0.45208669438900778 -0.067539333890547504 0 0.46301569264869941 -0.080965536729803042 0 0.46116287038627191 -0.059501025282849923 0 0.46301569264869941 -0.080965536729803042 0 0.46116287038627191 -0.059501025282849923 0 0.47445212486905503 -0.067980748929956744 0 0.45208669438900778 -0.067539333890547504 0 0.46301569264869941 -0.080965536729803042 0 0.46116287038627191 -0.059501025282849923 0 0.43914563285004321 -0.060902621997137307 0 0.45208669438900778 -0.067539333890547504 0 0.45208669438900778 -0.067539333890547504 0 0.438872252425001 -0.075443677036391779 0 0.44963531014215641 -0.086455339288956295 0 0.43914563285004321 -0.060902621997137307 0 0.45208669438900778 -0.067539333890547504 0 0.438872252425001 -0.075443677036391779 0 0.438872252425001 -0.075443677036391779 0 0.44963531014215641 -0.086455339288956295 0 0.42818619387833762 -0.096307617175358837 0 0.46301569264869941 -0.080965536729803042 0 0.46453916918846722 -0.098614655207124008 0 0.47635946348645919 -0.097358271878187269 0 0.46301569264869941 -0.080965536729803042 0 0.46453916918846722 -0.098614655207124008 0 0.44963531014215641 -0.086455339288956295 0 0.46301569264869941 -0.080965536729803042 0 0.46453916918846722 -0.098614655207124008 0 0.45208669438900778 -0.067539333890547504 0 0.44963531014215641 -0.086455339288956295 0 0.46301569264869941 -0.080965536729803042 0 0.46453916918846722 -0.098614655207124008 0 0.46606264572823591 -0.1162637736844449 0 0.44963531014215641 -0.086455339288956295 0 0.44229897741197027 -0.1144696988609803 0 0.44963531014215641 -0.086455339288956295 0 0.46453916918846722 -0.098614655207124008 0 0.44229897741197027 -0.1144696988609803 0 0.44963531014215641 -0.086455339288956295 0 0.44229897741197027 -0.1144696988609803 0 0.42818619387833762 -0.096307617175358837 0 0.46453916918846722 -0.098614655207124008 0 0.44229897741197027 -0.1144696988609803 0 0.46606264572823591 -0.1162637736844449 0 0.44229897741197027 -0.1144696988609803 0 0.46606264572823591 -0.1162637736844449 0 0.4560760651442457 -0.13459966363628709 0 0.40877556572181528 -0.1165248068093616 0 0.42621156167977242 -0.12356057561384801 0 0.42818619387833762 -0.096307617175358837 0 0.44229897741197027 -0.1144696988609803 0 0.42621156167977242 -0.12356057561384801 0 0.42818619387833762 -0.096307617175358837 0 0.40877556572181528 -0.1165248068093616 0 0.42818619387833762 -0.096307617175358837 0 0.39935019260692511 -0.08953800121152837 0 0.42818619387833762 -0.096307617175358837 0 0.42360189100825019 -0.073464743184749937 0 0.39935019260692511 -0.08953800121152837 0 0.438872252425001 -0.075443677036391779 0 0.42818619387833762 -0.096307617175358837 0 0.42360189100825019 -0.073464743184749937 0 0.43914563285004321 -0.060902621997137307 0 0.42360189100825019 -0.073464743184749937 0 0.42234898699271439 -0.053818751203876032 0 0.43914563285004321 -0.060902621997137307 0 0.438872252425001 -0.075443677036391779 0 0.42360189100825019 -0.073464743184749937 0 0.42360189100825019 -0.073464743184749937 0 0.40768829398630407 -0.064712141436401527 0 0.39935019260692511 -0.08953800121152837 0 0.42360189100825019 -0.073464743184749937 0 0.40768829398630407 -0.064712141436401527 0 0.42234898699271439 -0.053818751203876032 0 0.38992481949203478 -0.062551195613695168 0 0.39935019260692511 -0.08953800121152837 0 0.40768829398630407 -0.064712141436401527 0 0.38992481949203478 -0.062551195613695168 0 0.39935019260692511 -0.08953800121152837 0 0.38992481949203478 -0.062551195613695168 0 0.37895126520419198 -0.080595953627389125 0 0.36957798342850728 -0.059474094948540238 0 0.38992481949203478 -0.062551195613695168 0 0.37895126520419198 -0.080595953627389125 0 0.39935019260692511 -0.08953800121152837 0 0.37895126520419198 -0.080595953627389125 0 0.39935019260692511 -0.08953800121152837 0 0.37724681001361732 -0.10803267648196339 0 0.40877556572181528 -0.1165248068093616 0 0.39935019260692511 -0.08953800121152837 0 0.37724681001361732 -0.10803267648196339 0 0.40877556572181528 -0.1165248068093616 0 0.37724681001361732 -0.10803267648196339 0 0.39391858828828158 -0.1296282567524546 0 0.40877556572181528 -0.1165248068093616 0 0.39935019260692511 -0.08953800121152837 0 0.37724681001361732 -0.10803267648196339 0 0.39391858828828158 -0.1296282567524546 0 0.37546279332363369 -0.13037423651465099 0 0.41155326903649242 -0.015808814726661031 0 0.42196873984450223 -0.01181523835917527 0 0.42023110062879621 -0.033382923896466833 0 0.41155326903649242 -0.015808814726661031 0 0.42023110062879621 -0.033382923896466833 0 0.39976521575005691 -0.02032387320327781 0 0.42023110062879621 -0.033382923896466833 0 0.39976521575005691 -0.02032387320327781 0 0.41155326903649242 -0.015808814726661031 0 0.4138818807055239 -0.002709361001928064 0 0.40299775962389339 -0.0095963120278719036 0 0.42777239663759409 0.0019556245717380571 0 0.4138818807055239 -0.002709361001928064 0 0.42196873984450223 -0.01181523835917527 0 0.41155326903649242 -0.015808814726661031 0 0.4138818807055239 -0.002709361001928064 0 0.42196873984450223 -0.01181523835917527 0 0.42777239663759409 0.0019556245717380571 0 0.4414528124450634 0.0074626114261261561 0 0.43915587050685179 -0.01067392693024694 0 0.42777239663759409 0.0019556245717380571 0 0.43915587050685179 -0.01067392693024694 0 0.42196873984450223 -0.01181523835917527 0 0.44294722061300829 -0.02842779580033198 0 0.43915587050685179 -0.01067392693024694 0 0.42023110062879621 -0.033382923896466833 0 0.43915587050685179 -0.01067392693024694 0 0.42196873984450223 -0.01181523835917527 0 0.42023110062879621 -0.033382923896466833 0 0.44069698550753572 -0.046441974589655911 0 0.42023110062879621 -0.033382923896466833 0 0.44069698550753572 -0.046441974589655911 0 0.42234898699271439 -0.053818751203876032 0 0.42023110062879621 -0.033382923896466833 0 0.44069698550753572 -0.046441974589655911 0 0.44294722061300829 -0.02842779580033198 0 0.42023110062879621 -0.033382923896466833 0 0.43914563285004321 -0.060902621997137307 0 0.44069698550753572 -0.046441974589655911 0 0.42234898699271439 -0.053818751203876032 0 0.40768829398630407 -0.064712141436401527 0 0.42234898699271439 -0.053818751203876032 0 0.40260223853950589 -0.04396075636902539 0 0.42023110062879621 -0.033382923896466833 0 0.40260223853950589 -0.04396075636902539 0 0.39976521575005691 -0.02032387320327781 0 0.42234898699271439 -0.053818751203876032 0 0.42023110062879621 -0.033382923896466833 0 0.40260223853950589 -0.04396075636902539 0 0.40260223853950589 -0.04396075636902539 0 0.38049944637714139 -0.035564390015863118 0 0.39976521575005691 -0.02032387320327781 0 0.38992481949203478 -0.062551195613695168 0 0.40260223853950589 -0.04396075636902539 0 0.38049944637714139 -0.035564390015863118 0 0.40768829398630407 -0.064712141436401527 0 0.38992481949203478 -0.062551195613695168 0 0.40260223853950589 -0.04396075636902539 0 0.38049944637714139 -0.035564390015863118 0 0.36957798342850728 -0.059474094948540238 0 0.38992481949203478 -0.062551195613695168 0 0.38049944637714139 -0.035564390015863118 0 0.38992481949203478 -0.062551195613695168 0 0.38049944637714139 -0.035564390015863118 0 0.36957798342850728 -0.059474094948540238 0 0.38049944637714139 -0.035564390015863118 0 0.37508327195855801 -0.020056755003785929 0 0.37278364361523181 -0.021075276284821941 0 0.38049944637714139 -0.035564390015863118 0 0.37508327195855801 -0.020056755003785929 0 0.38153233735265529 -0.017200419385129839 0 0.38049944637714139 -0.035564390015863118 0 0.37508327195855801 -0.020056755003785929 0 0.38049944637714139 -0.035564390015863118 0 0.39087468795306729 -0.012850494830531 0 0.38049944637714139 -0.035564390015863118 0 0.38153233735265529 -0.017200419385129839 0 0.39087468795306729 -0.012850494830531 0 0.38049944637714139 -0.035564390015863118 0 0.39976521575005691 -0.02032387320327781 0 0.39087468795306729 -0.012850494830531 0 0.37508327195855801 -0.020056755003785929 0 0.38153233735265529 -0.017200419385129839 0 0.37508327195855801 -0.020056755003785929 0 0.38153233735265529 -0.017200419385129839 0 0.37420767552450829 -0.01754974011325126 0 0.40135187156371549 0.003487323786051127 0 0.40299775962389339 -0.0095963120278719036 0 0.39087468795306729 -0.012850494830531 0 0.40124992952899552 0.0098634003548001559 0 0.38148902526390549 0.00047700613930369741 0 0.39087468795306729 -0.012850494830531 0 0.40124992952899552 0.0098634003548001559 0 0.39087468795306729 -0.012850494830531 0 0.40135187156371549 0.003487323786051127 0 0.4138818807055239 -0.002709361001928064 0 0.40299775962389339 -0.0095963120278719036 0 0.41155326903649242 -0.015808814726661031 0 0.39976521575005691 -0.02032387320327781 0 0.40299775962389339 -0.0095963120278719036 0 0.39976521575005691 -0.02032387320327781 0 0.40299775962389339 -0.0095963120278719036 0 0.39087468795306729 -0.012850494830531 0 0.38148902526390549 0.00047700613930369741 0 0.38153233735265529 -0.017200419385129839 0 0.37420767552450829 -0.01754974011325126 0 0.38148902526390549 0.00047700613930369741 0 0.37420767552450829 -0.01754974011325126 0 0.38148902526390549 0.00047700613930369741 0 0.38153233735265529 -0.017200419385129839 0 0.39087468795306729 -0.012850494830531 0 0.36440201092419938 0.01052591918431248 0 0.37420767552450829 -0.01754974011325126 0 0.36440201092419938 0.01052591918431248 0 0.37420767552450829 -0.01754974011325126 0 0.3556936977787889 -0.011292844580381141 0 0.36440201092419938 0.01052591918431248 0 0.38148902526390549 0.00047700613930369741 0 0.37420767552450829 -0.01754974011325126 0 0.37278364361523181 -0.021075276284821941 0 0.37420767552450829 -0.01754974011325126 0 0.3556936977787889 -0.011292844580381141 0 0.37278364361523181 -0.021075276284821941 0 0.34705470841136998 -0.032470799443898669 0 0.37508327195855801 -0.020056755003785929 0 0.37278364361523181 -0.021075276284821941 0 0.37420767552450829 -0.01754974011325126 0 0.37508327195855801 -0.020056755003785929 0 0.37278364361523181 -0.021075276284821941 0 0.37278364361523181 -0.021075276284821941 0 0.37420767552450829 -0.01754974011325126 0 0.37508327195855801 -0.020056755003785929 0 0.37420767552450829 -0.01754974011325126 0 0.37278364361523181 -0.021075276284821941 0 0.3556936977787889 -0.011292844580381141 0 0.34705470841136998 -0.032470799443898669 0 0.3556936977787889 -0.011292844580381141 0 0.33358138856223152 -0.01320574105985154 0 0.34705470841136998 -0.032470799443898669 0 0.34035823478160959 0.0088168533948942973 0 0.3556936977787889 -0.011292844580381141 0 0.33358138856223152 -0.01320574105985154 0 0.34035823478160959 0.0088168533948942973 0 0.31479536851749013 0.0025060759579054949 0 0.33358138856223152 -0.01320574105985154 0 0.33358138856223152 -0.01320574105985154 0 0.32645167563669147 -0.029363763917539611 0 0.34705470841136998 -0.032470799443898669 0 0.31713464624743881 -0.01742996777008959 0 0.32645167563669147 -0.029363763917539611 0 0.31138733690132703 -0.037047705551216017 0 0.33358138856223152 -0.01320574105985154 0 0.31713464624743881 -0.01742996777008959 0 0.32645167563669147 -0.029363763917539611 0 0.31479536851749013 0.0025060759579054949 0 0.33358138856223152 -0.01320574105985154 0 0.31713464624743881 -0.01742996777008959 0 0.32132577320750749 -0.043866322602973823 0 0.32193930743413618 -0.063787224583458466 0 0.30888991629203888 -0.060846653013203848 0 0.32132577320750749 -0.043866322602973823 0 0.33763374923025619 -0.061828855656685673 0 0.32193930743413618 -0.063787224583458466 0 0.32645167563669147 -0.029363763917539611 0 0.32132577320750749 -0.043866322602973823 0 0.31138733690132703 -0.037047705551216017 0 0.32645167563669147 -0.029363763917539611 0 0.32132577320750749 -0.043866322602973823 0 0.34705470841136998 -0.032470799443898669 0 0.32132577320750749 -0.043866322602973823 0 0.34523209817890321 -0.048650489006868441 0 0.34705470841136998 -0.032470799443898669 0 0.32132577320750749 -0.043866322602973823 0 0.34705470841136998 -0.032470799443898669 0 0.32132577320750749 -0.043866322602973823 0 0.33763374923025619 -0.061828855656685673 0 0.34523209817890321 -0.048650489006868441 0 0.34523209817890321 -0.048650489006868441 0 0.36430996788687081 -0.04205391453853518 0 0.35583629215851098 -0.063032552792248842 0 0.33763374923025619 -0.061828855656685673 0 0.34523209817890321 -0.048650489006868441 0 0.35583629215851098 -0.063032552792248842 0 0.34523209817890321 -0.048650489006868441 0 0.34705470841136998 -0.032470799443898669 0 0.36430996788687081 -0.04205391453853518 0 0.37278364361523181 -0.021075276284821941 0 0.36430996788687081 -0.04205391453853518 0 0.38049944637714139 -0.035564390015863118 0 0.37278364361523181 -0.021075276284821941 0 0.36430996788687081 -0.04205391453853518 0 0.37278364361523181 -0.021075276284821941 0 0.34705470841136998 -0.032470799443898669 0 0.36430996788687081 -0.04205391453853518 0 0.38049944637714139 -0.035564390015863118 0 0.36430996788687081 -0.04205391453853518 0 0.36957798342850728 -0.059474094948540238 0 0.36430996788687081 -0.04205391453853518 0 0.35583629215851098 -0.063032552792248842 0 0.36430996788687081 -0.04205391453853518 0 0.36957798342850728 -0.059474094948540238 0 0.35583629215851098 -0.063032552792248842 0 0.36957798342850728 -0.059474094948540238 0 0.35865652047987562 -0.083383799881218384 0 0.37895126520419198 -0.080595953627389125 0 0.36957798342850728 -0.059474094948540238 0 0.35865652047987562 -0.083383799881218384 0 0.36957798342850728 -0.059474094948540238 0 0.35865652047987562 -0.083383799881218384 0 0.35583629215851098 -0.063032552792248842 0 0.37895126520419198 -0.080595953627389125 0 0.37724681001361732 -0.10803267648196339 0 0.35865652047987562 -0.083383799881218384 0 0.35865652047987562 -0.083383799881218384 0 0.34593476814528112 -0.074775716753280527 0 0.34253158994660771 -0.088082723561589263 0 0.35865652047987562 -0.083383799881218384 0 0.3477350575312439 -0.1072935048138965 0 0.34253158994660771 -0.088082723561589263 0 0.33763374923025619 -0.061828855656685673 0 0.35583629215851098 -0.063032552792248842 0 0.34593476814528112 -0.074775716753280527 0 0.35865652047987562 -0.083383799881218384 0 0.35583629215851098 -0.063032552792248842 0 0.34593476814528112 -0.074775716753280527 0 0.37724681001361732 -0.10803267648196339 0 0.35630498209162748 -0.12966899081573149 0 0.37546279332363369 -0.13037423651465099 0 0.37724681001361732 -0.10803267648196339 0 0.3477350575312439 -0.1072935048138965 0 0.35630498209162748 -0.12966899081573149 0 0.37724681001361732 -0.10803267648196339 0 0.35865652047987562 -0.083383799881218384 0 0.3477350575312439 -0.1072935048138965 0 0.35865652047987562 -0.083383799881218384 0 0.3477350575312439 -0.1072935048138965 0 0.3477350575312439 -0.1072935048138965 0 0.33681359458261217 -0.1312032097465746 0 0.35630498209162748 -0.12966899081573149 0 0.3477350575312439 -0.1072935048138965 0 0.33681359458261217 -0.1312032097465746 0 0.3477350575312439 -0.1072935048138965 0 0.33681359458261217 -0.1312032097465746 0 0.32911945174777413 -0.12659529366063299 0 0.3477350575312439 -0.1072935048138965 0 0.32938934016863791 -0.11079785890337809 0 0.32911945174777413 -0.12659529366063299 0 0.3477350575312439 -0.1072935048138965 0 0.32938934016863791 -0.11079785890337809 0 0.32912044018321851 -0.097744114843128824 0 0.3477350575312439 -0.1072935048138965 0 0.32912044018321851 -0.097744114843128824 0 0.34253158994660771 -0.088082723561589263 0 0.32938934016863791 -0.11079785890337809 0 0.32912044018321851 -0.097744114843128824 0 0.31158241121231528 -0.11155852229585431 0 0.32912044018321851 -0.097744114843128824 0 0.31158241121231528 -0.11155852229585431 0 0.30839456059282078 -0.094892318386235935 0 0.31158241121231528 -0.11155852229585431 0 0.31455000375406877 -0.1270326454326037 0 0.32911945174777413 -0.12659529366063299 0 0.32938934016863791 -0.11079785890337809 0 0.31158241121231528 -0.11155852229585431 0 0.32911945174777413 -0.12659529366063299 0 0.31158241121231528 -0.11155852229585431 0 0.32911945174777413 -0.12659529366063299 0 0.33763374923025619 -0.061828855656685673 0 0.33121116339341949 -0.077216481516422089 0 0.32193930743413618 -0.063787224583458466 0 0.33763374923025619 -0.061828855656685673 0 0.34593476814528112 -0.074775716753280527 0 0.33121116339341949 -0.077216481516422089 0 0.34593476814528112 -0.074775716753280527 0 0.33121116339341949 -0.077216481516422089 0 0.34253158994660771 -0.088082723561589263 0 0.32912044018321851 -0.097744114843128824 0 0.33121116339341949 -0.077216481516422089 0 0.34253158994660771 -0.088082723561589263 0 0.32912044018321851 -0.097744114843128824 0 0.33121116339341949 -0.077216481516422089 0 0.31794141145981769 -0.083499197520495574 0 0.32912044018321851 -0.097744114843128824 0 0.31794141145981769 -0.083499197520495574 0 0.30839456059282078 -0.094892318386235935 0 0.31794141145981769 -0.083499197520495574 0 0.32193930743413618 -0.063787224583458466 0 0.30815270232837821 -0.07309267818723364 0 0.33121116339341949 -0.077216481516422089 0 0.31794141145981769 -0.083499197520495574 0 0.32193930743413618 -0.063787224583458466 0 0.32193930743413618 -0.063787224583458466 0 0.30815270232837821 -0.07309267818723364 0 0.30888991629203888 -0.060846653013203848 0 0.29809117705593208 -0.067322567474573825 0 0.30815270232837821 -0.07309267818723364 0 0.30888991629203888 -0.060846653013203848 0 0.29809117705593208 -0.067322567474573825 0 0.30815270232837821 -0.07309267818723364 0 0.29412176667131812 -0.078129427631674797 0 0.31794141145981769 -0.083499197520495574 0 0.30815270232837821 -0.07309267818723364 0 0.3056731191705232 -0.083767848901744463 0 0.3056731191705232 -0.083767848901744463 0 0.29412176667131812 -0.078129427631674797 0 0.29404537067685649 -0.096521750931075595 0 0.31794141145981769 -0.083499197520495574 0 0.3056731191705232 -0.083767848901744463 0 0.30839456059282078 -0.094892318386235935 0 0.3056731191705232 -0.083767848901744463 0 0.30839456059282078 -0.094892318386235935 0 0.29404537067685649 -0.096521750931075595 0 0.30815270232837821 -0.07309267818723364 0 0.3056731191705232 -0.083767848901744463 0 0.29412176667131812 -0.078129427631674797 0 0.29404537067685649 -0.096521750931075595 0 0.2744173522425335 -0.079692113972443829 0 0.29412176667131812 -0.078129427631674797 0 0.29404537067685649 -0.096521750931075595 0 0.2744173522425335 -0.079692113972443829 0 0.29412176667131812 -0.078129427631674797 0 0.28500709512308958 -0.067476979867246878 0 0.2744173522425335 -0.079692113972443829 0 0.29809117705593208 -0.067322567474573825 0 0.28500709512308958 -0.067476979867246878 0 0.29559683800364539 -0.055261845762049643 0 0.29809117705593208 -0.067322567474573825 0 0.29412176667131812 -0.078129427631674797 0 0.28500709512308958 -0.067476979867246878 0 0.31158241121231528 -0.11155852229585431 0 0.29070185508995888 -0.10729387926036631 0 0.29617983394824582 -0.1171533717853753 0 0.3052313577704503 -0.1248231769689578 0 0.31158241121231528 -0.11155852229585431 0 0.29617983394824582 -0.1171533717853753 0 0.3052313577704503 -0.1248231769689578 0 0.29617983394824582 -0.1171533717853753 0 0.29546939129263222 -0.128924621104332 0 0.3052313577704503 -0.1248231769689578 0 0.31158241121231528 -0.11155852229585431 0 0.31455000375406877 -0.1270326454326037 0 0.31158241121231528 -0.11155852229585431 0 0.29404537067685649 -0.096521750931075595 0 0.31158241121231528 -0.11155852229585431 0 0.30839456059282078 -0.094892318386235935 0 0.29404537067685649 -0.096521750931075595 0 0.31158241121231528 -0.11155852229585431 0 0.29404537067685649 -0.096521750931075595 0 0.29070185508995888 -0.10729387926036631 0 0.30839456059282078 -0.094892318386235935 0 0.29404537067685649 -0.096521750931075595 0 0.29070185508995888 -0.10729387926036631 0 0.28062410264240739 -0.1131128652753801 0 0.27506801328866343 -0.098676738350189336 0 0.29404537067685649 -0.096521750931075595 0 0.27506801328866343 -0.098676738350189336 0 0.29404537067685649 -0.096521750931075595 0 0.29070185508995888 -0.10729387926036631 0 0.27506801328866343 -0.098676738350189336 0 0.29617983394824582 -0.1171533717853753 0 0.27429779682395772 -0.12753870842972639 0 0.29617983394824582 -0.1171533717853753 0 0.27429779682395772 -0.12753870842972639 0 0.29546939129263222 -0.128924621104332 0 0.29617983394824582 -0.1171533717853753 0 0.28062410264240739 -0.1131128652753801 0 0.27429779682395772 -0.12753870842972639 0 0.29070185508995888 -0.10729387926036631 0 0.29617983394824582 -0.1171533717853753 0 0.28062410264240739 -0.1131128652753801 0 0.26687301406121128 -0.11490162855124331 0 0.25828225865492649 -0.1239442537480195 0 0.27429779682395772 -0.12753870842972639 0 0.28062410264240739 -0.1131128652753801 0 0.26687301406121128 -0.11490162855124331 0 0.27429779682395772 -0.12753870842972639 0 0.26687301406121128 -0.11490162855124331 0 0.27506801328866343 -0.098676738350189336 0 0.25914158273238008 -0.10857390137944289 0 0.28062410264240739 -0.1131128652753801 0 0.26687301406121128 -0.11490162855124331 0 0.27506801328866343 -0.098676738350189336 0 0.27506801328866343 -0.098676738350189336 0 0.2560906559004702 -0.1008317257693031 0 0.27506801328866343 -0.098676738350189336 0 0.2560906559004702 -0.1008317257693031 0 0.25914158273238008 -0.10857390137944289 0 0.2560906559004702 -0.1008317257693031 0 0.25104496500934131 -0.10665186621876339 0 0.25914158273238008 -0.10857390137944289 0 0.2560906559004702 -0.1008317257693031 0 0.25104496500934131 -0.10665186621876339 0 0.26687301406121128 -0.11490162855124331 0 0.25914158273238008 -0.10857390137944289 0 0.25449094143962242 -0.1158275552835774 0 0.25104496500934131 -0.10665186621876339 0 0.25914158273238008 -0.10857390137944289 0 0.25449094143962242 -0.1158275552835774 0 0.25104496500934131 -0.10665186621876339 0 0.25449094143962242 -0.1158275552835774 0 0.24497368252223581 -0.12043162856516471 0 0.25449094143962242 -0.1158275552835774 0 0.25828225865492649 -0.1239442537480195 0 0.24497368252223581 -0.12043162856516471 0 0.26687301406121128 -0.11490162855124331 0 0.25449094143962242 -0.1158275552835774 0 0.25828225865492649 -0.1239442537480195 0 0.2744173522425335 -0.079692113972443829 0 0.26226090620208331 -0.069268821664433114 0 0.27342303844363691 -0.065694881704696922 0 0.2744173522425335 -0.079692113972443829 0 0.26226090620208331 -0.069268821664433114 0 0.27342303844363691 -0.065694881704696922 0 0.26226090620208331 -0.069268821664433114 0 0.26719048220180758 -0.05895015385476389 0 0.28500709512308958 -0.067476979867246878 0 0.27342303844363691 -0.065694881704696922 0 0.27921976488553951 -0.055773860016461813 0 0.28500709512308958 -0.067476979867246878 0 0.27342303844363691 -0.065694881704696922 0 0.2744173522425335 -0.079692113972443829 0 0.28500709512308958 -0.067476979867246878 0 0.2744173522425335 -0.079692113972443829 0 0.27506801328866343 -0.098676738350189336 0 0.2560906559004702 -0.1008317257693031 0 0.2744173522425335 -0.079692113972443829 0 0.29404537067685649 -0.096521750931075595 0 0.27506801328866343 -0.098676738350189336 0 0.2744173522425335 -0.079692113972443829 0 0.2560906559004702 -0.1008317257693031 0 0.2744173522425335 -0.079692113972443829 0 0.2560906559004702 -0.1008317257693031 0 0.2744173522425335 -0.079692113972443829 0 0.25756046086352202 -0.081852375317727322 0 0.2560906559004702 -0.1008317257693031 0 0.25756046086352202 -0.081852375317727322 0 0.24504482176070319 -0.087071356254802626 0 0.25756046086352202 -0.081852375317727322 0 0.25046272238782219 -0.075368870229317098 0 0.24504482176070319 -0.087071356254802626 0 0.25756046086352202 -0.081852375317727322 0 0.25046272238782219 -0.075368870229317098 0 0.26226090620208331 -0.069268821664433114 0 0.2744173522425335 -0.079692113972443829 0 0.25756046086352202 -0.081852375317727322 0 0.26226090620208331 -0.069268821664433114 0 0.25046272238782219 -0.075368870229317098 0 0.26226090620208331 -0.069268821664433114 0 0.24952936794354999 -0.065605354759813939 0 0.26226090620208331 -0.069268821664433114 0 0.25010446016163312 -0.058845529356422413 0 0.26226090620208331 -0.069268821664433114 0 0.25010446016163312 -0.058845529356422413 0 0.24952936794354999 -0.065605354759813939 0 0.26226090620208331 -0.069268821664433114 0 0.25010446016163312 -0.058845529356422413 0 0.26719048220180758 -0.05895015385476389 0 0.25010446016163312 -0.058845529356422413 0 0.27094424131614508 -0.04516767653180518 0 0.2478490388504985 -0.059036530912662873 0 0.25010446016163312 -0.058845529356422413 0 0.26719048220180758 -0.05895015385476389 0 0.27094424131614508 -0.04516767653180518 0 0.27094424131614508 -0.04516767653180518 0 0.2478490388504985 -0.059036530912662873 0 0.27094424131614508 -0.04516767653180518 0 0.2478490388504985 -0.059036530912662873 0 0.24846077739900391 -0.050289227719476123 0 0.27342303844363691 -0.065694881704696922 0 0.26719048220180758 -0.05895015385476389 0 0.27921976488553951 -0.055773860016461813 0 0.27921976488553951 -0.055773860016461813 0 0.27094424131614508 -0.04516767653180518 0 0.28876630879092807 -0.047556461011802213 0 0.26719048220180758 -0.05895015385476389 0 0.27921976488553951 -0.055773860016461813 0 0.27094424131614508 -0.04516767653180518 0 0.27094424131614508 -0.04516767653180518 0 0.26110183114586683 -0.031864042742694609 0 0.27469337053577608 -0.028728012375086459 0 0.27094424131614508 -0.04516767653180518 0 0.27469337053577608 -0.028728012375086459 0 0.29403944378179198 -0.031298822150947377 0 0.27094424131614508 -0.04516767653180518 0 0.26110183114586683 -0.031864042742694609 0 0.2489120624510883 -0.041532180328544117 0 0.27094424131614508 -0.04516767653180518 0 0.24846077739900391 -0.050289227719476123 0 0.2489120624510883 -0.041532180328544117 0 0.26110183114586683 -0.031864042742694609 0 0.2489120624510883 -0.041532180328544117 0 0.24698717984836149 -0.02374143453863593 0 0.26456375243856362 -0.018903155785625809 0 0.25508029436526169 -0.0064403887472080264 0 0.24698717984836149 -0.02374143453863593 0 0.26110183114586683 -0.031864042742694609 0 0.26456375243856362 -0.018903155785625809 0 0.24698717984836149 -0.02374143453863593 0 0.26456375243856362 -0.018903155785625809 0 0.25508029436526169 -0.0064403887472080264 0 0.2725532433285674 -0.0023790205409777009 0 0.26456375243856362 -0.018903155785625809 0 0.2725532433285674 -0.0023790205409777009 0 0.2828175839965128 -0.016406364664359321 0 0.26456375243856362 -0.018903155785625809 0 0.27469337053577608 -0.028728012375086459 0 0.2828175839965128 -0.016406364664359321 0 0.26110183114586683 -0.031864042742694609 0 0.26456375243856362 -0.018903155785625809 0 0.27469337053577608 -0.028728012375086459 0 0.27469337053577608 -0.028728012375086459 0 0.2828175839965128 -0.016406364664359321 0 0.29403944378179198 -0.031298822150947377 0 0.2828175839965128 -0.016406364664359321 0 0.30002191105623738 -0.01384745452572694 0 0.29403944378179198 -0.031298822150947377 0 0.2725532433285674 -0.0023790205409777009 0 0.2828175839965128 -0.016406364664359321 0 0.29117906892999468 -0.00037141647386060652 0 0.2828175839965128 -0.016406364664359321 0 0.29117906892999468 -0.00037141647386060652 0 0.30002191105623738 -0.01384745452572694 0 0.31479536851749013 0.0025060759579054949 0 0.29117906892999468 -0.00037141647386060652 0 0.30002191105623738 -0.01384745452572694 0 0.31479536851749013 0.0025060759579054949 0 0.31713464624743881 -0.01742996777008959 0 0.30002191105623738 -0.01384745452572694 0 0.31713464624743881 -0.01742996777008959 0 0.31138733690132703 -0.037047705551216017 0 0.29403944378179198 -0.031298822150947377 0 0.31713464624743881 -0.01742996777008959 0 0.30002191105623738 -0.01384745452572694 0 0.29403944378179198 -0.031298822150947377 0 0.31713464624743881 -0.01742996777008959 0 0.29403944378179198 -0.031298822150947377 0 0.31138733690132703 -0.037047705551216017 0 0.29884720517477797 -0.042129437947201143 0 0.29403944378179198 -0.031298822150947377 0 0.32132577320750749 -0.043866322602973823 0 0.31138733690132703 -0.037047705551216017 0 0.29559683800364539 -0.055261845762049643 0 0.31138733690132703 -0.037047705551216017 0 0.29884720517477797 -0.042129437947201143 0 0.29559683800364539 -0.055261845762049643 0 0.31138733690132703 -0.037047705551216017 0 0.29559683800364539 -0.055261845762049643 0 0.32132577320750749 -0.043866322602973823 0 0.29559683800364539 -0.055261845762049643 0 0.32132577320750749 -0.043866322602973823 0 0.30888991629203888 -0.060846653013203848 0 0.29559683800364539 -0.055261845762049643 0 0.29809117705593208 -0.067322567474573825 0 0.30888991629203888 -0.060846653013203848 0 0.29559683800364539 -0.055261845762049643 0 0.29884720517477797 -0.042129437947201143 0 0.29559683800364539 -0.055261845762049643 0 0.28876630879092807 -0.047556461011802213 0 0.29559683800364539 -0.055261845762049643 0 0.29246759268130429 -0.056647810134791809 0 0.28876630879092807 -0.047556461011802213 0 0.28500709512308958 -0.067476979867246878 0 0.29559683800364539 -0.055261845762049643 0 0.29246759268130429 -0.056647810134791809 0 0.28500709512308958 -0.067476979867246878 0 0.29559683800364539 -0.055261845762049643 0 0.29559683800364539 -0.055261845762049643 0 0.29246759268130429 -0.056647810134791809 0 0.28500709512308958 -0.067476979867246878 0 0.27921976488553951 -0.055773860016461813 0 0.29246759268130429 -0.056647810134791809 0 0.27921976488553951 -0.055773860016461813 0 0.29246759268130429 -0.056647810134791809 0 0.28876630879092807 -0.047556461011802213 0 0.27094424131614508 -0.04516767653180518 0 0.29403944378179198 -0.031298822150947377 0 0.29884720517477797 -0.042129437947201143 0 0.28876630879092807 -0.047556461011802213 0 0.29403944378179198 -0.031298822150947377 0 0.27094424131614508 -0.04516767653180518 0 0.28876630879092807 -0.047556461011802213 0 0.29403944378179198 -0.031298822150947377 0 0.28530282372204518 -0.21522426756826099 0 0.29660893770190472 -0.19943955507971081 0 0.27434046904792042 -0.18945752673686631 0 0.29660893770190472 -0.19943955507971081 0 0.27434046904792042 -0.18945752673686631 0 0.3004713741452894 -0.17958981290538231 0 0.29660893770190472 -0.19943955507971081 0 0.31235653844458039 -0.20862280019069049 0 0.31949649481473369 -0.192804441195535 0 0.29660893770190472 -0.19943955507971081 0 0.3004713741452894 -0.17958981290538231 0 0.31949649481473369 -0.192804441195535 0 0.28530282372204518 -0.21522426756826099 0 0.31235653844458039 -0.20862280019069049 0 0.31242487569333499 -0.22884066398107539 0 0.28530282372204518 -0.21522426756826099 0 0.29660893770190472 -0.19943955507971081 0 0.31235653844458039 -0.20862280019069049 0 0.28530282372204518 -0.21522426756826099 0 0.31242487569333499 -0.22884066398107539 0 0.29626517839616989 -0.2409910083996557 0 0.31242487569333499 -0.22884066398107539 0 0.29626517839616989 -0.2409910083996557 0 0.31682320483003101 -0.24582764124056511 0 0.29626517839616989 -0.2409910083996557 0 0.26908112294276432 -0.22825702705897891 0 0.28228325869048781 -0.2572419373207015 0 0.28530282372204518 -0.21522426756826099 0 0.29626517839616989 -0.2409910083996557 0 0.26908112294276432 -0.22825702705897891 0 0.28530282372204518 -0.21522426756826099 0 0.29626517839616989 -0.2409910083996557 0 0.26908112294276432 -0.22825702705897891 0 0.28228325869048781 -0.2572419373207015 0 0.26129569893452748 -0.25287054109717938 0 0.26908112294276432 -0.22825702705897891 0 0.26129569893452748 -0.25287054109717938 0 0.24743971781254301 -0.2286926522483447 0 0.26908112294276432 -0.22825702705897891 0 0.26129569893452748 -0.25287054109717938 0 0.26908112294276432 -0.22825702705897891 0 0.25763410557536298 -0.21873745165647629 0 0.24743971781254301 -0.2286926522483447 0 0.25763410557536298 -0.21873745165647629 0 0.24765950136004131 -0.20893905512949251 0 0.24743971781254301 -0.2286926522483447 0 0.25763410557536298 -0.21873745165647629 0 0.26635608018610368 -0.20906107218908951 0 0.24765950136004131 -0.20893905512949251 0 0.26908112294276432 -0.22825702705897891 0 0.25763410557536298 -0.21873745165647629 0 0.26635608018610368 -0.20906107218908951 0 0.26635608018610368 -0.20906107218908951 0 0.25309004251675982 -0.19294459334545869 0 0.24765950136004131 -0.20893905512949251 0 0.28530282372204518 -0.21522426756826099 0 0.26635608018610368 -0.20906107218908951 0 0.27434046904792042 -0.18945752673686631 0 0.28530282372204518 -0.21522426756826099 0 0.26908112294276432 -0.22825702705897891 0 0.26635608018610368 -0.20906107218908951 0 0.28530282372204518 -0.21522426756826099 0 0.27434046904792042 -0.18945752673686631 0 0.26635608018610368 -0.20906107218908951 0 0.27434046904792042 -0.18945752673686631 0 0.25309004251675982 -0.19294459334545869 0 0.27434046904792042 -0.18945752673686631 0 0.25521528754913642 -0.17713091955479959 0 0.26337811437379571 -0.1636907859054717 0 0.27434046904792042 -0.18945752673686631 0 0.25309004251675982 -0.19294459334545869 0 0.25521528754913642 -0.17713091955479959 0 0.25521528754913642 -0.17713091955479959 0 0.26337811437379571 -0.1636907859054717 0 0.24518798506814199 -0.16078301861961181 0 0.26337811437379571 -0.1636907859054717 0 0.28362945185913779 -0.14739029613906701 0 0.28404845680943452 -0.16809479426282831 0 0.27434046904792042 -0.18945752673686631 0 0.26337811437379571 -0.1636907859054717 0 0.27434046904792042 -0.18945752673686631 0 0.26337811437379571 -0.1636907859054717 0 0.28404845680943452 -0.16809479426282831 0 0.25828225865492649 -0.1239442537480195 0 0.25241575969966962 -0.13792404507407771 0 0.24497368252223581 -0.12043162856516471 0 0.25241575969966962 -0.13792404507407771 0 0.27429779682395772 -0.12753870842972639 0 0.25828225865492649 -0.1239442537480195 0 0.25241575969966962 -0.13792404507407771 0 0.27429779682395772 -0.12753870842972639 0 0.25241575969966962 -0.13792404507407771 0 0.26831881583508399 -0.14369691597482789 0 0.27429779682395772 -0.12753870842972639 0 0.26337811437379571 -0.1636907859054717 0 0.25241575969966962 -0.13792404507407771 0 0.26337811437379571 -0.1636907859054717 0 0.25241575969966962 -0.13792404507407771 0 0.24518798506814199 -0.16078301861961181 0 0.26337811437379571 -0.1636907859054717 0 0.25241575969966962 -0.13792404507407771 0 0.26831881583508399 -0.14369691597482789 0 0.26337811437379571 -0.1636907859054717 0 0.26831881583508399 -0.14369691597482789 0 0.28362945185913779 -0.14739029613906701 0 0.26831881583508399 -0.14369691597482789 0 0.27429779682395772 -0.12753870842972639 0 0.28362945185913779 -0.14739029613906701 0 0.29546939129263222 -0.128924621104332 0 0.28362945185913779 -0.14739029613906701 0 0.29763106217416557 -0.14379186414380921 0 0.27429779682395772 -0.12753870842972639 0 0.29546939129263222 -0.128924621104332 0 0.28362945185913779 -0.14739029613906701 0 0.28362945185913779 -0.14739029613906701 0 0.29763106217416557 -0.14379186414380921 0 0.29842287462102951 -0.16034554962735439 0 0.31211541701017159 -0.1545086505319607 0 0.29763106217416557 -0.14379186414380921 0 0.29842287462102951 -0.16034554962735439 0 0.31211541701017159 -0.1545086505319607 0 0.31068076146331458 -0.1420187678917865 0 0.29763106217416557 -0.14379186414380921 0 0.3052313577704503 -0.1248231769689578 0 0.29546939129263222 -0.128924621104332 0 0.31068076146331458 -0.1420187678917865 0 0.3052313577704503 -0.1248231769689578 0 0.31068076146331458 -0.1420187678917865 0 0.31455000375406877 -0.1270326454326037 0 0.29546939129263222 -0.128924621104332 0 0.31068076146331458 -0.1420187678917865 0 0.29763106217416557 -0.14379186414380921 0 0.29546939129263222 -0.128924621104332 0 0.31068076146331458 -0.1420187678917865 0 0.27434046904792042 -0.18945752673686631 0 0.28404845680943452 -0.16809479426282831 0 0.3004713741452894 -0.17958981290538231 0 0.28362945185913779 -0.14739029613906701 0 0.28404845680943452 -0.16809479426282831 0 0.29842287462102951 -0.16034554962735439 0 0.28404845680943452 -0.16809479426282831 0 0.29842287462102951 -0.16034554962735439 0 0.3004713741452894 -0.17958981290538231 0 0.29842287462102951 -0.16034554962735439 0 0.3099606885946411 -0.1665734563309571 0 0.3004713741452894 -0.17958981290538231 0 0.31211541701017159 -0.1545086505319607 0 0.29842287462102951 -0.16034554962735439 0 0.3099606885946411 -0.1665734563309571 0 0.3099606885946411 -0.1665734563309571 0 0.3004713741452894 -0.17958981290538231 0 0.31656754836537221 -0.1752848123936222 0 0.3004713741452894 -0.17958981290538231 0 0.31656754836537221 -0.1752848123936222 0 0.31949649481473369 -0.192804441195535 0 0.31656754836537221 -0.1752848123936222 0 0.32929610683963789 -0.1757714278773467 0 0.31949649481473369 -0.192804441195535 0 0.3099606885946411 -0.1665734563309571 0 0.31656754836537221 -0.1752848123936222 0 0.32222622883134272 -0.1631384561964658 0 0.31211541701017159 -0.1545086505319607 0 0.32222622883134272 -0.1631384561964658 0 0.32589213163398512 -0.15511291467925489 0 0.31211541701017159 -0.1545086505319607 0 0.3099606885946411 -0.1665734563309571 0 0.32222622883134272 -0.1631384561964658 0 0.32222622883134272 -0.1631384561964658 0 0.32963386669865108 -0.16567978600528521 0 0.32589213163398512 -0.15511291467925489 0 0.32222622883134272 -0.1631384561964658 0 0.32589213163398512 -0.15511291467925489 0 0.31656754836537221 -0.1752848123936222 0 0.32222622883134272 -0.1631384561964658 0 0.32929610683963789 -0.1757714278773467 0 0.32222622883134272 -0.1631384561964658 0 0.32963386669865108 -0.16567978600528521 0 0.32929610683963789 -0.1757714278773467 0 0.33964376394171719 -0.16695049998443831 0 0.32589213163398512 -0.15511291467925489 0 0.34259122805880138 -0.15010598265083419 0 0.32963386669865108 -0.16567978600528521 0 0.33964376394171719 -0.16695049998443831 0 0.32929610683963789 -0.1757714278773467 0 0.32963386669865108 -0.16567978600528521 0 0.33964376394171719 -0.16695049998443831 0 0.32589213163398512 -0.15511291467925489 0 0.33964376394171719 -0.16695049998443831 0 0.32589213163398512 -0.15511291467925489 0 0.32929610683963789 -0.1757714278773467 0 0.33828314400462811 -0.18767411358810579 0 0.31949649481473369 -0.192804441195535 0 0.33964376394171719 -0.16695049998443831 0 0.32929610683963789 -0.1757714278773467 0 0.35339539624943689 -0.17878808528963591 0 0.32929610683963789 -0.1757714278773467 0 0.35339539624943689 -0.17878808528963591 0 0.32929610683963789 -0.1757714278773467 0 0.35339539624943689 -0.17878808528963591 0 0.33828314400462811 -0.18767411358810579 0 0.31455000375406877 -0.1270326454326037 0 0.31986714319638532 -0.13350245234388741 0 0.32911945174777413 -0.12659529366063299 0 0.31068076146331458 -0.1420187678917865 0 0.31455000375406877 -0.1270326454326037 0 0.31986714319638532 -0.13350245234388741 0 0.31068076146331458 -0.1420187678917865 0 0.31986714319638532 -0.13350245234388741 0 0.32511835582038362 -0.1383631023905264 0 0.31986714319638532 -0.13350245234388741 0 0.32511835582038362 -0.1383631023905264 0 0.32911945174777413 -0.12659529366063299 0 0.31068076146331458 -0.1420187678917865 0 0.32511835582038362 -0.1383631023905264 0 0.32589213163398512 -0.15511291467925489 0 0.31068076146331458 -0.1420187678917865 0 0.32589213163398512 -0.15511291467925489 0 0.31211541701017159 -0.1545086505319607 0 0.31068076146331458 -0.1420187678917865 0 0.32589213163398512 -0.15511291467925489 0 0.32589213163398512 -0.15511291467925489 0 0.34259122805880138 -0.15010598265083419 0 0.33681359458261217 -0.1312032097465746 0 0.32511835582038362 -0.1383631023905264 0 0.32589213163398512 -0.15511291467925489 0 0.33681359458261217 -0.1312032097465746 0 0.32589213163398512 -0.15511291467925489 0 0.33681359458261217 -0.1312032097465746 0 0.32511835582038362 -0.1383631023905264 0 0.33681359458261217 -0.1312032097465746 0 0.32911945174777413 -0.12659529366063299 0 0.34259122805880138 -0.15010598265083419 0 0.33681359458261217 -0.1312032097465746 0 0.35630498209162748 -0.12966899081573149 0 0.34259122805880138 -0.15010598265083419 0 0.35840602024584101 -0.14949745565322081 0 0.35152837028748668 -0.16091525039172491 0 0.34259122805880138 -0.15010598265083419 0 0.35630498209162748 -0.12966899081573149 0 0.35840602024584101 -0.14949745565322081 0 0.35840602024584101 -0.14949745565322081 0 0.37371556869070788 -0.15146541305666311 0 0.36329235051131381 -0.1668771824092577 0 0.35840602024584101 -0.14949745565322081 0 0.37371556869070788 -0.15146541305666311 0 0.37546279332363369 -0.13037423651465099 0 0.35630498209162748 -0.12966899081573149 0 0.35840602024584101 -0.14949745565322081 0 0.37546279332363369 -0.13037423651465099 0 0.35665670110728021 -0.18159545925056511 0 0.35705337992222541 -0.1907977025406688 0 0.34957275715314839 -0.19002832208247139 0 0.35339539624943689 -0.17878808528963591 0 0.35665670110728021 -0.18159545925056511 0 0.34957275715314839 -0.19002832208247139 0 0.35339539624943689 -0.17878808528963591 0 0.35665670110728021 -0.18159545925056511 0 0.35339539624943689 -0.17878808528963591 0 0.34957275715314839 -0.19002832208247139 0 0.33828314400462811 -0.18767411358810579 0 0.33964376394171719 -0.16695049998443831 0 0.35339539624943689 -0.17878808528963591 0 0.33964376394171719 -0.16695049998443831 0 0.34259122805880138 -0.15010598265083419 0 0.35152837028748668 -0.16091525039172491 0 0.35339539624943689 -0.17878808528963591 0 0.35152837028748668 -0.16091525039172491 0 0.36329235051131381 -0.1668771824092577 0 0.33964376394171719 -0.16695049998443831 0 0.35339539624943689 -0.17878808528963591 0 0.35152837028748668 -0.16091525039172491 0 0.35840602024584101 -0.14949745565322081 0 0.35152837028748668 -0.16091525039172491 0 0.36329235051131381 -0.1668771824092577 0 0.37371556869070788 -0.15146541305666311 0 0.36329235051131381 -0.1668771824092577 0 0.3776806279689407 -0.16638296764337701 0 0.36329235051131381 -0.1668771824092577 0 0.36961224111332991 -0.1808180482661679 0 0.3776806279689407 -0.16638296764337701 0 0.35339539624943689 -0.17878808528963591 0 0.36329235051131381 -0.1668771824092577 0 0.36961224111332991 -0.1808180482661679 0 0.35339539624943689 -0.17878808528963591 0 0.35665670110728021 -0.18159545925056511 0 0.36961224111332991 -0.1808180482661679 0 0.35339539624943689 -0.17878808528963591 0 0.36961224111332991 -0.1808180482661679 0 0.35665670110728021 -0.18159545925056511 0 0.36961224111332991 -0.1808180482661679 0 0.36405943262701729 -0.19010052538202221 0 0.36961224111332991 -0.1808180482661679 0 0.36405943262701729 -0.19010052538202221 0 0.38073204871676269 -0.19661510046483141 0 0.36405943262701729 -0.19010052538202221 0 0.35792462880145542 -0.2014665034476163 0 0.38073204871676269 -0.19661510046483141 0 0.36405943262701729 -0.19010052538202221 0 0.35705337992222541 -0.1907977025406688 0 0.35792462880145542 -0.2014665034476163 0 0.35792462880145542 -0.2014665034476163 0 0.37297245206427548 -0.2224125135326866 0 0.38073204871676269 -0.19661510046483141 0 0.34688067602803602 -0.2185442676974538 0 0.35792462880145542 -0.2014665034476163 0 0.37297245206427548 -0.2224125135326866 0 0.34688067602803602 -0.2185442676974538 0 0.35792462880145542 -0.2014665034476163 0 0.33965496496618341 -0.20097829149553961 0 0.35792462880145542 -0.2014665034476163 0 0.34957275715314839 -0.19002832208247139 0 0.33965496496618341 -0.20097829149553961 0 0.35665670110728021 -0.18159545925056511 0 0.36405943262701729 -0.19010052538202221 0 0.35705337992222541 -0.1907977025406688 0 0.35705337992222541 -0.1907977025406688 0 0.35792462880145542 -0.2014665034476163 0 0.34957275715314839 -0.19002832208247139 0 0.33828314400462811 -0.18767411358810579 0 0.33965496496618341 -0.20097829149553961 0 0.31949649481473369 -0.192804441195535 0 0.33965496496618341 -0.20097829149553961 0 0.3280609330919344 -0.21416963346868501 0 0.31949649481473369 -0.192804441195535 0 0.34957275715314839 -0.19002832208247139 0 0.33828314400462811 -0.18767411358810579 0 0.33965496496618341 -0.20097829149553961 0 0.34688067602803602 -0.2185442676974538 0 0.33965496496618341 -0.20097829149553961 0 0.3280609330919344 -0.21416963346868501 0 0.31235653844458039 -0.20862280019069049 0 0.31242487569333499 -0.22884066398107539 0 0.3280609330919344 -0.21416963346868501 0 0.31235653844458039 -0.20862280019069049 0 0.3280609330919344 -0.21416963346868501 0 0.31949649481473369 -0.192804441195535 0 0.31242487569333499 -0.22884066398107539 0 0.31682320483003101 -0.24582764124056511 0 0.33140687967051369 -0.2349510050761682 0 0.31242487569333499 -0.22884066398107539 0 0.3280609330919344 -0.21416963346868501 0 0.33140687967051369 -0.2349510050761682 0 0.34688067602803602 -0.2185442676974538 0 0.3280609330919344 -0.21416963346868501 0 0.33140687967051369 -0.2349510050761682 0 0.34688067602803602 -0.2185442676974538 0 0.33140687967051369 -0.2349510050761682 0 0.35065288409889112 -0.2363430984843452 0 0.33140687967051369 -0.2349510050761682 0 0.35065288409889112 -0.2363430984843452 0 0.33679155731984189 -0.25759777951487578 0 0.31682320483003101 -0.24582764124056511 0 0.33140687967051369 -0.2349510050761682 0 0.33679155731984189 -0.25759777951487578 0 0.35065288409889112 -0.2363430984843452 0 0.36521285541178827 -0.24820992660054181 0 0.33679155731984189 -0.25759777951487578 0 0.34688067602803602 -0.2185442676974538 0 0.35065288409889112 -0.2363430984843452 0 0.37297245206427548 -0.2224125135326866 0 0.35065288409889112 -0.2363430984843452 0 0.37297245206427548 -0.2224125135326866 0 0.36521285541178827 -0.24820992660054181 0 0.37297245206427548 -0.2224125135326866 0 0.36521285541178827 -0.24820992660054181 0 0.37297245206427548 -0.2224125135326866 0 0.38829568613077292 -0.24077794979272851 0 0.39843835585684378 -0.20832671876167019 0 0.38829568613077292 -0.24077794979272851 0 0.39843835585684378 -0.20832671876167019 0 0.41104762573646492 -0.23380542628064011 0 0.37297245206427548 -0.2224125135326866 0 0.36521285541178827 -0.24820992660054181 0 0.38829568613077292 -0.24077794979272851 0 0.38829568613077292 -0.24077794979272851 0 0.41104762573646492 -0.23380542628064011 0 0.40390303249582832 -0.26108761363502198 0 0.39843835585684378 -0.20832671876167019 0 0.41104762573646492 -0.23380542628064011 0 0.37297245206427548 -0.2224125135326866 0 0.38073204871676269 -0.19661510046483141 0 0.39843835585684378 -0.20832671876167019 0 0.37297245206427548 -0.2224125135326866 0 0.38073204871676269 -0.19661510046483141 0 0.38073204871676269 -0.19661510046483141 0 0.39843835585684378 -0.20832671876167019 0 0.38582908597722287 -0.18284801124270009 0 0.40238182581560611 -0.19438456842201679 0 0.39843835585684378 -0.20832671876167019 0 0.38582908597722287 -0.18284801124270009 0 0.40238182581560611 -0.19438456842201679 0 0.38582908597722287 -0.18284801124270009 0 0.41434750376861867 -0.1864178383423403 0 0.39843835585684378 -0.20832671876167019 0 0.38582908597722287 -0.18284801124270009 0 0.40238182581560611 -0.19438456842201679 0 0.39843835585684378 -0.20832671876167019 0 0.41091235765973882 -0.19994570534135689 0 0.39843835585684378 -0.20832671876167019 0 0.41657385447484219 -0.21270309018876921 0 0.41091235765973882 -0.19994570534135689 0 0.39843835585684378 -0.20832671876167019 0 0.41657385447484219 -0.21270309018876921 0 0.41104762573646492 -0.23380542628064011 0 0.41657385447484219 -0.21270309018876921 0 0.42210008321322018 -0.1916007540968985 0 0.41657385447484219 -0.21270309018876921 0 0.41091235765973882 -0.19994570534135689 0 0.42210008321322018 -0.1916007540968985 0 0.40238182581560611 -0.19438456842201679 0 0.41091235765973882 -0.19994570534135689 0 0.41434750376861867 -0.1864178383423403 0 0.41091235765973882 -0.19994570534135689 0 0.42210008321322018 -0.1916007540968985 0 0.41434750376861867 -0.1864178383423403 0 0.41657385447484219 -0.21270309018876921 0 0.42210008321322018 -0.1916007540968985 0 0.42781645062969081 -0.2042201049951495 0 0.42210008321322018 -0.1916007540968985 0 0.43608042322958529 -0.19470429874635631 0 0.42781645062969081 -0.2042201049951495 0 0.41657385447484219 -0.21270309018876921 0 0.42781645062969081 -0.2042201049951495 0 0.44453453450757502 -0.21891017948768471 0 0.43608042322958529 -0.19470429874635631 0 0.42781645062969081 -0.2042201049951495 0 0.44453453450757502 -0.21891017948768471 0 0.41657385447484219 -0.21270309018876921 0 0.43150891407977482 -0.23471609115558159 0 0.44453453450757502 -0.21891017948768471 0 0.43150891407977482 -0.23471609115558159 0 0.45093446452550112 -0.24617512857851229 0 0.4239167862907659 -0.25980927748756782 0 0.43150891407977482 -0.23471609115558159 0 0.41104762573646492 -0.23380542628064011 0 0.4239167862907659 -0.25980927748756782 0 0.41104762573646492 -0.23380542628064011 0 0.40390303249582832 -0.26108761363502198 0 0.41104762573646492 -0.23380542628064011 0 0.4239167862907659 -0.25980927748756782 0 0.41657385447484219 -0.21270309018876921 0 0.41104762573646492 -0.23380542628064011 0 0.41657385447484219 -0.21270309018876921 0 0.43150891407977482 -0.23471609115558159 0 0.41104762573646492 -0.23380542628064011 0 0.39391858828828158 -0.1296282567524546 0 0.37546279332363369 -0.13037423651465099 0 0.38990683354563649 -0.1496979515491022 0 0.37371556869070788 -0.15146541305666311 0 0.37546279332363369 -0.13037423651465099 0 0.38990683354563649 -0.1496979515491022 0 0.37371556869070788 -0.15146541305666311 0 0.38990683354563649 -0.1496979515491022 0 0.3776806279689407 -0.16638296764337701 0 0.38990683354563649 -0.1496979515491022 0 0.40258545899222958 -0.16226555339104171 0 0.41820093883670562 -0.14351161240719479 0 0.39391858828828158 -0.1296282567524546 0 0.38990683354563649 -0.1496979515491022 0 0.41820093883670562 -0.14351161240719479 0 0.38990683354563649 -0.1496979515491022 0 0.40258545899222958 -0.16226555339104171 0 0.39125368289368539 -0.16844539718946919 0 0.40258545899222958 -0.16226555339104171 0 0.40147464264349408 -0.1740395652819563 0 0.41335748158571411 -0.17022102624423049 0 0.40258545899222958 -0.16226555339104171 0 0.39125368289368539 -0.16844539718946919 0 0.40147464264349408 -0.1740395652819563 0 0.38990683354563649 -0.1496979515491022 0 0.39125368289368539 -0.16844539718946919 0 0.3776806279689407 -0.16638296764337701 0 0.36961224111332991 -0.1808180482661679 0 0.38073204871676269 -0.19661510046483141 0 0.38582908597722287 -0.18284801124270009 0 0.3776806279689407 -0.16638296764337701 0 0.38582908597722287 -0.18284801124270009 0 0.39125368289368539 -0.16844539718946919 0 0.3776806279689407 -0.16638296764337701 0 0.38582908597722287 -0.18284801124270009 0 0.36961224111332991 -0.1808180482661679 0 0.38582908597722287 -0.18284801124270009 0 0.36961224111332991 -0.1808180482661679 0 0.3776806279689407 -0.16638296764337701 0 0.38582908597722287 -0.18284801124270009 0 0.38582908597722287 -0.18284801124270009 0 0.40147464264349408 -0.1740395652819563 0 0.41434750376861867 -0.1864178383423403 0 0.38582908597722287 -0.18284801124270009 0 0.41434750376861867 -0.1864178383423403 0 0.39125368289368539 -0.16844539718946919 0 0.38582908597722287 -0.18284801124270009 0 0.40147464264349408 -0.1740395652819563 0 0.41434750376861867 -0.1864178383423403 0 0.42762631195159723 -0.17049841800502749 0 0.41335748158571411 -0.17022102624423049 0 0.40147464264349408 -0.1740395652819563 0 0.41434750376861867 -0.1864178383423403 0 0.41335748158571411 -0.17022102624423049 0 0.42210008321322018 -0.1916007540968985 0 0.41434750376861867 -0.1864178383423403 0 0.42762631195159723 -0.17049841800502749 0 0.43608042322958529 -0.19470429874635631 0 0.42762631195159723 -0.17049841800502749 0 0.42210008321322018 -0.1916007540968985 0 0.43608042322958529 -0.19470429874635631 0 0.42762631195159723 -0.17049841800502749 0 0.42210008321322018 -0.1916007540968985 0 0.42762631195159723 -0.17049841800502749 0 0.42762631195159723 -0.17049841800502749 0 0.43496264468178442 -0.14248405843300399 0 0.42762631195159723 -0.17049841800502749 0 0.41820093883670562 -0.14351161240719479 0 0.40258545899222958 -0.16226555339104171 0 0.41335748158571411 -0.17022102624423049 0 0.41820093883670562 -0.14351161240719479 0 0.42762631195159723 -0.17049841800502749 0 0.41335748158571411 -0.17022102624423049 0 0.41820093883670562 -0.14351161240719479 0 0.42762631195159723 -0.17049841800502749 0 0.41820093883670562 -0.14351161240719479 0 0.43496264468178442 -0.14248405843300399 0 0.42762631195159723 -0.17049841800502749 0 0.43496264468178442 -0.14248405843300399 0 0.44608948456025582 -0.15293555358812949 0 0.42621156167977242 -0.12356057561384801 0 0.41820093883670562 -0.14351161240719479 0 0.43496264468178442 -0.14248405843300399 0 0.44229897741197027 -0.1144696988609803 0 0.42621156167977242 -0.12356057561384801 0 0.43496264468178442 -0.14248405843300399 0 0.40877556572181528 -0.1165248068093616 0 0.42621156167977242 -0.12356057561384801 0 0.41820093883670562 -0.14351161240719479 0 0.40877556572181528 -0.1165248068093616 0 0.39391858828828158 -0.1296282567524546 0 0.41820093883670562 -0.14351161240719479 0 0.40877556572181528 -0.1165248068093616 0 0.41820093883670562 -0.14351161240719479 0 0.46606264572823591 -0.1162637736844449 0 0.4560760651442457 -0.13459966363628709 0 0.46606264572823591 -0.1162637736844449 0 0.46853504236857241 -0.1449059090171185 0 0.46606264572823591 -0.1162637736844449 0 0.4560760651442457 -0.13459966363628709 0 0.46853504236857241 -0.1449059090171185 0 0.44229897741197027 -0.1144696988609803 0 0.43496264468178442 -0.14248405843300399 0 0.44229897741197027 -0.1144696988609803 0 0.43496264468178442 -0.14248405843300399 0 0.4560760651442457 -0.13459966363628709 0 0.4560760651442457 -0.13459966363628709 0 0.44608948456025582 -0.15293555358812949 0 0.43496264468178442 -0.14248405843300399 0 0.4560760651442457 -0.13459966363628709 0 0.44608948456025582 -0.15293555358812949 0 0.4560760651442457 -0.13459966363628709 0 0.44608948456025582 -0.15293555358812949 0 0.46853504236857241 -0.1449059090171185 0 0.44608948456025582 -0.15293555358812949 0 0.46853504236857241 -0.1449059090171185 0 0.45865651507985011 -0.16200107990344201 0 0.46853504236857241 -0.1449059090171185 0 0.45865651507985011 -0.16200107990344201 0 0.47100743900890851 -0.1735480443497921 0 0.45865651507985011 -0.16200107990344201 0 0.44899409438166399 -0.17661481265872789 0 0.47100743900890851 -0.1735480443497921 0 0.42762631195159723 -0.17049841800502749 0 0.44608948456025582 -0.15293555358812949 0 0.44899409438166399 -0.17661481265872789 0 0.44608948456025582 -0.15293555358812949 0 0.45865651507985011 -0.16200107990344201 0 0.44899409438166399 -0.17661481265872789 0 0.43608042322958529 -0.19470429874635631 0 0.42762631195159723 -0.17049841800502749 0 0.44899409438166399 -0.17661481265872789 0 0.44899409438166399 -0.17661481265872789 0 0.47100743900890851 -0.1735480443497921 0 0.45481926535539552 -0.1931935029850054 0 0.46853504236857241 -0.1449059090171185 0 0.47100743900890851 -0.1735480443497921 0 0.5 -0.15625710771056531 0 0.47100743900890851 -0.1735480443497921 0 0.5 -0.18611369914710921 0 0.47347983564924462 -0.20219017968246569 0 0.47100743900890851 -0.1735480443497921 0 0.5 -0.18611369914710921 0 0.5 -0.15625710771056531 0 0.46853504236857241 -0.1449059090171185 0 0.47100743900890851 -0.1735480443497921 0 0.46853504236857241 -0.1449059090171185 0 0.5 -0.15625710771056531 0 0.48183660779717158 -0.1302179679924606 0 0.5 -0.15625710771056531 0 0.50000000000000155 -0.12640051627402141 0 0.48183660779717158 -0.1302179679924606 0 0.46606264572823591 -0.1162637736844449 0 0.46853504236857241 -0.1449059090171185 0 0.48183660779717158 -0.1302179679924606 0 0.45093446452550112 -0.24617512857851229 0 0.44453453450757502 -0.21891017948768471 0 0.47595223228958072 -0.23083231501513921 0 0.45093446452550112 -0.24617512857851229 0 0.47595223228958072 -0.23083231501513921 0 0.47842462892991849 -0.25947445034781269 0 0.43150891407977482 -0.23471609115558159 0 0.45093446452550112 -0.24617512857851229 0 0.44453453450757502 -0.21891017948768471 0 0.43608042322958529 -0.19470429874635631 0 0.44453453450757502 -0.21891017948768471 0 0.44453453450757502 -0.21891017948768471 0 0.47347983564924462 -0.20219017968246569 0 0.47595223228958072 -0.23083231501513921 0 0.43608042322958529 -0.19470429874635631 0 0.44899409438166399 -0.17661481265872789 0 0.45481926535539552 -0.1931935029850054 0 0.43608042322958529 -0.19470429874635631 0 0.44453453450757502 -0.21891017948768471 0 0.45481926535539552 -0.1931935029850054 0 0.47100743900890851 -0.1735480443497921 0 0.45481926535539552 -0.1931935029850054 0 0.47347983564924462 -0.20219017968246569 0 0.44453453450757502 -0.21891017948768471 0 0.45481926535539552 -0.1931935029850054 0 0.47347983564924462 -0.20219017968246569 0 0.47347983564924462 -0.20219017968246569 0 0.47595223228958072 -0.23083231501513921 0 0.47347983564924462 -0.20219017968246569 0 0.5 -0.21597029058365341 0 0.47595223228958072 -0.23083231501513921 0 0.47100743900890851 -0.1735480443497921 0 0.47347983564924462 -0.20219017968246569 0 0.5 -0.18611369914710921 0 0.47347983564924462 -0.20219017968246569 0 0.5 -0.21597029058365341 0 0.5 -0.21597029058365341 0 0.47595223228958072 -0.23083231501513921 0 0.49999999999999972 -0.2458268820201974 0 0.47595223228958072 -0.23083231501513921 0 0.47842462892991849 -0.25947445034781269 0 0.47595223228958072 -0.23083231501513921 0 0.49999999999999972 -0.2458268820201974 0 0.47842462892991849 -0.25947445034781269 0 0.49999999999999972 -0.2458268820201974 0 0.5 -0.27283310368760111 0 0.47842462892991849 -0.25947445034781269 0 0.49999999999999972 -0.2458268820201974 0 0.47842462892991849 -0.25947445034781269 0 0.5 -0.27283310368760111 0 0.47842462892991849 -0.25947445034781269 0 0.48093247612831092 -0.28852727208288281 0 0.47842462892991849 -0.25947445034781269 0 0.45760528788749277 -0.27264378952115509 0 0.48093247612831092 -0.28852727208288281 0 0.47842462892991849 -0.25947445034781269 0 0.48093247612831092 -0.28852727208288281 0 0.45760528788749277 -0.27264378952115509 0 0.4239167862907659 -0.25980927748756782 0 0.43678594684506622 -0.2858131286944961 0 0.45093446452550112 -0.24617512857851229 0 0.47842462892991849 -0.25947445034781269 0 0.45760528788749277 -0.27264378952115509 0 0.45093446452550112 -0.24617512857851229 0 0.45760528788749277 -0.27264378952115509 0 0.4239167862907659 -0.25980927748756782 0 0.47842462892991849 -0.25947445034781269 0 0.45760528788749277 -0.27264378952115509 0 0.45760528788749277 -0.27264378952115509 0 0.43678594684506622 -0.2858131286944961 0 0.44772996451386787 -0.30792697255126622 0 0.43678594684506622 -0.2858131286944961 0 0.44772996451386787 -0.30792697255126622 0 0.43678594684506622 -0.2858131286944961 0 0.42972926952898532 -0.30786061910162033 0 0.45760528788749277 -0.27264378952115509 0 0.46019396243484217 -0.29287520243631671 0 0.43678594684506622 -0.2858131286944961 0 0.44772996451386787 -0.30792697255126622 0 0.46019396243484217 -0.29287520243631671 0 0.43678594684506622 -0.2858131286944961 0 0.45760528788749277 -0.27264378952115509 0 0.46019396243484217 -0.29287520243631671 0 0.48093247612831092 -0.28852727208288281 0 0.44772996451386787 -0.30792697255126622 0 0.46019396243484217 -0.29287520243631671 0 0.46601104794309017 -0.30895613255688148 0 0.46601104794309017 -0.30895613255688148 0 0.48093247612831092 -0.28852727208288281 0 0.483440323326705 -0.3175800938179526 0 0.48093247612831092 -0.28852727208288281 0 0.483440323326705 -0.3175800938179526 0 0.46019396243484217 -0.29287520243631671 0 0.46601104794309017 -0.30895613255688148 0 0.48093247612831092 -0.28852727208288281 0 0.5 -0.27283310368760111 0 0.48093247612831092 -0.28852727208288281 0 0.5 -0.29983932535500479 0 0.48093247612831092 -0.28852727208288281 0 0.5 -0.29983932535500479 0 0.483440323326705 -0.3175800938179526 0 0.5 -0.29983932535500479 0 0.5 -0.32684554702240842 0 0.483440323326705 -0.3175800938179526 0 0.5 -0.32684554702240842 0 0.5 -0.35385176868981211 0 0.48594817052509909 -0.34663291555302261 0 0.5 -0.32684554702240842 0 0.483440323326705 -0.3175800938179526 0 0.48594817052509909 -0.34663291555302261 0 0.483440323326705 -0.3175800938179526 0 0.48594817052509909 -0.34663291555302261 0 0.483440323326705 -0.3175800938179526 0 0.48594817052509909 -0.34663291555302261 0 0.45867398218266953 -0.3300408164080364 0 0.46601104794309017 -0.30895613255688148 0 0.483440323326705 -0.3175800938179526 0 0.45867398218266953 -0.3300408164080364 0 0.5 -0.35385176868981211 0 0.5 -0.38085799035721579 0 0.48845601772349317 -0.37568573728809218 0 0.48594817052509909 -0.34663291555302261 0 0.48845601772349317 -0.37568573728809218 0 0.5 -0.35385176868981211 0 0.48594817052509909 -0.34663291555302261 0 0.48845601772349317 -0.37568573728809218 0 0.48594817052509909 -0.34663291555302261 0 0.46539701913604642 -0.35786508480097412 0 0.45867398218266953 -0.3300408164080364 0 0.46539701913604642 -0.35786508480097412 0 0.48845601772349317 -0.37568573728809218 0 0.46708649378376471 -0.38106679295064261 0 0.48594817052509909 -0.34663291555302261 0 0.46539701913604642 -0.35786508480097412 0 0.48845601772349317 -0.37568573728809218 0 0.46539701913604642 -0.35786508480097412 0 0.44929752998734451 -0.36719267423552843 0 0.46708649378376471 -0.38106679295064261 0 0.46539701913604642 -0.35786508480097412 0 0.44213489076844009 -0.34739944721099691 0 0.45867398218266953 -0.3300408164080364 0 0.46539701913604642 -0.35786508480097412 0 0.44213489076844009 -0.34739944721099691 0 0.44929752998734451 -0.36719267423552843 0 0.44929752998734451 -0.36719267423552843 0 0.42483122941022777 -0.37009694326127729 0 0.43984757225277682 -0.38711667485098888 0 0.44213489076844009 -0.34739944721099691 0 0.44929752998734451 -0.36719267423552843 0 0.42483122941022777 -0.37009694326127729 0 0.44772996451386787 -0.30792697255126622 0 0.46601104794309017 -0.30895613255688148 0 0.45867398218266953 -0.3300408164080364 0 0.44772996451386787 -0.30792697255126622 0 0.45867398218266953 -0.3300408164080364 0 0.44213489076844009 -0.34739944721099691 0 0.45867398218266953 -0.3300408164080364 0 0.43423412399277111 -0.32600846119329252 0 0.44772996451386787 -0.30792697255126622 0 0.45867398218266953 -0.3300408164080364 0 0.43423412399277111 -0.32600846119329252 0 0.43423412399277111 -0.32600846119329252 0 0.41442314312921508 -0.32522731011355988 0 0.42972926952898532 -0.30786061910162033 0 0.44772996451386787 -0.30792697255126622 0 0.43423412399277111 -0.32600846119329252 0 0.42972926952898532 -0.30786061910162033 0 0.44213489076844009 -0.34739944721099691 0 0.43423412399277111 -0.32600846119329252 0 0.4209394942675076 -0.34484755436735293 0 0.43423412399277111 -0.32600846119329252 0 0.41442314312921508 -0.32522731011355988 0 0.4209394942675076 -0.34484755436735293 0 0.41442314312921508 -0.32522731011355988 0 0.4209394942675076 -0.34484755436735293 0 0.40615660942593201 -0.34395042281862481 0 0.41442314312921508 -0.32522731011355988 0 0.39992084628095098 -0.32023743844814562 0 0.41319989642981408 -0.30073255851914271 0 0.44213489076844009 -0.34739944721099691 0 0.42483122941022777 -0.37009694326127729 0 0.4209394942675076 -0.34484755436735293 0 0.42483122941022777 -0.37009694326127729 0 0.4209394942675076 -0.34484755436735293 0 0.40697541317958508 -0.35922381709978191 0 0.4209394942675076 -0.34484755436735293 0 0.40697541317958508 -0.35922381709978191 0 0.40615660942593201 -0.34395042281862481 0 0.42483122941022777 -0.37009694326127729 0 0.40697541317958508 -0.35922381709978191 0 0.3990262369135239 -0.37861362801833731 0 0.40697541317958508 -0.35922381709978191 0 0.38384395461466497 -0.36430496488767539 0 0.3990262369135239 -0.37861362801833731 0 0.40697541317958508 -0.35922381709978191 0 0.391815401210245 -0.3474665918061613 0 0.38384395461466497 -0.36430496488767539 0 0.40697541317958508 -0.35922381709978191 0 0.40615660942593201 -0.34395042281862481 0 0.391815401210245 -0.3474665918061613 0 0.391815401210245 -0.3474665918061613 0 0.38384395461466497 -0.36430496488767539 0 0.37231295155185512 -0.3470328172151691 0 0.41442314312921508 -0.32522731011355988 0 0.39992084628095098 -0.32023743844814562 0 0.39770889533219311 -0.33275574744202258 0 0.39992084628095098 -0.32023743844814562 0 0.39770889533219311 -0.33275574744202258 0 0.38868930329417151 -0.31918242693771798 0 0.39992084628095098 -0.32023743844814562 0 0.38961384601456062 -0.3156519883437866 0 0.38868930329417151 -0.31918242693771798 0 0.41442314312921508 -0.32522731011355988 0 0.40615660942593201 -0.34395042281862481 0 0.39770889533219311 -0.33275574744202258 0 0.40615660942593201 -0.34395042281862481 0 0.391815401210245 -0.3474665918061613 0 0.39770889533219311 -0.33275574744202258 0 0.391815401210245 -0.3474665918061613 0 0.39770889533219311 -0.33275574744202258 0 0.38458977846905112 -0.33459282238803673 0 0.391815401210245 -0.3474665918061613 0 0.38458977846905112 -0.33459282238803673 0 0.37231295155185512 -0.3470328172151691 0 0.39770889533219311 -0.33275574744202258 0 0.38458977846905112 -0.33459282238803673 0 0.38868930329417151 -0.31918242693771798 0 0.38458977846905112 -0.33459282238803673 0 0.37242234095679111 -0.32652652853911218 0 0.37231295155185512 -0.3470328172151691 0 0.38961384601456062 -0.3156519883437866 0 0.37242234095679111 -0.32652652853911218 0 0.38458977846905112 -0.33459282238803673 0 0.38868930329417151 -0.31918242693771798 0 0.37242234095679111 -0.32652652853911218 0 0.38961384601456062 -0.3156519883437866 0 0.37184400655250549 -0.30528455572429081 0 0.37242234095679111 -0.32652652853911218 0 0.38961384601456062 -0.3156519883437866 0 0.38868930329417151 -0.31918242693771798 0 0.37242234095679111 -0.32652652853911218 0 0.38961384601456062 -0.3156519883437866 0 0.38868930329417151 -0.31918242693771798 0 0.38961384601456062 -0.3156519883437866 0 0.39675843925519272 -0.28836980098940379 0 0.37184400655250549 -0.30528455572429081 0 0.38961384601456062 -0.3156519883437866 0 0.39675843925519272 -0.28836980098940379 0 0.41319989642981408 -0.30073255851914271 0 0.39992084628095098 -0.32023743844814562 0 0.38961384601456062 -0.3156519883437866 0 0.41319989642981408 -0.30073255851914271 0 0.38961384601456062 -0.3156519883437866 0 0.39675843925519272 -0.28836980098940379 0 0.38961384601456062 -0.3156519883437866 0 0.41319989642981408 -0.30073255851914271 0 0.39675843925519272 -0.28836980098940379 0 0.37359528750936932 -0.28536435952824191 0 0.37184400655250549 -0.30528455572429081 0 0.39675843925519272 -0.28836980098940379 0 0.38084391262073858 -0.26634661459999193 0 0.37359528750936932 -0.28536435952824191 0 0.36521285541178827 -0.24820992660054181 0 0.38829568613077292 -0.24077794979272851 0 0.38084391262073858 -0.26634661459999193 0 0.38829568613077292 -0.24077794979272851 0 0.38084391262073858 -0.26634661459999193 0 0.40390303249582832 -0.26108761363502198 0 0.39675843925519272 -0.28836980098940379 0 0.40390303249582832 -0.26108761363502198 0 0.39675843925519272 -0.28836980098940379 0 0.40390303249582832 -0.26108761363502198 0 0.41618433764597529 -0.27964921965233153 0 0.39675843925519272 -0.28836980098940379 0 0.38084391262073858 -0.26634661459999193 0 0.40390303249582832 -0.26108761363502198 0 0.40390303249582832 -0.26108761363502198 0 0.41618433764597529 -0.27964921965233153 0 0.4239167862907659 -0.25980927748756782 0 0.41104762573646492 -0.23380542628064011 0 0.40390303249582832 -0.26108761363502198 0 0.4239167862907659 -0.25980927748756782 0 0.4239167862907659 -0.25980927748756782 0 0.43678594684506622 -0.2858131286944961 0 0.41618433764597529 -0.27964921965233153 0 0.4239167862907659 -0.25980927748756782 0 0.43678594684506622 -0.2858131286944961 0 0.43678594684506622 -0.2858131286944961 0 0.41319989642981408 -0.30073255851914271 0 0.41618433764597529 -0.27964921965233153 0 0.43678594684506622 -0.2858131286944961 0 0.41319989642981408 -0.30073255851914271 0 0.43678594684506622 -0.2858131286944961 0 0.42972926952898532 -0.30786061910162033 0 0.41319989642981408 -0.30073255851914271 0 0.41442314312921508 -0.32522731011355988 0 0.42972926952898532 -0.30786061910162033 0 0.41319989642981408 -0.30073255851914271 0 0.39675843925519272 -0.28836980098940379 0 0.41618433764597529 -0.27964921965233153 0 0.41319989642981408 -0.30073255851914271 0 0.43975515214561461 -0.5 0 0.46273167738508719 -0.48533010338766908 0 0.43621876614938371 -0.48510800241233132 0 0.46273167738508719 -0.48533010338766908 0 0.43621876614938371 -0.48510800241233132 0 0.45036197175565451 -0.47382239359218231 0 0.46273167738508719 -0.48533010338766908 0 0.43621876614938371 -0.48510800241233132 0 0.45036197175565451 -0.47382239359218231 0 0.42626712989530741 -0.47962098559520239 0 0.43621876614938371 -0.48510800241233132 0 0.45036197175565451 -0.47382239359218231 0 0.42626712989530741 -0.47962098559520239 0 0.45036197175565451 -0.47382239359218231 0 0.46273167738508719 -0.48533010338766908 0 0.47445681361600173 -0.46802380158916218 0 0.45036197175565451 -0.47382239359218231 0 0.47445681361600173 -0.46802380158916218 0 0.43975515214561461 -0.5 0 0.46273167738508719 -0.48533010338766908 0 0.4694710048291415 -0.5 0 0.49794231015897389 -0.48558221073800739 0 0.49918685751266839 -0.50000000000000355 0 0.49999999999999922 -0.46187665535942712 0 0.46273167738508719 -0.48533010338766908 0 0.4892445886207909 -0.48555220436300728 0 0.46273167738508719 -0.48533010338766908 0 0.4694710048291415 -0.5 0 0.4892445886207909 -0.48555220436300728 0 0.4694710048291415 -0.5 0 0.49775393873011792 -0.49563859775293001 0 0.49918685751266839 -0.50000000000000355 0 0.4694710048291415 -0.5 0 0.4892445886207909 -0.48555220436300728 0 0.49775393873011792 -0.49563859775293001 0 0.4892445886207909 -0.48555220436300728 0 0.49794231015897389 -0.48558221073800739 0 0.4892445886207909 -0.48555220436300728 0 0.49794231015897389 -0.48558221073800739 0 0.49775393873011792 -0.49563859775293001 0 0.4892445886207909 -0.48555220436300728 0 0.49775393873011792 -0.49563859775293001 0 0.49794231015897389 -0.48558221073800739 0 0.49918685751266839 -0.50000000000000355 0 0.49794231015897389 -0.48558221073800739 0 0.49775393873011792 -0.49563859775293001 0 0.49918685751266839 -0.50000000000000355 0 0.49794231015897389 -0.48558221073800739 0 0.49758320841567177 -0.48142210124665252 0 0.49999999999999922 -0.46187665535942712 0 0.49758320841567177 -0.48142210124665252 0 0.49597955931867671 -0.46284420249330138 0 0.49758320841567177 -0.48142210124665252 0 0.48815892937429411 -0.47287744440515372 0 0.49597955931867671 -0.46284420249330138 0 0.4892445886207909 -0.48555220436300728 0 0.49794231015897389 -0.48558221073800739 0 0.49758320841567177 -0.48142210124665252 0 0.49794231015897389 -0.48558221073800739 0 0.49758320841567177 -0.48142210124665252 0 0.4892445886207909 -0.48555220436300728 0 0.49758320841567177 -0.48142210124665252 0 0.48815892937429411 -0.47287744440515372 0 0.4892445886207909 -0.48555220436300728 0 0.47445681361600173 -0.46802380158916218 0 0.46273167738508719 -0.48533010338766908 0 0.4892445886207909 -0.48555220436300728 0 0.47445681361600173 -0.46802380158916218 0 0.4892445886207909 -0.48555220436300728 0 0.48815892937429411 -0.47287744440515372 0 0.47445681361600173 -0.46802380158916218 0 0.47445681361600173 -0.46802380158916218 0 0.49597955931867671 -0.46284420249330138 0 0.4778304069785162 -0.44719456595586909 0 0.47445681361600173 -0.46802380158916218 0 0.4778304069785162 -0.44719456595586909 0 0.4555991694403822 -0.44567125819645609 0 0.47445681361600173 -0.46802380158916218 0 0.49597955931867671 -0.46284420249330138 0 0.49999999999999922 -0.46187665535942712 0 0.49597955931867671 -0.46284420249330138 0 0.5 -0.43487043369202327 0 0.48815892937429411 -0.47287744440515372 0 0.47445681361600173 -0.46802380158916218 0 0.49597955931867671 -0.46284420249330138 0 0.49758320841567177 -0.48142210124665252 0 0.49999999999999922 -0.46187665535942712 0 0.49597955931867671 -0.46284420249330138 0 0.49999999999999922 -0.46187665535942712 0 0.49597955931867671 -0.46284420249330138 0 0.49597955931867671 -0.46284420249330138 0 0.4934717121202814 -0.43379138075823181 0 0.49597955931867671 -0.46284420249330138 0 0.4778304069785162 -0.44719456595586909 0 0.4934717121202814 -0.43379138075823181 0 0.49597955931867671 -0.46284420249330138 0 0.5 -0.43487043369202327 0 0.4934717121202814 -0.43379138075823181 0 0.4778304069785162 -0.44719456595586909 0 0.4555991694403822 -0.44567125819645609 0 0.46964478039724028 -0.42564218674219417 0 0.47445681361600173 -0.46802380158916218 0 0.4555991694403822 -0.44567125819645609 0 0.45036197175565451 -0.47382239359218231 0 0.47445681361600173 -0.46802380158916218 0 0.4555991694403822 -0.44567125819645609 0 0.45036197175565451 -0.47382239359218231 0 0.4555991694403822 -0.44567125819645609 0 0.4334898938550269 -0.45137629474909652 0 0.4555991694403822 -0.44567125819645609 0 0.43674152526476279 -0.42331871480374977 0 0.4334898938550269 -0.45137629474909652 0 0.4555991694403822 -0.44567125819645609 0 0.46964478039724028 -0.42564218674219417 0 0.43674152526476279 -0.42331871480374977 0 0.46964478039724028 -0.42564218674219417 0 0.46034240637806501 -0.40246490983583327 0 0.43674152526476279 -0.42331871480374977 0 0.4555991694403822 -0.44567125819645609 0 0.43674152526476279 -0.42331871480374977 0 0.4778304069785162 -0.44719456595586909 0 0.46964478039724028 -0.42564218674219417 0 0.4934717121202814 -0.43379138075823181 0 0.5 -0.43487043369202327 0 0.4934717121202814 -0.43379138075823181 0 0.5 -0.40786421202461948 0 0.4934717121202814 -0.43379138075823181 0 0.5 -0.40786421202461948 0 0.49096386492188732 -0.40473855902316191 0 0.46964478039724028 -0.42564218674219417 0 0.4934717121202814 -0.43379138075823181 0 0.49096386492188732 -0.40473855902316191 0 0.4934717121202814 -0.43379138075823181 0 0.49096386492188732 -0.40473855902316191 0 0.46964478039724028 -0.42564218674219417 0 0.49096386492188732 -0.40473855902316191 0 0.46034240637806501 -0.40246490983583327 0 0.49096386492188732 -0.40473855902316191 0 0.46708649378376471 -0.38106679295064261 0 0.46034240637806501 -0.40246490983583327 0 0.5 -0.40786421202461948 0 0.49096386492188732 -0.40473855902316191 0 0.5 -0.38085799035721579 0 0.49096386492188732 -0.40473855902316191 0 0.48845601772349317 -0.37568573728809218 0 0.49096386492188732 -0.40473855902316191 0 0.5 -0.38085799035721579 0 0.48845601772349317 -0.37568573728809218 0 0.49096386492188732 -0.40473855902316191 0 0.48845601772349317 -0.37568573728809218 0 0.46708649378376471 -0.38106679295064261 0 0.46708649378376471 -0.38106679295064261 0 0.46034240637806501 -0.40246490983583327 0 0.43984757225277682 -0.38711667485098888 0 0.46034240637806501 -0.40246490983583327 0 0.43984757225277682 -0.38711667485098888 0 0.43674152526476279 -0.42331871480374977 0 0.44929752998734451 -0.36719267423552843 0 0.46708649378376471 -0.38106679295064261 0 0.43984757225277682 -0.38711667485098888 0 0.43984757225277682 -0.38711667485098888 0 0.41788388108914343 -0.40096617141104363 0 0.43674152526476279 -0.42331871480374977 0 0.42483122941022777 -0.37009694326127729 0 0.43984757225277682 -0.38711667485098888 0 0.41788388108914343 -0.40096617141104363 0 0.42483122941022777 -0.37009694326127729 0 0.41788388108914343 -0.40096617141104363 0 0.3990262369135239 -0.37861362801833731 0 0.41788388108914343 -0.40096617141104363 0 0.3990262369135239 -0.37861362801833731 0 0.3990262369135239 -0.37861362801833731 0 0.37579161064060529 -0.38604173883730208 0 0.38862040042870649 -0.41327496295924032 0 0.41788388108914343 -0.40096617141104363 0 0.3990262369135239 -0.37861362801833731 0 0.38862040042870649 -0.41327496295924032 0 0.38384395461466497 -0.36430496488767539 0 0.3990262369135239 -0.37861362801833731 0 0.37579161064060529 -0.38604173883730208 0 0.38862040042870649 -0.41327496295924032 0 0.38037154552601471 -0.44430230311017649 0 0.36879194239454011 -0.42850259953364811 0 0.38862040042870649 -0.41327496295924032 0 0.39964232508548708 -0.44071135039822651 0 0.38037154552601471 -0.44430230311017649 0 0.38862040042870649 -0.41327496295924032 0 0.41239363986127342 -0.42358692061665182 0 0.39964232508548708 -0.44071135039822651 0 0.41239363986127342 -0.42358692061665182 0 0.41908006743826698 -0.43966340351099858 0 0.39964232508548708 -0.44071135039822651 0 0.41788388108914343 -0.40096617141104363 0 0.38862040042870649 -0.41327496295924032 0 0.41239363986127342 -0.42358692061665182 0 0.41788388108914343 -0.40096617141104363 0 0.41239363986127342 -0.42358692061665182 0 0.43674152526476279 -0.42331871480374977 0 0.41788388108914343 -0.40096617141104363 0 0.43674152526476279 -0.42331871480374977 0 0.41239363986127342 -0.42358692061665182 0 0.43674152526476279 -0.42331871480374977 0 0.41908006743826698 -0.43966340351099858 0 0.43674152526476279 -0.42331871480374977 0 0.4334898938550269 -0.45137629474909652 0 0.41908006743826698 -0.43966340351099858 0 0.45036197175565451 -0.47382239359218231 0 0.4334898938550269 -0.45137629474909652 0 0.42742849697349572 -0.46719037446676359 0 0.4334898938550269 -0.45137629474909652 0 0.42742849697349572 -0.46719037446676359 0 0.41255918600851982 -0.45839234417252478 0 0.41255918600851982 -0.45839234417252478 0 0.39655541574571401 -0.47211932469120932 0 0.41446430335296991 -0.4727398542248118 0 0.42742849697349572 -0.46719037446676359 0 0.41255918600851982 -0.45839234417252478 0 0.41446430335296991 -0.4727398542248118 0 0.41255918600851982 -0.45839234417252478 0 0.41908006743826698 -0.43966340351099858 0 0.39964232508548708 -0.44071135039822651 0 0.4334898938550269 -0.45137629474909652 0 0.41255918600851982 -0.45839234417252478 0 0.41908006743826698 -0.43966340351099858 0 0.39964232508548708 -0.44071135039822651 0 0.38037154552601471 -0.44430230311017649 0 0.39520950689167111 -0.45568826252218991 0 0.41255918600851982 -0.45839234417252478 0 0.39964232508548708 -0.44071135039822651 0 0.39520950689167111 -0.45568826252218991 0 0.38037154552601471 -0.44430230311017649 0 0.38329089363271079 -0.45966685905138122 0 0.36752117878759449 -0.4534651594169018 0 0.38329089363271079 -0.45966685905138122 0 0.37809046189821721 -0.47134465854780627 0 0.36752117878759449 -0.4534651594169018 0 0.38329089363271079 -0.45966685905138122 0 0.39655541574571401 -0.47211932469120932 0 0.37809046189821721 -0.47134465854780627 0 0.38037154552601471 -0.44430230311017649 0 0.38329089363271079 -0.45966685905138122 0 0.39520950689167111 -0.45568826252218991 0 0.38329089363271079 -0.45966685905138122 0 0.39520950689167111 -0.45568826252218991 0 0.39655541574571401 -0.47211932469120932 0 0.41255918600851982 -0.45839234417252478 0 0.39520950689167111 -0.45568826252218991 0 0.39655541574571401 -0.47211932469120932 0 0.39655541574571401 -0.47211932469120932 0 0.38319294367797652 -0.4846638004616558 0 0.40970585491368011 -0.48488590143699362 0 0.39655541574571401 -0.47211932469120932 0 0.37809046189821721 -0.47134465854780627 0 0.38319294367797652 -0.4846638004616558 0 0.37809046189821721 -0.47134465854780627 0 0.38319294367797652 -0.4846638004616558 0 0.36498809748963962 -0.47823209226567581 0 0.38177761637059299 -0.49853476579598888 0 0.38319294367797652 -0.4846638004616558 0 0.36498809748963962 -0.47823209226567581 0 0.38032344677856073 -0.5 0 0.38177761637059299 -0.49853476579598888 0 0.36498809748963962 -0.47823209226567581 0 0.38177761637059299 -0.49853476579598888 0 0.38319294367797652 -0.4846638004616558 0 0.39617892860608428 -0.49202111692365957 0 0.38319294367797652 -0.4846638004616558 0 0.39617892860608428 -0.49202111692365957 0 0.40970585491368011 -0.48488590143699362 0 0.38177761637059299 -0.49853476579598888 0 0.39617892860608428 -0.49202111692365957 0 0.41003929946208761 -0.5 0 0.38032344677856073 -0.5 0 0.38177761637059299 -0.49853476579598888 0 0.41003929946208761 -0.5 0 0.38319294367797652 -0.4846638004616558 0 0.40970585491368011 -0.48488590143699362 0 0.39617892860608428 -0.49202111692365957 0 0.41003929946208761 -0.5 0 0.40970585491368011 -0.48488590143699362 0 0.41003929946208761 -0.5 0 0.42854341195921508 -0.49398389912170843 0 0.42207731919658931 -0.49097190254434531 0 0.41003929946208761 -0.5 0 0.40970585491368011 -0.48488590143699362 0 0.42207731919658931 -0.49097190254434531 0 0.39655541574571401 -0.47211932469120932 0 0.40970585491368011 -0.48488590143699362 0 0.41446430335296991 -0.4727398542248118 0 0.40970585491368011 -0.48488590143699362 0 0.41446430335296991 -0.4727398542248118 0 0.42626712989530741 -0.47962098559520239 0 0.45036197175565451 -0.47382239359218231 0 0.42742849697349572 -0.46719037446676359 0 0.42626712989530741 -0.47962098559520239 0 0.40970585491368011 -0.48488590143699362 0 0.42626712989530741 -0.47962098559520239 0 0.43621876614938371 -0.48510800241233132 0 0.42742849697349572 -0.46719037446676359 0 0.41446430335296991 -0.4727398542248118 0 0.42626712989530741 -0.47962098559520239 0 0.40970585491368011 -0.48488590143699362 0 0.43621876614938371 -0.48510800241233132 0 0.42207731919658931 -0.49097190254434531 0 0.43975515214561461 -0.5 0 0.41003929946208761 -0.5 0 0.42854341195921508 -0.49398389912170843 0 0.40970585491368011 -0.48488590143699362 0 0.43621876614938371 -0.48510800241233132 0 0.43975515214561461 -0.5 0 0.43621876614938371 -0.48510800241233132 0 0.42854341195921508 -0.49398389912170843 0 0.43621876614938371 -0.48510800241233132 0 0.42854341195921508 -0.49398389912170843 0 0.42207731919658931 -0.49097190254434531 0 0.320891741411507 -0.5 0 0.32223373483417439 -0.47928939217131589 0 0.29932204404509588 -0.47726507862130529 0 0.32223373483417439 -0.47928939217131589 0 0.32014966984431542 -0.45898927077528628 0 0.29932204404509588 -0.47726507862130529 0 0.32223373483417439 -0.47928939217131589 0 0.34298773209661121 -0.47933206078728952 0 0.32014966984431542 -0.45898927077528628 0 0.320891741411507 -0.5 0 0.32223373483417439 -0.47928939217131589 0 0.34298773209661121 -0.47933206078728952 0 0.320891741411507 -0.5 0 0.34298773209661121 -0.47933206078728952 0 0.35060759409503373 -0.5 0 0.34298773209661121 -0.47933206078728952 0 0.35060759409503373 -0.5 0 0.36498809748963962 -0.47823209226567581 0 0.38032344677856073 -0.5 0 0.35060759409503373 -0.5 0 0.36498809748963962 -0.47823209226567581 0 0.38177761637059299 -0.49853476579598888 0 0.36498809748963962 -0.47823209226567581 0 0.34298773209661121 -0.47933206078728952 0 0.36498809748963962 -0.47823209226567581 0 0.34819857860868608 -0.45792941873536253 0 0.36498809748963962 -0.47823209226567581 0 0.34819857860868608 -0.45792941873536253 0 0.36498809748963962 -0.47823209226567581 0 0.34819857860868608 -0.45792941873536253 0 0.36752117878759449 -0.4534651594169018 0 0.37809046189821721 -0.47134465854780627 0 0.36498809748963962 -0.47823209226567581 0 0.36752117878759449 -0.4534651594169018 0 0.36752117878759449 -0.4534651594169018 0 0.34997844443055182 -0.43249150616338611 0 0.36879194239454011 -0.42850259953364811 0 0.38037154552601471 -0.44430230311017649 0 0.36752117878759449 -0.4534651594169018 0 0.36879194239454011 -0.42850259953364811 0 0.34819857860868608 -0.45792941873536253 0 0.36752117878759449 -0.4534651594169018 0 0.34997844443055182 -0.43249150616338611 0 0.34819857860868608 -0.45792941873536253 0 0.33140905972773271 -0.43762674520504918 0 0.32014966984431542 -0.45898927077528628 0 0.34819857860868608 -0.45792941873536253 0 0.33140905972773271 -0.43762674520504918 0 0.34819857860868608 -0.45792941873536253 0 0.33140905972773271 -0.43762674520504918 0 0.34997844443055182 -0.43249150616338611 0 0.34298773209661121 -0.47933206078728952 0 0.34819857860868608 -0.45792941873536253 0 0.32014966984431542 -0.45898927077528628 0 0.33140905972773271 -0.43762674520504918 0 0.32014966984431542 -0.45898927077528628 0 0.31685387709023982 -0.43425752389713979 0 0.31685387709023982 -0.43425752389713979 0 0.33813130052256812 -0.41782190487142462 0 0.31685387709023982 -0.43425752389713979 0 0.31752790662111968 -0.42099839290296248 0 0.33813130052256812 -0.41782190487142462 0 0.31752790662111968 -0.42099839290296248 0 0.33813130052256812 -0.41782190487142462 0 0.31533933127926522 -0.40538245461417671 0 0.33140905972773271 -0.43762674520504918 0 0.33813130052256812 -0.41782190487142462 0 0.34997844443055182 -0.43249150616338611 0 0.33140905972773271 -0.43762674520504918 0 0.31685387709023982 -0.43425752389713979 0 0.33813130052256812 -0.41782190487142462 0 0.38862040042870649 -0.41327496295924032 0 0.36879194239454011 -0.42850259953364811 0 0.35940872395489643 -0.40138628584570929 0 0.33813130052256812 -0.41782190487142462 0 0.35940872395489643 -0.40138628584570929 0 0.33813130052256812 -0.41782190487142462 0 0.34997844443055182 -0.43249150616338611 0 0.35940872395489643 -0.40138628584570929 0 0.34997844443055182 -0.43249150616338611 0 0.36879194239454011 -0.42850259953364811 0 0.35940872395489643 -0.40138628584570929 0 0.33813130052256812 -0.41782190487142462 0 0.35940872395489643 -0.40138628584570929 0 0.33769750222908551 -0.39402477869161751 0 0.35940872395489643 -0.40138628584570929 0 0.3546544334473169 -0.38428634701000047 0 0.33769750222908551 -0.39402477869161751 0 0.37579161064060529 -0.38604173883730208 0 0.38862040042870649 -0.41327496295924032 0 0.35940872395489643 -0.40138628584570929 0 0.37579161064060529 -0.38604173883730208 0 0.3546544334473169 -0.38428634701000047 0 0.36319028048676139 -0.36901036540526261 0 0.37579161064060529 -0.38604173883730208 0 0.35940872395489643 -0.40138628584570929 0 0.3546544334473169 -0.38428634701000047 0 0.3546544334473169 -0.38428634701000047 0 0.33769750222908551 -0.39402477869161751 0 0.34037055818638351 -0.37106910621887867 0 0.33769750222908551 -0.39402477869161751 0 0.31840401052875689 -0.37936207313994269 0 0.34037055818638351 -0.37106910621887867 0 0.33813130052256812 -0.41782190487142462 0 0.33769750222908551 -0.39402477869161751 0 0.31533933127926522 -0.40538245461417671 0 0.33769750222908551 -0.39402477869161751 0 0.31533933127926522 -0.40538245461417671 0 0.31840401052875689 -0.37936207313994269 0 0.31840401052875689 -0.37936207313994269 0 0.30121083238084012 -0.39078249296967238 0 0.29751885367869069 -0.36933535603520262 0 0.31533933127926522 -0.40538245461417671 0 0.30121083238084012 -0.39078249296967238 0 0.28906439183491661 -0.40961929924758772 0 0.31533933127926522 -0.40538245461417671 0 0.31840401052875689 -0.37936207313994269 0 0.30121083238084012 -0.39078249296967238 0 0.30121083238084012 -0.39078249296967238 0 0.28205101971688562 -0.38377087986493419 0 0.28906439183491661 -0.40961929924758772 0 0.30121083238084012 -0.39078249296967238 0 0.28205101971688562 -0.38377087986493419 0 0.29751885367869069 -0.36933535603520262 0 0.28205101971688562 -0.38377087986493419 0 0.25363282682751181 -0.37841423591951329 0 0.26645946041845808 -0.40353612648111448 0 0.25363282682751181 -0.37841423591951329 0 0.26645946041845808 -0.40353612648111448 0 0.23747009808871841 -0.40365850980043899 0 0.28205101971688562 -0.38377087986493419 0 0.26645946041845808 -0.40353612648111448 0 0.28906439183491661 -0.40961929924758772 0 0.26645946041845808 -0.40353612648111448 0 0.27013685906413099 -0.42250565189711309 0 0.28906439183491661 -0.40961929924758772 0 0.26645946041845808 -0.40353612648111448 0 0.25113796152235152 -0.42220116652773748 0 0.23747009808871841 -0.40365850980043899 0 0.26645946041845808 -0.40353612648111448 0 0.25113796152235152 -0.42220116652773748 0 0.27013685906413099 -0.42250565189711309 0 0.25113796152235152 -0.42220116652773748 0 0.27013685906413099 -0.42250565189711309 0 0.26480582495598448 -0.44074382325503608 0 0.25113796152235152 -0.42220116652773748 0 0.26480582495598448 -0.44074382325503608 0 0.25113796152235152 -0.42220116652773748 0 0.26480582495598448 -0.44074382325503608 0 0.24653793030488319 -0.44096108971498688 0 0.27013685906413099 -0.42250565189711309 0 0.28350390770855061 -0.43576038378918019 0 0.28906439183491661 -0.40961929924758772 0 0.27013685906413099 -0.42250565189711309 0 0.28350390770855061 -0.43576038378918019 0 0.26480582495598448 -0.44074382325503608 0 0.28350390770855061 -0.43576038378918019 0 0.28906439183491661 -0.40961929924758772 0 0.30309472124012132 -0.42605534646618648 0 0.31752790662111968 -0.42099839290296248 0 0.31533933127926522 -0.40538245461417671 0 0.30309472124012132 -0.42605534646618648 0 0.31533933127926522 -0.40538245461417671 0 0.28906439183491661 -0.40961929924758772 0 0.30309472124012132 -0.42605534646618648 0 0.31685387709023982 -0.43425752389713979 0 0.30309472124012132 -0.42605534646618648 0 0.29557645365791152 -0.45069314292285489 0 0.31685387709023982 -0.43425752389713979 0 0.31752790662111968 -0.42099839290296248 0 0.30309472124012132 -0.42605534646618648 0 0.28350390770855061 -0.43576038378918019 0 0.29557645365791152 -0.45069314292285489 0 0.27429903022558322 -0.46712876194857011 0 0.31685387709023982 -0.43425752389713979 0 0.29557645365791152 -0.45069314292285489 0 0.32014966984431542 -0.45898927077528628 0 0.31685387709023982 -0.43425752389713979 0 0.29557645365791152 -0.45069314292285489 0 0.32014966984431542 -0.45898927077528628 0 0.29557645365791152 -0.45069314292285489 0 0.29932204404509588 -0.47726507862130529 0 0.29557645365791152 -0.45069314292285489 0 0.27429903022558322 -0.46712876194857011 0 0.29932204404509588 -0.47726507862130529 0 0.29557645365791152 -0.45069314292285489 0 0.27429903022558322 -0.46712876194857011 0 0.28350390770855061 -0.43576038378918019 0 0.30309472124012132 -0.42605534646618648 0 0.29557645365791152 -0.45069314292285489 0 0.28350390770855061 -0.43576038378918019 0 0.26480582495598448 -0.44074382325503608 0 0.27429903022558322 -0.46712876194857011 0 0.26480582495598448 -0.44074382325503608 0 0.24921954269175201 -0.46060574811106159 0 0.24653793030488319 -0.44096108971498688 0 0.26480582495598448 -0.44074382325503608 0 0.27429903022558322 -0.46712876194857011 0 0.24921954269175201 -0.46060574811106159 0 0.27429903022558322 -0.46712876194857011 0 0.25302160679325503 -0.48356438097428522 0 0.27585572116727358 -0.48559164430883223 0 0.27429903022558322 -0.46712876194857011 0 0.25302160679325503 -0.48356438097428522 0 0.27429903022558322 -0.46712876194857011 0 0.25302160679325503 -0.48356438097428522 0 0.24921954269175201 -0.46060574811106159 0 0.25302160679325503 -0.48356438097428522 0 0.26146003604445339 -0.5 0 0.27585572116727358 -0.48559164430883223 0 0.26146003604445339 -0.5 0 0.27585572116727358 -0.48559164430883223 0 0.29117588872798028 -0.5 0 0.27585572116727358 -0.48559164430883223 0 0.29117588872798028 -0.5 0 0.29932204404509588 -0.47726507862130529 0 0.27429903022558322 -0.46712876194857011 0 0.27585572116727358 -0.48559164430883223 0 0.29932204404509588 -0.47726507862130529 0 0.320891741411507 -0.5 0 0.29117588872798028 -0.5 0 0.29932204404509588 -0.47726507862130529 0 0.31818988774441942 -0.29252449006244508 0 0.3358828568685549 -0.28013521058899121 0 0.3496936621068138 -0.2998047527362519 0 0.31870524633192809 -0.31145667580297709 0 0.31818988774441942 -0.29252449006244508 0 0.3496936621068138 -0.2998047527362519 0 0.33679155731984189 -0.25759777951487578 0 0.3358828568685549 -0.28013521058899121 0 0.30722753307029471 -0.26675774923105039 0 0.31818988774441942 -0.29252449006244508 0 0.3358828568685549 -0.28013521058899121 0 0.30722753307029471 -0.26675774923105039 0 0.31818988774441942 -0.29252449006244508 0 0.30722753307029471 -0.26675774923105039 0 0.31682320483003101 -0.24582764124056511 0 0.33679155731984189 -0.25759777951487578 0 0.30722753307029471 -0.26675774923105039 0 0.33679155731984189 -0.25759777951487578 0 0.3358828568685549 -0.28013521058899121 0 0.35745325875930101 -0.2740073396683968 0 0.36521285541178827 -0.24820992660054181 0 0.33679155731984189 -0.25759777951487578 0 0.35745325875930101 -0.2740073396683968 0 0.36521285541178827 -0.24820992660054181 0 0.38084391262073858 -0.26634661459999193 0 0.35745325875930101 -0.2740073396683968 0 0.36521285541178827 -0.24820992660054181 0 0.35745325875930101 -0.2740073396683968 0 0.38084391262073858 -0.26634661459999193 0 0.35745325875930101 -0.2740073396683968 0 0.37359528750936932 -0.28536435952824191 0 0.35745325875930101 -0.2740073396683968 0 0.37359528750936932 -0.28536435952824191 0 0.3496936621068138 -0.2998047527362519 0 0.37359528750936932 -0.28536435952824191 0 0.3496936621068138 -0.2998047527362519 0 0.37184400655250549 -0.30528455572429081 0 0.35745325875930101 -0.2740073396683968 0 0.3496936621068138 -0.2998047527362519 0 0.3358828568685549 -0.28013521058899121 0 0.35745325875930101 -0.2740073396683968 0 0.3496936621068138 -0.2998047527362519 0 0.3496936621068138 -0.2998047527362519 0 0.37184400655250549 -0.30528455572429081 0 0.35687350654190803 -0.31904952542619469 0 0.37242234095679111 -0.32652652853911218 0 0.35523083589901883 -0.33740106873443348 0 0.35687350654190803 -0.31904952542619469 0 0.37184400655250549 -0.30528455572429081 0 0.37242234095679111 -0.32652652853911218 0 0.35687350654190803 -0.31904952542619469 0 0.37242234095679111 -0.32652652853911218 0 0.35523083589901883 -0.33740106873443348 0 0.37242234095679111 -0.32652652853911218 0 0.35523083589901883 -0.33740106873443348 0 0.37231295155185512 -0.3470328172151691 0 0.35523083589901883 -0.33740106873443348 0 0.33803933084124649 -0.34827560892975468 0 0.35523083589901883 -0.33740106873443348 0 0.35687350654190803 -0.31904952542619469 0 0.33517668719441063 -0.32623072139688541 0 0.3496936621068138 -0.2998047527362519 0 0.35687350654190803 -0.31904952542619469 0 0.33517668719441063 -0.32623072139688541 0 0.38384395461466497 -0.36430496488767539 0 0.37579161064060529 -0.38604173883730208 0 0.36319028048676139 -0.36901036540526261 0 0.38384395461466497 -0.36430496488767539 0 0.36319028048676139 -0.36901036540526261 0 0.37231295155185512 -0.3470328172151691 0 0.35523083589901883 -0.33740106873443348 0 0.37231295155185512 -0.3470328172151691 0 0.3539700736768604 -0.35452450361234938 0 0.36319028048676139 -0.36901036540526261 0 0.37231295155185512 -0.3470328172151691 0 0.3539700736768604 -0.35452450361234938 0 0.35523083589901883 -0.33740106873443348 0 0.3539700736768604 -0.35452450361234938 0 0.33803933084124649 -0.34827560892975468 0 0.3539700736768604 -0.35452450361234938 0 0.34037055818638351 -0.37106910621887867 0 0.33803933084124649 -0.34827560892975468 0 0.3546544334473169 -0.38428634701000047 0 0.36319028048676139 -0.36901036540526261 0 0.34037055818638351 -0.37106910621887867 0 0.36319028048676139 -0.36901036540526261 0 0.3539700736768604 -0.35452450361234938 0 0.34037055818638351 -0.37106910621887867 0 0.31840401052875689 -0.37936207313994269 0 0.34037055818638351 -0.37106910621887867 0 0.32664970502927537 -0.360956457036538 0 0.34037055818638351 -0.37106910621887867 0 0.33803933084124649 -0.34827560892975468 0 0.32664970502927537 -0.360956457036538 0 0.33803933084124649 -0.34827560892975468 0 0.32664970502927537 -0.360956457036538 0 0.3204455660693758 -0.34176349228520558 0 0.32664970502927537 -0.360956457036538 0 0.3204455660693758 -0.34176349228520558 0 0.31027987488766701 -0.35620712592795822 0 0.31840401052875689 -0.37936207313994269 0 0.32664970502927537 -0.360956457036538 0 0.31027987488766701 -0.35620712592795822 0 0.31870524633192809 -0.31145667580297709 0 0.3496936621068138 -0.2998047527362519 0 0.33517668719441063 -0.32623072139688541 0 0.35523083589901883 -0.33740106873443348 0 0.33803933084124649 -0.34827560892975468 0 0.33517668719441063 -0.32623072139688541 0 0.33803933084124649 -0.34827560892975468 0 0.33517668719441063 -0.32623072139688541 0 0.3204455660693758 -0.34176349228520558 0 0.33517668719441063 -0.32623072139688541 0 0.3204455660693758 -0.34176349228520558 0 0.30847230434063871 -0.3273934304785886 0 0.31870524633192809 -0.31145667580297709 0 0.33517668719441063 -0.32623072139688541 0 0.30847230434063871 -0.3273934304785886 0 0.31870524633192809 -0.31145667580297709 0 0.30847230434063871 -0.3273934304785886 0 0.29515967107429791 -0.30424800327565632 0 0.30847230434063871 -0.3273934304785886 0 0.29002324328201351 -0.32310591841170699 0 0.29515967107429791 -0.30424800327565632 0 0.3204455660693758 -0.34176349228520558 0 0.30847230434063871 -0.3273934304785886 0 0.29513872113830858 -0.34328941570077037 0 0.30847230434063871 -0.3273934304785886 0 0.29513872113830858 -0.34328941570077037 0 0.29002324328201351 -0.32310591841170699 0 0.29513872113830858 -0.34328941570077037 0 0.29002324328201351 -0.32310591841170699 0 0.27236558960317953 -0.32995850042339442 0 0.29513872113830858 -0.34328941570077037 0 0.27720830466003249 -0.35686469014416428 0 0.27236558960317953 -0.32995850042339442 0 0.31840401052875689 -0.37936207313994269 0 0.29751885367869069 -0.36933535603520262 0 0.31027987488766701 -0.35620712592795822 0 0.3204455660693758 -0.34176349228520558 0 0.29513872113830858 -0.34328941570077037 0 0.31027987488766701 -0.35620712592795822 0 0.29513872113830858 -0.34328941570077037 0 0.29751885367869069 -0.36933535603520262 0 0.31027987488766701 -0.35620712592795822 0 0.29513872113830858 -0.34328941570077037 0 0.29751885367869069 -0.36933535603520262 0 0.27720830466003249 -0.35686469014416428 0 0.28205101971688562 -0.38377087986493419 0 0.29751885367869069 -0.36933535603520262 0 0.27720830466003249 -0.35686469014416428 0 0.28205101971688562 -0.38377087986493419 0 0.27720830466003249 -0.35686469014416428 0 0.28205101971688562 -0.38377087986493419 0 0.25363282682751181 -0.37841423591951329 0 0.27720830466003249 -0.35686469014416428 0 0.27720830466003249 -0.35686469014416428 0 0.25180496200225749 -0.34741976578772138 0 0.27236558960317953 -0.32995850042339442 0 0.25363282682751181 -0.37841423591951329 0 0.27720830466003249 -0.35686469014416428 0 0.25180496200225749 -0.34741976578772138 0 0.27236558960317953 -0.32995850042339442 0 0.26752287454632651 -0.30305231070262439 0 0.29002324328201351 -0.32310591841170699 0 0.27236558960317953 -0.32995850042339442 0 0.26752287454632651 -0.30305231070262439 0 0.27720830466003249 -0.35686469014416428 0 0.27236558960317953 -0.32995850042339442 0 0.25180496200225749 -0.34741976578772138 0 0.27236558960317953 -0.32995850042339442 0 0.25569225758099351 -0.31963589011374621 0 0.27236558960317953 -0.32995850042339442 0 0.25569225758099351 -0.31963589011374621 0 0.26752287454632651 -0.30305231070262439 0 0.25569225758099351 -0.31963589011374621 0 0.26752287454632651 -0.30305231070262439 0 0.24572485091805399 -0.30209756917358049 0 0.26752287454632651 -0.30305231070262439 0 0.2535102749262908 -0.27748405513537988 0 0.24572485091805399 -0.30209756917358049 0 0.26752287454632651 -0.30305231070262439 0 0.28084757591610082 -0.27828239138817612 0 0.2535102749262908 -0.27748405513537988 0 0.26752287454632651 -0.30305231070262439 0 0.29515967107429791 -0.30424800327565632 0 0.28084757591610082 -0.27828239138817612 0 0.29002324328201351 -0.32310591841170699 0 0.26752287454632651 -0.30305231070262439 0 0.29515967107429791 -0.30424800327565632 0 0.29515967107429791 -0.30424800327565632 0 0.3003561669512782 -0.28545315848933189 0 0.28084757591610082 -0.27828239138817612 0 0.31818988774441942 -0.29252449006244508 0 0.3003561669512782 -0.28545315848933189 0 0.30722753307029471 -0.26675774923105039 0 0.31818988774441942 -0.29252449006244508 0 0.29515967107429791 -0.30424800327565632 0 0.3003561669512782 -0.28545315848933189 0 0.31870524633192809 -0.31145667580297709 0 0.31818988774441942 -0.29252449006244508 0 0.29515967107429791 -0.30424800327565632 0 0.29626517839616989 -0.2409910083996557 0 0.31682320483003101 -0.24582764124056511 0 0.30722753307029471 -0.26675774923105039 0 0.29626517839616989 -0.2409910083996557 0 0.30722753307029471 -0.26675774923105039 0 0.3003561669512782 -0.28545315848933189 0 0.30722753307029471 -0.26675774923105039 0 0.28084757591610082 -0.27828239138817612 0 0.30722753307029471 -0.26675774923105039 0 0.28228325869048781 -0.2572419373207015 0 0.28084757591610082 -0.27828239138817612 0 0.29626517839616989 -0.2409910083996557 0 0.30722753307029471 -0.26675774923105039 0 0.28228325869048781 -0.2572419373207015 0 0.28228325869048781 -0.2572419373207015 0 0.28084757591610082 -0.27828239138817612 0 0.26129569893452748 -0.25287054109717938 0 0.28084757591610082 -0.27828239138817612 0 0.2535102749262908 -0.27748405513537988 0 0.26129569893452748 -0.25287054109717938 0 0.2535102749262908 -0.27748405513537988 0 0.26129569893452748 -0.25287054109717938 0 0.2535102749262908 -0.27748405513537988 0 0.26129569893452748 -0.25287054109717938 0 0.2337939613287752 -0.25828249515595081 0 0.26129569893452748 -0.25287054109717938 0 0.2337939613287752 -0.25828249515595081 0 0.23784141349313209 -0.2421884637426199 0 0.2535102749262908 -0.27748405513537988 0 0.2349136567019223 -0.27698566495159421 0 0.2337939613287752 -0.25828249515595081 0 0.2349136567019223 -0.27698566495159421 0 0.21341661833200889 -0.27463668903183069 0 0.22381761458601021 -0.2910518781805273 0 0.2349136567019223 -0.27698566495159421 0 0.2337939613287752 -0.25828249515595081 0 0.21341661833200889 -0.27463668903183069 0 0.2337939613287752 -0.25828249515595081 0 0.2075772349461002 -0.25612331933417709 0 0.22171352428988941 -0.24450694981644239 0 0.2337939613287752 -0.25828249515595081 0 0.2075772349461002 -0.25612331933417709 0 0.21341661833200889 -0.27463668903183069 0 0.2075772349461002 -0.25612331933417709 0 0.21341661833200889 -0.27463668903183069 0 0.19284826371761449 -0.26550667964113939 0 0.21341661833200889 -0.27463668903183069 0 0.19284826371761449 -0.26550667964113939 0 0.19383737836374959 -0.28195914627546598 0 0.19284826371761449 -0.26550667964113939 0 0.19383737836374959 -0.28195914627546598 0 0.1759636192584336 -0.26931494187276989 0 0.2075772349461002 -0.25612331933417709 0 0.19284826371761449 -0.26550667964113939 0 0.18486682611718569 -0.247210883510741 0 0.19406737983131009 -0.29777136613134092 0 0.18230518986191541 -0.29190357042968629 0 0.18653912721483931 -0.30838997834331711 0 0.20190129464001161 -0.3081665232506795 0 0.19406737983131009 -0.29777136613134092 0 0.20762902069361039 -0.2939789420304264 0 0.20190129464001161 -0.3081665232506795 0 0.19406737983131009 -0.29777136613134092 0 0.18653912721483931 -0.30838997834331711 0 0.19406737983131009 -0.29777136613134092 0 0.19383737836374959 -0.28195914627546598 0 0.18230518986191541 -0.29190357042968629 0 0.19406737983131009 -0.29777136613134092 0 0.19383737836374959 -0.28195914627546598 0 0.20762902069361039 -0.2939789420304264 0 0.21341661833200889 -0.27463668903183069 0 0.19383737836374959 -0.28195914627546598 0 0.20762902069361039 -0.2939789420304264 0 0.21341661833200889 -0.27463668903183069 0 0.20762902069361039 -0.2939789420304264 0 0.22381761458601021 -0.2910518781805273 0 0.20762902069361039 -0.2939789420304264 0 0.2227073728083179 -0.30858802480097569 0 0.22381761458601021 -0.2910518781805273 0 0.20190129464001161 -0.3081665232506795 0 0.20762902069361039 -0.2939789420304264 0 0.2227073728083179 -0.30858802480097569 0 0.2227073728083179 -0.30858802480097569 0 0.22381761458601021 -0.2910518781805273 0 0.24572485091805399 -0.30209756917358049 0 0.2535102749262908 -0.27748405513537988 0 0.2349136567019223 -0.27698566495159421 0 0.24572485091805399 -0.30209756917358049 0 0.2535102749262908 -0.27748405513537988 0 0.24572485091805399 -0.30209756917358049 0 0.2349136567019223 -0.27698566495159421 0 0.22381761458601021 -0.2910518781805273 0 0.24572485091805399 -0.30209756917358049 0 0.2227073728083179 -0.30858802480097569 0 0.24572485091805399 -0.30209756917358049 0 0.23793942690981729 -0.32671108321178099 0 0.25569225758099351 -0.31963589011374621 0 0.24572485091805399 -0.30209756917358049 0 0.23793942690981729 -0.32671108321178099 0 0.24572485091805399 -0.30209756917358049 0 0.23793942690981729 -0.32671108321178099 0 0.25180496200225749 -0.34741976578772138 0 0.25569225758099351 -0.31963589011374621 0 0.23793942690981729 -0.32671108321178099 0 0.25180496200225749 -0.34741976578772138 0 0.23793942690981729 -0.32671108321178099 0 0.23015400290158061 -0.35132459724998161 0 0.23793942690981729 -0.32671108321178099 0 0.23015400290158061 -0.35132459724998161 0 0.21461007270633939 -0.32775842603206801 0 0.23793942690981729 -0.32671108321178099 0 0.23015400290158061 -0.35132459724998161 0 0.2227073728083179 -0.30858802480097569 0 0.23793942690981729 -0.32671108321178099 0 0.21461007270633939 -0.32775842603206801 0 0.25363282682751181 -0.37841423591951329 0 0.25180496200225749 -0.34741976578772138 0 0.2348706039773335 -0.36833611605843408 0 0.25180496200225749 -0.34741976578772138 0 0.2348706039773335 -0.36833611605843408 0 0.23015400290158061 -0.35132459724998161 0 0.2348706039773335 -0.36833611605843408 0 0.23015400290158061 -0.35132459724998161 0 0.2101343712214524 -0.36657319634584201 0 0.2348706039773335 -0.36833611605843408 0 0.2101343712214524 -0.36657319634584201 0 0.22380223465508539 -0.3851158530731405 0 0.23015400290158061 -0.35132459724998161 0 0.2101343712214524 -0.36657319634584201 0 0.20708540305938231 -0.34655619214367978 0 0.20708540305938231 -0.34655619214367978 0 0.1918930686529676 -0.33317076576398003 0 0.1818848426659235 -0.35817500827728049 0 0.2101343712214524 -0.36657319634584201 0 0.20708540305938231 -0.34655619214367978 0 0.1818848426659235 -0.35817500827728049 0 0.2101343712214524 -0.36657319634584201 0 0.1818848426659235 -0.35817500827728049 0 0.19278241844384231 -0.38077310646602169 0 0.20190129464001161 -0.3081665232506795 0 0.2227073728083179 -0.30858802480097569 0 0.21461007270633939 -0.32775842603206801 0 0.23015400290158061 -0.35132459724998161 0 0.20708540305938231 -0.34655619214367978 0 0.21461007270633939 -0.32775842603206801 0 0.20708540305938231 -0.34655619214367978 0 0.21461007270633939 -0.32775842603206801 0 0.1918930686529676 -0.33317076576398003 0 0.20190129464001161 -0.3081665232506795 0 0.1918930686529676 -0.33317076576398003 0 0.20190129464001161 -0.3081665232506795 0 0.1918930686529676 -0.33317076576398003 0 0.18653912721483931 -0.30838997834331711 0 0.20190129464001161 -0.3081665232506795 0 0.21461007270633939 -0.32775842603206801 0 0.1918930686529676 -0.33317076576398003 0 0.1918930686529676 -0.33317076576398003 0 0.17630064367369039 -0.32369643525666919 0 0.18653912721483931 -0.30838997834331711 0 0.17630064367369039 -0.32369643525666919 0 0.18653912721483931 -0.30838997834331711 0 0.16788437564131831 -0.31108406332654759 0 0.1918930686529676 -0.33317076576398003 0 0.17630064367369039 -0.32369643525666919 0 0.16930470024633351 -0.34274038456763128 0 0.16930470024633351 -0.34274038456763128 0 0.15954294293285859 -0.32618130632745118 0 0.1470941845221875 -0.34878367790197018 0 0.17630064367369039 -0.32369643525666919 0 0.16930470024633351 -0.34274038456763128 0 0.15954294293285859 -0.32618130632745118 0 0.17630064367369039 -0.32369643525666919 0 0.15954294293285859 -0.32618130632745118 0 0.16788437564131831 -0.31108406332654759 0 0.15954294293285859 -0.32618130632745118 0 0.1482920515525368 -0.30492307808311808 0 0.16788437564131831 -0.31108406332654759 0 0.1818848426659235 -0.35817500827728049 0 0.19278241844384231 -0.38077310646602169 0 0.17187661667887949 -0.38317925079058102 0 0.1818848426659235 -0.35817500827728049 0 0.17187661667887949 -0.38317925079058102 0 0.1918930686529676 -0.33317076576398003 0 0.16930470024633351 -0.34274038456763128 0 0.1818848426659235 -0.35817500827728049 0 0.1918930686529676 -0.33317076576398003 0 0.1818848426659235 -0.35817500827728049 0 0.16930470024633351 -0.34274038456763128 0 0.1818848426659235 -0.35817500827728049 0 0.1559430171903059 -0.36797727490122722 0 0.16930470024633351 -0.34274038456763128 0 0.1559430171903059 -0.36797727490122722 0 0.1470941845221875 -0.34878367790197018 0 0.1818848426659235 -0.35817500827728049 0 0.1559430171903059 -0.36797727490122722 0 0.17187661667887949 -0.38317925079058102 0 0.1559430171903059 -0.36797727490122722 0 0.14555702692268549 -0.38850511008408323 0 0.1249365568048772 -0.36682450409995943 0 0.1559430171903059 -0.36797727490122722 0 0.1470941845221875 -0.34878367790197018 0 0.1249365568048772 -0.36682450409995943 0 0.1470941845221875 -0.34878367790197018 0 0.12544930679682079 -0.34503592605266381 0 0.1249365568048772 -0.36682450409995943 0 0.15954294293285859 -0.32618130632745118 0 0.13338192982846189 -0.32443823046117232 0 0.1482920515525368 -0.30492307808311808 0 0.15954294293285859 -0.32618130632745118 0 0.1470941845221875 -0.34878367790197018 0 0.13338192982846189 -0.32443823046117232 0 0.1470941845221875 -0.34878367790197018 0 0.12544930679682079 -0.34503592605266381 0 0.13338192982846189 -0.32443823046117232 0 0.13338192982846189 -0.32443823046117232 0 0.1482920515525368 -0.30492307808311808 0 0.124182726729805 -0.2975030826320364 0 0.1482920515525368 -0.30492307808311808 0 0.14461609477035861 -0.27915338094662839 0 0.16557761099259899 -0.29377167964497269 0 0.14461609477035861 -0.27915338094662839 0 0.16557761099259899 -0.29377167964497269 0 0.14461609477035861 -0.27915338094662839 0 0.1220613682880602 -0.28051572242962491 0 0.124182726729805 -0.2975030826320364 0 0.1482920515525368 -0.30492307808311808 0 0.14461609477035861 -0.27915338094662839 0 0.124182726729805 -0.2975030826320364 0 0.14461609477035861 -0.27915338094662839 0 0.1236545785481182 -0.26453508224828398 0 0.1220613682880602 -0.28051572242962491 0 0.14461609477035861 -0.27915338094662839 0 0.1236545785481182 -0.26453508224828398 0 0.1415465317265375 -0.2570178282157492 0 0.14461609477035861 -0.27915338094662839 0 0.1236545785481182 -0.26453508224828398 0 0.1415465317265375 -0.2570178282157492 0 0.1236545785481182 -0.26453508224828398 0 0.12752522270429539 -0.24759131898811201 0 0.1415465317265375 -0.2570178282157492 0 0.1577904105785643 -0.26693659124041719 0 0.15719732882609569 -0.24871633148724009 0 0.1415465317265375 -0.2570178282157492 0 0.14461609477035861 -0.27915338094662839 0 0.1577904105785643 -0.26693659124041719 0 0.14461609477035861 -0.27915338094662839 0 0.1577904105785643 -0.26693659124041719 0 0.16557761099259899 -0.29377167964497269 0 0.1577904105785643 -0.26693659124041719 0 0.1759636192584336 -0.26931494187276989 0 0.16557761099259899 -0.29377167964497269 0 0.1577904105785643 -0.26693659124041719 0 0.1759636192584336 -0.26931494187276989 0 0.15719732882609569 -0.24871633148724009 0 0.1759636192584336 -0.26931494187276989 0 0.18486682611718569 -0.247210883510741 0 0.15719732882609569 -0.24871633148724009 0 0.19284826371761449 -0.26550667964113939 0 0.1759636192584336 -0.26931494187276989 0 0.18486682611718569 -0.247210883510741 0 0.19383737836374959 -0.28195914627546598 0 0.1759636192584336 -0.26931494187276989 0 0.18230518986191541 -0.29190357042968629 0 0.1759636192584336 -0.26931494187276989 0 0.18230518986191541 -0.29190357042968629 0 0.16557761099259899 -0.29377167964497269 0 0.18653912721483931 -0.30838997834331711 0 0.16788437564131831 -0.31108406332654759 0 0.16557761099259899 -0.29377167964497269 0 0.18230518986191541 -0.29190357042968629 0 0.18653912721483931 -0.30838997834331711 0 0.16557761099259899 -0.29377167964497269 0 0.18653912721483931 -0.30838997834331711 0 0.16557761099259899 -0.29377167964497269 0 0.1482920515525368 -0.30492307808311808 0 0.16788437564131831 -0.31108406332654759 0 0.16557761099259899 -0.29377167964497269 0 0.18870384409494401 -0.5 0 0.1942415346906885 -0.48345355543727497 0 0.21867231204382459 -0.49999999999999573 0 0.18870384409494401 -0.5 0 0.1942415346906885 -0.48345355543727497 0 0.18340290638049439 -0.48389147852941222 0 0.19091245098120579 -0.47313309268908932 0 0.20894138876552451 -0.47405328230400628 0 0.18982720546031051 -0.46013691724957578 0 0.1942415346906885 -0.48345355543727497 0 0.19091245098120579 -0.47313309268908932 0 0.18340290638049439 -0.48389147852941222 0 0.1942415346906885 -0.48345355543727497 0 0.19091245098120579 -0.47313309268908932 0 0.20894138876552451 -0.47405328230400628 0 0.20894138876552451 -0.47405328230400628 0 0.21867231204382459 -0.49999999999999573 0 0.22520824770237571 -0.48883485971879581 0 0.1942415346906885 -0.48345355543727497 0 0.20894138876552451 -0.47405328230400628 0 0.21867231204382459 -0.49999999999999573 0 0.20894138876552451 -0.47405328230400628 0 0.21867231204382459 -0.49999999999999573 0 0.21867231204382459 -0.49999999999999573 0 0.22520824770237571 -0.48883485971879581 0 0.23174418336092659 -0.50000000000000022 0 0.22520824770237571 -0.48883485971879581 0 0.23174418336092659 -0.50000000000000022 0 0.23267940047891361 -0.47813507836899299 0 0.25302160679325503 -0.48356438097428522 0 0.23174418336092659 -0.50000000000000022 0 0.23267940047891361 -0.47813507836899299 0 0.25302160679325503 -0.48356438097428522 0 0.23174418336092659 -0.50000000000000022 0 0.25302160679325503 -0.48356438097428522 0 0.26146003604445339 -0.5 0 0.23174418336092659 -0.50000000000000022 0 0.25302160679325503 -0.48356438097428522 0 0.23267940047891361 -0.47813507836899299 0 0.24921954269175201 -0.46060574811106159 0 0.20894138876552451 -0.47405328230400628 0 0.22520824770237571 -0.48883485971879581 0 0.23267940047891361 -0.47813507836899299 0 0.20894138876552451 -0.47405328230400628 0 0.23267940047891361 -0.47813507836899299 0 0.22776730316119309 -0.4628767570208609 0 0.22776730316119309 -0.4628767570208609 0 0.23388178761026909 -0.44922940419947172 0 0.21415635883348599 -0.45668164978873538 0 0.23267940047891361 -0.47813507836899299 0 0.22776730316119309 -0.4628767570208609 0 0.24921954269175201 -0.46060574811106159 0 0.22776730316119309 -0.4628767570208609 0 0.24921954269175201 -0.46060574811106159 0 0.23388178761026909 -0.44922940419947172 0 0.24653793030488319 -0.44096108971498688 0 0.23388178761026909 -0.44922940419947172 0 0.2336445347440588 -0.4320253064816274 0 0.24921954269175201 -0.46060574811106159 0 0.24653793030488319 -0.44096108971498688 0 0.23388178761026909 -0.44922940419947172 0 0.23388178761026909 -0.44922940419947172 0 0.2184589856447271 -0.44017230585933692 0 0.21415635883348599 -0.45668164978873538 0 0.23388178761026909 -0.44922940419947172 0 0.2184589856447271 -0.44017230585933692 0 0.2336445347440588 -0.4320253064816274 0 0.2184589856447271 -0.44017230585933692 0 0.20927792080373361 -0.44048555942903478 0 0.209060114331408 -0.44755195023896799 0 0.2184589856447271 -0.44017230585933692 0 0.209060114331408 -0.44755195023896799 0 0.21415635883348599 -0.45668164978873538 0 0.20927792080373361 -0.44048555942903478 0 0.209060114331408 -0.44755195023896799 0 0.2021998798102857 -0.4442738126225641 0 0.20927792080373361 -0.44048555942903478 0 0.2021998798102857 -0.4442738126225641 0 0.20312923831046101 -0.43700273452691368 0 0.209060114331408 -0.44755195023896799 0 0.2021998798102857 -0.4442738126225641 0 0.19921046548722271 -0.44810656460801768 0 0.209060114331408 -0.44755195023896799 0 0.21415635883348599 -0.45668164978873538 0 0.19921046548722271 -0.44810656460801768 0 0.20894138876552451 -0.47405328230400628 0 0.19921046548722271 -0.44810656460801768 0 0.20894138876552451 -0.47405328230400628 0 0.21415635883348599 -0.45668164978873538 0 0.19921046548722271 -0.44810656460801768 0 0.20894138876552451 -0.47405328230400628 0 0.22776730316119309 -0.4628767570208609 0 0.21415635883348599 -0.45668164978873538 0 0.20894138876552451 -0.47405328230400628 0 0.18982720546031051 -0.46013691724957578 0 0.19921046548722271 -0.44810656460801768 0 0.18982720546031051 -0.46013691724957578 0 0.19921046548722271 -0.44810656460801768 0 0.2021998798102857 -0.4442738126225641 0 0.19921046548722271 -0.44810656460801768 0 0.19309038849985621 -0.43178787568946309 0 0.19921046548722271 -0.44810656460801768 0 0.19309038849985621 -0.43178787568946309 0 0.18982720546031051 -0.46013691724957578 0 0.19921046548722271 -0.44810656460801768 0 0.18566168794282731 -0.44609947652784587 0 0.19921046548722271 -0.44810656460801768 0 0.19309038849985621 -0.43178787568946309 0 0.18566168794282731 -0.44609947652784587 0 0.2021998798102857 -0.4442738126225641 0 0.20312923831046101 -0.43700273452691368 0 0.19309038849985621 -0.43178787568946309 0 0.2021998798102857 -0.4442738126225641 0 0.19921046548722271 -0.44810656460801768 0 0.19309038849985621 -0.43178787568946309 0 0.20325674383947501 -0.41734233280848809 0 0.20794876412796851 -0.43146369036659332 0 0.20312923831046101 -0.43700273452691368 0 0.19309038849985621 -0.43178787568946309 0 0.20794876412796851 -0.43146369036659332 0 0.19309038849985621 -0.43178787568946309 0 0.20325674383947501 -0.41734233280848809 0 0.18441979442736731 -0.41606927392144277 0 0.20325674383947501 -0.41734233280848809 0 0.19662008829184729 -0.40131407574590111 0 0.18441979442736731 -0.41606927392144277 0 0.20325674383947501 -0.41734233280848809 0 0.2185054370462223 -0.42281158196223301 0 0.21818134389496541 -0.40354603920910193 0 0.20325674383947501 -0.41734233280848809 0 0.21818134389496541 -0.40354603920910193 0 0.19662008829184729 -0.40131407574590111 0 0.2184589856447271 -0.44017230585933692 0 0.2185054370462223 -0.42281158196223301 0 0.20794876412796851 -0.43146369036659332 0 0.20325674383947501 -0.41734233280848809 0 0.2185054370462223 -0.42281158196223301 0 0.20794876412796851 -0.43146369036659332 0 0.20927792080373361 -0.44048555942903478 0 0.20312923831046101 -0.43700273452691368 0 0.20794876412796851 -0.43146369036659332 0 0.2184589856447271 -0.44017230585933692 0 0.20927792080373361 -0.44048555942903478 0 0.20794876412796851 -0.43146369036659332 0 0.2184589856447271 -0.44017230585933692 0 0.2185054370462223 -0.42281158196223301 0 0.2336445347440588 -0.4320253064816274 0 0.2185054370462223 -0.42281158196223301 0 0.2336445347440588 -0.4320253064816274 0 0.23167354943256069 -0.41688457025828901 0 0.25113796152235152 -0.42220116652773748 0 0.2336445347440588 -0.4320253064816274 0 0.23167354943256069 -0.41688457025828901 0 0.25113796152235152 -0.42220116652773748 0 0.24653793030488319 -0.44096108971498688 0 0.2336445347440588 -0.4320253064816274 0 0.25113796152235152 -0.42220116652773748 0 0.23167354943256069 -0.41688457025828901 0 0.23747009808871841 -0.40365850980043899 0 0.25113796152235152 -0.42220116652773748 0 0.23747009808871841 -0.40365850980043899 0 0.23167354943256069 -0.41688457025828901 0 0.23747009808871841 -0.40365850980043899 0 0.21818134389496541 -0.40354603920910193 0 0.2185054370462223 -0.42281158196223301 0 0.23167354943256069 -0.41688457025828901 0 0.21818134389496541 -0.40354603920910193 0 0.23747009808871841 -0.40365850980043899 0 0.22380223465508539 -0.3851158530731405 0 0.23747009808871841 -0.40365850980043899 0 0.22380223465508539 -0.3851158530731405 0 0.21818134389496541 -0.40354603920910193 0 0.25363282682751181 -0.37841423591951329 0 0.2348706039773335 -0.36833611605843408 0 0.22380223465508539 -0.3851158530731405 0 0.25363282682751181 -0.37841423591951329 0 0.23747009808871841 -0.40365850980043899 0 0.22380223465508539 -0.3851158530731405 0 0.2101343712214524 -0.36657319634584201 0 0.22380223465508539 -0.3851158530731405 0 0.20830409130143859 -0.38746445416800152 0 0.2101343712214524 -0.36657319634584201 0 0.20830409130143859 -0.38746445416800152 0 0.19278241844384231 -0.38077310646602169 0 0.2101343712214524 -0.36657319634584201 0 0.22380223465508539 -0.3851158530731405 0 0.22380223465508539 -0.3851158530731405 0 0.20830409130143859 -0.38746445416800152 0 0.21818134389496541 -0.40354603920910193 0 0.20830409130143859 -0.38746445416800152 0 0.21818134389496541 -0.40354603920910193 0 0.19662008829184729 -0.40131407574590111 0 0.19662008829184729 -0.40131407574590111 0 0.19278241844384231 -0.38077310646602169 0 0.18151346170675439 -0.39790384004556573 0 0.20830409130143859 -0.38746445416800152 0 0.19662008829184729 -0.40131407574590111 0 0.19278241844384231 -0.38077310646602169 0 0.19278241844384231 -0.38077310646602169 0 0.18151346170675439 -0.39790384004556573 0 0.17187661667887949 -0.38317925079058102 0 0.19662008829184729 -0.40131407574590111 0 0.18151346170675439 -0.39790384004556573 0 0.18441979442736731 -0.41606927392144277 0 0.17187661667887949 -0.38317925079058102 0 0.14555702692268549 -0.38850511008408323 0 0.16186839069183551 -0.40818349330388148 0 0.17187661667887949 -0.38317925079058102 0 0.16186839069183551 -0.40818349330388148 0 0.18151346170675439 -0.39790384004556573 0 0.17187661667887949 -0.38317925079058102 0 0.16186839069183551 -0.40818349330388148 0 0.1559430171903059 -0.36797727490122722 0 0.17187661667887949 -0.38317925079058102 0 0.14555702692268549 -0.38850511008408323 0 0.14555702692268549 -0.38850511008408323 0 0.1277221343231448 -0.39464545561006081 0 0.1249365568048772 -0.36682450409995943 0 0.14555702692268549 -0.38850511008408323 0 0.1277221343231448 -0.39464545561006081 0 0.14491955540853579 -0.41328948454852471 0 0.1277221343231448 -0.39464545561006081 0 0.14491955540853579 -0.41328948454852471 0 0.12745560405384621 -0.41040078810690661 0 0.14555702692268549 -0.38850511008408323 0 0.14491955540853579 -0.41328948454852471 0 0.16186839069183551 -0.40818349330388148 0 0.14491955540853579 -0.41328948454852471 0 0.15186016470479141 -0.43318773581718201 0 0.16186839069183551 -0.40818349330388148 0 0.14491955540853579 -0.41328948454852471 0 0.12745560405384621 -0.41040078810690661 0 0.14511838451369649 -0.43098961536831609 0 0.12745560405384621 -0.41040078810690661 0 0.14511838451369649 -0.43098961536831609 0 0.12745560405384621 -0.41040078810690661 0 0.1303231706043595 -0.42959155897642842 0 0.14511838451369649 -0.43098961536831609 0 0.1303231706043595 -0.42959155897642842 0 0.1386494660992667 -0.43995910692959828 0 0.12759328884445539 -0.43971491677695518 0 0.1303231706043595 -0.42959155897642842 0 0.14511838451369649 -0.43098961536831609 0 0.1386494660992667 -0.43995910692959828 0 0.14491955540853579 -0.41328948454852471 0 0.14511838451369649 -0.43098961536831609 0 0.15186016470479141 -0.43318773581718201 0 0.15186016470479141 -0.43318773581718201 0 0.16421708537882909 -0.42683083399928962 0 0.16186839069183551 -0.40818349330388148 0 0.15186016470479141 -0.43318773581718201 0 0.1640829930648085 -0.43740022691059399 0 0.16421708537882909 -0.42683083399928962 0 0.1704236618787234 -0.43321051401719901 0 0.1640829930648085 -0.43740022691059399 0 0.16421708537882909 -0.42683083399928962 0 0.1704236618787234 -0.43321051401719901 0 0.16421708537882909 -0.42683083399928962 0 0.17285021655398661 -0.42217219994759109 0 0.16421708537882909 -0.42683083399928962 0 0.16186839069183551 -0.40818349330388148 0 0.17285021655398661 -0.42217219994759109 0 0.15186016470479141 -0.43318773581718201 0 0.16186839069183551 -0.40818349330388148 0 0.16186839069183551 -0.40818349330388148 0 0.18441979442736731 -0.41606927392144277 0 0.17285021655398661 -0.42217219994759109 0 0.18151346170675439 -0.39790384004556573 0 0.16186839069183551 -0.40818349330388148 0 0.18441979442736731 -0.41606927392144277 0 0.19309038849985621 -0.43178787568946309 0 0.18441979442736731 -0.41606927392144277 0 0.18065310059883519 -0.4330526809012058 0 0.18441979442736731 -0.41606927392144277 0 0.18065310059883519 -0.4330526809012058 0 0.17285021655398661 -0.42217219994759109 0 0.19309038849985621 -0.43178787568946309 0 0.18065310059883519 -0.4330526809012058 0 0.18566168794282731 -0.44609947652784587 0 0.1704236618787234 -0.43321051401719901 0 0.18065310059883519 -0.4330526809012058 0 0.1731025639998218 -0.44324633833273608 0 0.1704236618787234 -0.43321051401719901 0 0.18065310059883519 -0.4330526809012058 0 0.17285021655398661 -0.42217219994759109 0 0.1731025639998218 -0.44324633833273608 0 0.18566168794282731 -0.44609947652784587 0 0.1783633135619809 -0.4546456889262035 0 0.18065310059883519 -0.4330526809012058 0 0.1731025639998218 -0.44324633833273608 0 0.18566168794282731 -0.44609947652784587 0 0.1783633135619809 -0.4546456889262035 0 0.16278116497354661 -0.45157844262972557 0 0.1804439454333982 -0.47216726989113378 0 0.18982720546031051 -0.46013691724957578 0 0.18566168794282731 -0.44609947652784587 0 0.1783633135619809 -0.4546456889262035 0 0.18982720546031051 -0.46013691724957578 0 0.1783633135619809 -0.4546456889262035 0 0.1804439454333982 -0.47216726989113378 0 0.19091245098120579 -0.47313309268908932 0 0.18982720546031051 -0.46013691724957578 0 0.1804439454333982 -0.47216726989113378 0 0.18982720546031051 -0.46013691724957578 0 0.1804439454333982 -0.47216726989113378 0 0.16278116497354661 -0.45157844262972557 0 0.14925728331402241 -0.46138635896319469 0 0.16100574675733459 -0.4716796387093844 0 0.16278116497354661 -0.45157844262972557 0 0.16100574675733459 -0.4716796387093844 0 0.1804439454333982 -0.47216726989113378 0 0.16278116497354661 -0.45157844262972557 0 0.1804439454333982 -0.47216726989113378 0 0.15186016470479141 -0.43318773581718201 0 0.1640829930648085 -0.43740022691059399 0 0.16278116497354661 -0.45157844262972557 0 0.1731025639998218 -0.44324633833273608 0 0.1783633135619809 -0.4546456889262035 0 0.16278116497354661 -0.45157844262972557 0 0.1640829930648085 -0.43740022691059399 0 0.1731025639998218 -0.44324633833273608 0 0.16278116497354661 -0.45157844262972557 0 0.1704236618787234 -0.43321051401719901 0 0.1640829930648085 -0.43740022691059399 0 0.1731025639998218 -0.44324633833273608 0 0.14511838451369649 -0.43098961536831609 0 0.16278116497354661 -0.45157844262972557 0 0.14511838451369649 -0.43098961536831609 0 0.145836264266964 -0.44844809709893763 0 0.1386494660992667 -0.43995910692959828 0 0.14511838451369649 -0.43098961536831609 0 0.16278116497354661 -0.45157844262972557 0 0.145836264266964 -0.44844809709893763 0 0.14511838451369649 -0.43098961536831609 0 0.15186016470479141 -0.43318773581718201 0 0.16278116497354661 -0.45157844262972557 0 0.145836264266964 -0.44844809709893763 0 0.1386494660992667 -0.43995910692959828 0 0.13358998534262681 -0.45717084270267971 0 0.12759328884445539 -0.43971491677695518 0 0.13358998534262681 -0.45717084270267971 0 0.119247884755227 -0.44829077585347138 0 0.1386494660992667 -0.43995910692959828 0 0.12759328884445539 -0.43971491677695518 0 0.13358998534262681 -0.45717084270267971 0 0.16278116497354661 -0.45157844262972557 0 0.145836264266964 -0.44844809709893763 0 0.14925728331402241 -0.46138635896319469 0 0.13358998534262681 -0.45717084270267971 0 0.14925728331402241 -0.46138635896319469 0 0.14350318104631801 -0.47574253587289989 0 0.145836264266964 -0.44844809709893763 0 0.13358998534262681 -0.45717084270267971 0 0.14925728331402241 -0.46138635896319469 0 0.14350318104631801 -0.47574253587289989 0 0.15389786153040191 -0.48670116190557022 0 0.16100574675733459 -0.4716796387093844 0 0.14925728331402241 -0.46138635896319469 0 0.14350318104631801 -0.47574253587289989 0 0.16100574675733459 -0.4716796387093844 0 0.13358998534262681 -0.45717084270267971 0 0.14350318104631801 -0.47574253587289989 0 0.1224234412397974 -0.47807357289880031 0 0.14350318104631801 -0.47574253587289989 0 0.1366553429125629 -0.5 0 0.1224234412397974 -0.47807357289880031 0 0.1366553429125629 -0.5 0 0.15389786153040191 -0.48670116190557022 0 0.15873537614606339 -0.49999999999999928 0 0.14350318104631801 -0.47574253587289989 0 0.1366553429125629 -0.5 0 0.15389786153040191 -0.48670116190557022 0 0.15389786153040191 -0.48670116190557022 0 0.15873537614606339 -0.49999999999999928 0 0.16958966078973081 -0.4860836349455665 0 0.15873537614606339 -0.49999999999999928 0 0.16958966078973081 -0.4860836349455665 0 0.15389786153040191 -0.48670116190557022 0 0.16958966078973081 -0.4860836349455665 0 0.16100574675733459 -0.4716796387093844 0 0.16958966078973081 -0.4860836349455665 0 0.16100574675733459 -0.4716796387093844 0 0.1804439454333982 -0.47216726989113378 0 0.16958966078973081 -0.4860836349455665 0 0.1804439454333982 -0.47216726989113378 0 0.18340290638049439 -0.48389147852941222 0 0.16958966078973081 -0.4860836349455665 0 0.1804439454333982 -0.47216726989113378 0 0.19091245098120579 -0.47313309268908932 0 0.1804439454333982 -0.47216726989113378 0 0.18340290638049439 -0.48389147852941222 0 0.18870384409494401 -0.5 0 0.15873537614606339 -0.49999999999999928 0 0.16958966078973081 -0.4860836349455665 0 0.18870384409494401 -0.5 0 0.16958966078973081 -0.4860836349455665 0 0.18340290638049439 -0.48389147852941222 0 0.064409946548806385 -0.5 0 0.077695649839100128 -0.48044531677740587 0 0.054866879115402813 -0.475895462071381 0 0.077695649839100128 -0.48044531677740587 0 0.071301623426788877 -0.45999284229225612 0 0.054866879115402813 -0.475895462071381 0 0.077695649839100128 -0.48044531677740587 0 0.083065050823335387 -0.46769111420084641 0 0.071301623426788877 -0.45999284229225612 0 0.077695649839100128 -0.48044531677740587 0 0.099263220800551638 -0.47563112256678691 0 0.083065050823335387 -0.46769111420084641 0 0.064409946548806385 -0.5 0 0.077695649839100128 -0.48044531677740587 0 0.092495276445561742 -0.49999999999999772 0 0.077695649839100128 -0.48044531677740587 0 0.092495276445561742 -0.49999999999999772 0 0.099263220800551638 -0.47563112256678691 0 0.092495276445561742 -0.49999999999999772 0 0.1071893120412433 -0.48842617386639681 0 0.11457530967906231 -0.5 0 0.092495276445561742 -0.49999999999999772 0 0.099263220800551638 -0.47563112256678691 0 0.092495276445561742 -0.49999999999999772 0 0.1071893120412433 -0.48842617386639681 0 0.099263220800551638 -0.47563112256678691 0 0.1366553429125629 -0.5 0 0.11457530967906231 -0.5 0 0.1224234412397974 -0.47807357289880031 0 0.1071893120412433 -0.48842617386639681 0 0.11457530967906231 -0.5 0 0.1224234412397974 -0.47807357289880031 0 0.1071893120412433 -0.48842617386639681 0 0.1224234412397974 -0.47807357289880031 0 0.099263220800551638 -0.47563112256678691 0 0.1224234412397974 -0.47807357289880031 0 0.099263220800551638 -0.47563112256678691 0 0.1184099623062301 -0.46211065771277587 0 0.099263220800551638 -0.47563112256678691 0 0.1060311651555421 -0.45126224513357632 0 0.099263220800551638 -0.47563112256678691 0 0.1060311651555421 -0.45126224513357632 0 0.091557951730408496 -0.45910767393967172 0 0.099263220800551638 -0.47563112256678691 0 0.1184099623062301 -0.46211065771277587 0 0.1060311651555421 -0.45126224513357632 0 0.13358998534262681 -0.45717084270267971 0 0.1224234412397974 -0.47807357289880031 0 0.1184099623062301 -0.46211065771277587 0 0.1184099623062301 -0.46211065771277587 0 0.119247884755227 -0.44829077585347138 0 0.1060311651555421 -0.45126224513357632 0 0.13358998534262681 -0.45717084270267971 0 0.1184099623062301 -0.46211065771277587 0 0.119247884755227 -0.44829077585347138 0 0.1060311651555421 -0.45126224513357632 0 0.11279910951053269 -0.42689336770036568 0 0.12759328884445539 -0.43971491677695518 0 0.119247884755227 -0.44829077585347138 0 0.11279910951053269 -0.42689336770036568 0 0.119247884755227 -0.44829077585347138 0 0.1060311651555421 -0.45126224513357632 0 0.11279910951053269 -0.42689336770036568 0 0.1060311651555421 -0.45126224513357632 0 0.098817524137941537 -0.43691987975987978 0 0.11279910951053269 -0.42689336770036568 0 0.1060311651555421 -0.45126224513357632 0 0.095367805361756194 -0.44845959647098138 0 0.098817524137941537 -0.43691987975987978 0 0.1060311651555421 -0.45126224513357632 0 0.095367805361756194 -0.44845959647098138 0 0.091557951730408496 -0.45910767393967172 0 0.095367805361756194 -0.44845959647098138 0 0.090790917001881466 -0.4414611416885641 0 0.098817524137941537 -0.43691987975987978 0 0.095367805361756194 -0.44845959647098138 0 0.090790917001881466 -0.4414611416885641 0 0.085036467175690578 -0.44507786905896801 0 0.090790917001881466 -0.4414611416885641 0 0.085036467175690578 -0.44507786905896801 0 0.088336647500500382 -0.43155870069842478 0 0.085036467175690578 -0.44507786905896801 0 0.078273906557574852 -0.45135288052332739 0 0.072637223482046917 -0.44790346711095153 0 0.085036467175690578 -0.44507786905896801 0 0.078273906557574852 -0.45135288052332739 0 0.081967866274098133 -0.4563189069320519 0 0.095367805361756194 -0.44845959647098138 0 0.085036467175690578 -0.44507786905896801 0 0.091557951730408496 -0.45910767393967172 0 0.085036467175690578 -0.44507786905896801 0 0.091557951730408496 -0.45910767393967172 0 0.085036467175690578 -0.44507786905896801 0 0.091557951730408496 -0.45910767393967172 0 0.081967866274098133 -0.4563189069320519 0 0.099263220800551638 -0.47563112256678691 0 0.091557951730408496 -0.45910767393967172 0 0.083065050823335387 -0.46769111420084641 0 0.083065050823335387 -0.46769111420084641 0 0.081967866274098133 -0.4563189069320519 0 0.071301623426788877 -0.45999284229225612 0 0.091557951730408496 -0.45910767393967172 0 0.083065050823335387 -0.46769111420084641 0 0.081967866274098133 -0.4563189069320519 0 0.078273906557574852 -0.45135288052332739 0 0.081967866274098133 -0.4563189069320519 0 0.071301623426788877 -0.45999284229225612 0 0.071301623426788877 -0.45999284229225612 0 0.072637223482046917 -0.44790346711095153 0 0.057971742953645912 -0.45501009676630771 0 0.085036467175690578 -0.44507786905896801 0 0.062753978935616947 -0.44160697453984987 0 0.072637223482046917 -0.44790346711095153 0 0.085036467175690578 -0.44507786905896801 0 0.062753978935616947 -0.44160697453984987 0 0.062753978935616947 -0.44160697453984987 0 0.072637223482046917 -0.44790346711095153 0 0.057971742953645912 -0.45501009676630771 0 0.078273906557574852 -0.45135288052332739 0 0.071301623426788877 -0.45999284229225612 0 0.072637223482046917 -0.44790346711095153 0 0.085036467175690578 -0.44507786905896801 0 0.062753978935616947 -0.44160697453984987 0 0.076005055663665319 -0.4256484062966282 0 0.062753978935616947 -0.44160697453984987 0 0.076005055663665319 -0.4256484062966282 0 0.059244204383636943 -0.43070254366030403 0 0.076005055663665319 -0.4256484062966282 0 0.057697743342435527 -0.41944846620654558 0 0.059244204383636943 -0.43070254366030403 0 0.076005055663665319 -0.4256484062966282 0 0.066973644151639811 -0.40621894353428861 0 0.057697743342435527 -0.41944846620654558 0 0.083433130505677661 -0.41415200602513258 0 0.082234541753845106 -0.40051723796458372 0 0.066973644151639811 -0.40621894353428861 0 0.076005055663665319 -0.4256484062966282 0 0.083433130505677661 -0.41415200602513258 0 0.066973644151639811 -0.40621894353428861 0 0.076005055663665319 -0.4256484062966282 0 0.066973644151639811 -0.40621894353428861 0 0.083433130505677661 -0.41415200602513258 0 0.095810633931779562 -0.40880756870123031 0 0.082234541753845106 -0.40051723796458372 0 0.083433130505677661 -0.41415200602513258 0 0.098814535747326473 -0.42230615776347419 0 0.095810633931779562 -0.40880756870123031 0 0.083433130505677661 -0.41415200602513258 0 0.088336647500500382 -0.43155870069842478 0 0.098814535747326473 -0.42230615776347419 0 0.076005055663665319 -0.4256484062966282 0 0.083433130505677661 -0.41415200602513258 0 0.088336647500500382 -0.43155870069842478 0 0.085036467175690578 -0.44507786905896801 0 0.076005055663665319 -0.4256484062966282 0 0.088336647500500382 -0.43155870069842478 0 0.085036467175690578 -0.44507786905896801 0 0.076005055663665319 -0.4256484062966282 0 0.090790917001881466 -0.4414611416885641 0 0.088336647500500382 -0.43155870069842478 0 0.098817524137941537 -0.43691987975987978 0 0.088336647500500382 -0.43155870069842478 0 0.098817524137941537 -0.43691987975987978 0 0.098814535747326473 -0.42230615776347419 0 0.098817524137941537 -0.43691987975987978 0 0.098814535747326473 -0.42230615776347419 0 0.11279910951053269 -0.42689336770036568 0 0.1303231706043595 -0.42959155897642842 0 0.12759328884445539 -0.43971491677695518 0 0.11279910951053269 -0.42689336770036568 0 0.12745560405384621 -0.41040078810690661 0 0.1303231706043595 -0.42959155897642842 0 0.11279910951053269 -0.42689336770036568 0 0.12745560405384621 -0.41040078810690661 0 0.11279910951053269 -0.42689336770036568 0 0.1118876896681579 -0.40749649194683379 0 0.098814535747326473 -0.42230615776347419 0 0.1118876896681579 -0.40749649194683379 0 0.095810633931779562 -0.40880756870123031 0 0.098814535747326473 -0.42230615776347419 0 0.11279910951053269 -0.42689336770036568 0 0.1118876896681579 -0.40749649194683379 0 0.1118876896681579 -0.40749649194683379 0 0.095810633931779562 -0.40880756870123031 0 0.098311075148623986 -0.39368483081159089 0 0.1118876896681579 -0.40749649194683379 0 0.098311075148623986 -0.39368483081159089 0 0.11224311328849799 -0.38720422027451012 0 0.1277221343231448 -0.39464545561006081 0 0.1118876896681579 -0.40749649194683379 0 0.11224311328849799 -0.38720422027451012 0 0.1277221343231448 -0.39464545561006081 0 0.12745560405384621 -0.41040078810690661 0 0.1118876896681579 -0.40749649194683379 0 0.1277221343231448 -0.39464545561006081 0 0.11224311328849799 -0.38720422027451012 0 0.1249365568048772 -0.36682450409995943 0 0.11224311328849799 -0.38720422027451012 0 0.1249365568048772 -0.36682450409995943 0 0.098747353794005288 -0.37241208402772052 0 0.098311075148623986 -0.39368483081159089 0 0.088943118455458048 -0.38567138195466738 0 0.098747353794005288 -0.37241208402772052 0 0.098311075148623986 -0.39368483081159089 0 0.11224311328849799 -0.38720422027451012 0 0.098747353794005288 -0.37241208402772052 0 0.088943118455458048 -0.38567138195466738 0 0.07255815078313313 -0.37799966395548129 0 0.098747353794005288 -0.37241208402772052 0 0.088943118455458048 -0.38567138195466738 0 0.072957291557886064 -0.39159853665956262 0 0.07255815078313313 -0.37799966395548129 0 0.07255815078313313 -0.37799966395548129 0 0.098747353794005288 -0.37241208402772052 0 0.088943118455458048 -0.38567138195466738 0 0.07255815078313313 -0.37799966395548129 0 0.098311075148623986 -0.39368483081159089 0 0.088943118455458048 -0.38567138195466738 0 0.082234541753845106 -0.40051723796458372 0 0.095810633931779562 -0.40880756870123031 0 0.098311075148623986 -0.39368483081159089 0 0.082234541753845106 -0.40051723796458372 0 0.088943118455458048 -0.38567138195466738 0 0.082234541753845106 -0.40051723796458372 0 0.072957291557886064 -0.39159853665956262 0 0.072957291557886064 -0.39159853665956262 0 0.066973644151639811 -0.40621894353428861 0 0.057942232639614268 -0.38678948077194891 0 0.082234541753845106 -0.40051723796458372 0 0.072957291557886064 -0.39159853665956262 0 0.066973644151639811 -0.40621894353428861 0 0.072957291557886064 -0.39159853665956262 0 0.07255815078313313 -0.37799966395548129 0 0.057942232639614268 -0.38678948077194891 0 0.07255815078313313 -0.37799966395548129 0 0.042978610485981117 -0.38431058703199378 0 0.049108715369383479 -0.36702024310265341 0 0.07255815078313313 -0.37799966395548129 0 0.042978610485981117 -0.38431058703199378 0 0.07255815078313313 -0.37799966395548129 0 0.057942232639614268 -0.38678948077194891 0 0.042978610485981117 -0.38431058703199378 0 0.057942232639614268 -0.38678948077194891 0 0.040259227631966391 -0.39661139682819019 0 0.042978610485981117 -0.38431058703199378 0 0.057942232639614268 -0.38678948077194891 0 0.051878494633405298 -0.40533626672326689 0 0.040259227631966391 -0.39661139682819019 0 0.066973644151639811 -0.40621894353428861 0 0.057942232639614268 -0.38678948077194891 0 0.051878494633405298 -0.40533626672326689 0 0.066973644151639811 -0.40621894353428861 0 0.057942232639614268 -0.38678948077194891 0 0.031310531397787882 -0.38736234150299093 0 0.035048773320046217 -0.40808118891925788 0 0.040259227631966391 -0.39661139682819019 0 0.031310531397787882 -0.38736234150299093 0 0.035048773320046217 -0.40808118891925788 0 0.051878494633405298 -0.40533626672326689 0 0.040259227631966391 -0.39661139682819019 0 0.035048773320046217 -0.40808118891925788 0 0.040259227631966391 -0.39661139682819019 0 0.031310531397787882 -0.38736234150299093 0 0.038435748014676772 -0.38975727722328252 0 0.031310531397787882 -0.38736234150299093 0 0.035827240694840071 -0.3791228851710049 0 0.028484905676709981 -0.37170158187640878 0 0.042978610485981117 -0.38431058703199378 0 0.035827240694840071 -0.3791228851710049 0 0.049108715369383479 -0.36702024310265341 0 0.031310531397787882 -0.38736234150299093 0 0.038435748014676772 -0.38975727722328252 0 0.035827240694840071 -0.3791228851710049 0 0.040259227631966391 -0.39661139682819019 0 0.038435748014676772 -0.38975727722328252 0 0.042978610485981117 -0.38431058703199378 0 0.038435748014676772 -0.38975727722328252 0 0.042978610485981117 -0.38431058703199378 0 0.035827240694840071 -0.3791228851710049 0 0.031310531397787882 -0.38736234150299093 0 0.028484905676709981 -0.37170158187640878 0 0.031310531397787882 -0.38736234150299093 0 0.019285127105728599 -0.37890349252198041 0 0.015248549742604769 -0.38986750118183638 0 0.031310531397787882 -0.38736234150299093 0 0.019285127105728599 -0.37890349252198041 0 0.028484905676709981 -0.37170158187640878 0 0.031310531397787882 -0.38736234150299093 0 0.015248549742604769 -0.38986750118183638 0 0.019285127105728599 -0.37890349252198041 0 0.0080507940031526865 -0.37569519040992322 0 0.015248549742604769 -0.38986750118183638 0 -0.001114694832174573 -0.36609145406698967 0 0.0080507940031526865 -0.37569519040992322 0 0.0041316078042716153 -0.38430655083246767 0 -0.0008134319125784736 -0.39237266086068151 0 0.015248549742604769 -0.38986750118183638 0 0.0041316078042716153 -0.38430655083246767 0 0.0080507940031526865 -0.37569519040992322 0 0.015248549742604769 -0.38986750118183638 0 0.0041316078042716153 -0.38430655083246767 0 -0.0008134319125784736 -0.39237266086068151 0 0.018986791664862938 -0.41058634859810322 0 0.01167949163563242 -0.41452022976402608 0 -0.0008134319125784736 -0.39237266086068151 0 0.018986791664862938 -0.41058634859810322 0 -0.0008134319125784736 -0.39237266086068151 0 0.015248549742604769 -0.38986750118183638 0 -0.0008134319125784736 -0.39237266086068151 0 -0.0056765897333758792 -0.41174492723099593 0 0.01167949163563242 -0.41452022976402608 0 -0.0008134319125784736 -0.39237266086068151 0 0.015248549742604769 -0.38986750118183638 0 0.018986791664862938 -0.41058634859810322 0 0.015248549742604769 -0.38986750118183638 0 0.0251486615313255 -0.39897434505054707 0 0.018986791664862938 -0.41058634859810322 0 0.031310531397787882 -0.38736234150299093 0 0.015248549742604769 -0.38986750118183638 0 0.0251486615313255 -0.39897434505054707 0 0.031310531397787882 -0.38736234150299093 0 0.0251486615313255 -0.39897434505054707 0 0.035048773320046217 -0.40808118891925788 0 0.0251486615313255 -0.39897434505054707 0 0.018986791664862938 -0.41058634859810322 0 0.035048773320046217 -0.40808118891925788 0 0.018986791664862938 -0.41058634859810322 0 0.038787015242304018 -0.42880003633552499 0 0.018986791664862938 -0.41058634859810322 0 0.024167827027945569 -0.42511494457187721 0 0.038787015242304018 -0.42880003633552499 0 0.018986791664862938 -0.41058634859810322 0 0.038787015242304018 -0.42880003633552499 0 0.035048773320046217 -0.40808118891925788 0 0.018986791664862938 -0.41058634859810322 0 0.01167949163563242 -0.41452022976402608 0 0.024167827027945569 -0.42511494457187721 0 -0.0056765897333758792 -0.41174492723099593 0 0.01167949163563242 -0.41452022976402608 0 0.001777651880508925 -0.42217332109331812 0 0.01167949163563242 -0.41452022976402608 0 0.01091434590138627 -0.43353202814099923 0 0.001777651880508925 -0.42217332109331812 0 0.01167949163563242 -0.41452022976402608 0 0.01091434590138627 -0.43353202814099923 0 -0.0075660055282681452 -0.43065338416742333 0 0.01091434590138627 -0.43353202814099923 0 0.00087379713763953469 -0.44341058846184178 0 -0.0075660055282681452 -0.43065338416742333 0 0.01091434590138627 -0.43353202814099923 0 0.01167949163563242 -0.41452022976402608 0 0.01091434590138627 -0.43353202814099923 0 0.024167827027945569 -0.42511494457187721 0 -0.0075660055282681452 -0.43065338416742333 0 0.01091434590138627 -0.43353202814099923 0 0.001777651880508925 -0.42217332109331812 0 0.01091434590138627 -0.43353202814099923 0 0.040471490695543177 -0.43813608002073201 0 0.01091434590138627 -0.43353202814099923 0 0.024167827027945569 -0.42511494457187721 0 0.040471490695543177 -0.43813608002073201 0 0.024167827027945569 -0.42511494457187721 0 0.038787015242304018 -0.42880003633552499 0 0.040471490695543177 -0.43813608002073201 0 0.038787015242304018 -0.42880003633552499 0 0.040471490695543177 -0.43813608002073201 0 0.038787015242304018 -0.42880003633552499 0 0.050006958861712393 -0.43962139906762632 0 0.038787015242304018 -0.42880003633552499 0 0.050006958861712393 -0.43962139906762632 0 0.040471490695543177 -0.43813608002073201 0 0.038787015242304018 -0.42880003633552499 0 0.049689102151714862 -0.42762519395502502 0 0.050006958861712393 -0.43962139906762632 0 0.038787015242304018 -0.42880003633552499 0 0.046698246341087983 -0.41782356172431873 0 0.049689102151714862 -0.42762519395502502 0 0.051878494633405298 -0.40533626672326689 0 0.035048773320046217 -0.40808118891925788 0 0.046698246341087983 -0.41782356172431873 0 0.038787015242304018 -0.42880003633552499 0 0.035048773320046217 -0.40808118891925788 0 0.038787015242304018 -0.42880003633552499 0 0.035048773320046217 -0.40808118891925788 0 0.046698246341087983 -0.41782356172431873 0 0.046698246341087983 -0.41782356172431873 0 0.057697743342435527 -0.41944846620654558 0 0.049689102151714862 -0.42762519395502502 0 0.051878494633405298 -0.40533626672326689 0 0.046698246341087983 -0.41782356172431873 0 0.057697743342435527 -0.41944846620654558 0 0.066973644151639811 -0.40621894353428861 0 0.051878494633405298 -0.40533626672326689 0 0.057697743342435527 -0.41944846620654558 0 0.057697743342435527 -0.41944846620654558 0 0.059244204383636943 -0.43070254366030403 0 0.049689102151714862 -0.42762519395502502 0 0.062753978935616947 -0.44160697453984987 0 0.059244204383636943 -0.43070254366030403 0 0.050006958861712393 -0.43962139906762632 0 0.059244204383636943 -0.43070254366030403 0 0.049689102151714862 -0.42762519395502502 0 0.050006958861712393 -0.43962139906762632 0 0.057971742953645912 -0.45501009676630771 0 0.044036729607945933 -0.45789607484311567 0 0.040471490695543177 -0.43813608002073201 0 0.050006958861712393 -0.43962139906762632 0 0.057971742953645912 -0.45501009676630771 0 0.040471490695543177 -0.43813608002073201 0 0.062753978935616947 -0.44160697453984987 0 0.050006958861712393 -0.43962139906762632 0 0.062753978935616947 -0.44160697453984987 0 0.050006958861712393 -0.43962139906762632 0 0.057971742953645912 -0.45501009676630771 0 0.071301623426788877 -0.45999284229225612 0 0.057971742953645912 -0.45501009676630771 0 0.054866879115402813 -0.475895462071381 0 0.057971742953645912 -0.45501009676630771 0 0.044036729607945933 -0.45789607484311567 0 0.054866879115402813 -0.475895462071381 0 0.044036729607945933 -0.45789607484311567 0 0.023210711386961371 -0.46457554520516492 0 0.032065197403221238 -0.47746153787875939 0 0.044036729607945933 -0.45789607484311567 0 0.040471490695543177 -0.43813608002073201 0 0.02553385981602703 -0.45012645082488822 0 0.044036729607945933 -0.45789607484311567 0 0.040471490695543177 -0.43813608002073201 0 0.050006958861712393 -0.43962139906762632 0 0.040471490695543177 -0.43813608002073201 0 0.01091434590138627 -0.43353202814099923 0 0.040471490695543177 -0.43813608002073201 0 0.02553385981602703 -0.45012645082488822 0 0.01091434590138627 -0.43353202814099923 0 0.01002265951935574 -0.45568801876066622 0 0.01091434590138627 -0.43353202814099923 0 0.02553385981602703 -0.45012645082488822 0 0.01002265951935574 -0.45568801876066622 0 -0.0098758113419157544 -0.4537689227782789 0 0.00087379713763953469 -0.44341058846184178 0 0.01002265951935574 -0.45568801876066622 0 0.01091434590138627 -0.43353202814099923 0 0.00087379713763953469 -0.44341058846184178 0 0.01002265951935574 -0.45568801876066622 0 0.01002265951935574 -0.45568801876066622 0 0.023210711386961371 -0.46457554520516492 0 0.0091309731373257173 -0.47784400938033328 0 -0.00072694896019898482 -0.46604635307710318 0 0.01002265951935574 -0.45568801876066622 0 0.0091309731373257173 -0.47784400938033328 0 0.01002265951935574 -0.45568801876066622 0 0.0091309731373257173 -0.47784400938033328 0 0.044036729607945933 -0.45789607484311567 0 0.02553385981602703 -0.45012645082488822 0 0.023210711386961371 -0.46457554520516492 0 0.02553385981602703 -0.45012645082488822 0 0.01002265951935574 -0.45568801876066622 0 0.023210711386961371 -0.46457554520516492 0 0.0091309731373257173 -0.47784400938033328 0 0.021440018486973449 -0.48882638681477319 0 0.032065197403221238 -0.47746153787875939 0 0.023210711386961371 -0.46457554520516492 0 0.0091309731373257173 -0.47784400938033328 0 0.032065197403221238 -0.47746153787875939 0 -0.00202817649479592 -0.48849083870783572 0 0.0091309731373257173 -0.47784400938033328 0 0.0082392867552957064 -0.50000000000000033 0 0.0091309731373257173 -0.47784400938033328 0 0.0082392867552957064 -0.50000000000000033 0 0.021440018486973449 -0.48882638681477319 0 0.0091309731373257173 -0.47784400938033328 0 0.0082392867552957064 -0.50000000000000033 0 0.0082392867552957064 -0.50000000000000033 0 0.021440018486973449 -0.48882638681477319 0 0.036324616652051112 -0.5 0 0.021440018486973449 -0.48882638681477319 0 0.036324616652051112 -0.5 0 0.032065197403221238 -0.47746153787875939 0 0.036324616652051112 -0.5 0 0.032065197403221238 -0.47746153787875939 0 0.054866879115402813 -0.475895462071381 0 0.044036729607945933 -0.45789607484311567 0 0.032065197403221238 -0.47746153787875939 0 0.054866879115402813 -0.475895462071381 0 0.064409946548806385 -0.5 0 0.036324616652051112 -0.5 0 0.054866879115402813 -0.475895462071381 0 0.085713695923517408 -0.29508679666543541 0 0.06425738595828992 -0.30743387860967852 0 0.065845718423567234 -0.27515740822596102 0 0.085713695923517408 -0.29508679666543541 0 0.097056862273092445 -0.28855934601561062 0 0.097378657567218377 -0.30678781413082151 0 0.085713695923517408 -0.29508679666543541 0 0.065845718423567234 -0.27515740822596102 0 0.08694387309975754 -0.2807865191504712 0 0.085713695923517408 -0.29508679666543541 0 0.08694387309975754 -0.2807865191504712 0 0.097056862273092445 -0.28855934601561062 0 0.085713695923517408 -0.29508679666543541 0 0.097056862273092445 -0.28855934601561062 0 0.085713695923517408 -0.29508679666543541 0 0.08454223581503853 -0.30928108393590759 0 0.097378657567218377 -0.30678781413082151 0 0.085713695923517408 -0.29508679666543541 0 0.097378657567218377 -0.30678781413082151 0 0.085713695923517408 -0.29508679666543541 0 0.08454223581503853 -0.30928108393590759 0 0.06425738595828992 -0.30743387860967852 0 0.08454223581503853 -0.30928108393590759 0 0.097378657567218377 -0.30678781413082151 0 0.095374747253831937 -0.32050598735176689 0 0.085713695923517408 -0.29508679666543541 0 0.06425738595828992 -0.30743387860967852 0 0.08454223581503853 -0.30928108393590759 0 0.06425738595828992 -0.30743387860967852 0 0.079182460096025614 -0.3201155364846997 0 0.085713695923517408 -0.29508679666543541 0 0.065845718423567234 -0.27515740822596102 0 0.065845718423567234 -0.27515740822596102 0 0.074335401624747541 -0.25257240166821221 0 0.089379923485571083 -0.26801107426443987 0 0.074335401624747541 -0.25257240166821221 0 0.089379923485571083 -0.26801107426443987 0 0.1026930623258781 -0.24991678354993929 0 0.074335401624747541 -0.25257240166821221 0 0.1026930623258781 -0.24991678354993929 0 0.065845718423567234 -0.27515740822596102 0 0.089379923485571083 -0.26801107426443987 0 0.08694387309975754 -0.2807865191504712 0 0.089379923485571083 -0.26801107426443987 0 0.08694387309975754 -0.2807865191504712 0 0.097955070022093263 -0.27876936163739269 0 0.089379923485571083 -0.26801107426443987 0 0.097955070022093263 -0.27876936163739269 0 0.1072207251531667 -0.27098123582315342 0 0.097955070022093263 -0.27876936163739269 0 0.1072207251531667 -0.27098123582315342 0 0.1091739660988785 -0.28550863293328871 0 0.089379923485571083 -0.26801107426443987 0 0.1072207251531667 -0.27098123582315342 0 0.1026930623258781 -0.24991678354993929 0 0.1072207251531667 -0.27098123582315342 0 0.1236545785481182 -0.26453508224828398 0 0.1026930623258781 -0.24991678354993929 0 0.1236545785481182 -0.26453508224828398 0 0.1026930623258781 -0.24991678354993929 0 0.12752522270429539 -0.24759131898811201 0 0.1236545785481182 -0.26453508224828398 0 0.1026930623258781 -0.24991678354993929 0 0.1072207251531667 -0.27098123582315342 0 0.1236545785481182 -0.26453508224828398 0 0.1220613682880602 -0.28051572242962491 0 0.1072207251531667 -0.27098123582315342 0 0.1220613682880602 -0.28051572242962491 0 0.1091739660988785 -0.28550863293328871 0 0.1091739660988785 -0.28550863293328871 0 0.1077989487561082 -0.2983744401183967 0 0.124182726729805 -0.2975030826320364 0 0.1220613682880602 -0.28051572242962491 0 0.1091739660988785 -0.28550863293328871 0 0.124182726729805 -0.2975030826320364 0 0.1091739660988785 -0.28550863293328871 0 0.097056862273092445 -0.28855934601561062 0 0.1077989487561082 -0.2983744401183967 0 0.097955070022093263 -0.27876936163739269 0 0.1091739660988785 -0.28550863293328871 0 0.097056862273092445 -0.28855934601561062 0 0.08694387309975754 -0.2807865191504712 0 0.097955070022093263 -0.27876936163739269 0 0.097056862273092445 -0.28855934601561062 0 0.097056862273092445 -0.28855934601561062 0 0.097378657567218377 -0.30678781413082151 0 0.1077989487561082 -0.2983744401183967 0 0.097378657567218377 -0.30678781413082151 0 0.1077989487561082 -0.2983744401183967 0 0.1117020746894897 -0.31358058907864572 0 0.1077989487561082 -0.2983744401183967 0 0.124182726729805 -0.2975030826320364 0 0.1117020746894897 -0.31358058907864572 0 0.13338192982846189 -0.32443823046117232 0 0.124182726729805 -0.2975030826320364 0 0.1117020746894897 -0.31358058907864572 0 0.13338192982846189 -0.32443823046117232 0 0.1117020746894897 -0.31358058907864572 0 0.1099111125798706 -0.33263501471351298 0 0.12544930679682079 -0.34503592605266381 0 0.1099111125798706 -0.33263501471351298 0 0.1048641004275407 -0.35240478854310547 0 0.12544930679682079 -0.34503592605266381 0 0.13338192982846189 -0.32443823046117232 0 0.1099111125798706 -0.33263501471351298 0 0.1099111125798706 -0.33263501471351298 0 0.1048641004275407 -0.35240478854310547 0 0.086208206967412854 -0.33725332615599452 0 0.1099111125798706 -0.33263501471351298 0 0.095374747253831937 -0.32050598735176689 0 0.086208206967412854 -0.33725332615599452 0 0.097378657567218377 -0.30678781413082151 0 0.1117020746894897 -0.31358058907864572 0 0.095374747253831937 -0.32050598735176689 0 0.1117020746894897 -0.31358058907864572 0 0.1099111125798706 -0.33263501471351298 0 0.095374747253831937 -0.32050598735176689 0 0.1249365568048772 -0.36682450409995943 0 0.1048641004275407 -0.35240478854310547 0 0.098747353794005288 -0.37241208402772052 0 0.1249365568048772 -0.36682450409995943 0 0.098747353794005288 -0.37241208402772052 0 0.12544930679682079 -0.34503592605266381 0 0.1249365568048772 -0.36682450409995943 0 0.1048641004275407 -0.35240478854310547 0 0.1048641004275407 -0.35240478854310547 0 0.098747353794005288 -0.37241208402772052 0 0.082461513576181186 -0.36024841484553249 0 0.07255815078313313 -0.37799966395548129 0 0.098747353794005288 -0.37241208402772052 0 0.082461513576181186 -0.36024841484553249 0 0.1048641004275407 -0.35240478854310547 0 0.082461513576181186 -0.36024841484553249 0 0.086208206967412854 -0.33725332615599452 0 0.082461513576181186 -0.36024841484553249 0 0.0706442885972378 -0.34599780674042369 0 0.086208206967412854 -0.33725332615599452 0 0.082461513576181186 -0.36024841484553249 0 0.0706442885972378 -0.34599780674042369 0 0.065544356335848125 -0.36244854025457468 0 0.0706442885972378 -0.34599780674042369 0 0.065544356335848125 -0.36244854025457468 0 0.055750640131392207 -0.34209262211139557 0 0.07255815078313313 -0.37799966395548129 0 0.082461513576181186 -0.36024841484553249 0 0.065544356335848125 -0.36244854025457468 0 0.08454223581503853 -0.30928108393590759 0 0.095374747253831937 -0.32050598735176689 0 0.079182460096025614 -0.3201155364846997 0 0.095374747253831937 -0.32050598735176689 0 0.079182460096025614 -0.3201155364846997 0 0.086208206967412854 -0.33725332615599452 0 0.0706442885972378 -0.34599780674042369 0 0.063256725975354589 -0.32794613033462139 0 0.055750640131392207 -0.34209262211139557 0 0.0706442885972378 -0.34599780674042369 0 0.086208206967412854 -0.33725332615599452 0 0.063256725975354589 -0.32794613033462139 0 0.079182460096025614 -0.3201155364846997 0 0.086208206967412854 -0.33725332615599452 0 0.063256725975354589 -0.32794613033462139 0 0.06425738595828992 -0.30743387860967852 0 0.079182460096025614 -0.3201155364846997 0 0.063256725975354589 -0.32794613033462139 0 0.06425738595828992 -0.30743387860967852 0 0.063256725975354589 -0.32794613033462139 0 0.042801075993062293 -0.3197809605539213 0 0.063256725975354589 -0.32794613033462139 0 0.041005143205137103 -0.33573706818500471 0 0.042801075993062293 -0.3197809605539213 0 0.06425738595828992 -0.30743387860967852 0 0.042801075993062293 -0.3197809605539213 0 0.063256725975354589 -0.32794613033462139 0 0.055750640131392207 -0.34209262211139557 0 0.041005143205137103 -0.33573706818500471 0 0.041005143205137103 -0.33573706818500471 0 0.042801075993062293 -0.3197809605539213 0 0.021344766027834638 -0.33212804249816402 0 0.055750640131392207 -0.34209262211139557 0 0.041005143205137103 -0.33573706818500471 0 0.041956034794729362 -0.35176574718541859 0 0.042801075993062293 -0.3197809605539213 0 0.021344766027834638 -0.33212804249816402 0 0.042801075993062293 -0.3197809605539213 0 0.026760741380358079 -0.31878304397934781 0 0.027235939833090261 -0.30569587239237378 0 0.07255815078313313 -0.37799966395548129 0 0.065544356335848125 -0.36244854025457468 0 0.049108715369383479 -0.36702024310265341 0 0.07255815078313313 -0.37799966395548129 0 0.049108715369383479 -0.36702024310265341 0 0.055750640131392207 -0.34209262211139557 0 0.049108715369383479 -0.36702024310265341 0 0.041956034794729362 -0.35176574718541859 0 0.065544356335848125 -0.36244854025457468 0 0.055750640131392207 -0.34209262211139557 0 0.049108715369383479 -0.36702024310265341 0 0.041005143205137103 -0.33573706818500471 0 0.041956034794729362 -0.35176574718541859 0 0.025659279955633298 -0.35604082224982658 0 0.049108715369383479 -0.36702024310265341 0 0.041956034794729362 -0.35176574718541859 0 0.025659279955633298 -0.35604082224982658 0 0.035827240694840071 -0.3791228851710049 0 0.049108715369383479 -0.36702024310265341 0 0.028484905676709981 -0.37170158187640878 0 0.049108715369383479 -0.36702024310265341 0 0.025659279955633298 -0.35604082224982658 0 0.049108715369383479 -0.36702024310265341 0 0.028484905676709981 -0.37170158187640878 0 0.025659279955633298 -0.35604082224982658 0 0.028484905676709981 -0.37170158187640878 0 0.025659279955633298 -0.35604082224982658 0 0.028484905676709981 -0.37170158187640878 0 0.025659279955633298 -0.35604082224982658 0 0.013567799957560481 -0.3654911419001064 0 0.019285127105728599 -0.37890349252198041 0 0.028484905676709981 -0.37170158187640878 0 0.013567799957560481 -0.3654911419001064 0 0.025659279955633298 -0.35604082224982658 0 0.021344766027834638 -0.33212804249816402 0 0.025659279955633298 -0.35604082224982658 0 0.0010413878363071719 -0.34451431027552581 0 0.013567799957560481 -0.3654911419001064 0 0.025659279955633298 -0.35604082224982658 0 0.0010413878363071719 -0.34451431027552581 0 0.009887004884319664 -0.33872143698052409 0 0.025659279955633298 -0.35604082224982658 0 0.0010413878363071719 -0.34451431027552581 0 -0.001114694832174573 -0.36609145406698967 0 0.0010413878363071719 -0.34451431027552581 0 0.013567799957560481 -0.3654911419001064 0 -0.001114694832174573 -0.36609145406698967 0 0.0080507940031526865 -0.37569519040992322 0 -0.001114694832174573 -0.36609145406698967 0 0.0080507940031526865 -0.37569519040992322 0 0.013567799957560481 -0.3654911419001064 0 0.019285127105728599 -0.37890349252198041 0 0.0080507940031526865 -0.37569519040992322 0 0.013567799957560481 -0.3654911419001064 0 0.042801075993062293 -0.3197809605539213 0 0.026760741380358079 -0.31878304397934781 0 0.021344766027834638 -0.33212804249816402 0 0.020140273075756158 -0.32545225580295539 0 0.026760741380358079 -0.31878304397934781 0 0.021344766027834638 -0.33212804249816402 0 0.020140273075756158 -0.32545225580295539 0 0.026760741380358079 -0.31878304397934781 0 0.015197724332557221 -0.31252467388655331 0 0.025659279955633298 -0.35604082224982658 0 0.021344766027834638 -0.33212804249816402 0 0.009887004884319664 -0.33872143698052409 0 0.041005143205137103 -0.33573706818500471 0 0.025659279955633298 -0.35604082224982658 0 0.021344766027834638 -0.33212804249816402 0 0.020140273075756158 -0.32545225580295539 0 0.021344766027834638 -0.33212804249816402 0 0.01066587322870621 -0.32844783050014431 0 0.020140273075756158 -0.32545225580295539 0 0.021344766027834638 -0.33212804249816402 0 0.021344766027834638 -0.33212804249816402 0 0.01066587322870621 -0.32844783050014431 0 0.009887004884319664 -0.33872143698052409 0 0.0010413878363071719 -0.34451431027552581 0 0.01066587322870621 -0.32844783050014431 0 0.009887004884319664 -0.33872143698052409 0 0.0010413878363071719 -0.34451431027552581 0 0.01066587322870621 -0.32844783050014431 0 0.003498963635756414 -0.31991995349202967 0 0.021344766027834638 -0.33212804249816402 0 0.009887004884319664 -0.33872143698052409 0 0.0010413878363071719 -0.34451431027552581 0 0.003498963635756414 -0.31991995349202967 0 0.020140273075756158 -0.32545225580295539 0 0.01066587322870621 -0.32844783050014431 0 0.015197724332557221 -0.31252467388655331 0 0.01066587322870621 -0.32844783050014431 0 0.003498963635756414 -0.31991995349202967 0 0.015197724332557221 -0.31252467388655331 0 0.003498963635756414 -0.31991995349202967 0 0.015197724332557221 -0.31252467388655331 0 0.0059565394352110914 -0.29532559670853409 0 -0.0050903867180685323 -0.29815589571301532 0 0.003498963635756414 -0.31991995349202967 0 0.0059565394352110914 -0.29532559670853409 0 0.003498963635756414 -0.31991995349202967 0 0.0059565394352110914 -0.29532559670853409 0 0.0059565394352110914 -0.29532559670853409 0 0.0084141152346657744 -0.27073123992503839 0 0.0059565394352110914 -0.29532559670853409 0 0.018277766079416211 -0.28385432514852321 0 0.0084141152346657744 -0.27073123992503839 0 0.018277766079416211 -0.28385432514852321 0 0.027235939833090261 -0.30569587239237378 0 0.033488746597999088 -0.28565677112116572 0 0.0059565394352110914 -0.29532559670853409 0 0.018277766079416211 -0.28385432514852321 0 0.027235939833090261 -0.30569587239237378 0 0.015197724332557221 -0.31252467388655331 0 0.0059565394352110914 -0.29532559670853409 0 0.027235939833090261 -0.30569587239237378 0 0.026760741380358079 -0.31878304397934781 0 0.015197724332557221 -0.31252467388655331 0 0.027235939833090261 -0.30569587239237378 0 0.065845718423567234 -0.27515740822596102 0 0.046028001397907227 -0.30057205562554229 0 0.033488746597999088 -0.28565677112116572 0 0.027235939833090261 -0.30569587239237378 0 0.046028001397907227 -0.30057205562554229 0 0.033488746597999088 -0.28565677112116572 0 0.06425738595828992 -0.30743387860967852 0 0.065845718423567234 -0.27515740822596102 0 0.046028001397907227 -0.30057205562554229 0 0.042801075993062293 -0.3197809605539213 0 0.027235939833090261 -0.30569587239237378 0 0.046028001397907227 -0.30057205562554229 0 0.06425738595828992 -0.30743387860967852 0 0.042801075993062293 -0.3197809605539213 0 0.046028001397907227 -0.30057205562554229 0 0.065845718423567234 -0.27515740822596102 0 0.033488746597999088 -0.28565677112116572 0 0.039167607106239788 -0.26882559962556041 0 0.065845718423567234 -0.27515740822596102 0 0.074335401624747541 -0.25257240166821221 0 0.045977740923617241 -0.25522801978648652 0 0.074335401624747541 -0.25257240166821221 0 0.045977740923617241 -0.25522801978648652 0 0.065845718423567234 -0.27515740822596102 0 0.045977740923617241 -0.25522801978648652 0 0.065845718423567234 -0.27515740822596102 0 0.039167607106239788 -0.26882559962556041 0 0.045977740923617241 -0.25522801978648652 0 0.033488746597999088 -0.28565677112116572 0 0.039167607106239788 -0.26882559962556041 0 0.02206679911420166 -0.26876668930550918 0 0.039167607106239788 -0.26882559962556041 0 0.045977740923617241 -0.25522801978648652 0 0.029091405652816531 -0.25680937934815712 0 0.045977740923617241 -0.25522801978648652 0 0.029091405652816531 -0.25680937934815712 0 0.045977740923617241 -0.25522801978648652 0 0.029091405652816531 -0.25680937934815712 0 0.030643289446888222 -0.2398461702758013 0 0.029091405652816531 -0.25680937934815712 0 0.02206679911420166 -0.26876668930550918 0 0.012205070382015921 -0.25839073890982878 0 0.039167607106239788 -0.26882559962556041 0 0.029091405652816531 -0.25680937934815712 0 0.02206679911420166 -0.26876668930550918 0 0.029091405652816531 -0.25680937934815712 0 0.012205070382015921 -0.25839073890982878 0 0.029091405652816531 -0.25680937934815712 0 0.020061660218102111 -0.25133636703663043 0 0.012205070382015921 -0.25839073890982878 0 0.018277766079416211 -0.28385432514852321 0 0.033488746597999088 -0.28565677112116572 0 0.02206679911420166 -0.26876668930550918 0 0.018277766079416211 -0.28385432514852321 0 0.02206679911420166 -0.26876668930550918 0 0.0084141152346657744 -0.27073123992503839 0 -0.0054443793238514006 -0.27479833939534581 0 0.0059565394352110914 -0.29532559670853409 0 0.0084141152346657744 -0.27073123992503839 0 0.02206679911420166 -0.26876668930550918 0 0.0084141152346657744 -0.27073123992503839 0 0.012205070382015921 -0.25839073890982878 0 0.0084141152346657744 -0.27073123992503839 0 0.012205070382015921 -0.25839073890982878 0 0.01087169103411818 -0.24613688314154261 0 -0.005798371929633719 -0.25144078307767631 0 0.0084141152346657744 -0.27073123992503839 0 0.01087169103411818 -0.24613688314154261 0 0.0084141152346657744 -0.27073123992503839 0 0.01087169103411818 -0.24613688314154261 0 0.020061660218102111 -0.25133636703663043 0 0.012205070382015921 -0.25839073890982878 0 0.01087169103411818 -0.24613688314154261 0 -0.005798371929633719 -0.25144078307767631 0 0.01087169103411818 -0.24613688314154261 0 -0.005798371929633719 -0.25144078307767631 0 0.01087169103411818 -0.24613688314154261 0 0.0029558925330100232 -0.23926738898129851 0 0.01087169103411818 -0.24613688314154261 0 0.011887542161756109 -0.23597068396366541 0 0.0029558925330100232 -0.23926738898129851 0 0.01087169103411818 -0.24613688314154261 0 0.011887542161756109 -0.23597068396366541 0 0.011887542161756109 -0.23597068396366541 0 0.0029558925330100232 -0.23926738898129851 0 0.0046881987975088456 -0.2302492005743601 0 -0.0060959518261848589 -0.23180551646719219 0 0.0029558925330100232 -0.23926738898129851 0 0.0046881987975088456 -0.2302492005743601 0 0.0046881987975088456 -0.2302492005743601 0 0.00060778919825934358 -0.22096498933543121 0 0.01408572192070361 -0.22323742412421341 0 0.011887542161756109 -0.23597068396366541 0 0.0046881987975088456 -0.2302492005743601 0 0.01408572192070361 -0.22323742412421341 0 0.01408572192070361 -0.22323742412421341 0 0.030643289446888222 -0.2398461702758013 0 0.027922424019708809 -0.2165291482272815 0 0.01408572192070361 -0.22323742412421341 0 0.030643289446888222 -0.2398461702758013 0 0.011887542161756109 -0.23597068396366541 0 0.01408572192070361 -0.22323742412421341 0 0.030643289446888222 -0.2398461702758013 0 0.020061660218102111 -0.25133636703663043 0 0.01087169103411818 -0.24613688314154261 0 0.030643289446888222 -0.2398461702758013 0 0.029091405652816531 -0.25680937934815712 0 0.020061660218102111 -0.25133636703663043 0 0.030643289446888222 -0.2398461702758013 0 0.01087169103411818 -0.24613688314154261 0 0.011887542161756109 -0.23597068396366541 0 0.030643289446888222 -0.2398461702758013 0 0.01087169103411818 -0.24613688314154261 0 0.030643289446888222 -0.2398461702758013 0 -0.0024718456054814851 -0.20662867797262599 0 0.01035428395379076 -0.1885046066364395 0 -0.0024718456054814851 -0.20662867797262599 0 0.01035428395379076 -0.1885046066364395 0 0.00480692608839281 -0.2049852696313412 0 -0.0042549789881765557 -0.1864528278155668 0 -0.0024718456054814851 -0.20662867797262599 0 0.01035428395379076 -0.1885046066364395 0 0.01035428395379076 -0.1885046066364395 0 0.00480692608839281 -0.2049852696313412 0 0.028109871142226919 -0.19099166415949129 0 -0.0024718456054814851 -0.20662867797262599 0 0.01408572192070361 -0.22323742412421341 0 0.012702057749287749 -0.2124562387800675 0 0.00480692608839281 -0.2049852696313412 0 0.012702057749287749 -0.2124562387800675 0 0.022381882042937909 -0.20549217587115179 0 -0.0024718456054814851 -0.20662867797262599 0 0.01408572192070361 -0.22323742412421341 0 -0.0024718456054814851 -0.20662867797262599 0 0.00060778919825934358 -0.22096498933543121 0 0.01408572192070361 -0.22323742412421341 0 -0.0024718456054814851 -0.20662867797262599 0 0.00480692608839281 -0.2049852696313412 0 0.012702057749287749 -0.2124562387800675 0 0.01408572192070361 -0.22323742412421341 0 0.012702057749287749 -0.2124562387800675 0 0.027922424019708809 -0.2165291482272815 0 0.012702057749287749 -0.2124562387800675 0 0.027922424019708809 -0.2165291482272815 0 0.022381882042937909 -0.20549217587115179 0 0.027922424019708809 -0.2165291482272815 0 0.022381882042937909 -0.20549217587115179 0 0.036695985358330907 -0.20389124922787569 0 0.00480692608839281 -0.2049852696313412 0 0.028109871142226919 -0.19099166415949129 0 0.00480692608839281 -0.2049852696313412 0 0.022381882042937909 -0.20549217587115179 0 0.028109871142226919 -0.19099166415949129 0 0.022381882042937909 -0.20549217587115179 0 0.028109871142226919 -0.19099166415949129 0 0.036695985358330907 -0.20389124922787569 0 0.028109871142226919 -0.19099166415949129 0 0.046034796275638612 -0.19353526717559799 0 0.036695985358330907 -0.20389124922787569 0 0.046034796275638612 -0.19353526717559799 0 0.036695985358330907 -0.20389124922787569 0 0.051015911143284187 -0.20285936696736689 0 0.036695985358330907 -0.20389124922787569 0 0.041394047465268341 -0.2222735293454968 0 0.058695011014179843 -0.21923309400189689 0 0.027922424019708809 -0.2165291482272815 0 0.036695985358330907 -0.20389124922787569 0 0.041394047465268341 -0.2222735293454968 0 0.062336306311684152 -0.19661971809257819 0 0.051015911143284187 -0.20285936696736689 0 0.058695011014179843 -0.21923309400189689 0 0.036695985358330907 -0.20389124922787569 0 0.051015911143284187 -0.20285936696736689 0 0.058695011014179843 -0.21923309400189689 0 0.036695985358330907 -0.20389124922787569 0 0.058695011014179843 -0.21923309400189689 0 0.046034796275638612 -0.19353526717559799 0 0.062336306311684152 -0.19661971809257819 0 0.051412816196060467 -0.1769980586876409 0 0.046034796275638612 -0.19353526717559799 0 0.062336306311684152 -0.19661971809257819 0 0.051015911143284187 -0.20285936696736689 0 0.045977740923617241 -0.25522801978648652 0 0.030643289446888222 -0.2398461702758013 0 0.051341381630491359 -0.233260675664927 0 0.030643289446888222 -0.2398461702758013 0 0.051341381630491359 -0.233260675664927 0 0.045977740923617241 -0.25522801978648652 0 0.030643289446888222 -0.2398461702758013 0 0.030643289446888222 -0.2398461702758013 0 0.041394047465268341 -0.2222735293454968 0 0.051341381630491359 -0.233260675664927 0 0.030643289446888222 -0.2398461702758013 0 0.027922424019708809 -0.2165291482272815 0 0.041394047465268341 -0.2222735293454968 0 0.041394047465268341 -0.2222735293454968 0 0.058695011014179843 -0.21923309400189689 0 0.051341381630491359 -0.233260675664927 0 0.058695011014179843 -0.21923309400189689 0 0.051341381630491359 -0.233260675664927 0 0.064472882352314811 -0.23926031060426281 0 0.045977740923617241 -0.25522801978648652 0 0.051341381630491359 -0.233260675664927 0 0.064472882352314811 -0.23926031060426281 0 0.074335401624747541 -0.25257240166821221 0 0.045977740923617241 -0.25522801978648652 0 0.064472882352314811 -0.23926031060426281 0 0.074335401624747541 -0.25257240166821221 0 0.064472882352314811 -0.23926031060426281 0 0.08069403667002889 -0.23457493877591831 0 0.08069403667002889 -0.23457493877591831 0 0.1026930623258781 -0.24991678354993929 0 0.074335401624747541 -0.25257240166821221 0 0.08069403667002889 -0.23457493877591831 0 0.1026930623258781 -0.24991678354993929 0 0.08069403667002889 -0.23457493877591831 0 0.087840661109061843 -0.22100292089060361 0 0.10054412250690931 -0.22997967904078451 0 0.08069403667002889 -0.23457493877591831 0 0.087840661109061843 -0.22100292089060361 0 0.073259796427307816 -0.2162413774975154 0 0.058695011014179843 -0.21923309400189689 0 0.064472882352314811 -0.23926031060426281 0 0.08069403667002889 -0.23457493877591831 0 0.058695011014179843 -0.21923309400189689 0 0.08069403667002889 -0.23457493877591831 0 0.058695011014179843 -0.21923309400189689 0 0.08069403667002889 -0.23457493877591831 0 0.073259796427307816 -0.2162413774975154 0 0.062336306311684152 -0.19661971809257819 0 0.073259796427307816 -0.2162413774975154 0 0.062336306311684152 -0.19661971809257819 0 0.073259796427307816 -0.2162413774975154 0 0.081249786368593313 -0.19828995664483931 0 0.062336306311684152 -0.19661971809257819 0 0.058695011014179843 -0.21923309400189689 0 0.073259796427307816 -0.2162413774975154 0 0.062336306311684152 -0.19661971809257819 0 0.081249786368593313 -0.19828995664483931 0 0.07047658764435541 -0.18182632547560221 0 0.081249786368593313 -0.19828995664483931 0 0.09778155888878555 -0.19512996217861661 0 0.088003754599440459 -0.18208224847241139 0 0.081249786368593313 -0.19828995664483931 0 0.1002366719829689 -0.21089655035543939 0 0.09778155888878555 -0.19512996217861661 0 0.081249786368593313 -0.19828995664483931 0 0.1002366719829689 -0.21089655035543939 0 0.087840661109061843 -0.22100292089060361 0 0.081249786368593313 -0.19828995664483931 0 0.1002366719829689 -0.21089655035543939 0 0.087840661109061843 -0.22100292089060361 0 0.073259796427307816 -0.2162413774975154 0 0.081249786368593313 -0.19828995664483931 0 0.1002366719829689 -0.21089655035543939 0 0.09778155888878555 -0.19512996217861661 0 0.1136513634524126 -0.20061983881063419 0 0.09778155888878555 -0.19512996217861661 0 0.1136513634524126 -0.20061983881063419 0 0.1057662180405126 -0.18376121660975839 0 0.1136513634524126 -0.20061983881063419 0 0.11971162772547631 -0.1874071974738474 0 0.1301399178894018 -0.19595684035078201 0 0.1136513634524126 -0.20061983881063419 0 0.1244003844379538 -0.20806968087553979 0 0.1301399178894018 -0.19595684035078201 0 0.1136513634524126 -0.20061983881063419 0 0.11971162772547631 -0.1874071974738474 0 0.1057662180405126 -0.18376121660975839 0 0.1136513634524126 -0.20061983881063419 0 0.1244003844379538 -0.20806968087553979 0 0.1192235575973445 -0.22350314406603969 0 0.1002366719829689 -0.21089655035543939 0 0.1136513634524126 -0.20061983881063419 0 0.1192235575973445 -0.22350314406603969 0 0.1002366719829689 -0.21089655035543939 0 0.1192235575973445 -0.22350314406603969 0 0.1192235575973445 -0.22350314406603969 0 0.11416944265073289 -0.23871959272587989 0 0.10054412250690931 -0.22997967904078451 0 0.1192235575973445 -0.22350314406603969 0 0.11416944265073289 -0.23871959272587989 0 0.1382104432117201 -0.23610973777663991 0 0.11416944265073289 -0.23871959272587989 0 0.1026930623258781 -0.24991678354993929 0 0.12752522270429539 -0.24759131898811201 0 0.1026930623258781 -0.24991678354993929 0 0.12752522270429539 -0.24759131898811201 0 0.11416944265073289 -0.23871959272587989 0 0.1026930623258781 -0.24991678354993929 0 0.10054412250690931 -0.22997967904078451 0 0.08069403667002889 -0.23457493877591831 0 0.1026930623258781 -0.24991678354993929 0 0.10054412250690931 -0.22997967904078451 0 0.1002366719829689 -0.21089655035543939 0 0.1192235575973445 -0.22350314406603969 0 0.10054412250690931 -0.22997967904078451 0 0.087840661109061843 -0.22100292089060361 0 0.1002366719829689 -0.21089655035543939 0 0.10054412250690931 -0.22997967904078451 0 0.097816687714357101 -0.1491321615277198 0 0.1210186234735052 -0.135199212947759 0 0.092929651420262174 -0.1219628866281712 0 0.097816687714357101 -0.1491321615277198 0 0.1210186234735052 -0.135199212947759 0 0.097816687714357101 -0.1491321615277198 0 0.1210186234735052 -0.135199212947759 0 0.12203226152806999 -0.15208990587069529 0 0.12203226152806999 -0.15208990587069529 0 0.1167335713074345 -0.16815996658832599 0 0.13603938193502779 -0.16158324813923189 0 0.097816687714357101 -0.1491321615277198 0 0.12203226152806999 -0.15208990587069529 0 0.1167335713074345 -0.16815996658832599 0 0.1167335713074345 -0.16815996658832599 0 0.11971162772547631 -0.1874071974738474 0 0.1319487932862112 -0.18174174002494661 0 0.1167335713074345 -0.16815996658832599 0 0.11971162772547631 -0.1874071974738474 0 0.1057662180405126 -0.18376121660975839 0 0.09778155888878555 -0.19512996217861661 0 0.1057662180405126 -0.18376121660975839 0 0.088003754599440459 -0.18208224847241139 0 0.1057662180405126 -0.18376121660975839 0 0.096586996723390731 -0.16924014066117929 0 0.088003754599440459 -0.18208224847241139 0 0.1167335713074345 -0.16815996658832599 0 0.1057662180405126 -0.18376121660975839 0 0.096586996723390731 -0.16924014066117929 0 0.097816687714357101 -0.1491321615277198 0 0.1167335713074345 -0.16815996658832599 0 0.096586996723390731 -0.16924014066117929 0 0.097816687714357101 -0.1491321615277198 0 0.096586996723390731 -0.16924014066117929 0 0.074614751955208961 -0.16306511010768071 0 0.096586996723390731 -0.16924014066117929 0 0.088003754599440459 -0.18208224847241139 0 0.074614751955208961 -0.16306511010768071 0 0.081249786368593313 -0.19828995664483931 0 0.088003754599440459 -0.18208224847241139 0 0.07047658764435541 -0.18182632547560221 0 0.088003754599440459 -0.18208224847241139 0 0.07047658764435541 -0.18182632547560221 0 0.074614751955208961 -0.16306511010768071 0 0.07047658764435541 -0.18182632547560221 0 0.074614751955208961 -0.16306511010768071 0 0.051412816196060467 -0.1769980586876409 0 0.074614751955208961 -0.16306511010768071 0 0.051412816196060467 -0.1769980586876409 0 0.074614751955208961 -0.16306511010768071 0 0.082081721521233414 -0.1379383051805847 0 0.059673728221263177 -0.15236872514668301 0 0.097816687714357101 -0.1491321615277198 0 0.074614751955208961 -0.16306511010768071 0 0.097816687714357101 -0.1491321615277198 0 0.074614751955208961 -0.16306511010768071 0 0.082081721521233414 -0.1379383051805847 0 0.082081721521233414 -0.1379383051805847 0 0.064460583299079402 -0.13099264179885889 0 0.092929651420262174 -0.1219628866281712 0 0.097816687714357101 -0.1491321615277198 0 0.082081721521233414 -0.1379383051805847 0 0.092929651420262174 -0.1219628866281712 0 0.082081721521233414 -0.1379383051805847 0 0.064460583299079402 -0.13099264179885889 0 0.059673728221263177 -0.15236872514668301 0 0.064460583299079402 -0.13099264179885889 0 0.036006543072335383 -0.15225646396406639 0 0.044318484369973203 -0.123169194716407 0 0.064460583299079402 -0.13099264179885889 0 0.059673728221263177 -0.15236872514668301 0 0.036006543072335383 -0.15225646396406639 0 0.036006543072335383 -0.15225646396406639 0 0.02290514576360685 -0.12579026761235529 0 0.044318484369973203 -0.123169194716407 0 0.062336306311684152 -0.19661971809257819 0 0.07047658764435541 -0.18182632547560221 0 0.051412816196060467 -0.1769980586876409 0 0.062336306311684152 -0.19661971809257819 0 0.051412816196060467 -0.1769980586876409 0 0.059673728221263177 -0.15236872514668301 0 0.036006543072335383 -0.15225646396406639 0 0.051412816196060467 -0.1769980586876409 0 0.074614751955208961 -0.16306511010768071 0 0.059673728221263177 -0.15236872514668301 0 0.051412816196060467 -0.1769980586876409 0 0.036006543072335383 -0.15225646396406639 0 0.051412816196060467 -0.1769980586876409 0 0.02318041351306304 -0.17038053530025299 0 0.036006543072335383 -0.15225646396406639 0 0.051412816196060467 -0.1769980586876409 0 0.028109871142226919 -0.19099166415949129 0 0.046034796275638612 -0.19353526717559799 0 0.051412816196060467 -0.1769980586876409 0 0.028109871142226919 -0.19099166415949129 0 0.051412816196060467 -0.1769980586876409 0 0.028109871142226919 -0.19099166415949129 0 0.051412816196060467 -0.1769980586876409 0 0.02318041351306304 -0.17038053530025299 0 0.01035428395379076 -0.1885046066364395 0 0.02318041351306304 -0.17038053530025299 0 0.01035428395379076 -0.1885046066364395 0 0.028109871142226919 -0.19099166415949129 0 0.02318041351306304 -0.17038053530025299 0 0.036006543072335383 -0.15225646396406639 0 0.02318041351306304 -0.17038053530025299 0 0.02603672739863196 -0.14889172450111399 0 0.036006543072335383 -0.15225646396406639 0 0.02318041351306304 -0.17038053530025299 0 0.02318041351306304 -0.17038053530025299 0 0.02603672739863196 -0.14889172450111399 0 0.013421170068480599 -0.15152465852516669 0 0.02318041351306304 -0.17038053530025299 0 0.0054006282117030078 -0.17115340951654751 0 0.013421170068480599 -0.15152465852516669 0 0.0054006282117030078 -0.17115340951654751 0 0.00065275629941164825 -0.15716944352761131 0 0.013421170068480599 -0.15152465852516669 0 -0.0042549789881765557 -0.1864528278155668 0 0.01035428395379076 -0.1885046066364395 0 0.0054006282117030078 -0.17115340951654751 0 0.01035428395379076 -0.1885046066364395 0 0.02318041351306304 -0.17038053530025299 0 0.0054006282117030078 -0.17115340951654751 0 0.036006543072335383 -0.15225646396406639 0 0.021729649459489481 -0.14001381080754369 0 0.02290514576360685 -0.12579026761235529 0 0.036006543072335383 -0.15225646396406639 0 0.02290514576360685 -0.12579026761235529 0 0.021729649459489481 -0.14001381080754369 0 0.02290514576360685 -0.12579026761235529 0 0.010016746621742879 -0.13233037409638071 0 0.036006543072335383 -0.15225646396406639 0 0.021729649459489481 -0.14001381080754369 0 0.02603672739863196 -0.14889172450111399 0 0.021729649459489481 -0.14001381080754369 0 0.02603672739863196 -0.14889172450111399 0 0.013421170068480599 -0.15152465852516669 0 -0.00095973153774306244 -0.14404593988090539 0 0.013421170068480599 -0.15152465852516669 0 0.010016746621742879 -0.13233037409638071 0 0.021729649459489481 -0.14001381080754369 0 0.013421170068480599 -0.15152465852516669 0 0.010016746621742879 -0.13233037409638071 0 -0.00095973153774306244 -0.14404593988090539 0 0.00065275629941164825 -0.15716944352761131 0 0.013421170068480599 -0.15152465852516669 0 -0.0062744846531149201 -0.12881726042193811 0 0.010016746621742879 -0.13233037409638071 0 -0.0062744846531149201 -0.12881726042193811 0 0.010016746621742879 -0.13233037409638071 0 0.002463062698835043 -0.1235905736359144 0 -0.0062744846531149201 -0.12881726042193811 0 -0.00095973153774306244 -0.14404593988090539 0 0.010016746621742879 -0.13233037409638071 0 0.02290514576360685 -0.12579026761235529 0 0.010016746621742879 -0.13233037409638071 0 0.0088813179365562402 -0.1189591079824764 0 0.02290514576360685 -0.12579026761235529 0 0.0088813179365562402 -0.1189591079824764 0 0.0083345931126348333 -0.1022463110475928 0 0.008651310547381403 -0.1001863720747118 0 0.029398695379858751 -0.082921660467348682 0 0.043546220065229041 -0.1016098649206922 0 0.0039551091181825827 -0.1102244433856263 0 0.0088813179365562402 -0.1189591079824764 0 0.0083345931126348333 -0.1022463110475928 0 0.010016746621742879 -0.13233037409638071 0 0.002463062698835043 -0.1235905736359144 0 0.0088813179365562402 -0.1189591079824764 0 0.02290514576360685 -0.12579026761235529 0 0.008651310547381403 -0.1001863720747118 0 0.043546220065229041 -0.1016098649206922 0 0.02290514576360685 -0.12579026761235529 0 0.008651310547381403 -0.1001863720747118 0 0.0083345931126348333 -0.1022463110475928 0 -0.0036137038278406322 -0.1200102443132854 0 0.002463062698835043 -0.1235905736359144 0 0.0033054374168316478 -0.1178358813654916 0 0.002463062698835043 -0.1235905736359144 0 0.0033054374168316478 -0.1178358813654916 0 0.0088813179365562402 -0.1189591079824764 0 0.0033054374168316478 -0.1178358813654916 0 0.0039551091181825827 -0.1102244433856263 0 0.0088813179365562402 -0.1189591079824764 0 -0.002425667790299946 -0.1078413822007992 0 -0.00090063878149298593 -0.113305159396661 0 0.0039551091181825827 -0.1102244433856263 0 -0.00090063878149298593 -0.113305159396661 0 0.0033054374168316478 -0.1178358813654916 0 0.0039551091181825827 -0.1102244433856263 0 0.02290514576360685 -0.12579026761235529 0 0.008651310547381403 -0.1001863720747118 0 0.008651310547381403 -0.1001863720747118 0 0.0083345931126348333 -0.1022463110475928 0 0.0039551091181825827 -0.1102244433856263 0 0.0083345931126348333 -0.1022463110475928 0 0.0044977901216826021 -0.10432957332128349 0 0.0083345931126348333 -0.1022463110475928 0 0.0044977901216826021 -0.10432957332128349 0 0.0046303526176840054 -0.1006201455923444 0 0.0044977901216826021 -0.10432957332128349 0 0.001071105638228988 -0.1042273932595706 0 0.0046303526176840054 -0.1006201455923444 0 -0.002425667790299946 -0.1078413822007992 0 0.0039551091181825827 -0.1102244433856263 0 0.001071105638228988 -0.1042273932595706 0 0.0039551091181825827 -0.1102244433856263 0 0.0044977901216826021 -0.10432957332128349 0 0.001071105638228988 -0.1042273932595706 0 -0.00038276708765412891 -0.098977923510877905 0 0.0029950909501719491 -0.096902438069945182 0 0.0011513381275580911 -0.090011193369485931 0 0.008651310547381403 -0.1001863720747118 0 0.0083345931126348333 -0.1022463110475928 0 0.0046303526176840054 -0.1006201455923444 0 0.008651310547381403 -0.1001863720747118 0 0.0068857099407371447 -0.097014856983656819 0 0.0046303526176840054 -0.1006201455923444 0 0.008651310547381403 -0.1001863720747118 0 0.0068857099407371447 -0.097014856983656819 0 0.0068857099407371447 -0.097014856983656819 0 0.0046303526176840054 -0.1006201455923444 0 0.0029950909501719491 -0.096902438069945182 0 -0.00038276708765412891 -0.098977923510877905 0 0.0046303526176840054 -0.1006201455923444 0 0.0029950909501719491 -0.096902438069945182 0 -0.00038276708765412891 -0.098977923510877905 0 0.001071105638228988 -0.1042273932595706 0 0.0046303526176840054 -0.1006201455923444 0 0.0068857099407371447 -0.097014856983656819 0 0.0029950909501719491 -0.096902438069945182 0 0.0011513381275580911 -0.090011193369485931 0 0.008651310547381403 -0.1001863720747118 0 0.01250159025704432 -0.075144046139160925 0 0.008651310547381403 -0.1001863720747118 0 0.0068857099407371447 -0.097014856983656819 0 0.01250159025704432 -0.075144046139160925 0 0.0068857099407371447 -0.097014856983656819 0 0.0011513381275580911 -0.090011193369485931 0 0.01250159025704432 -0.075144046139160925 0 -0.0018642428565199261 -0.078249597871598381 0 0.0011513381275580911 -0.090011193369485931 0 0.01250159025704432 -0.075144046139160925 0 0.01250159025704432 -0.075144046139160925 0 0.016351869966708309 -0.050101720203610041 0 -0.00086097023970929318 -0.063673880671509669 0 0.01250159025704432 -0.075144046139160925 0 0.016351869966708309 -0.050101720203610041 0 -0.00086097023970929318 -0.063673880671509669 0 -0.0018642428565199261 -0.078249597871598381 0 0.01250159025704432 -0.075144046139160925 0 0.01250159025704432 -0.075144046139160925 0 0.02875290646142906 -0.064111714064585948 0 0.016351869966708309 -0.050101720203610041 0 0.01250159025704432 -0.075144046139160925 0 0.02875290646142906 -0.064111714064585948 0 0.029398695379858751 -0.082921660467348682 0 0.008651310547381403 -0.1001863720747118 0 0.01250159025704432 -0.075144046139160925 0 0.029398695379858751 -0.082921660467348682 0 0.029398695379858751 -0.082921660467348682 0 0.05354144956820877 -0.073556305137592287 0 0.043546220065229041 -0.1016098649206922 0 0.02875290646142906 -0.064111714064585948 0 0.05354144956820877 -0.073556305137592287 0 0.038868954256960637 -0.052622346459200178 0 0.02875290646142906 -0.064111714064585948 0 0.029398695379858751 -0.082921660467348682 0 0.05354144956820877 -0.073556305137592287 0 0.05354144956820877 -0.073556305137592287 0 0.043546220065229041 -0.1016098649206922 0 0.072967644291306671 -0.09881937871950694 0 0.043546220065229041 -0.1016098649206922 0 0.072967644291306671 -0.09881937871950694 0 0.064460583299079402 -0.13099264179885889 0 0.044318484369973203 -0.123169194716407 0 0.072967644291306671 -0.09881937871950694 0 0.044318484369973203 -0.123169194716407 0 0.043546220065229041 -0.1016098649206922 0 0.072967644291306671 -0.09881937871950694 0 0.02290514576360685 -0.12579026761235529 0 0.044318484369973203 -0.123169194716407 0 0.043546220065229041 -0.1016098649206922 0 0.024489195514857651 0.0028236706736158609 0 0.0063172090506025446 -0.012345682051064731 0 0.020420532740781872 -0.023639024764996922 0 0.024489195514857651 0.0028236706736158609 0 0.020420532740781872 -0.023639024764996922 0 0.024489195514857651 0.0028236706736158609 0 0.020420532740781872 -0.023639024764996922 0 0.038641671353948519 -0.016837761884857669 0 0.0032178168919596161 0.0019595894292276069 0 0.024489195514857651 0.0028236706736158609 0 0.0063172090506025446 -0.012345682051064731 0 -0.0035979654953676079 -0.0092278603356885126 0 0.0032178168919596161 0.0019595894292276069 0 0.0063172090506025446 -0.012345682051064731 0 0.001562421778993828 -0.02670645938091611 0 0.020420532740781872 -0.023639024764996922 0 0.0096378513281811969 -0.03568302245950436 0 0.0063172090506025446 -0.012345682051064731 0 0.001562421778993828 -0.02670645938091611 0 0.020420532740781872 -0.023639024764996922 0 -0.0038129298979381332 -0.01799064182445868 0 0.0063172090506025446 -0.012345682051064731 0 0.001562421778993828 -0.02670645938091611 0 0.020420532740781872 -0.023639024764996922 0 0.020791151202318569 -0.046601389254779822 0 0.038403425134976833 -0.034367667330689813 0 0.020420532740781872 -0.023639024764996922 0 0.016351869966708309 -0.050101720203610041 0 0.020420532740781872 -0.023639024764996922 0 0.020791151202318569 -0.046601389254779822 0 0.016351869966708309 -0.050101720203610041 0 0.020420532740781872 -0.023639024764996922 0 0.0096378513281811969 -0.03568302245950436 0 0.016351869966708309 -0.050101720203610041 0 0.0096378513281811969 -0.03568302245950436 0 0.00021658082623976019 -0.042284885488493122 0 0.016351869966708309 -0.050101720203610041 0 0.001562421778993828 -0.02670645938091611 0 0.0096378513281811969 -0.03568302245950436 0 0.00021658082623976019 -0.042284885488493122 0 0.00021658082623976019 -0.042284885488493122 0 0.00022555478829687159 -0.060213922832367379 0 0.016351869966708309 -0.050101720203610041 0 -0.00086097023970929318 -0.063673880671509669 0 0.016351869966708309 -0.050101720203610041 0 -0.00086097023970929318 -0.063673880671509669 0 0.00022555478829687159 -0.060213922832367379 0 0.016351869966708309 -0.050101720203610041 0 0.02875290646142906 -0.064111714064585948 0 0.020791151202318569 -0.046601389254779822 0 0.038868954256960637 -0.052622346459200178 0 0.02875290646142906 -0.064111714064585948 0 0.020791151202318569 -0.046601389254779822 0 0.016351869966708309 -0.050101720203610041 0 0.020791151202318569 -0.046601389254779822 0 0.016351869966708309 -0.050101720203610041 0 0.05354144956820877 -0.073556305137592287 0 0.038868954256960637 -0.052622346459200178 0 0.052855838917869977 -0.044474656508353069 0 0.05354144956820877 -0.073556305137592287 0 0.052855838917869977 -0.044474656508353069 0 0.077827992199423879 -0.058859650181093758 0 0.052855838917869977 -0.044474656508353069 0 0.038403425134976833 -0.034367667330689813 0 0.063580542371370216 -0.02406151300157441 0 0.020791151202318569 -0.046601389254779822 0 0.038868954256960637 -0.052622346459200178 0 0.038403425134976833 -0.034367667330689813 0 0.038868954256960637 -0.052622346459200178 0 0.052855838917869977 -0.044474656508353069 0 0.038403425134976833 -0.034367667330689813 0 0.020420532740781872 -0.023639024764996922 0 0.038403425134976833 -0.034367667330689813 0 0.038641671353948519 -0.016837761884857669 0 0.038403425134976833 -0.034367667330689813 0 0.038641671353948519 -0.016837761884857669 0 0.063580542371370216 -0.02406151300157441 0 0.05929449510074742 0.0063552286792952486 0 0.049658319354119018 -0.0044323536780991064 0 0.073713152294288292 -0.0044390369815718034 0 0.049658319354119018 -0.0044323536780991064 0 0.073713152294288292 -0.0044390369815718034 0 0.063580542371370216 -0.02406151300157441 0 0.038641671353948519 -0.016837761884857669 0 0.049658319354119018 -0.0044323536780991064 0 0.063580542371370216 -0.02406151300157441 0 0.024489195514857651 0.0028236706736158609 0 0.038641671353948519 -0.016837761884857669 0 0.049658319354119018 -0.0044323536780991064 0 0.092945523732250304 -0.0019428404374009971 0 0.073713152294288292 -0.0044390369815718034 0 0.083591108420606519 -0.018753849161392781 0 0.073713152294288292 -0.0044390369815718034 0 0.063580542371370216 -0.02406151300157441 0 0.063580542371370216 -0.02406151300157441 0 0.083591108420606519 -0.018753849161392781 0 0.083628602743890709 -0.036168952902824868 0 0.073713152294288292 -0.0044390369815718034 0 0.063580542371370216 -0.02406151300157441 0 0.083591108420606519 -0.018753849161392781 0 0.083591108420606519 -0.018753849161392781 0 0.083628602743890709 -0.036168952902824868 0 0.1040877209612331 -0.02715690248359184 0 0.092945523732250304 -0.0019428404374009971 0 0.083591108420606519 -0.018753849161392781 0 0.1040877209612331 -0.02715690248359184 0 0.052855838917869977 -0.044474656508353069 0 0.063580542371370216 -0.02406151300157441 0 0.083628602743890709 -0.036168952902824868 0 0.052855838917869977 -0.044474656508353069 0 0.083628602743890709 -0.036168952902824868 0 0.077827992199423879 -0.058859650181093758 0 0.052855838917869977 -0.044474656508353069 0 0.077827992199423879 -0.058859650181093758 0 0.083628602743890709 -0.036168952902824868 0 0.077827992199423879 -0.058859650181093758 0 0.096755624414389396 -0.050868266966612452 0 0.077827992199423879 -0.058859650181093758 0 0.096755624414389396 -0.050868266966612452 0 0.102800145480978 -0.073244643853834585 0 0.096755624414389396 -0.050868266966612452 0 0.1158174673809869 -0.050242047765780062 0 0.102800145480978 -0.073244643853834585 0 0.1158174673809869 -0.050242047765780062 0 0.12129125983277229 -0.033279209414011558 0 0.1040877209612331 -0.02715690248359184 0 0.096755624414389396 -0.050868266966612452 0 0.1158174673809869 -0.050242047765780062 0 0.1040877209612331 -0.02715690248359184 0 0.083628602743890709 -0.036168952902824868 0 0.096755624414389396 -0.050868266966612452 0 0.1040877209612331 -0.02715690248359184 0 0.1040877209612331 -0.02715690248359184 0 0.1118982545436496 -0.0052729711266230337 0 0.12615163272684149 -0.017217262287158839 0 0.12129125983277229 -0.033279209414011558 0 0.1040877209612331 -0.02715690248359184 0 0.12615163272684149 -0.017217262287158839 0 0.12958900945954591 0.0082402867038815827 0 0.1118982545436496 -0.0052729711266230337 0 0.12615163272684149 -0.017217262287158839 0 0.092945523732250304 -0.0019428404374009971 0 0.1040877209612331 -0.02715690248359184 0 0.1118982545436496 -0.0052729711266230337 0 0.064460583299079402 -0.13099264179885889 0 0.092929651420262174 -0.1219628866281712 0 0.072967644291306671 -0.09881937871950694 0 0.092929651420262174 -0.1219628866281712 0 0.072967644291306671 -0.09881937871950694 0 0.1023890685173844 -0.096028892518321626 0 0.072967644291306671 -0.09881937871950694 0 0.1023890685173844 -0.096028892518321626 0 0.05354144956820877 -0.073556305137592287 0 0.072967644291306671 -0.09881937871950694 0 0.081905260011460354 -0.080101774082069852 0 0.05354144956820877 -0.073556305137592287 0 0.077827992199423879 -0.058859650181093758 0 0.081905260011460354 -0.080101774082069852 0 0.077827992199423879 -0.058859650181093758 0 0.102800145480978 -0.073244643853834585 0 0.077827992199423879 -0.058859650181093758 0 0.081905260011460354 -0.080101774082069852 0 0.102800145480978 -0.073244643853834585 0 0.072967644291306671 -0.09881937871950694 0 0.081905260011460354 -0.080101774082069852 0 0.1023890685173844 -0.096028892518321626 0 0.081905260011460354 -0.080101774082069852 0 0.102800145480978 -0.073244643853834585 0 0.1023890685173844 -0.096028892518321626 0 0.1158174673809869 -0.050242047765780062 0 0.102800145480978 -0.073244643853834585 0 0.12133177397528019 -0.069942144933349062 0 0.102800145480978 -0.073244643853834585 0 0.12133177397528019 -0.069942144933349062 0 0.12777229876253199 -0.087629637526575335 0 0.1023890685173844 -0.096028892518321626 0 0.13181049274346221 -0.093238406317136313 0 0.12777229876253199 -0.087629637526575335 0 0.102800145480978 -0.073244643853834585 0 0.12777229876253199 -0.087629637526575335 0 0.102800145480978 -0.073244643853834585 0 0.1023890685173844 -0.096028892518321626 0 0.12777229876253199 -0.087629637526575335 0 0.1023890685173844 -0.096028892518321626 0 0.13181049274346221 -0.093238406317136313 0 0.1023890685173844 -0.096028892518321626 0 0.1253338956882504 -0.1027753017235614 0 0.13181049274346221 -0.093238406317136313 0 0.1023890685173844 -0.096028892518321626 0 0.12021328994273631 -0.114274720882307 0 0.1253338956882504 -0.1027753017235614 0 0.092929651420262174 -0.1219628866281712 0 0.1023890685173844 -0.096028892518321626 0 0.12021328994273631 -0.114274720882307 0 0.1210186234735052 -0.135199212947759 0 0.092929651420262174 -0.1219628866281712 0 0.12021328994273631 -0.114274720882307 0 0.12021328994273631 -0.114274720882307 0 0.14422055923265531 -0.1212662643678015 0 0.13538794132436219 -0.10841576710823039 0 0.1210186234735052 -0.135199212947759 0 0.12021328994273631 -0.114274720882307 0 0.14422055923265531 -0.1212662643678015 0 0.14422055923265531 -0.1212662643678015 0 0.148530948027353 -0.10002459354685279 0 0.13538794132436219 -0.10841576710823039 0 0.14422055923265531 -0.1212662643678015 0 0.148530948027353 -0.10002459354685279 0 0.14422055923265531 -0.1212662643678015 0 0.148530948027353 -0.10002459354685279 0 0.1676073735076834 -0.10722229475571041 0 0.14422055923265531 -0.1212662643678015 0 0.1676073735076834 -0.10722229475571041 0 0.148530948027353 -0.10002459354685279 0 0.13660163231146491 -0.099078119623107558 0 0.14194488377389691 -0.090936529419756898 0 0.13660163231146491 -0.099078119623107558 0 0.13181049274346221 -0.093238406317136313 0 0.14194488377389691 -0.090936529419756898 0 0.148530948027353 -0.10002459354685279 0 0.13660163231146491 -0.099078119623107558 0 0.13538794132436219 -0.10841576710823039 0 0.13660163231146491 -0.099078119623107558 0 0.13538794132436219 -0.10841576710823039 0 0.1253338956882504 -0.1027753017235614 0 0.12021328994273631 -0.114274720882307 0 0.13538794132436219 -0.10841576710823039 0 0.1253338956882504 -0.1027753017235614 0 0.13660163231146491 -0.099078119623107558 0 0.1253338956882504 -0.1027753017235614 0 0.13181049274346221 -0.093238406317136313 0 0.12777229876253199 -0.087629637526575335 0 0.13942626824586249 -0.082638429274140487 0 0.13069391057617269 -0.076549458176289387 0 0.13181049274346221 -0.093238406317136313 0 0.12777229876253199 -0.087629637526575335 0 0.13942626824586249 -0.082638429274140487 0 0.13181049274346221 -0.093238406317136313 0 0.13942626824586249 -0.082638429274140487 0 0.14194488377389691 -0.090936529419756898 0 0.12133177397528019 -0.069942144933349062 0 0.12777229876253199 -0.087629637526575335 0 0.13069391057617269 -0.076549458176289387 0 0.12133177397528019 -0.069942144933349062 0 0.13069391057617269 -0.076549458176289387 0 0.13832994784316191 -0.061855746542971532 0 0.13942626824586249 -0.082638429274140487 0 0.13069391057617269 -0.076549458176289387 0 0.13832994784316191 -0.061855746542971532 0 0.15284133682204501 -0.078782922725903121 0 0.13832994784316191 -0.061855746542971532 0 0.16130647837807649 -0.057632956615687243 0 0.13942626824586249 -0.082638429274140487 0 0.15284133682204501 -0.078782922725903121 0 0.13832994784316191 -0.061855746542971532 0 0.148530948027353 -0.10002459354685279 0 0.15284133682204501 -0.078782922725903121 0 0.148530948027353 -0.10002459354685279 0 0.15284133682204501 -0.078782922725903121 0 0.1641910187057565 -0.088914028261570743 0 0.148530948027353 -0.10002459354685279 0 0.14194488377389691 -0.090936529419756898 0 0.15284133682204501 -0.078782922725903121 0 0.13942626824586249 -0.082638429274140487 0 0.14194488377389691 -0.090936529419756898 0 0.15284133682204501 -0.078782922725903121 0 0.15284133682204501 -0.078782922725903121 0 0.1641910187057565 -0.088914028261570743 0 0.16709110471534511 -0.075694727788978622 0 0.1641910187057565 -0.088914028261570743 0 0.16709110471534511 -0.075694727788978622 0 0.1746764052925707 -0.080846985852674788 0 0.1641910187057565 -0.088914028261570743 0 0.17439894386954211 -0.090912644899304784 0 0.1746764052925707 -0.080846985852674788 0 0.15284133682204501 -0.078782922725903121 0 0.167349065418817 -0.066482888312938485 0 0.16130647837807649 -0.057632956615687243 0 0.15284133682204501 -0.078782922725903121 0 0.16709110471534511 -0.075694727788978622 0 0.167349065418817 -0.066482888312938485 0 0.16709110471534511 -0.075694727788978622 0 0.167349065418817 -0.066482888312938485 0 0.17397839221101319 -0.07211875588166855 0 0.18392319113701339 -0.07691583419912508 0 0.1883313966282541 -0.087054207256674343 0 0.18827104640584241 -0.069811627205147164 0 0.18392319113701339 -0.07691583419912508 0 0.1834803108132958 -0.06610202177781134 0 0.17685219449131959 -0.060653343254625777 0 0.17397839221101319 -0.07211875588166855 0 0.18392319113701339 -0.07691583419912508 0 0.17685219449131959 -0.060653343254625777 0 0.18392319113701339 -0.07691583419912508 0 0.17685219449131959 -0.060653343254625777 0 0.167349065418817 -0.066482888312938485 0 0.17397839221101319 -0.07211875588166855 0 0.17685219449131959 -0.060653343254625777 0 0.16709110471534511 -0.075694727788978622 0 0.17397839221101319 -0.07211875588166855 0 0.1746764052925707 -0.080846985852674788 0 0.17397839221101319 -0.07211875588166855 0 0.18392319113701339 -0.07691583419912508 0 0.1746764052925707 -0.080846985852674788 0 0.18392319113701339 -0.07691583419912508 0 0.1834803108132958 -0.06610202177781134 0 0.18827104640584241 -0.069811627205147164 0 0.1834803108132958 -0.06610202177781134 0 0.1848748112190077 -0.057027282452347353 0 0.18827104640584241 -0.069811627205147164 0 0.17439894386954211 -0.090912644899304784 0 0.18108547844619111 -0.085550427763460307 0 0.1909941877827131 -0.093178325143621898 0 0.17439894386954211 -0.090912644899304784 0 0.1746764052925707 -0.080846985852674788 0 0.18108547844619111 -0.085550427763460307 0 0.18392319113701339 -0.07691583419912508 0 0.18108547844619111 -0.085550427763460307 0 0.1883313966282541 -0.087054207256674343 0 0.18392319113701339 -0.07691583419912508 0 0.1746764052925707 -0.080846985852674788 0 0.18108547844619111 -0.085550427763460307 0 0.18392319113701339 -0.07691583419912508 0 0.1883313966282541 -0.087054207256674343 0 0.18108547844619111 -0.085550427763460307 0 0.1909941877827131 -0.093178325143621898 0 0.1883313966282541 -0.087054207256674343 0 0.17439894386954211 -0.090912644899304784 0 0.1676073735076834 -0.10722229475571041 0 0.1909941877827131 -0.093178325143621898 0 0.1676073735076834 -0.10722229475571041 0 0.19784147640568939 -0.1089263129882284 0 0.1909941877827131 -0.093178325143621898 0 0.1676073735076834 -0.10722229475571041 0 0.1909941877827131 -0.093178325143621898 0 0.18437608668855179 -0.1227412411296244 0 0.1676073735076834 -0.10722229475571041 0 0.19784147640568939 -0.1089263129882284 0 0.18437608668855179 -0.1227412411296244 0 0.1676073735076834 -0.10722229475571041 0 0.1644169962758886 -0.13078455374282269 0 0.14422055923265531 -0.1212662643678015 0 0.1676073735076834 -0.10722229475571041 0 0.1644169962758886 -0.13078455374282269 0 0.1641910187057565 -0.088914028261570743 0 0.17439894386954211 -0.090912644899304784 0 0.1676073735076834 -0.10722229475571041 0 0.148530948027353 -0.10002459354685279 0 0.1641910187057565 -0.088914028261570743 0 0.1676073735076834 -0.10722229475571041 0 0.15246063308071431 0.0047687105366082247 0 0.14413701637290471 -0.011137100399272881 0 0.16136924509771919 -0.0074534229633140409 0 0.14413701637290471 -0.011137100399272881 0 0.15806953809504909 -0.02379269952431198 0 0.16136924509771919 -0.0074534229633140409 0 0.12958900945954591 0.0082402867038815827 0 0.14413701637290471 -0.011137100399272881 0 0.12615163272684149 -0.017217262287158839 0 0.14413701637290471 -0.011137100399272881 0 0.12615163272684149 -0.017217262287158839 0 0.13910821826202791 -0.038500625119515491 0 0.12129125983277229 -0.033279209414011558 0 0.12615163272684149 -0.017217262287158839 0 0.13910821826202791 -0.038500625119515491 0 0.13910821826202791 -0.038500625119515491 0 0.15806953809504909 -0.02379269952431198 0 0.14413701637290471 -0.011137100399272881 0 0.13910821826202791 -0.038500625119515491 0 0.15806953809504909 -0.02379269952431198 0 0.1546326346784121 -0.042932358731584339 0 0.13910821826202791 -0.038500625119515491 0 0.15806953809504909 -0.02379269952431198 0 0.1158174673809869 -0.050242047765780062 0 0.12129125983277229 -0.033279209414011558 0 0.13910821826202791 -0.038500625119515491 0 0.1158174673809869 -0.050242047765780062 0 0.12133177397528019 -0.069942144933349062 0 0.13832994784316191 -0.061855746542971532 0 0.1158174673809869 -0.050242047765780062 0 0.13910821826202791 -0.038500625119515491 0 0.13832994784316191 -0.061855746542971532 0 0.1546326346784121 -0.042932358731584339 0 0.13832994784316191 -0.061855746542971532 0 0.16130647837807649 -0.057632956615687243 0 0.13832994784316191 -0.061855746542971532 0 0.16130647837807649 -0.057632956615687243 0 0.1546326346784121 -0.042932358731584339 0 0.13910821826202791 -0.038500625119515491 0 0.13832994784316191 -0.061855746542971532 0 0.16130647837807649 -0.057632956615687243 0 0.1842830089129909 -0.053410166688402948 0 0.16965421470964129 -0.04335873477962892 0 0.1546326346784121 -0.042932358731584339 0 0.16130647837807649 -0.057632956615687243 0 0.16965421470964129 -0.04335873477962892 0 0.167349065418817 -0.066482888312938485 0 0.16130647837807649 -0.057632956615687243 0 0.17685219449131959 -0.060653343254625777 0 0.16130647837807649 -0.057632956615687243 0 0.1842830089129909 -0.053410166688402948 0 0.16130647837807649 -0.057632956615687243 0 0.17685219449131959 -0.060653343254625777 0 0.1842830089129909 -0.053410166688402948 0 0.1848748112190077 -0.057027282452347353 0 0.18773558369405821 -0.052775627980022687 0 0.18827104640584241 -0.069811627205147164 0 0.1834803108132958 -0.06610202177781134 0 0.17685219449131959 -0.060653343254625777 0 0.1848748112190077 -0.057027282452347353 0 0.17685219449131959 -0.060653343254625777 0 0.1848748112190077 -0.057027282452347353 0 0.1842830089129909 -0.053410166688402948 0 0.1848748112190077 -0.057027282452347353 0 0.1842830089129909 -0.053410166688402948 0 0.1848748112190077 -0.057027282452347353 0 0.1842830089129909 -0.053410166688402948 0 0.18773558369405821 -0.052775627980022687 0 0.1842830089129909 -0.053410166688402948 0 0.18773558369405821 -0.052775627980022687 0 0.1842830089129909 -0.053410166688402948 0 0.1806569334205301 -0.031247470308755462 0 0.18773558369405821 -0.052775627980022687 0 0.1842830089129909 -0.053410166688402948 0 0.1806569334205301 -0.031247470308755462 0 0.1806569334205301 -0.031247470308755462 0 0.18693790862043291 -0.027397218546196471 0 0.18773558369405821 -0.052775627980022687 0 0.1842830089129909 -0.053410166688402948 0 0.1806569334205301 -0.031247470308755462 0 0.16965421470964129 -0.04335873477962892 0 0.18693790862043291 -0.027397218546196471 0 0.18773558369405821 -0.052775627980022687 0 0.1546326346784121 -0.042932358731584339 0 0.16965421470964129 -0.04335873477962892 0 0.15806953809504909 -0.02379269952431198 0 0.1806569334205301 -0.031247470308755462 0 0.16965421470964129 -0.04335873477962892 0 0.15806953809504909 -0.02379269952431198 0 0.15806953809504909 -0.02379269952431198 0 0.17703085792806991 -0.009084773929107736 0 0.1806569334205301 -0.031247470308755462 0 0.18693790862043291 -0.027397218546196471 0 0.17703085792806991 -0.009084773929107736 0 0.1806569334205301 -0.031247470308755462 0 0.15806953809504909 -0.02379269952431198 0 0.17703085792806991 -0.009084773929107736 0 0.1806569334205301 -0.031247470308755462 0 0.17703085792806991 -0.009084773929107736 0 0.18693790862043291 -0.027397218546196471 0 0.17703085792806991 -0.009084773929107736 0 0.18614023354680539 -0.002018809112370359 0 0.18693790862043291 -0.027397218546196471 0 0.18614023354680539 -0.002018809112370359 0 0.17703085792806991 -0.009084773929107736 0 0.18614023354680539 -0.002018809112370359 0 0.18031367860553521 0.00054102776989574559 0 0.17703085792806991 -0.009084773929107736 0 0.18614023354680539 -0.002018809112370359 0 0.17533225670188299 0.001297134369336352 0 0.18031367860553521 0.00054102776989574559 0 0.17703085792806991 -0.009084773929107736 0 0.17533225670188299 0.001297134369336352 0 0.17703085792806991 -0.009084773929107736 0 0.17533225670188299 0.001297134369336352 0 0.17703085792806991 -0.009084773929107736 0 0.16136924509771919 -0.0074534229633140409 0 0.15806953809504909 -0.02379269952431198 0 0.17703085792806991 -0.009084773929107736 0 0.16136924509771919 -0.0074534229633140409 0 0.17533225670188299 0.001297134369336352 0 0.15246063308071431 0.0047687105366082247 0 0.16136924509771919 -0.0074534229633140409 0 0.20977352922889511 0.001414786459988571 0 0.20006125535615621 -0.011665240653138641 0 0.2092652930774335 -0.020567776962190618 0 0.20977352922889511 0.001414786459988571 0 0.21539892906656249 -0.0076220170266086433 0 0.2092652930774335 -0.020567776962190618 0 0.20977352922889511 0.001414786459988571 0 0.2092652930774335 -0.020567776962190618 0 0.22164143852297941 0.0021693921146658272 0 0.20977352922889511 0.001414786459988571 0 0.21539892906656249 -0.0076220170266086433 0 0.21539892906656249 -0.0076220170266086433 0 0.21632855605297169 -0.01453118686502684 0 0.2092652930774335 -0.020567776962190618 0 0.21539892906656249 -0.0076220170266086433 0 0.21632855605297169 -0.01453118686502684 0 0.2229038509685512 -0.01001140655007628 0 0.20977352922889511 0.001414786459988571 0 0.20004141081272961 -0.0015046789799236699 0 0.20006125535615621 -0.011665240653138641 0 0.18614023354680539 -0.002018809112370359 0 0.20004141081272961 -0.0015046789799236699 0 0.20006125535615621 -0.011665240653138641 0 0.18614023354680539 -0.002018809112370359 0 0.20006125535615621 -0.011665240653138641 0 0.19625924130060879 -0.021833290171717271 0 0.20006125535615621 -0.011665240653138641 0 0.2026433891918277 -0.030613221697298579 0 0.2045811936692887 -0.025490092485738001 0 0.20006125535615621 -0.011665240653138641 0 0.19625924130060879 -0.021833290171717271 0 0.2026433891918277 -0.030613221697298579 0 0.18693790862043291 -0.027397218546196471 0 0.18614023354680539 -0.002018809112370359 0 0.19625924130060879 -0.021833290171717271 0 0.20006125535615621 -0.011665240653138641 0 0.2026433891918277 -0.030613221697298579 0 0.18693790862043291 -0.027397218546196471 0 0.19625924130060879 -0.021833290171717271 0 0.19512909927474989 -0.030298164244811271 0 0.19625924130060879 -0.021833290171717271 0 0.19512909927474989 -0.030298164244811271 0 0.2026433891918277 -0.030613221697298579 0 0.2045811936692887 -0.025490092485738001 0 0.2092652930774335 -0.020567776962190618 0 0.2142199199207297 -0.029579714577244329 0 0.20006125535615621 -0.011665240653138641 0 0.2045811936692887 -0.025490092485738001 0 0.2092652930774335 -0.020567776962190618 0 0.21632855605297169 -0.01453118686502684 0 0.2092652930774335 -0.020567776962190618 0 0.21920516235834889 -0.021631600256029899 0 0.2092652930774335 -0.020567776962190618 0 0.2142199199207297 -0.029579714577244329 0 0.21920516235834889 -0.021631600256029899 0 0.2026433891918277 -0.030613221697298579 0 0.2045811936692887 -0.025490092485738001 0 0.2141261927741672 -0.047925374455930772 0 0.2045811936692887 -0.025490092485738001 0 0.2141261927741672 -0.047925374455930772 0 0.2026433891918277 -0.030613221697298579 0 0.20522552302749861 -0.049561202741458643 0 0.2142199199207297 -0.029579714577244329 0 0.2141261927741672 -0.047925374455930772 0 0.22379130568960001 -0.032963268331785388 0 0.2045811936692887 -0.025490092485738001 0 0.2142199199207297 -0.029579714577244329 0 0.2141261927741672 -0.047925374455930772 0 0.2026433891918277 -0.030613221697298579 0 0.20522552302749861 -0.049561202741458643 0 0.2141261927741672 -0.047925374455930772 0 0.19512909927474989 -0.030298164244811271 0 0.2026433891918277 -0.030613221697298579 0 0.1946758579861303 -0.041348926564032787 0 0.2026433891918277 -0.030613221697298579 0 0.1946758579861303 -0.041348926564032787 0 0.20522552302749861 -0.049561202741458643 0 0.18693790862043291 -0.027397218546196471 0 0.1946758579861303 -0.041348926564032787 0 0.18773558369405821 -0.052775627980022687 0 0.18693790862043291 -0.027397218546196471 0 0.19512909927474989 -0.030298164244811271 0 0.1946758579861303 -0.041348926564032787 0 0.18773558369405821 -0.052775627980022687 0 0.19660035760409389 -0.061150202461120677 0 0.18827104640584241 -0.069811627205147164 0 0.19660035760409389 -0.061150202461120677 0 0.20522552302749861 -0.049561202741458643 0 0.20743441462199491 -0.06577029131886214 0 0.18773558369405821 -0.052775627980022687 0 0.19660035760409389 -0.061150202461120677 0 0.20522552302749861 -0.049561202741458643 0 0.1946758579861303 -0.041348926564032787 0 0.18773558369405821 -0.052775627980022687 0 0.20522552302749861 -0.049561202741458643 0 0.18773558369405821 -0.052775627980022687 0 0.20522552302749861 -0.049561202741458643 0 0.18773558369405821 -0.052775627980022687 0 0.18827104640584241 -0.069811627205147164 0 0.20522552302749861 -0.049561202741458643 0 0.2141261927741672 -0.047925374455930772 0 0.20743441462199491 -0.06577029131886214 0 0.2141261927741672 -0.047925374455930772 0 0.20743441462199491 -0.06577029131886214 0 0.22475383638485219 -0.07290538529352121 0 0.20522552302749861 -0.049561202741458643 0 0.20743441462199491 -0.06577029131886214 0 0.20522552302749861 -0.049561202741458643 0 0.2141261927741672 -0.047925374455930772 0 0.2141261927741672 -0.047925374455930772 0 0.22484233790203209 -0.054221456394809388 0 0.22475383638485219 -0.07290538529352121 0 0.2141261927741672 -0.047925374455930772 0 0.22484233790203209 -0.054221456394809388 0 0.23151912761262769 -0.044728777392237247 0 0.2141261927741672 -0.047925374455930772 0 0.22475383638485219 -0.07290538529352121 0 0.22484233790203209 -0.054221456394809388 0 0.2320730044671887 -0.056324717425072467 0 0.22475383638485219 -0.07290538529352121 0 0.22484233790203209 -0.054221456394809388 0 0.2320730044671887 -0.056324717425072467 0 0.23151912761262769 -0.044728777392237247 0 0.2320730044671887 -0.056324717425072467 0 0.2377309463666214 -0.059038335459902287 0 0.24008272880601281 -0.051610677741500473 0 0.2377309463666214 -0.059038335459902287 0 0.24353087285553421 -0.05499369295838543 0 0.24008272880601281 -0.051610677741500473 0 0.2377309463666214 -0.059038335459902287 0 0.24353087285553421 -0.05499369295838543 0 0.2478490388504985 -0.059036530912662873 0 0.24353087285553421 -0.05499369295838543 0 0.2478490388504985 -0.059036530912662873 0 0.24846077739900391 -0.050289227719476123 0 0.25010446016163312 -0.058845529356422413 0 0.2478490388504985 -0.059036530912662873 0 0.24952936794354999 -0.065605354759813939 0 0.24353087285553421 -0.05499369295838543 0 0.24846077739900391 -0.050289227719476123 0 0.24008272880601281 -0.051610677741500473 0 0.24846077739900391 -0.050289227719476123 0 0.24008272880601281 -0.051610677741500473 0 0.2489120624510883 -0.041532180328544117 0 0.2320730044671887 -0.056324717425072467 0 0.24008272880601281 -0.051610677741500473 0 0.23151912761262769 -0.044728777392237247 0 0.2489120624510883 -0.041532180328544117 0 0.23660199446733979 -0.033236465596462497 0 0.23151912761262769 -0.044728777392237247 0 0.2489120624510883 -0.041532180328544117 0 0.23151912761262769 -0.044728777392237247 0 0.24008272880601281 -0.051610677741500473 0 0.2489120624510883 -0.041532180328544117 0 0.23151912761262769 -0.044728777392237247 0 0.2489120624510883 -0.041532180328544117 0 0.23660199446733979 -0.033236465596462497 0 0.24698717984836149 -0.02374143453863593 0 0.2141261927741672 -0.047925374455930772 0 0.23151912761262769 -0.044728777392237247 0 0.2141261927741672 -0.047925374455930772 0 0.23151912761262769 -0.044728777392237247 0 0.22379130568960001 -0.032963268331785388 0 0.23660199446733979 -0.033236465596462497 0 0.23151912761262769 -0.044728777392237247 0 0.22379130568960001 -0.032963268331785388 0 0.22379130568960001 -0.032963268331785388 0 0.21920516235834889 -0.021631600256029899 0 0.23050449512996479 -0.022345028976757549 0 0.2142199199207297 -0.029579714577244329 0 0.22379130568960001 -0.032963268331785388 0 0.21920516235834889 -0.021631600256029899 0 0.21920516235834889 -0.021631600256029899 0 0.23050449512996479 -0.022345028976757549 0 0.2229038509685512 -0.01001140655007628 0 0.23660199446733979 -0.033236465596462497 0 0.22379130568960001 -0.032963268331785388 0 0.23050449512996479 -0.022345028976757549 0 0.23050449512996479 -0.022345028976757549 0 0.24698717984836149 -0.02374143453863593 0 0.237575303317933 -0.01022514656559044 0 0.23660199446733979 -0.033236465596462497 0 0.23050449512996479 -0.022345028976757549 0 0.24698717984836149 -0.02374143453863593 0 0.2451261203409961 0.0043847638784739072 0 0.25508029436526169 -0.0064403887472080264 0 0.237575303317933 -0.01022514656559044 0 0.25508029436526169 -0.0064403887472080264 0 0.24698717984836149 -0.02374143453863593 0 0.237575303317933 -0.01022514656559044 0 0.2451261203409961 0.0043847638784739072 0 0.23368652064930381 0.00073941904104069249 0 0.237575303317933 -0.01022514656559044 0 0.23368652064930381 0.00073941904104069249 0 0.237575303317933 -0.01022514656559044 0 0.2229038509685512 -0.01001140655007628 0 0.23050449512996479 -0.022345028976757549 0 0.237575303317933 -0.01022514656559044 0 0.2229038509685512 -0.01001140655007628 0 0.21632855605297169 -0.01453118686502684 0 0.21920516235834889 -0.021631600256029899 0 0.2229038509685512 -0.01001140655007628 0 0.22164143852297941 0.0021693921146658272 0 0.23368652064930381 0.00073941904104069249 0 0.2229038509685512 -0.01001140655007628 0 0.22164143852297941 0.0021693921146658272 0 0.21539892906656249 -0.0076220170266086433 0 0.2229038509685512 -0.01001140655007628 0 0.2119044190373422 -0.098571673555227585 0 0.21416553185819229 -0.1151639672141896 0 0.2119044190373422 -0.098571673555227585 0 0.21416553185819229 -0.1151639672141896 0 0.19784147640568939 -0.1089263129882284 0 0.2119044190373422 -0.098571673555227585 0 0.2171119944218248 -0.10431126037376171 0 0.21416553185819229 -0.1151639672141896 0 0.2119044190373422 -0.098571673555227585 0 0.2171119944218248 -0.10431126037376171 0 0.22167002917067671 -0.09804340448352182 0 0.2119044190373422 -0.098571673555227585 0 0.21705832795173161 -0.089419111970185622 0 0.22167002917067671 -0.09804340448352182 0 0.2171119944218248 -0.10431126037376171 0 0.21644845073372571 -0.112872962220479 0 0.2197335077847101 -0.1088256624226772 0 0.2171119944218248 -0.10431126037376171 0 0.21644845073372571 -0.112872962220479 0 0.21416553185819229 -0.1151639672141896 0 0.21416553185819229 -0.1151639672141896 0 0.2193423945017513 -0.1235021472997388 0 0.21676486953412491 -0.13423819192342359 0 0.21416553185819229 -0.1151639672141896 0 0.20468876502867209 -0.12467430083283219 0 0.19784147640568939 -0.1089263129882284 0 0.21416553185819229 -0.1151639672141896 0 0.20468876502867209 -0.12467430083283219 0 0.21676486953412491 -0.13423819192342359 0 0.21416553185819229 -0.1151639672141896 0 0.21676486953412491 -0.13423819192342359 0 0.21644845073372571 -0.112872962220479 0 0.21832293047104601 -0.1167809402016031 0 0.21416553185819229 -0.1151639672141896 0 0.21644845073372571 -0.112872962220479 0 0.21832293047104601 -0.1167809402016031 0 0.22038523166479809 -0.11714592244862559 0 0.21644845073372571 -0.112872962220479 0 0.21416553185819229 -0.1151639672141896 0 0.21832293047104601 -0.1167809402016031 0 0.21416553185819229 -0.1151639672141896 0 0.2193423945017513 -0.1235021472997388 0 0.21416553185819229 -0.1151639672141896 0 0.20468876502867209 -0.12467430083283219 0 0.20468876502867209 -0.12467430083283219 0 0.19784147640568939 -0.1089263129882284 0 0.18437608668855179 -0.1227412411296244 0 0.20468876502867209 -0.12467430083283219 0 0.19784147640568939 -0.1089263129882284 0 0.19784147640568939 -0.1089263129882284 0 0.1909941877827131 -0.093178325143621898 0 0.2119044190373422 -0.098571673555227585 0 0.19784147640568939 -0.1089263129882284 0 0.1909941877827131 -0.093178325143621898 0 0.1883313966282541 -0.087054207256674343 0 0.18827104640584241 -0.069811627205147164 0 0.1909941877827131 -0.093178325143621898 0 0.1883313966282541 -0.087054207256674343 0 0.19773594966542751 -0.07804054822929149 0 0.1883313966282541 -0.087054207256674343 0 0.18827104640584241 -0.069811627205147164 0 0.19773594966542751 -0.07804054822929149 0 0.1909941877827131 -0.093178325143621898 0 0.19773594966542751 -0.07804054822929149 0 0.2096433062164903 -0.081979379896265803 0 0.1909941877827131 -0.093178325143621898 0 0.1883313966282541 -0.087054207256674343 0 0.1909941877827131 -0.093178325143621898 0 0.2096433062164903 -0.081979379896265803 0 0.19660035760409389 -0.061150202461120677 0 0.18827104640584241 -0.069811627205147164 0 0.19751044207433971 -0.068693167303605362 0 0.18827104640584241 -0.069811627205147164 0 0.19773594966542751 -0.07804054822929149 0 0.19751044207433971 -0.068693167303605362 0 0.19773594966542751 -0.07804054822929149 0 0.19751044207433971 -0.068693167303605362 0 0.20743441462199491 -0.06577029131886214 0 0.19660035760409389 -0.061150202461120677 0 0.19751044207433971 -0.068693167303605362 0 0.20743441462199491 -0.06577029131886214 0 0.20743441462199491 -0.06577029131886214 0 0.2096433062164903 -0.081979379896265803 0 0.22475383638485219 -0.07290538529352121 0 0.19773594966542751 -0.07804054822929149 0 0.20743441462199491 -0.06577029131886214 0 0.2096433062164903 -0.081979379896265803 0 0.20743441462199491 -0.06577029131886214 0 0.2096433062164903 -0.081979379896265803 0 0.2096433062164903 -0.081979379896265803 0 0.22475383638485219 -0.07290538529352121 0 0.2119044190373422 -0.098571673555227585 0 0.1909941877827131 -0.093178325143621898 0 0.2096433062164903 -0.081979379896265803 0 0.2119044190373422 -0.098571673555227585 0 0.2096433062164903 -0.081979379896265803 0 0.21705832795173161 -0.089419111970185622 0 0.2119044190373422 -0.098571673555227585 0 0.2096433062164903 -0.081979379896265803 0 0.2096433062164903 -0.081979379896265803 0 0.21705832795173161 -0.089419111970185622 0 0.2240672659700528 -0.081595624990510623 0 0.21705832795173161 -0.089419111970185622 0 0.2240672659700528 -0.081595624990510623 0 0.22167002917067671 -0.09804340448352182 0 0.2096433062164903 -0.081979379896265803 0 0.2240672659700528 -0.081595624990510623 0 0.22475383638485219 -0.07290538529352121 0 0.23114272086482879 -0.087922298674885796 0 0.22475383638485219 -0.07290538529352121 0 0.2240672659700528 -0.081595624990510623 0 0.23114272086482879 -0.087922298674885796 0 0.22475383638485219 -0.07290538529352121 0 0.23114272086482879 -0.087922298674885796 0 0.22475383638485219 -0.07290538529352121 0 0.23748076520277631 -0.073513655481329626 0 0.2240672659700528 -0.081595624990510623 0 0.23114272086482879 -0.087922298674885796 0 0.22811091839509501 -0.095870581061138396 0 0.2320730044671887 -0.056324717425072467 0 0.2377309463666214 -0.059038335459902287 0 0.22475383638485219 -0.07290538529352121 0 0.2478490388504985 -0.059036530912662873 0 0.22475383638485219 -0.07290538529352121 0 0.2478490388504985 -0.059036530912662873 0 0.22475383638485219 -0.07290538529352121 0 0.23748076520277631 -0.073513655481329626 0 0.2377309463666214 -0.059038335459902287 0 0.2478490388504985 -0.059036530912662873 0 0.22475383638485219 -0.07290538529352121 0 0.25046272238782219 -0.075368870229317098 0 0.23748076520277631 -0.073513655481329626 0 0.24952936794354999 -0.065605354759813939 0 0.2478490388504985 -0.059036530912662873 0 0.23748076520277631 -0.073513655481329626 0 0.24952936794354999 -0.065605354759813939 0 0.23114272086482879 -0.087922298674885796 0 0.24504482176070319 -0.087071356254802626 0 0.2375316053447997 -0.1029392120562527 0 0.23114272086482879 -0.087922298674885796 0 0.23748076520277631 -0.073513655481329626 0 0.24504482176070319 -0.087071356254802626 0 0.25046272238782219 -0.075368870229317098 0 0.23748076520277631 -0.073513655481329626 0 0.24504482176070319 -0.087071356254802626 0 0.2560906559004702 -0.1008317257693031 0 0.25104496500934131 -0.10665186621876339 0 0.2375316053447997 -0.1029392120562527 0 0.2560906559004702 -0.1008317257693031 0 0.24504482176070319 -0.087071356254802626 0 0.2375316053447997 -0.1029392120562527 0 0.2560906559004702 -0.1008317257693031 0 0.2375316053447997 -0.1029392120562527 0 0.2375316053447997 -0.1029392120562527 0 0.23362080933981161 -0.10826756204456819 0 0.23593117942826719 -0.1136729604957883 0 0.2375316053447997 -0.1029392120562527 0 0.23164777485694221 -0.1036073546441888 0 0.2240672659700528 -0.081595624990510623 0 0.22811091839509501 -0.095870581061138396 0 0.22417712415586941 -0.1074964825125888 0 0.2240672659700528 -0.081595624990510623 0 0.22417712415586941 -0.1074964825125888 0 0.22167002917067671 -0.09804340448352182 0 0.2375316053447997 -0.1029392120562527 0 0.22811091839509501 -0.095870581061138396 0 0.23004224748479779 -0.10093827979275589 0 0.23114272086482879 -0.087922298674885796 0 0.2375316053447997 -0.1029392120562527 0 0.22811091839509501 -0.095870581061138396 0 0.23114272086482879 -0.087922298674885796 0 0.2375316053447997 -0.1029392120562527 0 0.2240672659700528 -0.081595624990510623 0 0.22417712415586941 -0.1074964825125888 0 0.22811091839509501 -0.095870581061138396 0 0.23004224748479779 -0.10093827979275589 0 0.22750866344502119 -0.10411070776192299 0 0.2375316053447997 -0.1029392120562527 0 0.23164777485694221 -0.1036073546441888 0 0.23362080933981161 -0.10826756204456819 0 0.2375316053447997 -0.1029392120562527 0 0.23004224748479779 -0.10093827979275589 0 0.23164777485694221 -0.1036073546441888 0 0.22811091839509501 -0.095870581061138396 0 0.22750866344502119 -0.10411070776192299 0 0.22417712415586941 -0.1074964825125888 0 0.23164777485694221 -0.1036073546441888 0 0.23362080933981161 -0.10826756204456819 0 0.2295981015827662 -0.10720659315308149 0 0.2295981015827662 -0.10720659315308149 0 0.22688136774960471 -0.1068638796449481 0 0.22750866344502119 -0.10411070776192299 0 0.2295981015827662 -0.10720659315308149 0 0.22688136774960471 -0.1068638796449481 0 0.22624158181476181 -0.10864173515219901 0 0.23164777485694221 -0.1036073546441888 0 0.2295981015827662 -0.10720659315308149 0 0.22750866344502119 -0.10411070776192299 0 0.23004224748479779 -0.10093827979275589 0 0.23164777485694221 -0.1036073546441888 0 0.22750866344502119 -0.10411070776192299 0 0.22417712415586941 -0.1074964825125888 0 0.2210482329873221 -0.10400724751344791 0 0.22167002917067671 -0.09804340448352182 0 0.22688136774960471 -0.1068638796449481 0 0.22624158181476181 -0.10864173515219901 0 0.22417712415586941 -0.1074964825125888 0 0.22688136774960471 -0.1068638796449481 0 0.22750866344502119 -0.10411070776192299 0 0.22417712415586941 -0.1074964825125888 0 0.22417712415586941 -0.1074964825125888 0 0.2197335077847101 -0.1088256624226772 0 0.22051771483743149 -0.1061601632056189 0 0.2171119944218248 -0.10431126037376171 0 0.2197335077847101 -0.1088256624226772 0 0.22051771483743149 -0.1061601632056189 0 0.22417712415586941 -0.1074964825125888 0 0.22051771483743149 -0.1061601632056189 0 0.2210482329873221 -0.10400724751344791 0 0.2171119944218248 -0.10431126037376171 0 0.2210482329873221 -0.10400724751344791 0 0.22167002917067671 -0.09804340448352182 0 0.2171119944218248 -0.10431126037376171 0 0.22051771483743149 -0.1061601632056189 0 0.2210482329873221 -0.10400724751344791 0 0.23053891499044121 -0.1158098666059974 0 0.23408052725952841 -0.1236194572403663 0 0.22428698234168601 -0.1333973400346668 0 0.2193423945017513 -0.1235021472997388 0 0.22038523166479809 -0.11714592244862559 0 0.22428698234168601 -0.1333973400346668 0 0.22417712415586941 -0.1074964825125888 0 0.22038523166479809 -0.11714592244862559 0 0.22428698234168601 -0.1333973400346668 0 0.22624158181476181 -0.10864173515219901 0 0.23053891499044121 -0.1158098666059974 0 0.22428698234168601 -0.1333973400346668 0 0.22624158181476181 -0.10864173515219901 0 0.22428698234168601 -0.1333973400346668 0 0.22624158181476181 -0.10864173515219901 0 0.22417712415586941 -0.1074964825125888 0 0.22428698234168601 -0.1333973400346668 0 0.22417712415586941 -0.1074964825125888 0 0.22428698234168601 -0.1333973400346668 0 0.21832293047104601 -0.1167809402016031 0 0.2193423945017513 -0.1235021472997388 0 0.22038523166479809 -0.11714592244862559 0 0.21644845073372571 -0.112872962220479 0 0.2197335077847101 -0.1088256624226772 0 0.22038523166479809 -0.11714592244862559 0 0.22417712415586941 -0.1074964825125888 0 0.2197335077847101 -0.1088256624226772 0 0.22038523166479809 -0.11714592244862559 0 0.2295981015827662 -0.10720659315308149 0 0.22624158181476181 -0.10864173515219901 0 0.23053891499044121 -0.1158098666059974 0 0.23362080933981161 -0.10826756204456819 0 0.2295981015827662 -0.10720659315308149 0 0.23053891499044121 -0.1158098666059974 0 0.23362080933981161 -0.10826756204456819 0 0.23053891499044121 -0.1158098666059974 0 0.23593117942826719 -0.1136729604957883 0 0.23053891499044121 -0.1158098666059974 0 0.23408052725952841 -0.1236194572403663 0 0.23593117942826719 -0.1136729604957883 0 0.2375316053447997 -0.1029392120562527 0 0.23593117942826719 -0.1136729604957883 0 0.24497368252223581 -0.12043162856516471 0 0.25104496500934131 -0.10665186621876339 0 0.2375316053447997 -0.1029392120562527 0 0.24497368252223581 -0.12043162856516471 0 0.23408052725952841 -0.1236194572403663 0 0.23593117942826719 -0.1136729604957883 0 0.24497368252223581 -0.12043162856516471 0 0.2375316053447997 -0.1029392120562527 0 0.24497368252223581 -0.12043162856516471 0 0.25241575969966962 -0.13792404507407771 0 0.24497368252223581 -0.12043162856516471 0 0.25241575969966962 -0.13792404507407771 0 0.24497368252223581 -0.12043162856516471 0 0.23467187701501191 -0.13478549050021421 0 0.25241575969966962 -0.13792404507407771 0 0.23467187701501191 -0.13478549050021421 0 0.23838920693156621 -0.14458112510867921 0 0.23408052725952841 -0.1236194572403663 0 0.24497368252223581 -0.12043162856516471 0 0.23467187701501191 -0.13478549050021421 0 0.25241575969966962 -0.13792404507407771 0 0.23838920693156621 -0.14458112510867921 0 0.24518798506814199 -0.16078301861961181 0 0.23838920693156621 -0.14458112510867921 0 0.23334140546213011 -0.15921351704925779 0 0.24518798506814199 -0.16078301861961181 0 0.25241575969966962 -0.13792404507407771 0 0.23838920693156621 -0.14458112510867921 0 0.22436265416346199 -0.15123820514327879 0 0.22282055503196699 -0.15197009397650821 0 0.22428698234168601 -0.1333973400346668 0 0.22282055503196699 -0.15197009397650821 0 0.22428698234168601 -0.1333973400346668 0 0.23467187701501191 -0.13478549050021421 0 0.23838920693156621 -0.14458112510867921 0 0.22436265416346199 -0.15123820514327879 0 0.22282055503196699 -0.15197009397650821 0 0.22428698234168601 -0.1333973400346668 0 0.21853191300597771 -0.1427188344996996 0 0.22436265416346199 -0.15123820514327879 0 0.22428698234168601 -0.1333973400346668 0 0.23838920693156621 -0.14458112510867921 0 0.22436265416346199 -0.15123820514327879 0 0.23334140546213011 -0.15921351704925779 0 0.23838920693156621 -0.14458112510867921 0 0.22436265416346199 -0.15123820514327879 0 0.22282055503196699 -0.15197009397650821 0 0.21853191300597771 -0.1427188344996996 0 0.2176285170718468 -0.15443426409832289 0 0.22436265416346199 -0.15123820514327879 0 0.22282055503196699 -0.15197009397650821 0 0.22185797024254489 -0.1641615270762348 0 0.22436265416346199 -0.15123820514327879 0 0.22282055503196699 -0.15197009397650821 0 0.22282055503196699 -0.15197009397650821 0 0.2176285170718468 -0.15443426409832289 0 0.23467187701501191 -0.13478549050021421 0 0.22436265416346199 -0.15123820514327879 0 0.22428698234168601 -0.1333973400346668 0 0.23408052725952841 -0.1236194572403663 0 0.23467187701501191 -0.13478549050021421 0 0.22428698234168601 -0.1333973400346668 0 0.22428698234168601 -0.1333973400346668 0 0.21676486953412491 -0.13423819192342359 0 0.21853191300597771 -0.1427188344996996 0 0.2193423945017513 -0.1235021472997388 0 0.22428698234168601 -0.1333973400346668 0 0.21676486953412491 -0.13423819192342359 0 0.20468876502867209 -0.12467430083283219 0 0.21115864105026061 -0.13955428246557711 0 0.20468876502867209 -0.12467430083283219 0 0.21676486953412491 -0.13423819192342359 0 0.21115864105026061 -0.13955428246557711 0 0.21676486953412491 -0.13423819192342359 0 0.21115864105026061 -0.13955428246557711 0 0.21853191300597771 -0.1427188344996996 0 0.21115864105026061 -0.13955428246557711 0 0.2176285170718468 -0.15443426409832289 0 0.21115864105026061 -0.13955428246557711 0 0.21853191300597771 -0.1427188344996996 0 0.2176285170718468 -0.15443426409832289 0 0.21115864105026061 -0.13955428246557711 0 0.2176285170718468 -0.15443426409832289 0 0.2030140222422129 -0.15130916945137679 0 0.21115864105026061 -0.13955428246557711 0 0.2030140222422129 -0.15130916945137679 0 0.18732582222482561 -0.14209874332852829 0 0.2030140222422129 -0.15130916945137679 0 0.19575636727623549 -0.16481490816143771 0 0.18732582222482561 -0.14209874332852829 0 0.18437608668855179 -0.1227412411296244 0 0.20468876502867209 -0.12467430083283219 0 0.18732582222482561 -0.14209874332852829 0 0.20468876502867209 -0.12467430083283219 0 0.21115864105026061 -0.13955428246557711 0 0.18732582222482561 -0.14209874332852829 0 0.20468876502867209 -0.12467430083283219 0 0.18732582222482561 -0.14209874332852829 0 0.1994970232197133 -0.1778070464189565 0 0.20864330346910581 -0.18402215422604409 0 0.19540264782519581 -0.18909902458845251 0 0.18899289501367461 -0.17945347651404719 0 0.19540264782519581 -0.18909902458845251 0 0.18049257820507419 -0.19043371242151461 0 0.1994970232197133 -0.1778070464189565 0 0.18899289501367461 -0.17945347651404719 0 0.19540264782519581 -0.18909902458845251 0 0.1994970232197133 -0.1778070464189565 0 0.18899289501367461 -0.17945347651404719 0 0.19575636727623549 -0.16481490816143771 0 0.1994970232197133 -0.1778070464189565 0 0.19575636727623549 -0.16481490816143771 0 0.20868990251435471 -0.17164566860480071 0 0.2176285170718468 -0.15443426409832289 0 0.19575636727623549 -0.16481490816143771 0 0.20868990251435471 -0.17164566860480071 0 0.2176285170718468 -0.15443426409832289 0 0.20868990251435471 -0.17164566860480071 0 0.2164606300019267 -0.1699597578350307 0 0.2176285170718468 -0.15443426409832289 0 0.19575636727623549 -0.16481490816143771 0 0.2176285170718468 -0.15443426409832289 0 0.2030140222422129 -0.15130916945137679 0 0.19575636727623549 -0.16481490816143771 0 0.2176285170718468 -0.15443426409832289 0 0.2164606300019267 -0.1699597578350307 0 0.22185797024254489 -0.1641615270762348 0 0.2164606300019267 -0.1699597578350307 0 0.21365417139548201 -0.17784951908509791 0 0.22047258878540299 -0.1817078103106978 0 0.20868990251435471 -0.17164566860480071 0 0.2164606300019267 -0.1699597578350307 0 0.21365417139548201 -0.17784951908509791 0 0.1994970232197133 -0.1778070464189565 0 0.20868990251435471 -0.17164566860480071 0 0.20864330346910581 -0.18402215422604409 0 0.20868990251435471 -0.17164566860480071 0 0.21365417139548201 -0.17784951908509791 0 0.20864330346910581 -0.18402215422604409 0 0.21365417139548201 -0.17784951908509791 0 0.20864330346910581 -0.18402215422604409 0 0.22047258878540299 -0.1817078103106978 0 0.22047258878540299 -0.1817078103106978 0 0.22448699186142909 -0.18055284360878041 0 0.22567180778009821 -0.18884033732622299 0 0.2164606300019267 -0.1699597578350307 0 0.22047258878540299 -0.1817078103106978 0 0.22185797024254489 -0.1641615270762348 0 0.22047258878540299 -0.1817078103106978 0 0.22185797024254489 -0.1641615270762348 0 0.224442681997781 -0.1701060711935459 0 0.22047258878540299 -0.1817078103106978 0 0.22185797024254489 -0.1641615270762348 0 0.22448699186142909 -0.18055284360878041 0 0.224442681997781 -0.1701060711935459 0 0.22448699186142909 -0.18055284360878041 0 0.22549520465376011 -0.17252675402220469 0 0.22818255203774701 -0.1771063618139247 0 0.22047258878540299 -0.1817078103106978 0 0.22448699186142909 -0.18055284360878041 0 0.224442681997781 -0.1701060711935459 0 0.22448699186142909 -0.18055284360878041 0 0.22549520465376011 -0.17252675402220469 0 0.224442681997781 -0.1701060711935459 0 0.22549520465376011 -0.17252675402220469 0 0.22896603931400139 -0.1730914939805292 0 0.224442681997781 -0.1701060711935459 0 0.22818255203774701 -0.1771063618139247 0 0.23238525873101859 -0.1763591176917973 0 0.23075193454935139 -0.183387710842003 0 0.22818255203774701 -0.1771063618139247 0 0.22896603931400139 -0.1730914939805292 0 0.23238525873101859 -0.1763591176917973 0 0.22549520465376011 -0.17252675402220469 0 0.22818255203774701 -0.1771063618139247 0 0.22896603931400139 -0.1730914939805292 0 0.22896603931400139 -0.1730914939805292 0 0.23238525873101859 -0.1763591176917973 0 0.23432449914969999 -0.16935916518117339 0 0.22448699186142909 -0.18055284360878041 0 0.23075193454935139 -0.183387710842003 0 0.22567180778009821 -0.18884033732622299 0 0.22448699186142909 -0.18055284360878041 0 0.22818255203774701 -0.1771063618139247 0 0.23075193454935139 -0.183387710842003 0 0.22436265416346199 -0.15123820514327879 0 0.22185797024254489 -0.1641615270762348 0 0.224442681997781 -0.1701060711935459 0 0.22436265416346199 -0.15123820514327879 0 0.224442681997781 -0.1701060711935459 0 0.22436265416346199 -0.15123820514327879 0 0.224442681997781 -0.1701060711935459 0 0.23334140546213011 -0.15921351704925779 0 0.22282055503196699 -0.15197009397650821 0 0.2176285170718468 -0.15443426409832289 0 0.22185797024254489 -0.1641615270762348 0 0.22282055503196699 -0.15197009397650821 0 0.22185797024254489 -0.1641615270762348 0 0.2176285170718468 -0.15443426409832289 0 0.22185797024254489 -0.1641615270762348 0 0.22185797024254489 -0.1641615270762348 0 0.224442681997781 -0.1701060711935459 0 0.22549520465376011 -0.17252675402220469 0 0.224442681997781 -0.1701060711935459 0 0.224442681997781 -0.1701060711935459 0 0.23432449914969999 -0.16935916518117339 0 0.23334140546213011 -0.15921351704925779 0 0.22896603931400139 -0.1730914939805292 0 0.224442681997781 -0.1701060711935459 0 0.23432449914969999 -0.16935916518117339 0 0.23432449914969999 -0.16935916518117339 0 0.24518798506814199 -0.16078301861961181 0 0.24007982673906361 -0.17877867316658991 0 0.23432449914969999 -0.16935916518117339 0 0.23334140546213011 -0.15921351704925779 0 0.24518798506814199 -0.16078301861961181 0 0.25521528754913642 -0.17713091955479959 0 0.24518798506814199 -0.16078301861961181 0 0.24007982673906361 -0.17877867316658991 0 0.25309004251675982 -0.19294459334545869 0 0.25521528754913642 -0.17713091955479959 0 0.24007982673906361 -0.17877867316658991 0 0.23075193454935139 -0.183387710842003 0 0.24007982673906361 -0.17877867316658991 0 0.23480056242722569 -0.19518792343523389 0 0.23238525873101859 -0.1763591176917973 0 0.23075193454935139 -0.183387710842003 0 0.24007982673906361 -0.17877867316658991 0 0.23238525873101859 -0.1763591176917973 0 0.23432449914969999 -0.16935916518117339 0 0.24007982673906361 -0.17877867316658991 0 0.25309004251675982 -0.19294459334545869 0 0.23480056242722569 -0.19518792343523389 0 0.24765950136004131 -0.20893905512949251 0 0.25309004251675982 -0.19294459334545869 0 0.24007982673906361 -0.17877867316658991 0 0.23480056242722569 -0.19518792343523389 0 0.23480056242722569 -0.19518792343523389 0 0.24765950136004131 -0.20893905512949251 0 0.2313386556393329 -0.21265800856656791 0 0.24765950136004131 -0.20893905512949251 0 0.2313386556393329 -0.21265800856656791 0 0.24743971781254301 -0.2286926522483447 0 0.2313386556393329 -0.21265800856656791 0 0.22377802219692389 -0.22879456545481169 0 0.2166843451603053 -0.2122374910313321 0 0.2313386556393329 -0.21265800856656791 0 0.2190872073282604 -0.19925409354516069 0 0.2166843451603053 -0.2122374910313321 0 0.23480056242722569 -0.19518792343523389 0 0.2190872073282604 -0.19925409354516069 0 0.22567180778009821 -0.18884033732622299 0 0.22047258878540299 -0.1817078103106978 0 0.2190872073282604 -0.19925409354516069 0 0.22567180778009821 -0.18884033732622299 0 0.23480056242722569 -0.19518792343523389 0 0.2313386556393329 -0.21265800856656791 0 0.2190872073282604 -0.19925409354516069 0 0.22047258878540299 -0.1817078103106978 0 0.2190872073282604 -0.19925409354516069 0 0.23075193454935139 -0.183387710842003 0 0.23480056242722569 -0.19518792343523389 0 0.22567180778009821 -0.18884033732622299 0 0.26129569893452748 -0.25287054109717938 0 0.23784141349313209 -0.2421884637426199 0 0.24743971781254301 -0.2286926522483447 0 0.23784141349313209 -0.2421884637426199 0 0.24743971781254301 -0.2286926522483447 0 0.22377802219692389 -0.22879456545481169 0 0.2313386556393329 -0.21265800856656791 0 0.24743971781254301 -0.2286926522483447 0 0.22377802219692389 -0.22879456545481169 0 0.23784141349313209 -0.2421884637426199 0 0.22377802219692389 -0.22879456545481169 0 0.22171352428988941 -0.24450694981644239 0 0.2337939613287752 -0.25828249515595081 0 0.23784141349313209 -0.2421884637426199 0 0.22171352428988941 -0.24450694981644239 0 0.2075772349461002 -0.25612331933417709 0 0.22171352428988941 -0.24450694981644239 0 0.2053298763797235 -0.23760525644874189 0 0.22377802219692389 -0.22879456545481169 0 0.22171352428988941 -0.24450694981644239 0 0.2053298763797235 -0.23760525644874189 0 0.22377802219692389 -0.22879456545481169 0 0.20406373531202179 -0.2192048757796935 0 0.2166843451603053 -0.2122374910313321 0 0.22377802219692389 -0.22879456545481169 0 0.2053298763797235 -0.23760525644874189 0 0.20406373531202179 -0.2192048757796935 0 0.2053298763797235 -0.23760525644874189 0 0.20406373531202179 -0.2192048757796935 0 0.19005781519810591 -0.22730474992921909 0 0.2053298763797235 -0.23760525644874189 0 0.19005781519810591 -0.22730474992921909 0 0.18486682611718569 -0.247210883510741 0 0.2075772349461002 -0.25612331933417709 0 0.2053298763797235 -0.23760525644874189 0 0.18486682611718569 -0.247210883510741 0 0.20864330346910581 -0.18402215422604409 0 0.2190872073282604 -0.19925409354516069 0 0.20515410532498771 -0.2012759118104267 0 0.20864330346910581 -0.18402215422604409 0 0.22047258878540299 -0.1817078103106978 0 0.2190872073282604 -0.19925409354516069 0 0.20406373531202179 -0.2192048757796935 0 0.20515410532498771 -0.2012759118104267 0 0.2166843451603053 -0.2122374910313321 0 0.2190872073282604 -0.19925409354516069 0 0.20515410532498771 -0.2012759118104267 0 0.2166843451603053 -0.2122374910313321 0 0.20406373531202179 -0.2192048757796935 0 0.20515410532498771 -0.2012759118104267 0 0.1904728517507687 -0.20446944894058369 0 0.20406373531202179 -0.2192048757796935 0 0.19005781519810591 -0.22730474992921909 0 0.1904728517507687 -0.20446944894058369 0 0.20864330346910581 -0.18402215422604409 0 0.20515410532498771 -0.2012759118104267 0 0.19540264782519581 -0.18909902458845251 0 0.20515410532498771 -0.2012759118104267 0 0.1904728517507687 -0.20446944894058369 0 0.19540264782519581 -0.18909902458845251 0 0.1904728517507687 -0.20446944894058369 0 0.19540264782519581 -0.18909902458845251 0 0.18049257820507419 -0.19043371242151461 0 0.18049257820507419 -0.19043371242151461 0 0.17793467529715831 -0.20291086197729599 0 0.16673493969996969 -0.19939949194334119 0 0.1904728517507687 -0.20446944894058369 0 0.18049257820507419 -0.19043371242151461 0 0.17793467529715831 -0.20291086197729599 0 0.19005781519810591 -0.22730474992921909 0 0.1904728517507687 -0.20446944894058369 0 0.17822142630792159 -0.21510332746060351 0 0.1904728517507687 -0.20446944894058369 0 0.17793467529715831 -0.20291086197729599 0 0.17822142630792159 -0.21510332746060351 0 0.17793467529715831 -0.20291086197729599 0 0.17822142630792159 -0.21510332746060351 0 0.16546380463505289 -0.21340848951717209 0 0.17793467529715831 -0.20291086197729599 0 0.16546380463505289 -0.21340848951717209 0 0.16673493969996969 -0.19939949194334119 0 0.16546380463505289 -0.21340848951717209 0 0.16509408125518621 -0.2286740978936844 0 0.15118297408250811 -0.21373372377577371 0 0.16546380463505289 -0.21340848951717209 0 0.15887409503514641 -0.2057992683049511 0 0.15118297408250811 -0.21373372377577371 0 0.16546380463505289 -0.21340848951717209 0 0.15887409503514641 -0.2057992683049511 0 0.16673493969996969 -0.19939949194334119 0 0.15887409503514641 -0.2057992683049511 0 0.15642428573302231 -0.1961549191275139 0 0.16673493969996969 -0.19939949194334119 0 0.15642428573302231 -0.1961549191275139 0 0.16580601400397479 -0.18935713410730751 0 0.16673493969996969 -0.19939949194334119 0 0.15642428573302231 -0.1961549191275139 0 0.16580601400397479 -0.18935713410730751 0 0.15201206768501299 -0.18557619628766719 0 0.18049257820507419 -0.19043371242151461 0 0.16580601400397479 -0.18935713410730751 0 0.16673493969996969 -0.19939949194334119 0 0.19005781519810591 -0.22730474992921909 0 0.18486682611718569 -0.247210883510741 0 0.16509408125518621 -0.2286740978936844 0 0.19005781519810591 -0.22730474992921909 0 0.17822142630792159 -0.21510332746060351 0 0.16509408125518621 -0.2286740978936844 0 0.17822142630792159 -0.21510332746060351 0 0.16546380463505289 -0.21340848951717209 0 0.16509408125518621 -0.2286740978936844 0 0.18486682611718569 -0.247210883510741 0 0.16509408125518621 -0.2286740978936844 0 0.15719732882609569 -0.24871633148724009 0 0.16509408125518621 -0.2286740978936844 0 0.15719732882609569 -0.24871633148724009 0 0.14961169964086279 -0.22702922664397479 0 0.15719732882609569 -0.24871633148724009 0 0.14961169964086279 -0.22702922664397479 0 0.1382104432117201 -0.23610973777663991 0 0.1415465317265375 -0.2570178282157492 0 0.15719732882609569 -0.24871633148724009 0 0.1382104432117201 -0.23610973777663991 0 0.15719732882609569 -0.24871633148724009 0 0.1382104432117201 -0.23610973777663991 0 0.14961169964086279 -0.22702922664397479 0 0.13835426179713489 -0.22292126026183931 0 0.1382104432117201 -0.23610973777663991 0 0.16509408125518621 -0.2286740978936844 0 0.14961169964086279 -0.22702922664397479 0 0.15118297408250811 -0.21373372377577371 0 0.14961169964086279 -0.22702922664397479 0 0.13835426179713489 -0.22292126026183931 0 0.15118297408250811 -0.21373372377577371 0 0.1192235575973445 -0.22350314406603969 0 0.13835426179713489 -0.22292126026183931 0 0.1345866988126562 -0.21219890027470339 0 0.1192235575973445 -0.22350314406603969 0 0.13835426179713489 -0.22292126026183931 0 0.1382104432117201 -0.23610973777663991 0 0.1192235575973445 -0.22350314406603969 0 0.1382104432117201 -0.23610973777663991 0 0.11416944265073289 -0.23871959272587989 0 0.12752522270429539 -0.24759131898811201 0 0.1382104432117201 -0.23610973777663991 0 0.1415465317265375 -0.2570178282157492 0 0.12752522270429539 -0.24759131898811201 0 0.1382104432117201 -0.23610973777663991 0 0.14605432312165659 -0.20027595945238691 0 0.1301399178894018 -0.19595684035078201 0 0.15201206768501299 -0.18557619628766719 0 0.1301399178894018 -0.19595684035078201 0 0.15201206768501299 -0.18557619628766719 0 0.15642428573302231 -0.1961549191275139 0 0.14605432312165659 -0.20027595945238691 0 0.15201206768501299 -0.18557619628766719 0 0.15887409503514641 -0.2057992683049511 0 0.15642428573302231 -0.1961549191275139 0 0.14605432312165659 -0.20027595945238691 0 0.15887409503514641 -0.2057992683049511 0 0.14605432312165659 -0.20027595945238691 0 0.15118297408250811 -0.21373372377577371 0 0.14605432312165659 -0.20027595945238691 0 0.15118297408250811 -0.21373372377577371 0 0.1345866988126562 -0.21219890027470339 0 0.13835426179713489 -0.22292126026183931 0 0.15118297408250811 -0.21373372377577371 0 0.1345866988126562 -0.21219890027470339 0 0.1244003844379538 -0.20806968087553979 0 0.1345866988126562 -0.21219890027470339 0 0.1301399178894018 -0.19595684035078201 0 0.1244003844379538 -0.20806968087553979 0 0.1192235575973445 -0.22350314406603969 0 0.1345866988126562 -0.21219890027470339 0 0.14605432312165659 -0.20027595945238691 0 0.1345866988126562 -0.21219890027470339 0 0.1301399178894018 -0.19595684035078201 0 0.11971162772547631 -0.1874071974738474 0 0.1301399178894018 -0.19595684035078201 0 0.1319487932862112 -0.18174174002494661 0 0.1319487932862112 -0.18174174002494661 0 0.14256538383270009 -0.1805982787888927 0 0.14317098554209451 -0.1713426521320863 0 0.1301399178894018 -0.19595684035078201 0 0.1319487932862112 -0.18174174002494661 0 0.14256538383270009 -0.1805982787888927 0 0.1301399178894018 -0.19595684035078201 0 0.14256538383270009 -0.1805982787888927 0 0.15201206768501299 -0.18557619628766719 0 0.14256538383270009 -0.1805982787888927 0 0.15259993661713109 -0.17694762831991839 0 0.14317098554209451 -0.1713426521320863 0 0.14256538383270009 -0.1805982787888927 0 0.15259993661713109 -0.17694762831991839 0 0.15201206768501299 -0.18557619628766719 0 0.15259993661713109 -0.17694762831991839 0 0.1506855364878017 -0.15969342919101329 0 0.14317098554209451 -0.1713426521320863 0 0.1506855364878017 -0.15969342919101329 0 0.14317098554209451 -0.1713426521320863 0 0.13603938193502779 -0.16158324813923189 0 0.1319487932862112 -0.18174174002494661 0 0.13603938193502779 -0.16158324813923189 0 0.1167335713074345 -0.16815996658832599 0 0.1319487932862112 -0.18174174002494661 0 0.13603938193502779 -0.16158324813923189 0 0.1319487932862112 -0.18174174002494661 0 0.14317098554209451 -0.1713426521320863 0 0.13603938193502779 -0.16158324813923189 0 0.1210186234735052 -0.135199212947759 0 0.12203226152806999 -0.15208990587069529 0 0.14012997058384441 -0.1414247562535173 0 0.13603938193502779 -0.16158324813923189 0 0.14012997058384441 -0.1414247562535173 0 0.12203226152806999 -0.15208990587069529 0 0.13603938193502779 -0.16158324813923189 0 0.14012997058384441 -0.1414247562535173 0 0.1210186234735052 -0.135199212947759 0 0.14422055923265531 -0.1212662643678015 0 0.1210186234735052 -0.135199212947759 0 0.14422055923265531 -0.1212662643678015 0 0.14012997058384441 -0.1414247562535173 0 0.14422055923265531 -0.1212662643678015 0 0.14012997058384441 -0.1414247562535173 0 0.1644169962758886 -0.13078455374282269 0 0.14012997058384441 -0.1414247562535173 0 0.1625042409986677 -0.14670493366802101 0 0.1644169962758886 -0.13078455374282269 0 0.14422055923265531 -0.1212662643678015 0 0.14012997058384441 -0.1414247562535173 0 0.1506855364878017 -0.15969342919101329 0 0.14012997058384441 -0.1414247562535173 0 0.1625042409986677 -0.14670493366802101 0 0.1506855364878017 -0.15969342919101329 0 0.13603938193502779 -0.16158324813923189 0 0.14012997058384441 -0.1414247562535173 0 0.1506855364878017 -0.15969342919101329 0 0.1625042409986677 -0.14670493366802101 0 0.16996287942097829 -0.15952318582422331 0 0.1625042409986677 -0.14670493366802101 0 0.1644169962758886 -0.13078455374282269 0 0.18732582222482561 -0.14209874332852829 0 0.18437608668855179 -0.1227412411296244 0 0.1644169962758886 -0.13078455374282269 0 0.18732582222482561 -0.14209874332852829 0 0.18732582222482561 -0.14209874332852829 0 0.16996287942097829 -0.15952318582422331 0 0.19575636727623549 -0.16481490816143771 0 0.18732582222482561 -0.14209874332852829 0 0.16996287942097829 -0.15952318582422331 0 0.1625042409986677 -0.14670493366802101 0 0.18732582222482561 -0.14209874332852829 0 0.16996287942097829 -0.15952318582422331 0 0.19575636727623549 -0.16481490816143771 0 0.1738842174806243 -0.17519555222455241 0 0.19575636727623549 -0.16481490816143771 0 0.1738842174806243 -0.17519555222455241 0 0.16996287942097829 -0.15952318582422331 0 0.18899289501367461 -0.17945347651404719 0 0.19575636727623549 -0.16481490816143771 0 0.1738842174806243 -0.17519555222455241 0 0.18899289501367461 -0.17945347651404719 0 0.18049257820507419 -0.19043371242151461 0 0.1738842174806243 -0.17519555222455241 0 0.18049257820507419 -0.19043371242151461 0 0.16580601400397479 -0.18935713410730751 0 0.1738842174806243 -0.17519555222455241 0 0.15201206768501299 -0.18557619628766719 0 0.1738842174806243 -0.17519555222455241 0 0.16580601400397479 -0.18935713410730751 0 0.15201206768501299 -0.18557619628766719 0 0.1738842174806243 -0.17519555222455241 0 0.15259993661713109 -0.17694762831991839 0 0.15201206768501299 -0.18557619628766719 0 0.1738842174806243 -0.17519555222455241 0 0.15259993661713109 -0.17694762831991839 0 0.16996287942097829 -0.15952318582422331 0 0.15259993661713109 -0.17694762831991839 0 0.1506855364878017 -0.15969342919101329 0 0.16996287942097829 -0.15952318582422331 0 0.15259993661713109 -0.17694762831991839 0 0.1738842174806243 -0.17519555222455241 0 0.16996287942097829 -0.15952318582422331 0 
</DataArray>
</Points>
<Cells>
<DataArray type="UInt32" Name="connectivity" format="ascii">
0 1 2 3 4 5 6 7 8 9 10 11 12 13 14 15 16 17 18 19 20 21 22 23 24 25 26 27 28 29 30 31 32 33 34 35 36 37 38 39 40 41 42 43 44 45 46 47 48 49 50 51 52 53 54 55 56 57 58 59 60 61 62 63 64 65 66 67 68 69 70 71 72 73 74 75 76 77 78 79 80 81 82 83 84 85 86 87 88 89 90 91 92 93 94 95 96 97 98 99 100 101 102 103 104 105 106 107 108 109 110 111 112 113 114 115 116 117 118 119 120 121 122 123 124 125 126 127 128 129 130 131 132 133 134 135 136 137 138 139 140 141 142 143 144 145 146 147 148 149 150 151 152 153 154 155 156 157 158 159 160 161 162 163 164 165 166 167 168 169 170 171 172 173 174 175 176 177 178 179 180 181 182 183 184 185 186 187 188 189 190 191 192 193 194 195 196 197 198 199 200 201 202 203 204 205 206 207 208 209 210 211 212 213 214 215 216 217 218 219 220 221 222 223 224 225 226 227 228 229 230 231 232 233 234 235 236 237 238 239 240 241 242 243 244 245 246 247 248 249 250 251 252 253 254 255 256 257 258 259 260 261 262 263 264 265 266 267 268 269 270 271 272 273 274 275 276 277 278 279 280 281 282 283 284 285 286 287 288 289 290 291 292 293 294 295 296 297 298 299 300 301 302 303 304 305 306 307 308 309 310 311 312 313 314 315 316 317 318 319 320 321 322 323 324 325 326 327 328 329 330 331 332 333 334 335 336 337 338 339 340 341 342 343 344 345 346 347 348 349 350 351 352 353 354 355 356 357 358 359 360 361 362 363 364 365 366 367 368 369 370 371 372 373 374 375 376 377 378 379 380 381 382 383 384 385 386 387 388 389 390 391 392 393 394 395 396 397 398 399 400 401 402 403 404 405 406 407 408 409 410 411 412 413 414 415 416 417 418 419 420 421 422 423 424 425 426 427 428 429 430 431 432 433 434 435 436 437 438 439 440 441 442 443 444 445 446 447 448 449 450 451 452 453 454 455 456 457 458 459 460 461 462 463 464 465 466 467 468 469 470 471 472 473 474 475 476 477 478 479 480 481 482 483 484 485 486 487 488 489 490 491 492 493 494 495 496 497 498 499 500 501 502 503 504 505 506 507 508 509 510 511 512 513 514 515 516 517 518 519 520 521 522 523 524 525 526 527 528 529 530 531 532 533 534 535 536 537 538 539 540 541 542 543 544 545 546 547 548 549 550 551 552 553 554 555 556 557 558 559 560 561 562 563 564 565 566 567 568 569 570 571 572 573 574 575 576 577 578 579 580 581 582 583 584 585 586 587 588 589 590 591 592 593 594 595 596 597 598 599 600 601 602 603 604 605 606 607 608 609 610 611 612 613 614 615 616 617 618 619 620 621 622 623 624 625 626 627 628 629 630 631 632 633 634 635 636 637 638 639 640 641 642 643 644 645 646 647 648 649 650 651 652 653 654 655 656 657 658 659 660 661 662 663 664 665 666 667 668 669 670 671 672 673 674 675 676 677 678 679 680 681 682 683 684 685 686 687 688 689 690 691 692 693 694 695 696 697 698 699 700 701 702 703 704 705 706 707 708 709 710 711 712 713 714 715 716 717 718 719 720 721 722 723 724 725 726 727 728 729 730 731 732 733 734 735 736 737 738 739 740 741 742 743 744 745 746 747 748 749 750 751 752 753 754 755 756 757 758 759 760 761 762 763 764 765 766 767 768 769 770 771 772 773 774 775 776 777 778 779 780 781 782 783 784 785 786 787 788 789 790 791 792 793 794 795 796 797 798 799 800 801 802 803 804 805 806 807 808 809 810 811 812 813 814 815 816 817 818 819 820 821 822 823 824 825 826 827 828 829 830 831 832 833 834 835 836 837 838 839 840 841 842 843 844 845 846 847 848 849 850 851 852 853 854 855 856 857 858 859 860 861 862 863 864 865 866 867 868 869 870 871 872 873 874 875 876 877 878 879 880 881 882 883 884 885 886 887 888 889 890 891 892 893 894 895 896 897 898 899 900 901 902 903 904 905 906 907 908 909 910 911 912 913 914 915 916 917 918 919 920 921 922 923 924 925 926 927 928 929 930 931 932 933 934 935 936 937 938 939 940 941 942 943 944 945 946 947 948 949 950 951 952 953 954 955 956 957 958 959 960 961 962 963 964 965 966 967 968 969 970 971 972 973 974 975 976 977 978 979 980 981 982 983 984 985 986 987 988 989 990 991 992 993 994 995 996 997 998 999 1000 1001 1002 1003 1004 1005 1006 1007 1008 1009 1010 1011 1012 1013 1014 1015 1016 1017 1018 1019 1020 1021 1022 1023 1024 1025 1026 1027 1028 1029 1030 1031 1032 1033 1034 1035 1036 1037 1038 1039 1040 1041 1042 1043 1044 1045 1046 1047 1048 1049 1050 1051 1052 1053 1054 1055 1056 1057 1058 1059 1060 1061 1062 1063 1064 1065 1066 1067 1068 1069 1070 1071 1072 1073 1074 1075 1076 1077 1078 1079 1080 1081 1082 1083 1084 1085 1086 1087 1088 1089 1090 1091 1092 1093 1094 1095 1096 1097 1098 1099 1100 1101 1102 1103 1104 1105 1106 1107 1108 1109 1110 1111 1112 1113 1114 1115 1116 1117 1118 1119 1120 1121 1122 1123 1124 1125 1126 1127 1128 1129 1130 1131 1132 1133 1134 1135 1136 1137 1138 1139 1140 1141 1142 1143 1144 1145 1146 1147 1148 1149 1150 1151 1152 1153 1154 1155 1156 1157 1158 1159 1160 1161 1162 1163 1164 1165 1166 1167 1168 1169 1170 1171 1172 1173 1174 1175 1176 1177 1178 1179 1180 1181 1182 1183 1184 1185 1186 1187 1188 1189 1190 1191 1192 1193 1194 1195 1196 1197 1198 1199 1200 1201 1202 1203 1204 1205 1206 1207 1208 1209 1210 1211 1212 1213 1214 1215 1216 1217 1218 1219 1220 1221 1222 1223 1224 1225 1226 1227 1228 1229 1230 1231 1232 1233 1234 1235 1236 1237 1238 1239 1240 1241 1242 1243 1244 1245 1246 1247 1248 1249 1250 1251 1252 1253 1254 1255 1256 1257 1258 1259 1260 1261 1262 1263 1264 1265 1266 1267 1268 1269 1270 1271 1272 1273 1274 1275 1276 1277 1278 1279 1280 1281 1282 1283 1284 1285 1286 1287 1288 1289 1290 1291 1292 1293 1294 1295 1296 1297 1298 1299 1300 1301 1302 1303 1304 1305 1306 1307 1308 1309 1310 1311 1312 1313 1314 1315 1316 1317 1318 1319 1320 1321 1322 1323 1324 1325 1326 1327 1328 1329 1330 1331 1332 1333 1334 1335 1336 1337 1338 1339 1340 1341 1342 1343 1344 1345 1346 1347 1348 1349 1350 1351 1352 1353 1354 1355 1356 1357 1358 1359 1360 1361 1362 1363 1364 1365 1366 1367 1368 1369 1370 1371 1372 1373 1374 1375 1376 1377 1378 1379 1380 1381 1382 1383 1384 1385 1386 1387 1388 1389 1390 1391 1392 1393 1394 1395 1396 1397 1398 1399 1400 1401 1402 1403 1404 1405 1406 1407 1408 1409 1410 1411 1412 1413 1414 1415 1416 1417 1418 1419 1420 1421 1422 1423 1424 1425 1426 1427 1428 1429 1430 1431 1432 1433 1434 1435 1436 1437 1438 1439 1440 1441 1442 1443 1444 1445 1446 1447 1448 1449 1450 1451 1452 1453 1454 1455 1456 1457 1458 1459 1460 1461 1462 1463 1464 1465 1466 1467 1468 1469 1470 1471 1472 1473 1474 1475 1476 1477 1478 1479 1480 1481 1482 1483 1484 1485 1486 1487 1488 1489 1490 1491 1492 1493 1494 1495 1496 1497 1498 1499 1500 1501 1502 1503 1504 1505 1506 1507 1508 1509 1510 1511 1512 1513 1514 1515 1516 1517 1518 1519 1520 1521 1522 1523 1524 1525 1526 1527 1528 1529 1530 1531 1532 1533 1534 1535 1536 1537 1538 1539 1540 1541 1542 1543 1544 1545 1546 1547 1548 1549 1550 1551 1552 1553 1554 1555 1556 1557 1558 1559 1560 1561 1562 1563 1564 1565 1566 1567 1568 1569 1570 1571 1572 1573 1574 1575 1576 1577 1578 1579 1580 1581 1582 1583 1584 1585 1586 1587 1588 1589 1590 1591 1592 1593 1594 1595 1596 1597 1598 1599 1600 1601 1602 1603 1604 1605 1606 1607 1608 1609 1610 1611 1612 1613 1614 1615 1616 1617 1618 1619 1620 1621 1622 1623 1624 1625 1626 1627 1628 1629 1630 1631 1632 1633 1634 1635 1636 1637 1638 1639 1640 1641 1642 1643 1644 1645 1646 1647 1648 1649 1650 1651 1652 1653 1654 1655 1656 1657 1658 1659 1660 1661 1662 1663 1664 1665 1666 1667 1668 1669 1670 1671 1672 1673 1674 1675 1676 1677 1678 1679 1680 1681 1682 1683 1684 1685 1686 1687 1688 1689 1690 1691 1692 1693 1694 1695 1696 1697 1698 1699 1700 1701 1702 1703 1704 1705 1706 1707 1708 1709 1710 1711 1712 1713 1714 1715 1716 1717 1718 1719 1720 1721 1722 1723 1724 1725 1726 1727 1728 1729 1730 1731 1732 1733 1734 1735 1736 1737 1738 1739 1740 1741 1742 1743 1744 1745 1746 1747 1748 1749 1750 1751 1752 1753 1754 1755 1756 1757 1758 1759 1760 1761 1762 1763 1764 1765 1766 1767 1768 1769 1770 1771 1772 1773 1774 1775 1776 1777 1778 1779 1780 1781 1782 1783 1784 1785 1786 1787 1788 1789 1790 1791 1792 1793 1794 1795 1796 1797 1798 1799 1800 1801 1802 1803 1804 1805 1806 1807 1808 1809 1810 1811 1812 1813 1814 1815 1816 1817 1818 1819 1820 1821 1822 1823 1824 1825 1826 1827 1828 1829 1830 1831 1832 1833 1834 1835 1836 1837 1838 1839 1840 1841 1842 1843 1844 1845 1846 1847 1848 1849 1850 1851 1852 1853 1854 1855 1856 1857 1858 1859 1860 1861 1862 1863 1864 1865 1866 1867 1868 1869 1870 1871 1872 1873 1874 1875 1876 1877 1878 1879 1880 1881 1882 1883 1884 1885 1886 1887 1888 1889 1890 1891 1892 1893 1894 1895 1896 1897 1898 1899 1900 1901 1902 1903 1904 1905 1906 1907 1908 1909 1910 1911 1912 1913 1914 1915 1916 1917 1918 1919 1920 1921 1922 1923 1924 1925 1926 1927 1928 1929 1930 1931 1932 1933 1934 1935 1936 1937 1938 1939 1940 1941 1942 1943 1944 1945 1946 1947 1948 1949 1950 1951 1952 1953 1954 1955 1956 1957 1958 1959 1960 1961 1962 1963 1964 1965 1966 1967 1968 1969 1970 1971 1972 1973 1974 1975 1976 1977 1978 1979 1980 1981 1982 1983 1984 1985 1986 1987 1988 1989 1990 1991 1992 1993 1994 1995 1996 1997 1998 1999 2000 2001 2002 2003 2004 2005 2006 2007 2008 2009 2010 2011 2012 2013 2014 2015 2016 2017 2018 2019 2020 2021 2022 2023 2024 2025 2026 2027 2028 2029 2030 2031 2032 2033 2034 2035 2036 2037 2038 2039 2040 2041 2042 2043 2044 2045 2046 2047 2048 2049 2050 2051 2052 2053 2054 2055 2056 2057 2058 2059 2060 2061 2062 2063 2064 2065 2066 2067 2068 2069 2070 2071 2072 2073 2074 2075 2076 2077 2078 2079 2080 2081 2082 2083 2084 2085 2086 2087 2088 2089 2090 2091 2092 2093 2094 2095 2096 2097 2098 2099 2100 2101 2102 2103 2104 2105 2106 2107 2108 2109 2110 2111 2112 2113 2114 2115 2116 2117 2118 2119 2120 2121 2122 2123 2124 2125 2126 2127 2128 2129 2130 2131 2132 2133 2134 2135 2136 2137 2138 2139 2140 2141 2142 2143 2144 2145 2146 2147 2148 2149 2150 2151 2152 2153 2154 2155 2156 2157 2158 2159 2160 2161 2162 2163 2164 2165 2166 2167 2168 2169 2170 2171 2172 2173 2174 2175 2176 2177 2178 2179 2180 2181 2182 2183 2184 2185 2186 2187 2188 2189 2190 2191 2192 2193 2194 2195 2196 2197 2198 2199 2200 2201 2202 2203 2204 2205 2206 2207 2208 2209 2210 2211 2212 2213 2214 2215 2216 2217 2218 2219 2220 2221 2222 2223 2224 2225 2226 2227 2228 2229 2230 2231 2232 2233 2234 2235 2236 2237 2238 2239 2240 2241 2242 2243 2244 2245 2246 2247 2248 2249 2250 2251 2252 2253 2254 2255 2256 2257 2258 2259 2260 2261 2262 2263 2264 2265 2266 2267 2268 2269 2270 2271 2272 2273 2274 2275 2276 2277 2278 2279 2280 2281 2282 2283 2284 2285 2286 2287 2288 2289 2290 2291 2292 2293 2294 2295 2296 2297 2298 2299 2300 2301 2302 2303 2304 2305 2306 2307 2308 2309 2310 2311 2312 2313 2314 2315 2316 2317 2318 2319 2320 2321 2322 2323 2324 2325 2326 2327 2328 2329 2330 2331 2332 2333 2334 2335 2336 2337 2338 2339 2340 2341 2342 2343 2344 2345 2346 2347 2348 2349 2350 2351 2352 2353 2354 2355 2356 2357 2358 2359 2360 2361 2362 2363 2364 2365 2366 2367 2368 2369 2370 2371 2372 2373 2374 2375 2376 2377 2378 2379 2380 2381 2382 2383 2384 2385 2386 2387 2388 2389 2390 2391 2392 2393 2394 2395 2396 2397 2398 2399 2400 2401 2402 2403 2404 2405 2406 2407 2408 2409 2410 2411 2412 2413 2414 2415 2416 2417 2418 2419 2420 2421 2422 2423 2424 2425 2426 2427 2428 2429 2430 2431 2432 2433 2434 2435 2436 2437 2438 2439 2440 2441 2442 2443 2444 2445 2446 2447 2448 2449 2450 2451 2452 2453 2454 2455 2456 2457 2458 2459 2460 2461 2462 2463 2464 2465 2466 2467 2468 2469 2470 2471 2472 2473 2474 2475 2476 2477 2478 2479 2480 2481 2482 2483 2484 2485 2486 2487 2488 2489 2490 2491 2492 2493 2494 2495 2496 2497 2498 2499 2500 2501 2502 2503 2504 2505 2506 2507 2508 2509 2510 2511 2512 2513 2514 2515 2516 2517 2518 2519 2520 2521 2522 2523 2524 2525 2526 2527 2528 2529 2530 2531 2532 2533 2534 2535 2536 2537 2538 2539 2540 2541 2542 2543 2544 2545 2546 2547 2548 2549 2550 2551 2552 2553 2554 2555 2556 2557 2558 2559 2560 2561 2562 2563 2564 2565 2566 2567 2568 2569 2570 2571 2572 2573 2574 2575 2576 2577 2578 2579 2580 2581 2582 2583 2584 2585 2586 2587 2588 2589 2590 2591 2592 2593 2594 2595 2596 2597 2598 2599 2600 2601 2602 2603 2604 2605 2606 2607 2608 2609 2610 2611 2612 2613 2614 2615 2616 2617 2618 2619 2620 2621 2622 2623 2624 2625 2626 2627 2628 2629 2630 2631 2632 2633 2634 2635 2636 2637 2638 2639 2640 2641 2642 2643 2644 2645 2646 2647 2648 2649 2650 2651 2652 2653 2654 2655 2656 2657 2658 2659 2660 2661 2662 2663 2664 2665 2666 2667 2668 2669 2670 2671 2672 2673 2674 2675 2676 2677 2678 2679 2680 2681 2682 2683 2684 2685 2686 2687 2688 2689 2690 2691 2692 2693 2694 2695 2696 2697 2698 2699 2700 2701 2702 2703 2704 2705 2706 2707 2708 2709 2710 2711 2712 2713 2714 2715 2716 2717 2718 2719 2720 2721 2722 2723 2724 2725 2726 2727 2728 2729 2730 2731 2732 2733 2734 2735 2736 2737 2738 2739 2740 2741 2742 2743 2744 2745 2746 2747 2748 2749 2750 2751 2752 2753 2754 2755 2756 2757 2758 2759 2760 2761 2762 2763 2764 2765 2766 2767 2768 2769 2770 2771 2772 2773 2774 2775 2776 2777 2778 2779 2780 2781 2782 2783 2784 2785 2786 2787 2788 2789 2790 2791 2792 2793 2794 2795 2796 2797 2798 2799 2800 2801 2802 2803 2804 2805 2806 2807 2808 2809 2810 2811 2812 2813 2814 2815 2816 2817 2818 2819 2820 2821 2822 2823 2824 2825 2826 2827 2828 2829 2830 2831 2832 2833 2834 2835 2836 2837 2838 2839 2840 2841 2842 2843 2844 2845 2846 2847 2848 2849 2850 2851 2852 2853 2854 2855 2856 2857 2858 2859 2860 2861 2862 2863 2864 2865 2866 2867 2868 2869 2870 2871 2872 2873 2874 2875 2876 2877 2878 2879 2880 2881 2882 2883 2884 2885 2886 2887 2888 2889 2890 2891 2892 2893 2894 2895 2896 2897 2898 2899 2900 2901 2902 2903 2904 2905 2906 2907 2908 2909 2910 2911 2912 2913 2914 2915 2916 2917 2918 2919 2920 2921 2922 2923 2924 2925 2926 2927 2928 2929 2930 2931 2932 2933 2934 2935 2936 2937 2938 2939 2940 2941 2942 2943 2944 2945 2946 2947 2948 2949 2950 2951 2952 2953 2954 2955 2956 2957 2958 2959 2960 2961 2962 2963 2964 2965 2966 2967 2968 2969 2970 2971 2972 2973 2974 2975 2976 2977 2978 2979 2980 2981 2982 2983 2984 2985 2986 2987 2988 2989 2990 2991 2992 2993 2994 2995 2996 2997 2998 2999 3000 3001 3002 3003 3004 3005 3006 3007 3008 3009 3010 3011 3012 3013 3014 3015 3016 3017 3018 3019 3020 3021 3022 3023 3024 3025 3026 3027 3028 3029 3030 3031 3032 3033 3034 3035 3036 3037 3038 3039 3040 3041 3042 3043 3044 3045 3046 3047 3048 3049 3050 3051 3052 3053 3054 3055 3056 3057 3058 3059 3060 3061 3062 3063 3064 3065 3066 3067 3068 3069 3070 3071 3072 3073 3074 3075 3076 3077 3078 3079 3080 3081 3082 3083 3084 3085 3086 3087 3088 3089 3090 3091 3092 3093 3094 3095 3096 3097 3098 3099 3100 3101 3102 3103 3104 3105 3106 3107 3108 3109 3110 3111 3112 3113 3114 3115 3116 3117 3118 3119 3120 3121 3122 3123 3124 3125 3126 3127 3128 3129 3130 3131 3132 3133 3134 3135 3136 3137 3138 3139 3140 3141 3142 3143 3144 3145 3146 3147 3148 3149 3150 3151 3152 3153 3154 3155 3156 3157 3158 3159 3160 3161 3162 3163 3164 3165 3166 3167 3168 3169 3170 3171 3172 3173 3174 3175 3176 3177 3178 3179 3180 3181 3182 3183 3184 3185 3186 3187 3188 3189 3190 3191 3192 3193 3194 3195 3196 3197 3198 3199 3200 3201 3202 3203 3204 3205 3206 3207 3208 3209 3210 3211 3212 3213 3214 3215 3216 3217 3218 3219 3220 3221 3222 3223 3224 3225 3226 3227 3228 3229 3230 3231 3232 3233 3234 3235 3236 3237 3238 3239 3240 3241 3242 3243 3244 3245 3246 3247 3248 3249 3250 3251 3252 3253 3254 3255 3256 3257 3258 3259 3260 3261 3262 3263 3264 3265 3266 3267 3268 3269 3270 3271 3272 3273 3274 3275 3276 3277 3278 3279 3280 3281 3282 3283 3284 3285 3286 3287 3288 3289 3290 3291 3292 3293 3294 3295 3296 3297 3298 3299 3300 3301 3302 3303 3304 3305 3306 3307 3308 3309 3310 3311 3312 3313 3314 3315 3316 3317 3318 3319 3320 3321 3322 3323 3324 3325 3326 3327 3328 3329 3330 3331 3332 3333 3334 3335 3336 3337 3338 3339 3340 3341 3342 3343 3344 3345 3346 3347 3348 3349 3350 3351 3352 3353 3354 3355 3356 3357 3358 3359 3360 3361 3362 3363 3364 3365 3366 3367 3368 3369 3370 3371 3372 3373 3374 3375 3376 3377 3378 3379 3380 3381 3382 3383 3384 3385 3386 3387 3388 3389 3390 3391 3392 3393 3394 3395 3396 3397 3398 3399 3400 3401 3402 3403 3404 3405 3406 3407 3408 3409 3410 3411 3412 3413 3414 3415 3416 3417 3418 3419 3420 3421 3422 3423 3424 3425 3426 3427 3428 3429 3430 3431 3432 3433 3434 3435 3436 3437 3438 3439 3440 3441 3442 3443 3444 3445 3446 3447 3448 3449 3450 3451 3452 3453 3454 3455 3456 3457 3458 3459 3460 3461 3462 3463 3464 3465 3466 3467 3468 3469 3470 3471 3472 3473 3474 3475 3476 3477 3478 3479 3480 3481 3482 3483 3484 3485 3486 3487 3488 3489 3490 3491 3492 3493 3494 3495 3496 3497 3498 3499 3500 3501 3502 3503 3504 3505 3506 3507 3508 3509 3510 3511 3512 3513 3514 3515 3516 3517 3518 3519 3520 3521 3522 3523 3524 3525 3526 3527 3528 3529 3530 3531 3532 3533 3534 3535 3536 3537 3538 3539 3540 3541 3542 3543 3544 3545 3546 3547 3548 3549 3550 3551 3552 3553 3554 3555 3556 3557 3558 3559 3560 3561 3562 3563 3564 3565 3566 3567 3568 3569 3570 3571 3572 3573 3574 3575 3576 3577 3578 3579 3580 3581 3582 3583 3584 3585 3586 3587 3588 3589 3590 3591 3592 3593 3594 3595 3596 3597 3598 3599 3600 3601 3602 3603 3604 3605 3606 3607 3608 3609 3610 3611 3612 3613 3614 3615 3616 3617 3618 3619 3620 3621 3622 3623 3624 3625 3626 3627 3628 3629 3630 3631 3632 3633 3634 3635 3636 3637 3638 3639 3640 3641 3642 3643 3644 3645 3646 3647 3648 3649 3650 3651 3652 3653 3654 3655 3656 3657 3658 3659 3660 3661 3662 3663 3664 3665 3666 3667 3668 3669 3670 3671 3672 3673 3674 3675 3676 3677 3678 3679 3680 3681 3682 3683 3684 3685 3686 3687 3688 3689 3690 3691 3692 3693 3694 3695 3696 3697 3698 3699 3700 3701 3702 3703 3704 3705 3706 3707 3708 3709 3710 3711 3712 3713 3714 3715 3716 3717 3718 3719 3720 3721 3722 3723 3724 3725 3726 3727 3728 3729 3730 3731 3732 3733 3734 3735 3736 3737 3738 3739 3740 3741 3742 3743 3744 3745 3746 3747 3748 3749 3750 3751 3752 3753 3754 3755 3756 3757 3758 3759 3760 3761 3762 3763 3764 3765 3766 3767 3768 3769 3770 3771 3772 3773 3774 3775 3776 3777 3778 3779 3780 3781 3782 3783 3784 3785 3786 3787 3788 3789 3790 3791 3792 3793 3794 3795 3796 3797 3798 3799 3800 3801 3802 3803 3804 3805 3806 3807 3808 3809 3810 3811 3812 3813 3814 3815 3816 3817 3818 3819 3820 3821 3822 3823 3824 3825 3826 3827 3828 3829 3830 3831 3832 3833 3834 3835 3836 3837 3838 3839 3840 3841 3842 3843 3844 3845 3846 3847 3848 3849 3850 3851 3852 3853 3854 3855 3856 3857 3858 3859 3860 3861 3862 3863 3864 3865 3866 3867 3868 3869 3870 3871 3872 3873 3874 3875 3876 3877 3878 3879 3880 3881 3882 3883 3884 3885 3886 3887 3888 3889 3890 3891 3892 3893 3894 3895 3896 3897 3898 3899 3900 3901 3902 3903 3904 3905 3906 3907 3908 3909 3910 3911 3912 3913 3914 3915 3916 3917 3918 3919 3920 3921 3922 3923 3924 3925 3926 3927 3928 3929 3930 3931 3932 3933 3934 3935 3936 3937 3938 3939 3940 3941 3942 3943 3944 3945 3946 3947 3948 3949 3950 3951 3952 3953 3954 3955 3956 3957 3958 3959 3960 3961 3962 3963 3964 3965 3966 3967 3968 3969 3970 3971 3972 3973 3974 3975 3976 3977 3978 3979 3980 3981 3982 3983 3984 3985 3986 3987 3988 3989 3990 3991 3992 3993 3994 3995 3996 3997 3998 3999 4000 4001 4002 4003 4004 4005 4006 4007 4008 4009 4010 4011 4012 4013 4014 4015 4016 4017 4018 4019 4020 4021 4022 4023 4024 4025 4026 4027 4028 4029 4030 4031 4032 4033 4034 4035 4036 4037 4038 4039 4040 4041 4042 4043 4044 4045 4046 4047 4048 4049 4050 4051 4052 4053 4054 4055 4056 4057 4058 4059 4060 4061 4062 4063 4064 4065 4066 4067 4068 4069 4070 4071 4072 4073 4074 4075 4076 4077 4078 4079 4080 4081 4082 4083 4084 4085 4086 4087 4088 4089 4090 4091 4092 4093 4094 4095 4096 4097 4098 4099 4100 4101 4102 4103 4104 4105 4106 4107 4108 4109 4110 4111 4112 4113 4114 4115 4116 4117 4118 4119 4120 4121 4122 4123 4124 4125 4126 4127 4128 4129 4130 4131 4132 4133 4134 4135 4136 4137 4138 4139 4140 4141 4142 4143 4144 4145 4146 4147 4148 4149 4150 4151 4152 4153 4154 4155 4156 4157 4158 4159 4160 4161 4162 4163 4164 4165 4166 4167 4168 4169 4170 4171 4172 4173 4174 4175 4176 4177 4178 4179 4180 4181 4182 4183 4184 4185 4186 4187 4188 4189 4190 4191 4192 4193 4194 4195 4196 4197 4198 4199 4200 4201 4202 4203 4204 4205 4206 4207 4208 4209 4210 4211 4212 4213 4214 4215 4216 4217 4218 4219 4220 4221 4222 4223 4224 4225 4226 4227 4228 4229 4230 4231 4232 4233 4234 4235 4236 4237 4238 4239 4240 4241 4242 4243 4244 4245 4246 4247 4248 4249 4250 4251 4252 4253 4254 4255 4256 4257 4258 4259 4260 4261 4262 4263 4264 4265 4266 4267 4268 4269 4270 4271 4272 4273 4274 4275 4276 4277 4278 4279 4280 4281 4282 4283 4284 4285 4286 4287 4288 4289 4290 4291 4292 4293 4294 4295 4296 4297 4298 4299 4300 4301 4302 4303 4304 4305 4306 4307 4308 4309 4310 4311 4312 4313 4314 4315 4316 4317 4318 4319 4320 4321 4322 4323 4324 4325 4326 4327 4328 4329 4330 4331 4332 4333 4334 4335 4336 4337 4338 4339 4340 4341 4342 4343 4344 4345 4346 4347 4348 4349 4350 4351 4352 4353 4354 4355 4356 4357 4358 4359 4360 4361 4362 4363 4364 4365 4366 4367 4368 4369 4370 4371 4372 4373 4374 4375 4376 4377 4378 4379 4380 4381 4382 4383 4384 4385 4386 4387 4388 4389 4390 4391 4392 4393 4394 4395 4396 4397 4398 4399 4400 4401 4402 4403 4404 4405 4406 4407 4408 4409 4410 4411 4412 4413 4414 4415 4416 4417 4418 4419 4420 4421 4422 4423 4424 4425 4426 4427 4428 4429 4430 4431 4432 4433 4434 4435 4436 4437 4438 4439 4440 4441 4442 4443 4444 4445 4446 4447 4448 4449 4450 4451 4452 4453 4454 4455 4456 4457 4458 4459 4460 4461 4462 4463 4464 4465 4466 4467 4468 4469 4470 4471 4472 4473 4474 4475 4476 4477 4478 4479 4480 4481 4482 4483 4484 4485 4486 4487 4488 4489 4490 4491 4492 4493 4494 4495 4496 4497 4498 4499 4500 4501 4502 4503 4504 4505 4506 4507 4508 4509 4510 4511 4512 4513 4514 4515 4516 4517 4518 4519 4520 4521 4522 4523 4524 4525 4526 4527 4528 4529 4530 4531 4532 4533 4534 4535 4536 4537 4538 4539 4540 4541 4542 4543 4544 4545 4546 4547 4548 4549 4550 4551 4552 4553 4554 4555 4556 4557 4558 4559 4560 4561 4562 4563 4564 4565 4566 4567 4568 4569 4570 4571 4572 4573 4574 4575 4576 4577 4578 4579 4580 4581 4582 4583 4584 4585 4586 4587 4588 4589 4590 4591 4592 4593 4594 4595 4596 4597 4598 4599 4600 4601 4602 4603 4604 4605 4606 4607 4608 4609 4610 4611 4612 4613 4614 4615 4616 4617 4618 4619 4620 4621 4622 4623 4624 4625 4626 4627 4628 4629 4630 4631 4632 4633 4634 4635 4636 4637 4638 4639 4640 4641 4642 4643 4644 4645 4646 4647 4648 4649 4650 4651 4652 4653 4654 4655 4656 4657 4658 4659 4660 4661 4662 4663 4664 4665 4666 4667 4668 4669 4670 4671 4672 4673 4674 4675 4676 4677 4678 4679 4680 4681 4682 4683 4684 4685 4686 4687 4688 4689 4690 4691 4692 4693 4694 4695 4696 4697 4698 4699 4700 4701 4702 4703 4704 4705 4706 4707 4708 4709 4710 4711 4712 4713 4714 4715 4716 4717 4718 4719 4720 4721 4722 4723 4724 4725 4726 4727 4728 4729 4730 4731 4732 4733 4734 4735 4736 4737 4738 4739 4740 4741 4742 4743 4744 4745 4746 4747 4748 4749 4750 4751 4752 4753 4754 4755 4756 4757 4758 4759 4760 4761 4762 4763 4764 4765 4766 4767 4768 4769 4770 4771 4772 4773 4774 4775 4776 4777 4778 4779 4780 4781 4782 4783 4784 4785 4786 4787 4788 4789 4790 4791 4792 4793 4794 4795 4796 4797 4798 4799 4800 4801 4802 4803 4804 4805 4806 4807 4808 4809 4810 4811 4812 4813 4814 4815 4816 4817 4818 4819 4820 4821 4822 4823 4824 4825 4826 4827 4828 4829 4830 4831 4832 4833 4834 4835 4836 4837 4838 4839 4840 4841 4842 4843 4844 4845 4846 4847 4848 4849 4850 4851 4852 4853 4854 4855 4856 4857 4858 4859 4860 4861 4862 4863 4864 4865 4866 4867 4868 4869 4870 4871 4872 4873 4874 4875 4876 4877 4878 4879 4880 4881 4882 4883 4884 4885 4886 4887 4888 4889 4890 4891 4892 4893 4894 4895 4896 4897 4898 4899 4900 4901 4902 4903 4904 4905 4906 4907 4908 4909 4910 4911 4912 4913 4914 4915 4916 4917 4918 4919 4920 4921 4922 4923 4924 4925 4926 4927 4928 4929 4930 4931 4932 4933 4934 4935 4936 4937 4938 4939 4940 4941 4942 4943 4944 4945 4946 4947 4948 4949 4950 4951 4952 4953 4954 4955 4956 4957 4958 4959 4960 4961 4962 4963 4964 4965 4966 4967 4968 4969 4970 4971 4972 4973 4974 4975 4976 4977 4978 4979 4980 4981 4982 4983 4984 4985 4986 4987 4988 4989 4990 4991 4992 4993 4994 4995 4996 4997 4998 4999 5000 5001 5002 5003 5004 5005 5006 5007 5008 5009 5010 5011 5012 5013 5014 5015 5016 5017 5018 5019 5020 5021 5022 5023 5024 5025 5026 5027 5028 5029 5030 5031 5032 5033 5034 5035 5036 5037 5038 5039 5040 5041 5042 5043 5044 5045 5046 5047 5048 5049 5050 5051 5052 5053 5054 5055 5056 5057 5058 5059 5060 5061 5062 5063 5064 5065 5066 5067 5068 5069 5070 5071 5072 5073 5074 5075 5076 5077 5078 5079 5080 5081 5082 5083 5084 5085 5086 5087 5088 5089 5090 5091 5092 5093 5094 5095 5096 5097 5098 5099 5100 5101 5102 5103 5104 5105 5106 5107 5108 5109 5110 5111 5112 5113 5114 5115 5116 5117 5118 5119 5120 5121 5122 5123 5124 5125 5126 5127 5128 5129 5130 5131 5132 5133 5134 5135 5136 5137 5138 5139 5140 5141 5142 5143 5144 5145 5146 5147 5148 5149 5150 5151 5152 5153 5154 5155 5156 5157 5158 5159 5160 5161 5162 5163 5164 5165 5166 5167 5168 5169 5170 5171 5172 5173 5174 5175 5176 5177 5178 5179 5180 5181 5182 5183 5184 5185 5186 5187 5188 5189 5190 5191 5192 5193 5194 5195 5196 5197 5198 5199 5200 5201 5202 5203 5204 5205 5206 5207 5208 5209 5210 5211 5212 5213 5214 5215 5216 5217 5218 5219 5220 5221 5222 5223 5224 5225 5226 5227 5228 5229 5230 5231 5232 5233 5234 5235 5236 5237 5238 5239 5240 5241 5242 5243 5244 5245 5246 5247 5248 5249 5250 5251 5252 5253 5254 5255 5256 5257 5258 5259 5260 5261 5262 5263 5264 5265 5266 5267 5268 5269 5270 5271 5272 5273 5274 5275 5276 5277 5278 5279 5280 5281 5282 5283 5284 5285 5286 5287 5288 5289 5290 5291 5292 5293 5294 5295 5296 5297 5298 5299 5300 5301 5302 5303 5304 5305 5306 5307 5308 5309 5310 5311 5312 5313 5314 5315 5316 5317 5318 5319 5320 5321 5322 5323 5324 5325 5326 5327 5328 5329 5330 5331 5332 5333 5334 5335 5336 5337 5338 5339 5340 5341 5342 5343 5344 5345 5346 5347 5348 5349 5350 5351 5352 5353 5354 5355 5356 5357 5358 5359 5360 5361 5362 5363 5364 5365 5366 5367 5368 5369 5370 5371 5372 5373 5374 5375 5376 5377 5378 5379 5380 5381 5382 5383 5384 5385 5386 5387 5388 5389 5390 5391 5392 5393 5394 5395 5396 5397 5398 5399 5400 5401 5402 5403 5404 5405 5406 5407 5408 5409 5410 5411 5412 5413 5414 5415 5416 5417 5418 5419 5420 5421 5422 5423 5424 5425 5426 5427 5428 5429 5430 5431 5432 5433 5434 5435 5436 5437 5438 5439 5440 5441 5442 5443 5444 5445 5446 5447 5448 5449 5450 5451 5452 5453 5454 5455 5456 5457 5458 5459 5460 5461 5462 5463 5464 5465 5466 5467 5468 5469 5470 5471 5472 5473 5474 5475 5476 5477 5478 5479 5480 5481 5482 5483 5484 5485 5486 5487 5488 5489 5490 5491 5492 5493 5494 5495 5496 5497 5498 5499 5500 5501 5502 5503 5504 5505 5506 5507 5508 5509 5510 5511 5512 5513 5514 5515 5516 5517 5518 5519 5520 5521 5522 5523 5524 5525 5526 5527 5528 5529 5530 5531 5532 5533 5534 5535 5536 5537 5538 5539 5540 5541 5542 5543 5544 5545 5546 5547 5548 5549 5550 5551 5552 5553 5554 5555 5556 5557 5558 5559 5560 5561 5562 5563 5564 5565 5566 5567 5568 5569 5570 5571 5572 5573 5574 5575 5576 5577 5578 5579 5580 5581 5582 5583 5584 5585 5586 5587 5588 5589 5590 5591 5592 5593 5594 5595 5596 5597 5598 5599 5600 5601 5602 5603 5604 5605 5606 5607 5608 5609 5610 5611 5612 5613 5614 5615 5616 5617 5618 5619 5620 5621 5622 5623 5624 5625 5626 5627 5628 5629 5630 5631 5632 5633 5634 5635 5636 5637 5638 5639 5640 5641 5642 5643 5644 5645 5646 5647 5648 5649 5650 5651 5652 5653 5654 5655 5656 5657 5658 5659 5660 5661 5662 5663 5664 5665 5666 5667 5668 5669 5670 5671 5672 5673 5674 5675 5676 5677 5678 5679 5680 5681 5682 5683 5684 5685 5686 5687 5688 5689 5690 5691 5692 5693 5694 5695 5696 5697 5698 5699 5700 5701 5702 5703 5704 5705 5706 5707 5708 5709 5710 5711 5712 5713 5714 5715 5716 5717 5718 5719 5720 5721 5722 5723 5724 5725 5726 5727 5728 5729 5730 5731 5732 5733 5734 5735 5736 5737 5738 5739 5740 5741 5742 5743 5744 5745 5746 5747 5748 5749 5750 5751 5752 5753 5754 5755 5756 5757 5758 5759 5760 5761 5762 5763 5764 5765 5766 5767 5768 5769 5770 5771 5772 5773 5774 5775 5776 5777 5778 5779 5780 5781 5782 5783 5784 5785 5786 5787 5788 5789 5790 5791 5792 5793 5794 5795 5796 5797 5798 5799 5800 5801 5802 5803 5804 5805 5806 5807 5808 5809 5810 5811 5812 5813 5814 5815 5816 5817 5818 5819 5820 5821 5822 5823 5824 5825 5826 5827 5828 5829 5830 5831 5832 5833 5834 5835 5836 5837 5838 5839 5840 5841 5842 5843 5844 5845 5846 5847 5848 5849 5850 5851 5852 5853 5854 5855 5856 5857 5858 5859 5860 5861 5862 5863 5864 5865 5866 5867 5868 5869 5870 5871 5872 5873 5874 5875 5876 5877 5878 5879 5880 5881 5882 5883 5884 5885 5886 5887 5888 5889 5890 5891 5892 5893 5894 5895 5896 5897 5898 5899 5900 5901 5902 5903 5904 5905 5906 5907 5908 5909 5910 5911 5912 5913 5914 5915 5916 5917 5918 5919 5920 5921 5922 5923 5924 5925 5926 5927 5928 5929 5930 5931 5932 5933 5934 5935 5936 5937 5938 5939 5940 5941 5942 5943 5944 5945 5946 5947 5948 5949 5950 5951 5952 5953 5954 5955 5956 5957 5958 5959 5960 5961 5962 5963 5964 5965 5966 5967 5968 5969 5970 5971 5972 5973 5974 5975 5976 5977 5978 5979 5980 5981 5982 5983 5984 5985 5986 5987 5988 5989 5990 5991 5992 5993 5994 5995 5996 5997 5998 5999 6000 6001 6002 6003 6004 6005 6006 6007 6008 6009 6010 6011 6012 6013 6014 6015 6016 6017 6018 6019 6020 6021 6022 6023 6024 6025 6026 6027 6028 6029 6030 6031 6032 6033 6034 6035 6036 6037 6038 6039 6040 6041 6042 6043 6044 6045 6046 6047 6048 6049 6050 6051 6052 6053 6054 6055 6056 6057 6058 6059 6060 6061 6062 6063 6064 6065 6066 6067 6068 6069 6070 6071 6072 6073 6074 6075 6076 6077 6078 6079 6080 6081 6082 6083 6084 6085 6086 6087 6088 6089 6090 6091 6092 6093 6094 6095 6096 6097 6098 6099 6100 6101 6102 6103 6104 6105 6106 6107 6108 6109 6110 6111 6112 6113 6114 6115 6116 6117 6118 6119 6120 6121 6122 6123 6124 6125 6126 6127 6128 6129 6130 6131 6132 6133 6134 6135 6136 6137 6138 6139 6140 6141 6142 6143 6144 6145 6146 6147 6148 6149 6150 6151 6152 6153 6154 6155 6156 6157 6158 6159 6160 6161 6162 6163 6164 6165 6166 6167 6168 6169 6170 6171 6172 6173 6174 6175 6176 6177 6178 6179 6180 6181 6182 6183 6184 6185 6186 6187 6188 6189 6190 6191 6192 6193 6194 6195 6196 6197 6198 6199 6200 6201 6202 6203 6204 6205 6206 6207 6208 6209 6210 6211 6212 6213 6214 6215 6216 6217 6218 6219 6220 6221 6222 6223 6224 6225 6226 6227 6228 6229 6230 6231 6232 6233 6234 6235 6236 6237 6238 6239 6240 6241 6242 6243 6244 6245 6246 6247 6248 6249 6250 6251 6252 6253 6254 6255 6256 6257 6258 6259 6260 6261 6262 6263 6264 6265 6266 6267 6268 6269 6270 6271 6272 6273 6274 6275 6276 6277 6278 6279 6280 6281 6282 6283 6284 6285 6286 6287 6288 6289 6290 6291 6292 6293 6294 6295 6296 6297 6298 6299 6300 6301 6302 6303 6304 6305 6306 6307 6308 6309 6310 6311 6312 6313 6314 6315 6316 6317 6318 6319 6320 6321 6322 6323 6324 6325 6326 6327 6328 6329 6330 6331 6332 6333 6334 6335 6336 6337 6338 6339 6340 6341 6342 6343 6344 6345 6346 6347 6348 6349 6350 6351 6352 6353 6354 6355 6356 6357 6358 6359 6360 6361 6362 6363 6364 6365 6366 6367 6368 6369 6370 6371 6372 6373 6374 6375 6376 6377 6378 6379 6380 6381 6382 6383 6384 6385 6386 6387 6388 6389 6390 6391 6392 6393 6394 6395 6396 6397 6398 6399 6400 6401 6402 6403 6404 6405 6406 6407 6408 6409 6410 6411 6412 6413 6414 6415 6416 6417 6418 6419 6420 6421 6422 6423 6424 6425 6426 6427 6428 6429 6430 6431 6432 6433 6434 6435 6436 6437 6438 6439 6440 6441 6442 6443 6444 6445 6446 6447 6448 6449 6450 6451 6452 6453 6454 6455 6456 6457 6458 6459 6460 6461 6462 6463 6464 6465 6466 6467 6468 6469 6470 6471 6472 6473 6474 6475 6476 6477 6478 6479 6480 6481 6482 6483 6484 6485 6486 6487 6488 6489 6490 6491 6492 6493 6494 6495 6496 6497 6498 6499 6500 6501 6502 6503 6504 6505 6506 6507 6508 6509 6510 6511 6512 6513 6514 6515 6516 6517 6518 6519 6520 6521 6522 6523 6524 6525 6526 6527 6528 6529 6530 6531 6532 6533 6534 6535 6536 6537 6538 6539 6540 6541 6542 6543 6544 6545 6546 6547 6548 6549 6550 6551 6552 6553 6554 6555 6556 6557 6558 6559 6560 6561 6562 6563 6564 6565 6566 6567 6568 6569 6570 6571 6572 6573 6574 6575 6576 6577 6578 6579 6580 6581 6582 6583 6584 6585 6586 6587 6588 6589 6590 6591 6592 6593 6594 6595 6596 6597 6598 6599 6600 6601 6602 6603 6604 6605 6606 6607 6608 6609 6610 6611 6612 6613 6614 6615 6616 6617 6618 6619 6620 6621 6622 6623 6624 6625 6626 6627 6628 6629 6630 6631 6632 6633 6634 6635 6636 6637 6638 6639 6640 6641 6642 6643 6644 6645 6646 6647 6648 6649 6650 6651 6652 6653 6654 6655 6656 6657 6658 6659 6660 6661 6662 6663 6664 6665 6666 6667 6668 6669 6670 6671 6672 6673 6674 6675 6676 6677 6678 6679 6680 6681 6682 6683 6684 6685 6686 6687 6688 6689 6690 6691 6692 6693 6694 6695 6696 6697 6698 6699 6700 6701 6702 6703 6704 6705 6706 6707 6708 6709 6710 6711 6712 6713 6714 6715 6716 6717 6718 6719 6720 6721 6722 6723 6724 6725 6726 6727 6728 6729 6730 6731 6732 6733 6734 6735 6736 6737 6738 6739 6740 6741 6742 6743 6744 6745 6746 6747 6748 6749 6750 6751 6752 6753 6754 6755 6756 6757 6758 6759 6760 6761 6762 6763 6764 6765 6766 6767 6768 6769 6770 6771 6772 6773 6774 6775 6776 6777 6778 6779 6780 6781 6782 6783 6784 6785 6786 6787 6788 6789 6790 6791 6792 6793 6794 6795 6796 6797 6798 6799 6800 6801 6802 6803 6804 6805 6806 6807 6808 6809 6810 6811 6812 6813 6814 6815 6816 6817 6818 6819 6820 6821 6822 6823 6824 6825 6826 6827 6828 6829 6830 6831 6832 6833 6834 6835 6836 6837 6838 6839 6840 6841 6842 6843 6844 6845 6846 6847 6848 6849 6850 6851 6852 6853 6854 6855 6856 6857 6858 6859 6860 6861 6862 6863 6864 6865 6866 6867 6868 6869 6870 6871 6872 6873 6874 6875 6876 6877 6878 6879 6880 6881 6882 6883 6884 6885 6886 6887 6888 6889 6890 6891 6892 6893 6894 6895 6896 6897 6898 6899 6900 6901 6902 6903 6904 6905 6906 6907 6908 6909 6910 6911 6912 6913 6914 6915 6916 6917 6918 6919 6920 6921 6922 6923 6924 6925 6926 6927 6928 6929 6930 6931 6932 6933 6934 6935 6936 6937 6938 6939 6940 6941 6942 6943 6944 6945 6946 6947 6948 6949 6950 6951 6952 6953 6954 6955 6956 6957 6958 6959 6960 6961 6962 6963 6964 6965 6966 6967 6968 6969 6970 6971 6972 6973 6974 6975 6976 6977 6978 6979 6980 6981 6982 6983 6984 6985 6986 6987 6988 6989 6990 6991 6992 6993 6994 6995 6996 6997 6998 6999 7000 7001 7002 7003 7004 7005 7006 7007 7008 7009 7010 7011 7012 7013 7014 7015 7016 7017 7018 7019 7020 7021 7022 7023 7024 7025 7026 7027 7028 7029 7030 7031 7032 7033 7034 7035 7036 7037 7038 7039 7040 7041 7042 7043 7044 7045 7046 7047 7048 7049 7050 7051 7052 7053 7054 7055 7056 7057 7058 7059 7060 7061 7062 7063 7064 7065 7066 7067 7068 7069 7070 7071 7072 7073 7074 7075 7076 7077 7078 7079 7080 7081 7082 7083 7084 7085 7086 7087 7088 7089 7090 7091 7092 7093 7094 7095 7096 7097 7098 7099 7100 7101 7102 7103 7104 7105 7106 7107 7108 7109 7110 7111 7112 7113 7114 7115 7116 7117 7118 7119 7120 7121 7122 7123 7124 7125 7126 7127 7128 7129 7130 7131 7132 7133 7134 7135 7136 7137 7138 7139 7140 7141 7142 7143 7144 7145 7146 7147 7148 7149 7150 7151 7152 7153 7154 7155 7156 7157 7158 7159 7160 7161 7162 7163 7164 7165 7166 7167 7168 7169 7170 7171 7172 7173 7174 7175 7176 7177 7178 7179 7180 7181 7182 7183 7184 7185 7186 7187 7188 7189 7190 7191 7192 7193 7194 7195 7196 7197 7198 7199 7200 7201 7202 7203 7204 7205 7206 7207 7208 7209 7210 7211 7212 7213 7214 7215 7216 7217 7218 7219 7220 7221 7222 7223 7224 7225 7226 7227 7228 7229 7230 7231 7232 7233 7234 7235 7236 7237 7238 7239 7240 7241 7242 7243 7244 7245 7246 7247 7248 7249 7250 7251 7252 7253 7254 7255 7256 7257 7258 7259 7260 7261 7262 7263 7264 7265 7266 7267 7268 7269 7270 7271 7272 7273 7274 7275 7276 7277 7278 7279 7280 7281 7282 7283 7284 7285 7286 7287 7288 7289 7290 7291 7292 7293 7294 7295 7296 7297 7298 7299 7300 7301 7302 7303 7304 7305 7306 7307 7308 7309 7310 7311 7312 7313 7314 7315 7316 7317 7318 7319 7320 7321 7322 7323 7324 7325 7326 7327 7328 7329 7330 7331 7332 7333 7334 7335 7336 7337 7338 7339 7340 7341 7342 7343 7344 7345 7346 7347 7348 7349 7350 7351 7352 7353 7354 7355 7356 7357 7358 7359 7360 7361 7362 7363 7364 7365 7366 7367 7368 7369 7370 7371 7372 7373 7374 7375 7376 7377 7378 7379 7380 7381 7382 7383 7384 7385 7386 7387 7388 7389 7390 7391 7392 7393 7394 7395 7396 7397 7398 7399 7400 7401 7402 7403 7404 7405 7406 7407 7408 7409 7410 7411 7412 7413 7414 7415 7416 7417 7418 7419 7420 7421 7422 7423 7424 7425 7426 7427 7428 7429 7430 7431 7432 7433 7434 7435 7436 7437 7438 7439 7440 7441 7442 7443 7444 7445 7446 7447 7448 7449 7450 7451 7452 7453 7454 7455 7456 7457 7458 7459 7460 7461 7462 7463 7464 7465 7466 7467 7468 7469 7470 7471 7472 7473 7474 7475 7476 7477 7478 7479 7480 7481 7482 7483 7484 7485 7486 7487 7488 7489 7490 7491 7492 7493 7494 7495 7496 7497 7498 7499 7500 7501 7502 7503 7504 7505 7506 7507 7508 7509 7510 7511 7512 7513 7514 7515 7516 7517 7518 7519 7520 7521 7522 7523 7524 7525 7526 7527 7528 7529 7530 7531 7532 7533 7534 7535 7536 7537 7538 7539 7540 7541 7542 7543 7544 7545 7546 7547 7548 7549 7550 7551 7552 7553 7554 7555 7556 7557 7558 7559 7560 7561 7562 7563 7564 7565 7566 7567 7568 7569 7570 7571 7572 7573 7574 7575 7576 7577 7578 7579 7580 7581 7582 7583 7584 7585 7586 7587 7588 7589 7590 7591 7592 7593 7594 7595 7596 7597 7598 7599 7600 7601 7602 7603 7604 7605 7606 7607 7608 7609 7610 7611 7612 7613 7614 7615 7616 7617 7618 7619 7620 7621 7622 7623 7624 7625 7626 7627 7628 7629 7630 7631 7632 7633 7634 7635 7636 7637 7638 7639 7640 7641 7642 7643 7644 7645 7646 7647 7648 7649 7650 7651 7652 7653 7654 7655 7656 7657 7658 7659 7660 7661 7662 7663 7664 7665 7666 7667 7668 7669 7670 7671 7672 7673 7674 7675 7676 7677 7678 7679 7680 7681 7682 7683 7684 7685 7686 7687 7688 7689 7690 7691 7692 7693 7694 7695 7696 7697 7698 7699 7700 7701 7702 7703 7704 7705 7706 7707 7708 7709 7710 7711 7712 7713 7714 7715 7716 7717 7718 7719 7720 7721 7722 7723 7724 7725 7726 7727 7728 7729 7730 7731 7732 7733 7734 7735 7736 7737 7738 7739 7740 7741 7742 7743 7744 7745 7746 7747 7748 7749 7750 7751 7752 7753 7754 7755 7756 7757 7758 7759 7760 7761 7762 7763 7764 7765 7766 7767 7768 7769 7770 7771 7772 7773 7774 7775 7776 7777 7778 7779 7780 7781 7782 7783 7784 7785 7786 7787 7788 7789 7790 7791 7792 7793 7794 7795 7796 7797 7798 7799 7800 7801 7802 7803 7804 7805 7806 7807 7808 7809 7810 7811 7812 7813 7814 7815 7816 7817 7818 7819 7820 7821 7822 7823 7824 7825 7826 7827 7828 7829 7830 7831 7832 7833 7834 7835 7836 7837 7838 7839 7840 7841 7842 7843 7844 7845 7846 7847 7848 7849 7850 7851 7852 7853 7854 7855 7856 7857 7858 7859 7860 7861 7862 7863 7864 7865 7866 7867 7868 7869 7870 7871 7872 7873 7874 7875 7876 7877 7878 7879 7880 7881 7882 7883 7884 7885 7886 7887 7888 7889 7890 7891 7892 7893 7894 7895 7896 7897 7898 7899 7900 7901 7902 7903 7904 7905 7906 7907 7908 7909 7910 7911 7912 7913 7914 7915 7916 7917 7918 7919 7920 7921 7922 7923 7924 7925 7926 7927 7928 7929 7930 7931 7932 7933 7934 7935 7936 7937 7938 7939 7940 7941 7942 7943 7944 7945 7946 7947 7948 7949 7950 7951 7952 7953 7954 7955 7956 7957 7958 7959 7960 7961 7962 7963 7964 7965 7966 7967 7968 7969 7970 7971 7972 7973 7974 7975 7976 7977 7978 7979 7980 7981 7982 7983 7984 7985 7986 7987 7988 7989 7990 7991 7992 7993 7994 7995 7996 7997 7998 7999 8000 8001 8002 8003 8004 8005 8006 8007 8008 8009 8010 8011 8012 8013 8014 8015 8016 8017 8018 8019 8020 8021 8022 8023 8024 8025 8026 8027 8028 8029 8030 8031 8032 8033 8034 8035 8036 8037 8038 8039 8040 8041 8042 8043 8044 8045 8046 8047 8048 8049 8050 8051 8052 8053 8054 8055 8056 8057 8058 8059 8060 8061 8062 8063 8064 8065 8066 8067 8068 8069 8070 8071 8072 8073 8074 8075 8076 8077 8078 8079 8080 8081 8082 8083 8084 8085 8086 8087 8088 8089 8090 8091 8092 8093 8094 8095 8096 8097 8098 8099 8100 8101 8102 8103 8104 8105 8106 8107 8108 8109 8110 8111 8112 8113 8114 8115 8116 8117 8118 8119 8120 8121 8122 8123 8124 8125 8126 8127 8128 8129 8130 8131 8132 8133 8134 8135 8136 8137 8138 8139 8140 8141 8142 8143 8144 8145 8146 8147 8148 8149 8150 8151 8152 8153 8154 8155 8156 8157 8158 8159 8160 8161 8162 8163 8164 8165 8166 8167 8168 8169 8170 8171 8172 8173 8174 8175 8176 8177 8178 8179 8180 8181 8182 8183 8184 8185 8186 8187 8188 8189 8190 8191 8192 8193 8194 8195 8196 8197 8198 8199 8200 8201 8202 8203 8204 8205 8206 8207 8208 8209 8210 8211 8212 8213 8214 8215 8216 8217 8218 8219 8220 8221 8222 8223 8224 8225 8226 8227 8228 8229 8230 8231 8232 8233 8234 8235 8236 8237 8238 8239 8240 8241 8242 8243 8244 8245 8246 8247 8248 8249 8250 8251 8252 8253 8254 8255 8256 8257 8258 8259 8260 8261 8262 8263 8264 8265 8266 8267 8268 8269 8270 8271 8272 8273 8274 8275 8276 8277 8278 8279 8280 8281 8282 8283 8284 8285 8286 8287 8288 8289 8290 8291 8292 8293 8294 8295 8296 8297 8298 8299 8300 8301 8302 8303 8304 8305 8306 8307 8308 8309 8310 8311 8312 8313 8314 8315 8316 8317 8318 8319 8320 8321 8322 8323 8324 8325 8326 8327 8328 8329 8330 8331 8332 8333 8334 8335 8336 8337 8338 8339 8340 8341 8342 8343 8344 8345 8346 8347 8348 8349 8350 8351 8352 8353 8354 8355 8356 8357 8358 8359 8360 8361 8362 8363 8364 8365 8366 8367 8368 8369 8370 8371 8372 8373 8374 8375 8376 8377 8378 8379 8380 8381 8382 8383 8384 8385 8386 8387 8388 8389 8390 8391 8392 8393 8394 8395 8396 8397 8398 8399 8400 8401 8402 8403 8404 8405 8406 8407 8408 8409 8410 8411 8412 8413 8414 8415 8416 8417 8418 8419 8420 8421 8422 8423 8424 8425 8426 8427 8428 8429 8430 8431 8432 8433 8434 8435 8436 8437 8438 8439 8440 8441 8442 8443 8444 8445 8446 8447 8448 8449 8450 8451 8452 8453 8454 8455 8456 8457 8458 8459 8460 8461 8462 8463 8464 8465 8466 8467 8468 8469 8470 8471 8472 8473 8474 8475 8476 8477 8478 8479 8480 8481 8482 8483 8484 8485 8486 8487 8488 8489 8490 8491 8492 8493 8494 8495 8496 8497 8498 8499 8500 8501 8502 8503 8504 8505 8506 8507 8508 8509 8510 8511 8512 8513 8514 8515 8516 8517 8518 8519 8520 8521 8522 8523 8524 8525 8526 8527 8528 8529 8530 8531 8532 8533 8534 8535 8536 8537 8538 8539 8540 8541 8542 8543 8544 8545 8546 8547 8548 8549 8550 8551 8552 8553 8554 8555 8556 8557 8558 8559 8560 8561 8562 8563 8564 8565 8566 8567 8568 8569 8570 8571 8572 8573 8574 8575 8576 8577 8578 8579 8580 8581 8582 8583 8584 8585 8586 8587 8588 8589 8590 8591 8592 8593 8594 8595 8596 8597 8598 8599 8600 8601 8602 8603 8604 8605 8606 8607 8608 8609 8610 8611 8612 8613 8614 8615 8616 8617 8618 8619 8620 8621 8622 8623 8624 8625 8626 8627 8628 8629 8630 8631 8632 8633 8634 8635 8636 8637 8638 8639 8640 8641 8642 8643 8644 8645 8646 8647 8648 8649 8650 8651 8652 8653 8654 8655 8656 8657 8658 8659 8660 8661 8662 8663 8664 8665 8666 8667 8668 8669 8670 8671 8672 8673 8674 8675 8676 8677 8678 8679 8680 8681 8682 8683 8684 8685 8686 8687 8688 8689 8690 8691 8692 8693 8694 8695 8696 8697 8698 8699 8700 8701 8702 8703 8704 8705 8706 8707 8708 8709 8710 8711 8712 8713 8714 8715 8716 8717 8718 8719 8720 8721 8722 8723 8724 8725 8726 8727 8728 8729 8730 8731 8732 8733 8734 8735 8736 8737 8738 8739 8740 8741 8742 8743 8744 8745 8746 8747 8748 8749 8750 8751 8752 8753 8754 8755 8756 8757 8758 8759 8760 8761 8762 8763 8764 8765 8766 8767 8768 8769 8770 8771 8772 8773 8774 8775 8776 8777 8778 8779 8780 8781 8782 8783 8784 8785 8786 8787 8788 8789 8790 8791 8792 8793 8794 8795 8796 8797 8798 8799 8800 8801 8802 8803 8804 8805 8806 8807 8808 8809 8810 8811 8812 8813 8814 8815 8816 8817 8818 8819 8820 8821 8822 8823 8824 8825 8826 8827 8828 8829 8830 8831 8832 8833 8834 8835 8836 8837 8838 8839 8840 8841 8842 8843 8844 8845 8846 8847 8848 8849 8850 8851 8852 8853 8854 8855 8856 8857 8858 8859 8860 8861 8862 8863 8864 8865 8866 8867 8868 8869 8870 8871 8872 8873 8874 8875 8876 8877 8878 8879 8880 8881 8882 8883 8884 8885 8886 8887 8888 8889 8890 8891 8892 8893 8894 8895 8896 8897 8898 8899 8900 8901 8902 8903 8904 8905 8906 8907 8908 8909 8910 8911 8912 8913 8914 8915 8916 8917 8918 8919 8920 8921 8922 8923 8924 8925 8926 8927 8928 8929 8930 8931 8932 8933 8934 8935 8936 8937 8938 8939 8940 8941 8942 8943 8944 8945 8946 8947 8948 8949 8950 8951 8952 8953 8954 8955 8956 8957 8958 8959 8960 8961 8962 8963 8964 8965 8966 8967 8968 8969 8970 8971 8972 8973 8974 8975 8976 8977 8978 8979 8980 8981 8982 8983 8984 8985 8986 8987 8988 8989 8990 8991 8992 8993 8994 8995 8996 8997 8998 8999 9000 9001 9002 9003 9004 9005 9006 9007 9008 9009 9010 9011 9012 9013 9014 9015 9016 9017 9018 9019 9020 9021 9022 9023 9024 9025 9026 9027 9028 9029 9030 9031 9032 9033 9034 9035 9036 9037 9038 9039 9040 9041 9042 9043 9044 9045 9046 9047 9048 9049 9050 9051 9052 9053 9054 9055 9056 9057 9058 9059 9060 9061 9062 9063 9064 9065 9066 9067 9068 9069 9070 9071 9072 9073 9074 9075 9076 9077 9078 9079 9080 9081 9082 9083 9084 9085 9086 9087 9088 9089 9090 9091 9092 9093 9094 9095 9096 9097 9098 9099 9100 9101 9102 9103 9104 9105 9106 9107 9108 9109 9110 9111 9112 9113 9114 9115 9116 9117 9118 9119 9120 9121 9122 9123 9124 9125 9126 9127 9128 9129 9130 9131 9132 9133 9134 9135 9136 9137 9138 9139 9140 9141 9142 9143 9144 9145 9146 9147 9148 9149 9150 9151 9152 9153 9154 9155 9156 9157 9158 9159 9160 9161 9162 9163 9164 9165 9166 9167 9168 9169 9170 9171 9172 9173 9174 9175 9176 9177 9178 9179 9180 9181 9182 9183 9184 9185 9186 9187 9188 9189 9190 9191 9192 9193 9194 9195 9196 9197 9198 9199 9200 9201 9202 9203 9204 9205 9206 9207 9208 9209 9210 9211 9212 9213 9214 9215 9216 9217 9218 9219 9220 9221 9222 9223 9224 9225 9226 9227 9228 9229 9230 9231 9232 9233 9234 9235 9236 9237 9238 9239 9240 9241 9242 9243 9244 9245 9246 9247 9248 9249 9250 9251 9252 9253 9254 9255 9256 9257 9258 9259 9260 9261 9262 9263 9264 9265 9266 9267 9268 9269 9270 9271 9272 9273 9274 9275 9276 9277 9278 9279 9280 9281 9282 9283 9284 9285 9286 9287 9288 9289 9290 9291 9292 9293 9294 9295 9296 9297 9298 9299 9300 9301 9302 9303 9304 9305 9306 9307 9308 9309 9310 9311 9312 9313 9314 9315 9316 9317 9318 9319 9320 9321 9322 9323 9324 9325 9326 9327 9328 9329 9330 9331 9332 9333 9334 9335 9336 9337 9338 9339 9340 9341 9342 9343 9344 9345 9346 9347 9348 9349 9350 9351 9352 9353 9354 9355 9356 9357 9358 9359 9360 9361 9362 9363 9364 9365 9366 9367 9368 9369 9370 9371 9372 9373 9374 9375 9376 9377 9378 9379 9380 9381 9382 9383 9384 9385 9386 9387 9388 9389 9390 9391 9392 9393 9394 9395 9396 9397 9398 9399 9400 9401 9402 9403 9404 9405 9406 9407 9408 9409 9410 9411 9412 9413 9414 9415 9416 9417 9418 9419 9420 9421 9422 9423 9424 9425 9426 9427 9428 9429 9430 9431 9432 9433 9434 9435 9436 9437 9438 9439 9440 9441 9442 9443 9444 9445 9446 9447 9448 9449 9450 9451 9452 9453 9454 9455 9456 9457 9458 9459 9460 9461 9462 9463 9464 9465 9466 9467 9468 9469 9470 9471 9472 9473 9474 9475 9476 9477 9478 9479 9480 9481 9482 9483 9484 9485 9486 9487 9488 9489 9490 9491 9492 9493 9494 9495 9496 9497 9498 9499 9500 9501 9502 9503 9504 9505 9506 9507 9508 9509 9510 9511 9512 9513 9514 9515 9516 9517 9518 9519 9520 9521 9522 9523 9524 9525 9526 9527 9528 9529 9530 9531 9532 9533 9534 9535 9536 9537 9538 9539 9540 9541 9542 9543 9544 9545 9546 9547 9548 9549 9550 9551 9552 9553 9554 9555 9556 9557 9558 9559 9560 9561 9562 9563 9564 9565 9566 9567 9568 9569 9570 9571 9572 9573 9574 9575 9576 9577 9578 9579 9580 9581 9582 9583 9584 9585 9586 9587 9588 9589 9590 9591 9592 9593 9594 9595 9596 9597 9598 9599 9600 9601 9602 9603 9604 9605 9606 9607 9608 9609 9610 9611 9612 9613 9614 9615 9616 9617 9618 9619 9620 9621 9622 9623 9624 9625 9626 9627 9628 9629 9630 9631 9632 9633 9634 9635 9636 9637 9638 9639 9640 9641 9642 9643 9644 9645 9646 9647 9648 9649 9650 9651 9652 9653 9654 9655 9656 9657 9658 9659 9660 9661 9662 9663 9664 9665 9666 9667 9668 9669 9670 9671 9672 9673 9674 9675 9676 9677 9678 9679 9680 9681 9682 9683 9684 9685 9686 9687 9688 9689 9690 9691 9692 9693 9694 9695 9696 9697 9698 9699 9700 9701 9702 9703 9704 9705 9706 9707 9708 9709 9710 9711 9712 9713 9714 9715 9716 9717 9718 9719 9720 9721 9722 9723 9724 9725 9726 9727 9728 9729 9730 9731 9732 9733 9734 9735 9736 9737 9738 9739 9740 9741 9742 9743 9744 9745 9746 9747 9748 9749 9750 9751 9752 9753 9754 9755 9756 9757 9758 9759 9760 9761 9762 9763 9764 9765 9766 9767 9768 9769 9770 9771 9772 9773 9774 9775 9776 9777 9778 9779 9780 9781 9782 9783 9784 9785 9786 9787 9788 9789 9790 9791 9792 9793 9794 9795 9796 9797 9798 9799 9800 9801 9802 9803 9804 9805 9806 9807 9808 9809 9810 9811 9812 9813 9814 9815 9816 9817 9818 9819 9820 9821 9822 9823 9824 9825 9826 9827 9828 9829 9830 9831 9832 9833 9834 9835 9836 9837 9838 9839 9840 9841 9842 9843 9844 9845 9846 9847 9848 9849 9850 9851 9852 9853 9854 9855 9856 9857 9858 9859 9860 9861 9862 9863 9864 9865 9866 9867 9868 9869 9870 9871 9872 9873 9874 9875 9876 9877 9878 9879 9880 9881 9882 9883 9884 9885 9886 9887 9888 9889 9890 9891 9892 9893 9894 9895 9896 9897 9898 9899 9900 9901 9902 9903 9904 9905 9906 9907 9908 9909 9910 9911 9912 9913 9914 9915 9916 9917 9918 9919 9920 9921 9922 9923 9924 9925 9926 9927 9928 9929 9930 9931 9932 9933 9934 9935 9936 9937 9938 9939 9940 9941 9942 9943 9944 9945 9946 9947 9948 9949 9950 9951 9952 9953 9954 9955 9956 9957 9958 9959 9960 9961 9962 9963 9964 9965 9966 9967 9968 9969 9970 9971 9972 9973 9974 9975 9976 9977 9978 9979 9980 9981 9982 9983 9984 9985 9986 9987 9988 9989 9990 9991 9992 9993 9994 9995 9996 9997 9998 9999 10000 10001 10002 10003 10004 10005 10006 10007 10008 10009 10010 10011 10012 10013 10014 10015 10016 10017 10018 10019 10020 10021 10022 10023 10024 10025 10026 10027 10028 10029 10030 10031 10032 10033 10034 10035 10036 10037 10038 10039 10040 10041 10042 10043 10044 10045 10046 10047 10048 10049 10050 10051 10052 10053 10054 10055 10056 10057 10058 10059 10060 10061 10062 10063 10064 10065 10066 10067 10068 10069 10070 10071 10072 10073 10074 10075 10076 10077 10078 10079 10080 10081 10082 10083 10084 10085 10086 10087 10088 10089 10090 10091 10092 10093 10094 10095 10096 10097 10098 10099 10100 10101 10102 10103 10104 10105 10106 10107 10108 10109 10110 10111 10112 10113 10114 10115 10116 10117 10118 10119 10120 10121 10122 10123 10124 10125 10126 10127 10128 10129 10130 10131 10132 10133 10134 10135 10136 10137 10138 10139 10140 10141 10142 10143 10144 10145 10146 10147 10148 10149 10150 10151 10152 10153 10154 10155 10156 10157 10158 10159 10160 10161 10162 10163 10164 10165 10166 10167 10168 10169 10170 10171 10172 10173 10174 10175 10176 10177 10178 10179 10180 10181 10182 10183 10184 10185 10186 10187 10188 10189 10190 10191 10192 10193 10194 10195 10196 10197 10198 10199 10200 10201 10202 10203 10204 10205 10206 10207 10208 10209 10210 10211 10212 10213 10214 10215 10216 10217 10218 10219 10220 10221 10222 10223 10224 10225 10226 10227 10228 10229 10230 10231 10232 10233 10234 10235 10236 10237 10238 10239 10240 10241 10242 10243 10244 10245 10246 10247 10248 10249 10250 10251 10252 10253 10254 10255 10256 10257 10258 10259 10260 10261 10262 10263 10264 10265 10266 10267 10268 10269 10270 10271 10272 10273 10274 10275 10276 10277 10278 10279 10280 10281 10282 10283 10284 10285 10286 10287 10288 10289 10290 10291 10292 10293 10294 10295 10296 10297 10298 10299 10300 10301 10302 10303 10304 10305 10306 10307 10308 10309 10310 10311 10312 10313 10314 10315 10316 10317 10318 10319 10320 10321 10322 10323 10324 10325 10326 10327 10328 10329 10330 10331 10332 10333 10334 10335 10336 10337 10338 10339 10340 10341 10342 10343 10344 10345 10346 10347 10348 10349 10350 10351 10352 10353 10354 10355 10356 10357 10358 10359 10360 10361 10362 10363 10364 10365 10366 10367 10368 10369 10370 10371 10372 10373 10374 10375 10376 10377 10378 10379 10380 10381 10382 10383 10384 10385 10386 10387 10388 10389 10390 10391 10392 10393 10394 10395 10396 10397 10398 10399 10400 10401 10402 10403 10404 10405 10406 10407 10408 10409 10410 10411 10412 10413 10414 10415 10416 10417 10418 10419 10420 10421 10422 10423 10424 10425 10426 10427 10428 10429 10430 10431 10432 10433 10434 10435 10436 10437 10438 10439 10440 10441 10442 10443 10444 10445 10446 10447 10448 10449 10450 10451 10452 10453 10454 10455 10456 10457 10458 10459 10460 10461 10462 10463 10464 10465 10466 10467 10468 10469 10470 10471 10472 10473 10474 10475 10476 10477 10478 10479 10480 10481 10482 10483 10484 10485 10486 10487 10488 10489 10490 10491 10492 10493 10494 10495 10496 10497 10498 10499 10500 10501 10502 10503 10504 10505 10506 10507 10508 10509 10510 10511 10512 10513 10514 10515 10516 10517 10518 10519 10520 10521 10522 10523 10524 10525 10526 10527 10528 10529 10530 10531 10532 10533 10534 10535 10536 10537 10538 10539 10540 10541 10542 10543 10544 10545 10546 10547 10548 10549 10550 10551 10552 10553 10554 10555 10556 10557 10558 10559 10560 10561 10562 10563 10564 10565 10566 10567 10568 10569 10570 10571 10572 10573 10574 10575 10576 10577 10578 10579 10580 10581 10582 10583 10584 10585 10586 10587 10588 10589 10590 10591 10592 10593 10594 10595 10596 10597 10598 10599 10600 10601 10602 10603 10604 10605 10606 10607 10608 10609 10610 10611 10612 10613 10614 10615 10616 10617 10618 10619 10620 10621 10622 10623 10624 10625 10626 10627 10628 10629 10630 10631 10632 10633 10634 10635 10636 10637 10638 10639 10640 10641 10642 10643 10644 10645 10646 10647 10648 10649 10650 10651 10652 10653 10654 10655 10656 10657 10658 10659 10660 10661 10662 10663 10664 10665 10666 10667 10668 10669 10670 10671 10672 10673 10674 10675 10676 10677 10678 10679 10680 10681 10682 10683 10684 10685 10686 10687 10688 10689 10690 10691 10692 10693 10694 10695 10696 10697 10698 10699 10700 10701 10702 10703 10704 10705 10706 10707 10708 10709 10710 10711 10712 10713 10714 10715 10716 10717 10718 10719 10720 10721 10722 10723 10724 10725 10726 10727 10728 10729 10730 10731 10732 10733 10734 10735 10736 10737 10738 10739 10740 10741 10742 10743 10744 10745 10746 10747 10748 10749 10750 10751 10752 10753 10754 10755 10756 10757 10758 10759 10760 10761 10762 10763 10764 10765 10766 10767 10768 10769 10770 10771 10772 10773 10774 10775 10776 10777 10778 10779 10780 10781 10782 10783 10784 10785 10786 10787 10788 10789 10790 10791 10792 10793 10794 10795 10796 10797 10798 10799 10800 10801 10802 10803 10804 10805 10806 10807 10808 10809 10810 10811 10812 10813 10814 10815 10816 10817 10818 10819 10820 10821 10822 10823 10824 10825 10826 10827 10828 10829 10830 10831 10832 10833 10834 10835 10836 10837 10838 10839 10840 10841 10842 10843 10844 10845 10846 10847 10848 10849 10850 10851 10852 10853 10854 10855 10856 10857 10858 10859 10860 10861 10862 10863 10864 10865 10866 10867 10868 10869 10870 10871 10872 10873 10874 10875 10876 10877 10878 10879 10880 10881 10882 10883 10884 10885 10886 10887 10888 10889 10890 10891 10892 10893 10894 10895 10896 10897 10898 10899 10900 10901 10902 10903 10904 10905 10906 10907 10908 10909 10910 10911 10912 10913 10914 10915 10916 10917 10918 10919 10920 10921 10922 10923 10924 10925 10926 10927 10928 10929 10930 10931 10932 10933 10934 10935 10936 10937 10938 10939 10940 10941 10942 10943 10944 10945 10946 10947 10948 10949 10950 10951 10952 10953 10954 10955 10956 10957 10958 10959 10960 10961 10962 10963 10964 10965 10966 10967 10968 10969 10970 10971 10972 10973 10974 10975 10976 10977 10978 10979 10980 10981 10982 10983 10984 10985 10986 10987 10988 10989 10990 10991 10992 10993 10994 10995 10996 10997 10998 10999 11000 11001 11002 11003 11004 11005 11006 11007 11008 11009 11010 11011 11012 11013 11014 11015 11016 11017 11018 11019 11020 11021 11022 11023 11024 11025 11026 11027 11028 11029 11030 11031 11032 11033 11034 11035 11036 11037 11038 11039 11040 11041 11042 11043 11044 11045 11046 11047 11048 11049 11050 11051 11052 11053 11054 11055 11056 11057 11058 11059 11060 11061 11062 11063 11064 11065 11066 11067 11068 11069 11070 11071 11072 11073 11074 11075 11076 11077 11078 11079 11080 11081 11082 11083 11084 11085 11086 11087 11088 11089 11090 11091 11092 11093 11094 11095 11096 11097 11098 11099 11100 11101 11102 11103 11104 11105 11106 11107 11108 11109 11110 11111 11112 11113 11114 11115 11116 11117 11118 11119 11120 11121 11122 11123 11124 11125 11126 11127 11128 11129 11130 11131 11132 11133 11134 11135 11136 11137 11138 11139 11140 11141 11142 11143 11144 11145 11146 11147 11148 11149 11150 11151 11152 11153 11154 11155 11156 11157 11158 11159 11160 11161 11162 11163 11164 11165 11166 11167 11168 11169 11170 11171 11172 11173 11174 11175 11176 11177 11178 11179 11180 11181 11182 11183 11184 11185 11186 11187 11188 11189 11190 11191 11192 11193 11194 11195 11196 11197 11198 11199 11200 11201 11202 11203 11204 11205 11206 11207 11208 11209 11210 11211 11212 11213 11214 11215 11216 11217 11218 11219 11220 11221 11222 11223 11224 11225 11226 11227 11228 11229 11230 11231 11232 11233 11234 11235 11236 11237 11238 11239 11240 11241 11242 11243 11244 11245 11246 11247 11248 11249 11250 11251 11252 11253 11254 11255 11256 11257 11258 11259 11260 11261 11262 11263 11264 11265 11266 11267 11268 11269 11270 11271 11272 11273 11274 11275 11276 11277 11278 11279 11280 11281 11282 11283 11284 11285 11286 11287 11288 11289 11290 11291 11292 11293 11294 11295 11296 11297 11298 11299 11300 11301 11302 11303 11304 11305 11306 11307 11308 11309 11310 11311 11312 11313 11314 11315 11316 11317 11318 11319 11320 11321 11322 11323 11324 11325 11326 11327 11328 11329 11330 11331 11332 11333 11334 11335 11336 11337 11338 11339 11340 11341 11342 11343 11344 11345 11346 11347 11348 11349 11350 11351 11352 11353 11354 11355 11356 11357 11358 11359 11360 11361 11362 11363 11364 11365 11366 11367 11368 11369 11370 11371 11372 11373 11374 11375 11376 11377 11378 11379 11380 11381 11382 11383 11384 11385 11386 11387 11388 11389 11390 11391 11392 11393 11394 11395 11396 11397 11398 11399 11400 11401 11402 11403 11404 11405 11406 11407 11408 11409 11410 11411 11412 11413 11414 11415 11416 11417 11418 11419 11420 11421 11422 11423 11424 11425 11426 11427 11428 11429 11430 11431 11432 11433 11434 11435 11436 11437 11438 11439 11440 11441 11442 11443 11444 11445 11446 11447 11448 11449 11450 11451 11452 11453 11454 11455 11456 11457 11458 11459 11460 11461 11462 11463 11464 11465 11466 11467 11468 11469 11470 11471 11472 11473 11474 11475 11476 11477 11478 11479 11480 11481 11482 11483 11484 11485 11486 11487 11488 11489 11490 11491 11492 11493 11494 11495 11496 11497 11498 11499 11500 11501 11502 11503 11504 11505 11506 11507 11508 11509 11510 11511 11512 11513 11514 11515 11516 11517 11518 11519 11520 11521 11522 11523 11524 11525 11526 11527 11528 11529 11530 11531 11532 11533 11534 11535 11536 11537 11538 11539 11540 11541 11542 11543 11544 11545 11546 11547 11548 11549 11550 11551 11552 11553 11554 11555 11556 11557 11558 11559 11560 11561 11562 11563 11564 11565 11566 11567 11568 11569 11570 11571 11572 11573 11574 11575 11576 11577 11578 11579 11580 11581 11582 11583 11584 11585 11586 11587 11588 11589 11590 11591 11592 11593 11594 11595 11596 11597 11598 11599 11600 11601 11602 11603 11604 11605 11606 11607 11608 11609 11610 11611 11612 11613 11614 11615 11616 11617 11618 11619 11620 11621 11622 11623 11624 11625 11626 11627 11628 11629 11630 11631 11632 11633 11634 11635 11636 11637 11638 11639 11640 11641 11642 11643 11644 11645 11646 11647 11648 11649 11650 11651 11652 11653 11654 11655 11656 11657 11658 11659 11660 11661 11662 11663 11664 11665 11666 11667 11668 11669 11670 11671 11672 11673 11674 11675 11676 11677 11678 11679 11680 11681 11682 11683 11684 11685 11686 11687 11688 11689 11690 11691 11692 11693 11694 11695 11696 11697 11698 11699 11700 11701 11702 11703 11704 11705 11706 11707 11708 11709 11710 11711 11712 11713 11714 11715 11716 11717 11718 11719 11720 11721 11722 11723 11724 11725 11726 11727 11728 11729 11730 11731 11732 11733 11734 11735 11736 11737 11738 11739 11740 11741 11742 11743 11744 11745 11746 11747 11748 11749 11750 11751 11752 11753 11754 11755 11756 11757 11758 11759 11760 11761 11762 11763 11764 11765 11766 11767 11768 11769 11770 11771 11772 11773 11774 11775 11776 11777 11778 11779 11780 11781 11782 11783 11784 11785 11786 11787 11788 11789 11790 11791 11792 11793 11794 11795 11796 11797 11798 11799 11800 11801 11802 11803 11804 11805 11806 11807 11808 11809 11810 11811 11812 11813 11814 11815 11816 11817 11818 11819 11820 11821 11822 11823 11824 11825 11826 11827 11828 11829 11830 11831 11832 11833 11834 11835 11836 11837 11838 11839 11840 11841 11842 11843 11844 11845 11846 11847 11848 11849 11850 11851 11852 11853 11854 11855 11856 11857 11858 11859 11860 11861 11862 11863 11864 11865 11866 11867 11868 11869 11870 11871 11872 11873 11874 11875 11876 11877 11878 11879 11880 11881 11882 11883 11884 11885 11886 11887 11888 11889 11890 11891 11892 11893 11894 11895 11896 11897 11898 11899 11900 11901 11902 11903 11904 11905 11906 11907 11908 11909 11910 11911 11912 11913 11914 11915 11916 11917 11918 11919 11920 11921 11922 11923 11924 11925 11926 11927 11928 11929 11930 11931 11932 11933 11934 11935 11936 11937 11938 11939 11940 11941 11942 11943 11944 11945 11946 11947 11948 11949 11950 11951 11952 11953 11954 11955 11956 11957 11958 11959 11960 11961 11962 11963 11964 11965 11966 11967 11968 11969 11970 11971 11972 11973 11974 11975 11976 11977 11978 11979 11980 11981 11982 11983 11984 11985 11986 11987 11988 11989 11990 11991 11992 11993 11994 11995 11996 11997 11998 11999 12000 12001 12002 12003 12004 12005 12006 12007 12008 12009 12010 12011 12012 12013 12014 12015 12016 12017 12018 12019 12020 12021 12022 12023 12024 12025 12026 12027 12028 12029 12030 12031 12032 12033 12034 12035 12036 12037 12038 12039 12040 12041 12042 12043 12044 12045 12046 12047 12048 12049 12050 12051 12052 12053 12054 12055 12056 12057 12058 12059 12060 12061 12062 12063 12064 12065 12066 12067 12068 12069 12070 12071 12072 12073 12074 12075 12076 12077 12078 12079 12080 12081 12082 12083 12084 12085 12086 12087 12088 12089 12090 12091 12092 12093 12094 12095 12096 12097 12098 12099 12100 12101 12102 12103 12104 12105 12106 12107 12108 12109 12110 12111 12112 12113 12114 12115 12116 12117 12118 12119 12120 12121 12122 12123 12124 12125 12126 12127 12128 12129 12130 12131 12132 12133 12134 12135 12136 12137 12138 12139 12140 12141 12142 12143 12144 12145 12146 12147 12148 12149 12150 12151 12152 12153 12154 12155 12156 12157 12158 12159 12160 12161 12162 12163 12164 12165 12166 12167 12168 12169 12170 12171 12172 12173 12174 12175 12176 12177 12178 12179 12180 12181 12182 12183 12184 12185 12186 12187 12188 12189 12190 12191 12192 12193 12194 12195 12196 12197 12198 12199 12200 12201 12202 12203 12204 12205 12206 12207 12208 12209 12210 12211 12212 12213 12214 12215 12216 12217 12218 12219 12220 12221 12222 12223 12224 12225 12226 12227 12228 12229 12230 12231 12232 12233 12234 12235 12236 12237 12238 12239 12240 12241 12242 12243 12244 12245 12246 12247 12248 12249 12250 12251 12252 12253 12254 12255 12256 12257 12258 12259 12260 12261 12262 12263 12264 12265 12266 12267 12268 12269 12270 12271 12272 12273 12274 12275 12276 12277 12278 12279 12280 12281 12282 12283 12284 12285 12286 12287 12288 12289 12290 12291 12292 12293 12294 12295 12296 12297 12298 12299 12300 12301 12302 12303 12304 12305 12306 12307 12308 12309 12310 12311 12312 12313 12314 12315 12316 12317 12318 12319 12320 12321 12322 12323 12324 12325 12326 12327 12328 12329 12330 12331 12332 12333 12334 12335 12336 12337 12338 12339 12340 12341 12342 12343 12344 12345 12346 12347 12348 12349 12350 12351 12352 12353 12354 12355 12356 12357 12358 12359 12360 12361 12362 12363 12364 12365 12366 12367 12368 12369 12370 12371 12372 12373 12374 12375 12376 12377 12378 12379 12380 12381 12382 12383 12384 12385 12386 12387 12388 12389 12390 12391 12392 12393 12394 12395 12396 12397 12398 12399 12400 12401 12402 12403 12404 12405 12406 12407 12408 12409 12410 12411 12412 12413 12414 12415 12416 12417 12418 12419 12420 12421 12422 12423 12424 12425 12426 12427 12428 12429 12430 12431 12432 12433 12434 12435 12436 12437 12438 12439 12440 12441 12442 12443 12444 12445 12446 12447 12448 12449 12450 12451 12452 12453 12454 12455 12456 12457 12458 12459 12460 12461 12462 12463 12464 12465 12466 12467 12468 12469 12470 12471 12472 12473 12474 12475 12476 12477 12478 12479 12480 12481 12482 12483 12484 12485 12486 12487 12488 12489 12490 12491 12492 12493 12494 12495 12496 12497 12498 12499 12500 12501 12502 12503 12504 12505 12506 12507 12508 12509 12510 12511 12512 12513 12514 12515 12516 12517 12518 12519 12520 12521 12522 12523 12524 12525 12526 12527 12528 12529 12530 12531 12532 12533 12534 12535 12536 12537 12538 12539 12540 12541 12542 12543 12544 12545 12546 12547 12548 12549 12550 12551 12552 12553 12554 12555 12556 12557 12558 12559 12560 12561 12562 12563 12564 12565 12566 12567 12568 12569 12570 12571 12572 12573 12574 12575 12576 12577 12578 12579 12580 12581 12582 12583 12584 12585 12586 12587 12588 12589 12590 12591 12592 12593 12594 12595 12596 12597 12598 12599 12600 12601 12602 12603 12604 12605 12606 12607 12608 12609 12610 12611 12612 12613 12614 12615 12616 12617 12618 12619 12620 12621 12622 12623 12624 12625 12626 12627 12628 12629 12630 12631 12632 12633 12634 12635 12636 12637 12638 12639 12640 12641 12642 12643 12644 12645 12646 12647 12648 12649 12650 12651 12652 12653 12654 12655 12656 12657 12658 12659 12660 12661 12662 12663 12664 12665 12666 12667 12668 12669 12670 12671 12672 12673 12674 12675 12676 12677 12678 12679 12680 12681 12682 12683 12684 12685 12686 12687 12688 12689 12690 12691 12692 12693 12694 12695 12696 12697 12698 12699 12700 12701 12702 12703 12704 12705 12706 12707 12708 12709 12710 12711 12712 12713 12714 12715 12716 12717 12718 12719 12720 12721 12722 12723 12724 12725 12726 12727 12728 12729 12730 12731 12732 12733 12734 12735 12736 12737 12738 12739 12740 12741 12742 12743 12744 12745 12746 12747 12748 12749 12750 12751 12752 12753 12754 12755 12756 12757 12758 12759 12760 12761 12762 12763 12764 12765 12766 12767 12768 12769 12770 12771 12772 12773 12774 12775 12776 12777 12778 12779 12780 12781 12782 12783 12784 12785 12786 12787 12788 12789 12790 12791 12792 12793 12794 12795 12796 12797 12798 12799 12800 12801 12802 12803 12804 12805 12806 12807 12808 12809 12810 12811 12812 12813 12814 12815 12816 12817 12818 12819 12820 12821 12822 12823 12824 12825 12826 12827 12828 12829 12830 12831 12832 12833 12834 12835 12836 12837 12838 12839 12840 12841 12842 12843 12844 12845 12846 12847 12848 12849 12850 12851 12852 12853 12854 12855 12856 12857 12858 12859 12860 12861 12862 12863 12864 12865 12866 12867 12868 12869 12870 12871 12872 12873 12874 12875 12876 12877 12878 12879 12880 12881 12882 12883 12884 12885 12886 12887 12888 12889 12890 12891 12892 12893 12894 12895 12896 12897 12898 12899 12900 12901 12902 12903 12904 12905 12906 12907 12908 12909 12910 12911 12912 12913 12914 12915 12916 12917 12918 12919 12920 12921 12922 12923 12924 12925 12926 12927 12928 12929 12930 12931 12932 12933 12934 12935 12936 12937 12938 12939 12940 12941 12942 12943 12944 12945 12946 12947 12948 12949 12950 12951 12952 12953 12954 12955 12956 12957 12958 12959 12960 12961 12962 12963 12964 12965 12966 12967 12968 12969 12970 12971 12972 12973 12974 12975 12976 12977 12978 12979 12980 12981 12982 12983 12984 12985 12986 12987 12988 12989 12990 12991 12992 12993 12994 12995 12996 12997 12998 12999 13000 13001 13002 13003 13004 13005 13006 13007 13008 13009 13010 13011 13012 13013 13014 13015 13016 13017 13018 13019 13020 13021 13022 13023 13024 13025 13026 13027 13028 13029 13030 13031 13032 13033 13034 13035 13036 13037 13038 13039 13040 13041 13042 13043 13044 13045 13046 13047 13048 13049 13050 13051 13052 13053 13054 13055 13056 13057 13058 13059 13060 13061 13062 13063 13064 13065 13066 13067 13068 13069 13070 13071 13072 13073 13074 13075 13076 13077 13078 13079 13080 13081 13082 13083 13084 13085 13086 13087 13088 13089 13090 13091 13092 13093 13094 13095 13096 13097 13098 13099 13100 13101 13102 13103 13104 13105 13106 13107 13108 13109 13110 13111 13112 13113 13114 13115 13116 13117 13118 13119 13120 13121 13122 13123 13124 13125 13126 13127 13128 13129 13130 13131 13132 13133 13134 13135 13136 13137 13138 13139 13140 13141 13142 13143 13144 13145 13146 13147 13148 13149 13150 13151 13152 13153 13154 13155 13156 13157 13158 13159 13160 13161 13162 13163 13164 13165 13166 13167 13168 13169 13170 13171 13172 13173 13174 13175 13176 13177 13178 13179 13180 13181 13182 13183 13184 13185 13186 13187 13188 13189 13190 13191 13192 13193 13194 13195 13196 13197 13198 13199 13200 13201 13202 13203 13204 13205 13206 13207 13208 13209 13210 13211 13212 13213 13214 13215 13216 13217 13218 13219 13220 13221 13222 13223 13224 13225 13226 13227 13228 13229 13230 13231 13232 13233 13234 13235 13236 13237 13238 13239 13240 13241 13242 13243 13244 13245 13246 13247 13248 13249 13250 13251 13252 13253 13254 13255 13256 13257 13258 13259 13260 13261 13262 13263 13264 13265 13266 13267 13268 13269 13270 13271 13272 13273 13274 13275 13276 13277 13278 13279 13280 13281 13282 13283 13284 13285 13286 13287 13288 13289 13290 13291 13292 13293 13294 13295 13296 13297 13298 13299 13300 13301 13302 13303 13304 13305 13306 13307 13308 13309 13310 13311 13312 13313 13314 13315 13316 13317 13318 13319 13320 13321 13322 13323 13324 13325 13326 13327 13328 13329 13330 13331 13332 13333 13334 13335 13336 13337 13338 13339 13340 13341 13342 13343 13344 13345 13346 13347 13348 13349 13350 13351 13352 13353 13354 13355 13356 13357 13358 13359 13360 13361 13362 13363 13364 13365 13366 13367 13368 13369 13370 13371 13372 13373 13374 13375 13376 13377 13378 13379 13380 13381 13382 13383 13384 13385 13386 13387 13388 13389 13390 13391 13392 13393 13394 13395 13396 13397 13398 13399 13400 13401 13402 13403 13404 13405 13406 13407 13408 13409 13410 13411 13412 13413 13414 13415 13416 13417 13418 13419 13420 13421 13422 13423 13424 13425 13426 13427 13428 13429 13430 13431 13432 13433 13434 13435 13436 13437 13438 13439 13440 13441 13442 13443 13444 13445 13446 13447 13448 13449 13450 13451 13452 13453 13454 13455 13456 13457 13458 13459 13460 13461 13462 13463 13464 13465 13466 13467 13468 13469 13470 13471 13472 13473 13474 13475 13476 13477 13478 13479 13480 13481 13482 13483 13484 13485 13486 13487 13488 13489 13490 13491 13492 13493 13494 13495 13496 13497 13498 13499 13500 13501 13502 13503 13504 13505 13506 13507 13508 13509 13510 13511 13512 13513 13514 13515 13516 13517 13518 13519 13520 13521 13522 13523 13524 13525 13526 13527 13528 13529 13530 13531 13532 13533 13534 13535 13536 13537 13538 13539 13540 13541 13542 13543 13544 13545 13546 13547 13548 13549 13550 13551 13552 13553 13554 13555 13556 13557 13558 13559 13560 13561 13562 13563 13564 13565 13566 13567 13568 13569 13570 13571 13572 13573 13574 13575 13576 13577 13578 13579 13580 13581 13582 13583 13584 13585 13586 13587 13588 13589 13590 13591 13592 13593 13594 13595 13596 13597 13598 13599 13600 13601 13602 13603 13604 13605 13606 13607 13608 13609 13610 13611 13612 13613 13614 13615 13616 13617 13618 13619 13620 13621 13622 13623 13624 13625 13626 13627 13628 13629 13630 13631 13632 13633 13634 13635 13636 13637 13638 13639 13640 13641 13642 13643 13644 13645 13646 13647 13648 13649 13650 13651 13652 13653 13654 13655 13656 13657 13658 13659 13660 13661 13662 13663 13664 13665 13666 13667 13668 13669 13670 13671 13672 13673 13674 13675 13676 13677 13678 13679 13680 13681 13682 13683 13684 13685 13686 13687 13688 13689 13690 13691 13692 13693 13694 13695 13696 13697 13698 13699 13700 13701 13702 13703 13704 13705 13706 13707 13708 13709 13710 13711 13712 13713 13714 13715 13716 13717 13718 13719 13720 13721 13722 13723 13724 13725 13726 13727 13728 13729 13730 13731 13732 13733 13734 13735 13736 13737 13738 13739 13740 13741 13742 13743 13744 13745 13746 13747 13748 13749 13750 13751 13752 13753 13754 13755 13756 13757 13758 13759 13760 13761 13762 13763 13764 13765 13766 13767 13768 13769 13770 13771 13772 13773 13774 13775 13776 13777 13778 13779 13780 13781 13782 13783 13784 13785 13786 13787 13788 13789 13790 13791 13792 13793 13794 13795 13796 13797 13798 13799 13800 13801 13802 13803 13804 13805 13806 13807 13808 13809 13810 13811 13812 13813 13814 13815 13816 13817 13818 13819 13820 13821 13822 13823 13824 13825 13826 13827 13828 13829 13830 13831 13832 13833 13834 13835 13836 13837 13838 13839 13840 13841 13842 13843 13844 13845 13846 13847 13848 13849 13850 13851 13852 13853 13854 13855 13856 13857 13858 13859 13860 13861 13862 13863 13864 13865 13866 13867 13868 13869 13870 13871 13872 13873 13874 13875 13876 13877 13878 13879 13880 13881 13882 13883 13884 13885 13886 13887 13888 13889 13890 13891 13892 13893 13894 13895 13896 13897 13898 13899 13900 13901 13902 13903 13904 13905 13906 13907 13908 13909 13910 13911 13912 13913 13914 13915 13916 13917 13918 13919 13920 13921 13922 13923 13924 13925 13926 13927 13928 13929 13930 13931 13932 13933 13934 13935 13936 13937 13938 13939 13940 13941 13942 13943 13944 13945 13946 13947 13948 13949 13950 13951 13952 13953 13954 13955 13956 13957 13958 13959 13960 13961 13962 13963 13964 13965 13966 13967 13968 13969 13970 13971 13972 13973 13974 13975 13976 13977 13978 13979 13980 13981 13982 13983 13984 13985 13986 13987 13988 13989 13990 13991 13992 13993 13994 13995 13996 13997 13998 13999 14000 14001 14002 14003 14004 14005 14006 14007 14008 14009 14010 14011 14012 14013 14014 14015 14016 14017 14018 14019 14020 14021 14022 14023 14024 14025 14026 14027 14028 14029 14030 14031 14032 14033 14034 14035 14036 14037 14038 14039 14040 14041 14042 14043 14044 14045 14046 14047 14048 14049 14050 14051 14052 14053 14054 14055 14056 14057 14058 14059 14060 14061 14062 14063 14064 14065 14066 14067 14068 14069 14070 14071 14072 14073 14074 14075 14076 14077 14078 14079 14080 14081 14082 14083 14084 14085 14086 14087 14088 14089 14090 14091 14092 14093 14094 14095 14096 14097 14098 14099 14100 14101 14102 14103 14104 14105 14106 14107 14108 14109 14110 14111 14112 14113 14114 14115 14116 14117 14118 14119 14120 14121 14122 14123 14124 14125 14126 14127 14128 14129 14130 14131 14132 14133 14134 14135 14136 14137 14138 14139 14140 14141 14142 14143 14144 14145 14146 14147 14148 14149 14150 14151 14152 14153 14154 14155 14156 14157 14158 14159 14160 14161 14162 14163 14164 14165 14166 14167 14168 14169 14170 14171 14172 14173 14174 14175 14176 14177 14178 14179 14180 14181 14182 14183 14184 14185 14186 14187 14188 14189 14190 14191 14192 14193 14194 14195 14196 14197 14198 14199 14200 14201 14202 14203 14204 14205 14206 14207 14208 14209 14210 14211 14212 14213 14214 14215 14216 14217 14218 14219 14220 14221 14222 14223 14224 14225 14226 14227 14228 14229 14230 14231 14232 14233 14234 14235 14236 14237 14238 14239 14240 14241 14242 14243 14244 14245 14246 14247 14248 14249 14250 14251 14252 14253 14254 14255 14256 14257 14258 14259 14260 14261 14262 14263 14264 14265 14266 14267 14268 14269 14270 14271 14272 14273 14274 14275 14276 14277 14278 14279 14280 14281 14282 14283 14284 14285 14286 14287 14288 14289 14290 14291 14292 14293 14294 14295 14296 14297 14298 14299 14300 14301 14302 14303 14304 14305 14306 14307 14308 14309 14310 14311 14312 14313 14314 14315 14316 14317 14318 14319 14320 14321 14322 14323 14324 14325 14326 14327 14328 14329 14330 14331 14332 14333 14334 14335 14336 14337 14338 14339 14340 14341 14342 14343 14344 14345 14346 14347 14348 14349 14350 14351 14352 14353 14354 14355 14356 14357 14358 14359 14360 14361 14362 14363 14364 14365 14366 14367 14368 14369 14370 14371 14372 14373 14374 14375 14376 14377 14378 14379 14380 14381 14382 14383 14384 14385 14386 14387 14388 14389 14390 14391 14392 14393 14394 14395 14396 14397 14398 14399 14400 14401 14402 14403 14404 14405 14406 14407 14408 14409 14410 14411 14412 14413 14414 14415 14416 14417 14418 14419 14420 14421 14422 14423 14424 14425 14426 14427 14428 14429 14430 14431 14432 14433 14434 14435 14436 14437 14438 14439 14440 14441 14442 14443 14444 14445 14446 14447 14448 14449 14450 14451 14452 14453 14454 14455 14456 14457 14458 14459 14460 14461 14462 14463 14464 14465 14466 14467 14468 14469 14470 14471 14472 14473 14474 14475 14476 14477 14478 14479 14480 14481 14482 14483 14484 14485 14486 14487 14488 14489 14490 14491 14492 14493 14494 14495 14496 14497 14498 14499 14500 14501 14502 14503 14504 14505 14506 14507 14508 14509 14510 14511 14512 14513 14514 14515 14516 14517 14518 14519 14520 14521 14522 14523 14524 14525 14526 14527 14528 14529 14530 14531 14532 14533 14534 14535 14536 14537 14538 14539 14540 14541 14542 14543 14544 14545 14546 14547 14548 14549 14550 14551 14552 14553 14554 14555 14556 14557 14558 14559 14560 14561 14562 14563 14564 14565 14566 14567 14568 14569 14570 14571 14572 14573 14574 14575 14576 14577 14578 14579 14580 14581 14582 14583 14584 14585 14586 14587 14588 14589 14590 14591 14592 14593 14594 14595 14596 14597 14598 14599 14600 14601 14602 14603 14604 14605 14606 14607 14608 14609 14610 14611 14612 14613 14614 14615 14616 14617 14618 14619 14620 14621 14622 14623 14624 14625 14626 14627 14628 14629 14630 14631 14632 14633 14634 14635 14636 14637 14638 14639 14640 14641 14642 14643 14644 14645 14646 14647 14648 14649 14650 14651 14652 14653 14654 14655 14656 14657 14658 14659 14660 14661 14662 14663 14664 14665 14666 14667 14668 14669 14670 14671 14672 14673 14674 14675 14676 14677 14678 14679 14680 14681 14682 14683 14684 14685 14686 14687 14688 14689 14690 14691 14692 14693 14694 14695 14696 14697 14698 14699 14700 14701 14702 14703 14704 14705 14706 14707 14708 14709 14710 14711 14712 14713 14714 14715 14716 14717 14718 14719 14720 14721 14722 14723 14724 14725 14726 14727 14728 14729 14730 14731 14732 14733 14734 14735 14736 14737 14738 14739 14740 14741 14742 14743 14744 14745 14746 14747 14748 14749 14750 14751 14752 14753 14754 14755 14756 14757 14758 14759 14760 14761 14762 14763 14764 14765 14766 14767 14768 14769 14770 14771 14772 14773 14774 14775 14776 14777 14778 14779 14780 14781 14782 14783 14784 14785 14786 14787 14788 14789 14790 14791 14792 14793 14794 14795 14796 14797 14798 14799 14800 14801 14802 14803 14804 14805 14806 14807 14808 14809 14810 14811 14812 14813 14814 14815 14816 14817 14818 14819 14820 14821 14822 14823 14824 14825 14826 14827 14828 14829 14830 14831 14832 14833 14834 14835 14836 14837 14838 14839 14840 14841 14842 14843 14844 14845 14846 14847 14848 14849 14850 14851 14852 14853 14854 14855 14856 14857 14858 14859 14860 14861 14862 14863 14864 14865 14866 14867 14868 14869 14870 14871 14872 14873 14874 14875 14876 14877 14878 14879 14880 14881 14882 14883 14884 14885 14886 14887 14888 14889 14890 14891 14892 14893 14894 14895 14896 14897 14898 14899 14900 14901 14902 14903 14904 14905 14906 14907 14908 14909 14910 14911 14912 14913 14914 14915 14916 14917 14918 14919 14920 14921 14922 14923 14924 14925 14926 14927 14928 14929 14930 14931 14932 14933 14934 14935 14936 14937 14938 14939 14940 14941 14942 14943 14944 14945 14946 14947 14948 14949 14950 14951 14952 14953 14954 14955 14956 14957 14958 14959 14960 14961 14962 14963 14964 14965 14966 14967 14968 14969 14970 14971 14972 14973 14974 14975 14976 14977 14978 14979 14980 14981 14982 14983 14984 14985 14986 14987 14988 14989 14990 14991 14992 14993 14994 14995 14996 14997 14998 14999 15000 15001 15002 15003 15004 15005 15006 15007 15008 15009 15010 15011 15012 15013 15014 15015 15016 15017 15018 15019 15020 15021 15022 15023 15024 15025 15026 15027 15028 15029 15030 15031 15032 15033 15034 15035 15036 15037 15038 15039 15040 15041 15042 15043 15044 15045 15046 15047 15048 15049 15050 15051 15052 15053 15054 15055 15056 15057 15058 15059 15060 15061 15062 15063 15064 15065 15066 15067 15068 15069 15070 15071 15072 15073 15074 15075 15076 15077 15078 15079 15080 15081 15082 15083 15084 15085 15086 15087 15088 15089 15090 15091 15092 15093 15094 15095 15096 15097 15098 15099 15100 15101 15102 15103 15104 15105 15106 15107 15108 15109 15110 15111 15112 15113 15114 15115 15116 15117 15118 15119 15120 15121 15122 15123 15124 15125 15126 15127 15128 15129 15130 15131 15132 15133 15134 15135 15136 15137 15138 15139 15140 15141 15142 15143 15144 15145 15146 15147 15148 15149 15150 15151 15152 15153 15154 15155 15156 15157 15158 15159 15160 15161 15162 15163 15164 15165 15166 15167 15168 15169 15170 15171 15172 15173 15174 15175 15176 15177 15178 15179 15180 15181 15182 15183 15184 15185 15186 15187 15188 15189 15190 15191 15192 15193 15194 15195 15196 15197 15198 15199 15200 15201 15202 15203 15204 15205 15206 15207 15208 15209 15210 15211 15212 15213 15214 15215 15216 15217 15218 15219 15220 15221 15222 15223 15224 15225 15226 15227 15228 15229 15230 15231 15232 15233 15234 15235 15236 15237 15238 15239 15240 15241 15242 15243 15244 15245 15246 15247 15248 15249 15250 15251 15252 15253 15254 15255 15256 15257 15258 15259 15260 15261 15262 15263 15264 15265 15266 15267 15268 15269 15270 15271 15272 15273 15274 15275 15276 15277 15278 15279 15280 15281 15282 15283 15284 15285 15286 15287 15288 15289 15290 15291 15292 15293 15294 15295 15296 15297 15298 15299 15300 15301 15302 15303 15304 15305 15306 15307 15308 15309 15310 15311 15312 15313 15314 15315 15316 15317 15318 15319 15320 15321 15322 15323 15324 15325 15326 15327 15328 15329 15330 15331 15332 15333 15334 15335 15336 15337 15338 15339 15340 15341 15342 15343 15344 15345 15346 15347 15348 15349 15350 15351 15352 15353 15354 15355 15356 15357 15358 15359 15360 15361 15362 15363 15364 15365 15366 15367 15368 15369 15370 15371 15372 15373 15374 15375 15376 15377 15378 15379 15380 15381 15382 15383 15384 15385 15386 15387 15388 15389 15390 15391 15392 15393 15394 15395 15396 15397 15398 15399 15400 15401 15402 15403 15404 15405 15406 15407 15408 15409 15410 15411 15412 15413 15414 15415 15416 15417 15418 15419 15420 15421 15422 15423 15424 15425 15426 15427 15428 15429 15430 15431 15432 15433 15434 15435 15436 15437 15438 15439 15440 15441 15442 15443 15444 15445 15446 15447 15448 15449 15450 15451 15452 15453 15454 15455 15456 15457 15458 15459 15460 15461 15462 15463 15464 15465 15466 15467 15468 15469 15470 15471 15472 15473 15474 15475 15476 15477 15478 15479 15480 15481 15482 15483 15484 15485 15486 15487 15488 15489 15490 15491 15492 15493 15494 15495 15496 15497 15498 15499 15500 15501 15502 15503 15504 15505 15506 15507 15508 15509 15510 15511 15512 15513 15514 15515 15516 15517 15518 15519 15520 15521 15522 15523 15524 15525 15526 15527 15528 15529 15530 15531 15532 15533 15534 15535 15536 15537 15538 15539 15540 15541 15542 15543 15544 15545 15546 15547 15548 15549 15550 15551 15552 15553 15554 15555 15556 15557 15558 15559 15560 15561 15562 15563 15564 15565 15566 15567 15568 15569 15570 15571 15572 15573 15574 15575 15576 15577 15578 15579 15580 15581 15582 15583 15584 15585 15586 15587 15588 15589 15590 15591 15592 15593 15594 15595 15596 15597 15598 15599 15600 15601 15602 15603 15604 15605 15606 15607 15608 15609 15610 15611 15612 15613 15614 15615 15616 15617 15618 15619 15620 15621 15622 15623 15624 15625 15626 15627 15628 15629 15630 15631 15632 15633 15634 15635 15636 15637 15638 15639 15640 15641 15642 15643 15644 15645 15646 15647 15648 15649 15650 15651 15652 15653 15654 15655 15656 15657 15658 15659 15660 15661 15662 15663 15664 15665 15666 15667 15668 15669 15670 15671 15672 15673 15674 15675 15676 15677 15678 15679 15680 15681 15682 15683 15684 15685 15686 15687 15688 15689 15690 15691 15692 15693 15694 15695 15696 15697 15698 15699 15700 15701 15702 15703 15704 15705 15706 15707 15708 15709 15710 15711 15712 15713 15714 15715 15716 15717 15718 15719 15720 15721 15722 15723 15724 15725 15726 15727 15728 15729 15730 15731 15732 15733 15734 15735 15736 15737 15738 15739 15740 15741 15742 15743 15744 15745 15746 15747 15748 15749 15750 15751 15752 15753 15754 15755 15756 15757 15758 15759 15760 15761 15762 15763 15764 15765 15766 15767 15768 15769 15770 15771 15772 15773 15774 15775 15776 15777 15778 15779 15780 15781 15782 15783 15784 15785 15786 15787 15788 15789 15790 15791 15792 15793 15794 15795 15796 15797 15798 15799 15800 15801 15802 15803 15804 15805 15806 15807 15808 15809 15810 15811 15812 15813 15814 15815 15816 15817 15818 15819 15820 15821 15822 15823 15824 15825 15826 15827 15828 15829 15830 15831 15832 15833 15834 15835 15836 15837 15838 15839 15840 15841 15842 15843 15844 15845 15846 15847 15848 15849 15850 15851 15852 15853 15854 15855 15856 15857 15858 15859 15860 15861 15862 15863 15864 15865 15866 15867 15868 15869 15870 15871 15872 15873 15874 15875 15876 15877 15878 15879 15880 15881 15882 15883 15884 15885 15886 15887 15888 15889 15890 15891 15892 15893 15894 15895 15896 15897 15898 15899 15900 15901 15902 15903 15904 15905 15906 15907 15908 15909 15910 15911 15912 15913 15914 15915 15916 15917 15918 15919 15920 15921 15922 15923 15924 15925 15926 15927 15928 15929 15930 15931 15932 15933 15934 15935 15936 15937 15938 15939 15940 15941 15942 15943 15944 15945 15946 15947 15948 15949 15950 15951 15952 15953 15954 15955 15956 15957 15958 15959 15960 15961 15962 15963 15964 15965 15966 15967 15968 15969 15970 15971 15972 15973 15974 15975 15976 15977 15978 15979 15980 15981 15982 15983 15984 15985 15986 15987 15988 15989 15990 15991 15992 15993 15994 15995 15996 15997 15998 15999 16000 16001 16002 16003 16004 16005 16006 16007 16008 16009 16010 16011 16012 16013 16014 16015 16016 16017 16018 16019 16020 16021 16022 16023 16024 16025 16026 16027 16028 16029 16030 16031 16032 16033 16034 16035 16036 16037 16038 16039 16040 16041 16042 16043 16044 16045 16046 16047 16048 16049 16050 16051 16052 16053 16054 16055 16056 16057 16058 16059 16060 16061 16062 16063 16064 16065 16066 16067 16068 16069 16070 16071 16072 16073 16074 16075 16076 16077 16078 16079 16080 16081 16082 16083 16084 16085 16086 16087 16088 16089 16090 16091 16092 16093 16094 16095 16096 16097 16098 16099 16100 16101 16102 16103 16104 16105 16106 16107 16108 16109 16110 16111 16112 16113 16114 16115 16116 16117 16118 16119 16120 16121 16122 16123 16124 16125 16126 16127 16128 16129 16130 16131 16132 16133 16134 16135 16136 16137 16138 16139 16140 16141 16142 16143 16144 16145 16146 16147 16148 16149 16150 16151 16152 16153 16154 16155 16156 16157 16158 16159 16160 16161 16162 16163 16164 16165 16166 16167 16168 16169 16170 16171 16172 16173 16174 16175 16176 16177 16178 16179 16180 16181 16182 16183 16184 16185 16186 16187 16188 16189 16190 16191 16192 16193 16194 16195 16196 16197 16198 16199 16200 16201 16202 16203 16204 16205 16206 16207 16208 16209 16210 16211 16212 16213 16214 16215 16216 16217 16218 16219 16220 16221 16222 16223 16224 16225 16226 16227 16228 16229 16230 16231 16232 16233 16234 16235 16236 16237 16238 16239 16240 16241 16242 16243 16244 16245 16246 16247 16248 16249 16250 16251 16252 16253 16254 16255 16256 16257 16258 16259 16260 16261 16262 16263 16264 16265 16266 16267 16268 16269 16270 16271 16272 16273 16274 16275 16276 16277 16278 16279 16280 16281 16282 16283 16284 16285 16286 16287 16288 16289 16290 16291 16292 16293 16294 16295 16296 16297 16298 16299 16300 16301 16302 16303 16304 16305 16306 16307 16308 16309 16310 16311 16312 16313 16314 16315 16316 16317 16318 16319 16320 16321 16322 16323 16324 16325 16326 16327 16328 16329 16330 16331 16332 16333 16334 16335 16336 16337 16338 16339 16340 16341 16342 16343 16344 16345 16346 16347 16348 16349 16350 16351 16352 16353 16354 16355 16356 16357 16358 16359 16360 16361 16362 16363 16364 16365 16366 16367 16368 16369 16370 16371 16372 16373 16374 16375 16376 16377 16378 16379 16380 16381 16382 16383 16384 16385 16386 16387 16388 16389 16390 16391 16392 16393 16394 16395 16396 16397 16398 16399 16400 16401 16402 16403 16404 16405 16406 16407 16408 16409 16410 16411 16412 16413 16414 16415 16416 16417 16418 16419 16420 16421 16422 16423 16424 16425 16426 16427 16428 16429 16430 16431 16432 16433 16434 16435 16436 16437 16438 16439 16440 16441 16442 16443 16444 16445 16446 16447 16448 16449 16450 16451 16452 16453 16454 16455 16456 16457 16458 16459 16460 16461 16462 16463 16464 16465 16466 16467 16468 16469 16470 16471 16472 16473 16474 16475 16476 16477 16478 16479 16480 16481 16482 16483 16484 16485 16486 16487 16488 16489 16490 16491 16492 16493 16494 16495 16496 16497 16498 16499 16500 16501 16502 16503 16504 16505 16506 16507 16508 16509 16510 16511 16512 16513 16514 16515 16516 16517 16518 16519 16520 16521 16522 16523 16524 16525 16526 16527 16528 16529 16530 16531 16532 16533 16534 16535 16536 16537 16538 16539 16540 16541 16542 16543 16544 16545 16546 16547 16548 16549 16550 16551 16552 16553 16554 16555 16556 16557 16558 16559 16560 16561 16562 16563 16564 16565 16566 16567 16568 16569 16570 16571 16572 16573 16574 16575 16576 16577 16578 16579 16580 16581 16582 16583 16584 16585 16586 16587 16588 16589 16590 16591 16592 16593 16594 16595 16596 16597 16598 16599 16600 16601 16602 16603 16604 16605 16606 16607 16608 16609 16610 16611 16612 16613 16614 16615 16616 16617 16618 16619 16620 16621 16622 16623 16624 16625 16626 16627 16628 16629 16630 16631 16632 16633 16634 16635 16636 16637 16638 16639 16640 16641 16642 16643 16644 16645 16646 16647 16648 16649 16650 16651 16652 16653 16654 16655 16656 16657 16658 16659 16660 16661 16662 16663 16664 16665 16666 16667 16668 16669 16670 16671 16672 16673 16674 16675 16676 16677 16678 16679 16680 16681 16682 16683 16684 16685 16686 16687 16688 16689 16690 16691 16692 16693 16694 16695 16696 16697 16698 16699 16700 16701 16702 16703 16704 16705 16706 16707 16708 16709 16710 16711 16712 16713 16714 16715 16716 16717 16718 16719 16720 16721 16722 16723 16724 16725 16726 16727 16728 16729 16730 16731 16732 16733 16734 16735 16736 16737 16738 16739 16740 16741 16742 16743 16744 16745 16746 16747 16748 16749 16750 16751 16752 16753 16754 16755 16756 16757 16758 16759 16760 16761 16762 16763 16764 16765 16766 16767 16768 16769 16770 16771 16772 16773 16774 16775 16776 16777 16778 16779 16780 16781 16782 16783 16784 16785 16786 16787 16788 16789 16790 16791 16792 16793 16794 16795 16796 16797 16798 16799 16800 16801 16802 16803 16804 16805 16806 16807 16808 16809 16810 16811 16812 16813 16814 16815 16816 16817 16818 16819 16820 16821 16822 16823 16824 16825 16826 16827 16828 16829 16830 16831 16832 16833 16834 16835 16836 16837 16838 16839 16840 16841 16842 16843 16844 16845 16846 16847 16848 16849 16850 16851 16852 16853 16854 16855 16856 16857 16858 16859 16860 16861 16862 16863 16864 16865 16866 16867 16868 16869 16870 16871 16872 16873 16874 16875 16876 16877 16878 16879 16880 16881 16882 16883 16884 16885 16886 16887 16888 16889 16890 16891 16892 16893 16894 16895 16896 16897 16898 16899 16900 16901 16902 16903 16904 16905 16906 16907 16908 16909 16910 16911 16912 16913 16914 16915 16916 16917 16918 16919 16920 16921 16922 16923 16924 16925 16926 16927 16928 16929 16930 16931 16932 16933 16934 16935 16936 16937 16938 16939 16940 16941 16942 16943 16944 16945 16946 16947 16948 16949 16950 16951 16952 16953 16954 16955 16956 16957 16958 16959 16960 16961 16962 16963 16964 16965 16966 16967 16968 16969 16970 16971 16972 16973 16974 16975 16976 16977 16978 16979 16980 16981 16982 16983 16984 16985 16986 16987 16988 16989 16990 16991 16992 16993 16994 16995 16996 16997 16998 16999 17000 17001 17002 17003 17004 17005 17006 17007 17008 17009 17010 17011 17012 17013 17014 17015 17016 17017 17018 17019 17020 17021 17022 17023 17024 17025 17026 17027 17028 17029 17030 17031 17032 17033 17034 17035 17036 17037 17038 17039 17040 17041 17042 17043 17044 17045 17046 17047 17048 17049 17050 17051 17052 17053 17054 17055 17056 17057 17058 17059 17060 17061 17062 17063 17064 17065 17066 17067 17068 17069 17070 17071 17072 17073 17074 17075 17076 17077 17078 17079 17080 17081 17082 17083 17084 17085 17086 17087 17088 17089 17090 17091 17092 17093 17094 17095 17096 17097 17098 17099 17100 17101 17102 17103 17104 17105 17106 17107 17108 17109 17110 17111 17112 17113 17114 17115 17116 17117 17118 17119 17120 17121 17122 17123 17124 17125 17126 17127 17128 17129 17130 17131 17132 17133 17134 17135 17136 17137 17138 17139 17140 17141 17142 17143 17144 17145 17146 17147 17148 17149 17150 17151 17152 17153 17154 17155 17156 17157 17158 17159 17160 17161 17162 17163 17164 17165 17166 17167 17168 17169 17170 17171 17172 17173 17174 17175 17176 17177 17178 17179 17180 17181 17182 17183 17184 17185 17186 17187 17188 17189 17190 17191 17192 17193 17194 17195 17196 17197 17198 17199 17200 17201 17202 17203 17204 17205 17206 17207 17208 17209 17210 17211 17212 17213 17214 17215 17216 17217 17218 17219 17220 17221 17222 17223 17224 17225 17226 17227 17228 17229 17230 17231 17232 17233 17234 17235 17236 17237 17238 17239 17240 17241 17242 17243 17244 17245 17246 17247 17248 17249 17250 17251 17252 17253 17254 17255 17256 17257 17258 17259 17260 17261 17262 17263 17264 17265 17266 17267 17268 17269 17270 17271 17272 17273 17274 17275 17276 17277 17278 17279 17280 17281 17282 17283 17284 17285 17286 17287 17288 17289 17290 17291 17292 17293 17294 17295 17296 17297 17298 17299 17300 17301 17302 17303 17304 17305 17306 17307 17308 17309 17310 17311 17312 17313 17314 17315 17316 17317 17318 17319 17320 17321 17322 17323 17324 17325 17326 17327 17328 17329 17330 17331 17332 17333 17334 17335 17336 17337 17338 17339 17340 17341 17342 17343 17344 17345 17346 17347 17348 17349 17350 17351 17352 17353 17354 17355 17356 17357 17358 17359 17360 17361 17362 17363 17364 17365 17366 17367 17368 17369 17370 17371 17372 17373 17374 17375 17376 17377 17378 17379 17380 17381 17382 17383 17384 17385 17386 17387 17388 17389 17390 17391 17392 17393 17394 17395 17396 17397 17398 17399 17400 17401 17402 17403 17404 17405 17406 17407 17408 17409 17410 17411 17412 17413 17414 17415 17416 17417 17418 17419 17420 17421 17422 17423 17424 17425 17426 17427 17428 17429 17430 17431 17432 17433 17434 17435 17436 17437 17438 17439 17440 17441 17442 17443 17444 17445 17446 17447 17448 17449 17450 17451 17452 17453 17454 17455 17456 17457 17458 17459 17460 17461 17462 17463 17464 17465 17466 17467 17468 17469 17470 17471 17472 17473 17474 17475 17476 17477 17478 17479 17480 17481 17482 17483 17484 17485 17486 17487 17488 17489 17490 17491 17492 17493 17494 17495 17496 17497 17498 17499 17500 17501 17502 17503 17504 17505 17506 17507 17508 17509 17510 17511 17512 17513 17514 17515 17516 17517 17518 17519 17520 17521 17522 17523 17524 17525 17526 17527 17528 17529 17530 17531 17532 17533 17534 17535 17536 17537 17538 17539 17540 17541 17542 17543 17544 17545 17546 17547 17548 17549 17550 17551 17552 17553 17554 17555 17556 17557 17558 17559 17560 17561 17562 17563 17564 17565 17566 17567 17568 17569 17570 17571 17572 17573 17574 17575 17576 17577 17578 17579 17580 17581 17582 17583 17584 17585 17586 17587 17588 17589 17590 17591 17592 17593 17594 17595 17596 17597 17598 17599 17600 17601 17602 17603 17604 17605 17606 17607 17608 17609 17610 17611 17612 17613 17614 17615 17616 17617 17618 17619 17620 17621 17622 17623 17624 17625 17626 17627 17628 17629 17630 17631 17632 17633 17634 17635 17636 17637 17638 17639 17640 17641 17642 17643 17644 17645 17646 17647 17648 17649 17650 17651 17652 17653 17654 17655 17656 17657 17658 17659 17660 17661 17662 17663 17664 17665 17666 17667 17668 17669 17670 17671 17672 17673 17674 17675 17676 17677 17678 17679 17680 17681 17682 17683 17684 17685 17686 17687 17688 17689 17690 17691 17692 17693 17694 17695 17696 17697 17698 17699 17700 17701 17702 17703 17704 17705 17706 17707 17708 17709 17710 17711 17712 17713 17714 17715 17716 17717 17718 17719 17720 17721 17722 17723 17724 17725 17726 17727 17728 17729 17730 17731 17732 17733 17734 17735 17736 17737 17738 17739 17740 17741 17742 17743 17744 17745 17746 17747 17748 17749 17750 17751 17752 17753 17754 17755 17756 17757 17758 17759 17760 17761 17762 17763 17764 17765 17766 17767 17768 17769 17770 17771 17772 17773 17774 17775 17776 17777 17778 17779 17780 17781 17782 17783 17784 17785 17786 17787 17788 17789 17790 17791 17792 17793 17794 17795 17796 17797 17798 17799 17800 17801 17802 17803 17804 17805 17806 17807 17808 17809 17810 17811 17812 17813 17814 17815 17816 17817 17818 17819 17820 17821 17822 17823 17824 17825 17826 17827 17828 17829 17830 17831 17832 17833 17834 17835 17836 17837 17838 17839 17840 17841 17842 17843 17844 17845 17846 17847 17848 17849 17850 17851 17852 17853 17854 17855 17856 17857 17858 17859 17860 17861 17862 17863 17864 17865 17866 17867 17868 17869 17870 17871 17872 17873 17874 17875 17876 17877 17878 17879 17880 17881 17882 17883 17884 17885 17886 17887 17888 17889 17890 17891 17892 17893 17894 17895 17896 17897 17898 17899 17900 17901 17902 17903 17904 17905 17906 17907 17908 17909 17910 17911 17912 17913 17914 17915 17916 17917 17918 17919 17920 17921 17922 17923 17924 17925 17926 17927 17928 17929 17930 17931 17932 17933 17934 17935 17936 17937 17938 17939 17940 17941 17942 17943 17944 17945 17946 17947 17948 17949 17950 17951 17952 17953 17954 17955 17956 17957 17958 17959 17960 17961 17962 17963 17964 17965 17966 17967 17968 17969 17970 17971 17972 17973 17974 17975 17976 17977 17978 17979 17980 17981 17982 17983 17984 17985 17986 17987 17988 17989 17990 17991 17992 17993 17994 17995 17996 17997 17998 17999 18000 18001 18002 18003 18004 18005 18006 18007 18008 18009 18010 18011 18012 18013 18014 18015 18016 18017 18018 18019 18020 18021 18022 18023 18024 18025 18026 18027 18028 18029 18030 18031 18032 18033 18034 18035 18036 18037 18038 18039 18040 18041 18042 18043 18044 18045 18046 18047 18048 18049 18050 18051 18052 18053 18054 18055 18056 18057 18058 18059 18060 18061 18062 18063 18064 18065 18066 18067 18068 18069 18070 18071 18072 18073 18074 18075 18076 18077 18078 18079 18080 18081 18082 18083 18084 18085 18086 18087 18088 18089 18090 18091 18092 18093 18094 18095 18096 18097 18098 18099 18100 18101 18102 18103 18104 18105 18106 18107 18108 18109 18110 18111 18112 18113 18114 18115 18116 18117 18118 18119 18120 18121 18122 18123 18124 18125 18126 18127 18128 18129 18130 18131 18132 18133 18134 18135 18136 18137 18138 18139 18140 18141 18142 18143 18144 18145 18146 18147 18148 18149 18150 18151 18152 18153 18154 18155 18156 18157 18158 18159 18160 18161 18162 18163 18164 18165 18166 18167 18168 18169 18170 18171 18172 18173 18174 18175 18176 18177 18178 18179 18180 18181 18182 18183 18184 18185 18186 18187 18188 18189 18190 18191 18192 18193 18194 18195 18196 18197 18198 18199 18200 18201 18202 18203 18204 18205 18206 18207 18208 18209 18210 18211 18212 18213 18214 18215 18216 18217 18218 18219 18220 18221 18222 18223 18224 18225 18226 18227 18228 18229 18230 18231 18232 18233 18234 18235 18236 18237 18238 18239 18240 18241 18242 18243 18244 18245 18246 18247 18248 18249 18250 18251 18252 18253 18254 18255 18256 18257 18258 18259 18260 18261 18262 18263 18264 18265 18266 18267 18268 18269 18270 18271 18272 18273 18274 18275 18276 18277 18278 18279 18280 18281 18282 18283 18284 18285 18286 18287 18288 18289 18290 18291 18292 18293 18294 18295 18296 18297 18298 18299 18300 18301 18302 18303 18304 18305 18306 18307 18308 18309 18310 18311 18312 18313 18314 18315 18316 18317 18318 18319 18320 18321 18322 18323 18324 18325 18326 18327 18328 18329 18330 18331 18332 18333 18334 18335 18336 18337 18338 18339 18340 18341 18342 18343 18344 18345 18346 18347 18348 18349 18350 18351 18352 18353 18354 18355 18356 18357 18358 18359 18360 18361 18362 18363 18364 18365 18366 18367 18368 18369 18370 18371 18372 18373 18374 18375 18376 18377 18378 18379 18380 18381 18382 18383 18384 18385 18386 18387 18388 18389 18390 18391 18392 18393 18394 18395 18396 18397 18398 18399 18400 18401 18402 18403 18404 18405 18406 18407 18408 18409 18410 18411 18412 18413 18414 18415 18416 18417 18418 18419 18420 18421 18422 18423 18424 18425 18426 18427 18428 18429 18430 18431 18432 18433 18434 18435 18436 18437 18438 18439 18440 18441 18442 18443 18444 18445 18446 18447 18448 18449 18450 18451 18452 18453 18454 18455 18456 18457 18458 18459 18460 18461 18462 18463 18464 18465 18466 18467 18468 18469 18470 18471 18472 18473 18474 18475 18476 18477 18478 18479 18480 18481 18482 18483 18484 18485 18486 18487 18488 18489 18490 18491 18492 18493 18494 18495 18496 18497 18498 18499 18500 18501 18502 18503 18504 18505 18506 18507 18508 18509 18510 18511 18512 18513 18514 18515 18516 18517 18518 18519 18520 18521 18522 18523 18524 18525 18526 18527 18528 18529 18530 18531 18532 18533 18534 18535 18536 18537 18538 18539 18540 18541 18542 18543 18544 18545 18546 18547 18548 18549 18550 18551 18552 18553 18554 18555 18556 18557 18558 18559 18560 18561 18562 18563 18564 18565 18566 18567 18568 18569 18570 18571 18572 18573 18574 18575 18576 18577 18578 18579 18580 18581 18582 18583 18584 18585 18586 18587 18588 18589 18590 18591 18592 18593 18594 18595 18596 18597 18598 18599 18600 18601 18602 18603 18604 18605 18606 18607 18608 18609 18610 18611 18612 18613 18614 18615 18616 18617 18618 18619 18620 18621 18622 18623 18624 18625 18626 18627 18628 18629 18630 18631 18632 18633 18634 18635 18636 18637 18638 18639 18640 18641 18642 18643 18644 18645 18646 18647 18648 18649 18650 18651 18652 18653 18654 18655 18656 18657 18658 18659 18660 18661 18662 18663 18664 18665 18666 18667 18668 18669 18670 18671 18672 18673 18674 18675 18676 18677 18678 18679 18680 18681 18682 18683 18684 18685 18686 18687 18688 18689 18690 18691 18692 18693 18694 18695 18696 18697 18698 18699 18700 18701 18702 18703 18704 18705 18706 18707 18708 18709 18710 18711 18712 18713 18714 18715 18716 18717 18718 18719 18720 18721 18722 18723 18724 18725 18726 18727 18728 18729 18730 18731 18732 18733 18734 18735 18736 18737 18738 18739 18740 18741 18742 18743 18744 18745 18746 18747 18748 18749 18750 18751 18752 18753 18754 18755 18756 18757 18758 18759 18760 18761 18762 18763 18764 18765 18766 18767 18768 18769 18770 18771 18772 18773 18774 18775 18776 18777 18778 18779 18780 18781 18782 18783 18784 18785 18786 18787 18788 18789 18790 18791 18792 18793 18794 18795 18796 18797 18798 18799 18800 18801 18802 18803 18804 18805 18806 18807 18808 18809 18810 18811 18812 18813 18814 18815 18816 18817 18818 18819 18820 18821 18822 18823 18824 18825 18826 18827 18828 18829 18830 18831 18832 18833 18834 18835 18836 18837 18838 18839 18840 18841 18842 18843 18844 18845 18846 18847 18848 18849 18850 18851 18852 18853 18854 18855 18856 18857 18858 18859 18860 18861 18862 18863 18864 18865 18866 18867 18868 18869 18870 18871 18872 18873 18874 18875 18876 18877 18878 18879 18880 18881 18882 18883 18884 18885 18886 18887 18888 18889 18890 18891 18892 18893 18894 18895 18896 18897 18898 18899 18900 18901 18902 18903 18904 18905 18906 18907 18908 18909 18910 18911 18912 18913 18914 18915 18916 18917 18918 18919 18920 18921 18922 18923 18924 18925 18926 18927 18928 18929 18930 18931 18932 18933 18934 18935 18936 18937 18938 18939 18940 18941 18942 18943 18944 18945 18946 18947 18948 18949 18950 18951 18952 18953 18954 18955 18956 18957 18958 18959 18960 18961 18962 18963 18964 18965 18966 18967 18968 18969 18970 18971 18972 18973 18974 18975 18976 18977 18978 18979 18980 18981 18982 18983 18984 18985 18986 18987 18988 18989 18990 18991 18992 18993 18994 18995 18996 18997 18998 18999 19000 19001 19002 19003 19004 19005 19006 19007 19008 19009 19010 19011 19012 19013 19014 19015 19016 19017 19018 19019 19020 19021 19022 19023 19024 19025 19026 19027 19028 19029 19030 19031 19032 19033 19034 19035 19036 19037 19038 19039 19040 19041 19042 19043 19044 19045 19046 19047 19048 19049 19050 19051 19052 19053 19054 19055 19056 19057 19058 19059 19060 19061 19062 19063 19064 19065 19066 19067 19068 19069 19070 19071 19072 19073 19074 19075 19076 19077 19078 19079 19080 19081 19082 19083 19084 19085 19086 19087 19088 19089 19090 19091 19092 19093 19094 19095 19096 19097 19098 19099 19100 19101 19102 19103 19104 19105 19106 19107 19108 19109 19110 19111 19112 19113 19114 19115 19116 19117 19118 19119 19120 19121 19122 19123 19124 19125 19126 19127 19128 19129 19130 19131 19132 19133 19134 19135 19136 19137 19138 19139 19140 19141 19142 19143 19144 19145 19146 19147 19148 19149 19150 19151 19152 19153 19154 19155 19156 19157 19158 19159 19160 19161 19162 19163 19164 19165 19166 19167 19168 19169 19170 19171 19172 19173 19174 19175 19176 19177 19178 19179 19180 19181 19182 19183 19184 19185 19186 19187 19188 19189 19190 19191 19192 19193 19194 19195 19196 19197 19198 19199 19200 19201 19202 19203 19204 19205 19206 19207 19208 19209 19210 19211 19212 19213 19214 19215 19216 19217 19218 19219 19220 19221 19222 19223 19224 19225 19226 19227 19228 19229 19230 19231 19232 19233 19234 19235 19236 19237 19238 19239 19240 19241 19242 19243 19244 19245 19246 19247 19248 19249 19250 19251 19252 19253 19254 19255 19256 19257 19258 19259 19260 19261 19262 19263 19264 19265 19266 19267 19268 19269 19270 19271 19272 19273 19274 19275 19276 19277 19278 19279 19280 19281 19282 19283 19284 19285 19286 19287 19288 19289 19290 19291 19292 19293 19294 19295 19296 19297 19298 19299 19300 19301 19302 19303 19304 19305 19306 19307 19308 19309 19310 19311 19312 19313 19314 19315 19316 19317 19318 19319 19320 19321 19322 19323 19324 19325 19326 19327 19328 19329 19330 19331 19332 19333 19334 19335 19336 19337 19338 19339 19340 19341 19342 19343 19344 19345 19346 19347 19348 19349 19350 19351 19352 19353 19354 19355 19356 19357 19358 19359 19360 19361 19362 19363 19364 19365 19366 19367 19368 19369 19370 19371 19372 19373 19374 19375 19376 19377 19378 19379 19380 19381 19382 19383 19384 19385 19386 19387 19388 19389 19390 19391 19392 19393 19394 19395 19396 19397 19398 19399 19400 19401 19402 19403 19404 19405 19406 19407 19408 19409 19410 19411 19412 19413 19414 19415 19416 19417 19418 19419 19420 19421 19422 19423 19424 19425 19426 19427 19428 19429 19430 19431 19432 19433 19434 19435 19436 19437 19438 19439 19440 19441 19442 19443 19444 19445 19446 19447 19448 19449 19450 19451 19452 19453 19454 19455 19456 19457 19458 19459 19460 19461 19462 19463 19464 19465 19466 19467 19468 19469 19470 19471 19472 19473 19474 19475 19476 19477 19478 19479 19480 19481 19482 19483 19484 19485 19486 19487 19488 19489 19490 19491 19492 19493 19494 19495 19496 19497 19498 19499 19500 19501 19502 19503 19504 19505 19506 19507 19508 19509 19510 19511 19512 19513 19514 19515 19516 19517 19518 19519 19520 19521 19522 19523 19524 19525 19526 19527 19528 19529 19530 19531 19532 19533 19534 19535 19536 19537 19538 19539 19540 19541 19542 19543 19544 19545 19546 19547 19548 19549 19550 19551 19552 19553 19554 19555 19556 19557 19558 19559 19560 19561 19562 19563 19564 19565 19566 19567 19568 19569 19570 19571 19572 19573 19574 19575 19576 19577 19578 19579 19580 19581 19582 19583 19584 19585 19586 19587 19588 19589 19590 19591 19592 19593 19594 19595 19596 19597 19598 19599 19600 19601 19602 19603 19604 19605 19606 19607 19608 19609 19610 19611 19612 19613 19614 19615 19616 19617 19618 19619 19620 19621 19622 19623 19624 19625 19626 19627 19628 19629 19630 19631 19632 19633 19634 19635 19636 19637 19638 19639 19640 19641 19642 19643 19644 19645 19646 19647 19648 19649 19650 19651 19652 19653 19654 19655 19656 19657 19658 19659 19660 19661 19662 19663 19664 19665 19666 19667 19668 19669 19670 19671 19672 19673 19674 19675 19676 19677 19678 19679 19680 19681 19682 19683 19684 19685 19686 19687 19688 19689 19690 19691 19692 19693 19694 19695 19696 19697 19698 19699 19700 19701 19702 19703 19704 19705 19706 19707 19708 19709 19710 19711 19712 19713 19714 19715 19716 19717 19718 19719 19720 19721 19722 19723 19724 19725 19726 19727 19728 19729 19730 19731 19732 19733 19734 19735 19736 19737 19738 19739 19740 19741 19742 19743 19744 19745 19746 19747 19748 19749 19750 19751 19752 19753 19754 19755 19756 19757 19758 19759 19760 19761 19762 19763 19764 19765 19766 19767 19768 19769 19770 19771 19772 19773 19774 19775 19776 19777 19778 19779 19780 19781 19782 19783 19784 19785 19786 19787 19788 19789 19790 19791 19792 19793 19794 19795 19796 19797 19798 19799 19800 19801 19802 19803 19804 19805 19806 19807 19808 19809 19810 19811 19812 19813 19814 19815 19816 19817 19818 19819 19820 19821 19822 19823 19824 19825 19826 19827 19828 19829 19830 19831 19832 19833 19834 19835 19836 19837 19838 19839 19840 19841 19842 19843 19844 19845 19846 19847 19848 19849 19850 19851 19852 19853 19854 19855 19856 19857 19858 19859 19860 19861 19862 19863 19864 19865 19866 19867 19868 19869 19870 19871 19872 19873 19874 19875 19876 19877 19878 19879 19880 19881 19882 19883 19884 19885 19886 19887 19888 19889 19890 19891 19892 19893 19894 19895 19896 19897 19898 19899 19900 19901 19902 19903 19904 19905 19906 19907 19908 19909 19910 19911 19912 19913 19914 19915 19916 19917 19918 19919 19920 19921 19922 19923 19924 19925 19926 19927 19928 19929 19930 19931 19932 19933 19934 19935 19936 19937 19938 19939 19940 19941 19942 19943 19944 19945 19946 19947 19948 19949 19950 19951 19952 19953 19954 19955 19956 19957 19958 19959 19960 19961 19962 19963 19964 19965 19966 19967 19968 19969 19970 19971 19972 19973 19974 19975 19976 19977 19978 19979 19980 19981 19982 19983 19984 19985 19986 19987 19988 19989 19990 19991 19992 19993 19994 19995 19996 19997 19998 19999 20000 20001 20002 20003 20004 20005 20006 20007 20008 20009 20010 20011 20012 20013 20014 20015 20016 20017 20018 20019 20020 20021 20022 20023 20024 20025 20026 20027 20028 20029 20030 20031 20032 20033 20034 20035 20036 20037 20038 20039 20040 20041 20042 20043 20044 20045 20046 20047 20048 20049 20050 20051 20052 20053 20054 20055 20056 20057 20058 20059 20060 20061 20062 20063 20064 20065 20066 20067 20068 20069 20070 20071 20072 20073 20074 20075 20076 20077 20078 20079 20080 20081 20082 20083 20084 20085 20086 20087 20088 20089 20090 20091 20092 20093 20094 20095 20096 20097 20098 20099 20100 20101 20102 20103 20104 20105 20106 20107 20108 20109 20110 20111 20112 20113 20114 20115 20116 20117 20118 20119 20120 20121 20122 20123 20124 20125 20126 20127 20128 20129 20130 20131 20132 20133 20134 20135 20136 20137 20138 20139 20140 20141 20142 20143 20144 20145 20146 20147 20148 20149 20150 20151 20152 20153 20154 20155 20156 20157 20158 20159 20160 20161 20162 20163 20164 20165 20166 20167 20168 20169 20170 20171 20172 20173 20174 20175 20176 20177 20178 20179 20180 20181 20182 20183 20184 20185 20186 20187 20188 20189 20190 20191 20192 20193 20194 20195 20196 20197 20198 20199 20200 20201 20202 20203 20204 20205 20206 20207 20208 20209 20210 20211 20212 20213 20214 20215 20216 20217 20218 20219 20220 20221 20222 20223 20224 20225 20226 20227 20228 20229 20230 20231 20232 20233 20234 20235 20236 20237 20238 20239 20240 20241 20242 20243 20244 20245 20246 20247 20248 20249 20250 20251 20252 20253 20254 20255 20256 20257 20258 20259 20260 20261 20262 20263 20264 20265 20266 20267 20268 20269 20270 20271 20272 20273 20274 20275 20276 20277 20278 20279 20280 20281 20282 20283 20284 20285 20286 20287 20288 20289 20290 20291 20292 20293 20294 20295 20296 20297 20298 20299 20300 20301 20302 20303 20304 20305 20306 20307 20308 20309 20310 20311 20312 20313 20314 20315 20316 20317 20318 20319 20320 20321 20322 20323 20324 20325 20326 20327 20328 20329 20330 20331 20332 20333 20334 20335 20336 20337 20338 20339 20340 20341 20342 20343 20344 20345 20346 20347 20348 20349 20350 20351 20352 20353 20354 20355 20356 20357 20358 20359 20360 20361 20362 20363 20364 20365 20366 20367 20368 20369 20370 20371 20372 20373 20374 20375 20376 20377 20378 20379 20380 20381 20382 20383 20384 20385 20386 20387 20388 20389 20390 20391 20392 20393 20394 20395 20396 20397 20398 20399 20400 20401 20402 20403 20404 20405 20406 20407 20408 20409 20410 20411 20412 20413 20414 20415 20416 20417 20418 20419 20420 20421 20422 20423 20424 20425 20426 20427 20428 20429 20430 20431 20432 20433 20434 20435 20436 20437 20438 20439 20440 20441 20442 20443 20444 20445 20446 20447 20448 20449 20450 20451 20452 20453 20454 20455 20456 20457 20458 20459 20460 20461 20462 20463 20464 20465 20466 20467 20468 20469 20470 20471 20472 20473 20474 20475 20476 20477 20478 20479 20480 20481 20482 20483 20484 20485 20486 20487 20488 20489 20490 20491 20492 20493 20494 20495 20496 20497 20498 20499 20500 20501 20502 20503 20504 20505 20506 20507 20508 20509 20510 20511 20512 20513 20514 20515 20516 20517 20518 20519 20520 20521 20522 20523 20524 20525 20526 20527 20528 20529 20530 20531 20532 20533 20534 20535 20536 20537 20538 20539 20540 20541 20542 20543 20544 20545 20546 20547 20548 20549 20550 20551 20552 20553 20554 20555 20556 20557 20558 20559 20560 20561 20562 20563 20564 20565 20566 20567 20568 20569 20570 20571 20572 20573 20574 20575 20576 20577 20578 20579 20580 20581 20582 20583 20584 20585 20586 20587 20588 20589 20590 20591 20592 20593 20594 20595 20596 20597 20598 20599 20600 20601 20602 20603 20604 20605 20606 20607 20608 20609 20610 20611 20612 20613 20614 20615 20616 20617 20618 20619 20620 20621 20622 20623 20624 20625 20626 20627 20628 20629 20630 20631 20632 20633 20634 20635 20636 20637 20638 20639 20640 20641 20642 20643 20644 20645 20646 20647 20648 20649 20650 20651 20652 20653 20654 20655 20656 20657 20658 20659 20660 20661 20662 20663 20664 20665 20666 20667 20668 20669 20670 20671 20672 20673 20674 20675 20676 20677 20678 20679 20680 20681 20682 20683 20684 20685 20686 20687 20688 20689 20690 20691 20692 20693 20694 20695 20696 20697 20698 20699 20700 20701 20702 20703 20704 20705 20706 20707 20708 20709 20710 20711 20712 20713 20714 20715 20716 20717 20718 20719 20720 20721 20722 20723 20724 20725 20726 20727 20728 20729 20730 20731 20732 20733 20734 20735 20736 20737 20738 20739 20740 20741 20742 20743 20744 20745 20746 20747 20748 20749 20750 20751 20752 20753 20754 20755 20756 20757 20758 20759 20760 20761 20762 20763 20764 20765 20766 20767 20768 20769 20770 20771 20772 20773 20774 20775 20776 20777 20778 20779 20780 20781 20782 20783 20784 20785 20786 20787 20788 20789 20790 20791 20792 20793 20794 20795 20796 20797 20798 20799 20800 20801 20802 20803 20804 20805 20806 20807 20808 20809 20810 20811 20812 20813 20814 20815 20816 20817 20818 20819 20820 20821 20822 20823 20824 20825 20826 20827 20828 20829 20830 20831 20832 20833 20834 20835 20836 20837 20838 20839 20840 20841 20842 20843 20844 20845 20846 20847 20848 20849 20850 20851 20852 20853 20854 20855 20856 20857 20858 20859 20860 20861 20862 20863 20864 20865 20866 20867 20868 20869 20870 20871 20872 20873 20874 20875 20876 20877 20878 20879 20880 20881 20882 20883 20884 20885 20886 20887 20888 20889 20890 20891 20892 20893 20894 20895 20896 20897 20898 20899 20900 20901 20902 20903 20904 20905 20906 20907 20908 20909 20910 20911 20912 20913 20914 20915 20916 20917 20918 20919 20920 20921 20922 20923 20924 20925 20926 20927 20928 20929 20930 20931 20932 20933 20934 20935 20936 20937 20938 20939 20940 20941 20942 20943 20944 20945 20946 20947 20948 20949 20950 20951 20952 20953 20954 20955 20956 20957 20958 20959 20960 20961 20962 20963 20964 20965 20966 20967 20968 20969 20970 20971 20972 20973 20974 20975 20976 20977 20978 20979 20980 20981 20982 20983 20984 20985 20986 20987 20988 20989 20990 20991 20992 20993 20994 20995 20996 20997 20998 20999 21000 21001 21002 21003 21004 21005 21006 21007 21008 21009 21010 21011 21012 21013 21014 21015 21016 21017 21018 21019 21020 21021 21022 21023 21024 21025 21026 21027 21028 21029 21030 21031 21032 21033 21034 21035 21036 21037 21038 21039 21040 21041 21042 21043 21044 21045 21046 21047 21048 21049 21050 21051 21052 21053 21054 21055 21056 21057 21058 21059 21060 21061 21062 21063 21064 21065 21066 21067 21068 21069 21070 21071 21072 21073 21074 21075 21076 21077 21078 21079 21080 21081 21082 21083 21084 21085 21086 21087 21088 21089 21090 21091 21092 21093 21094 21095 21096 21097 21098 21099 21100 21101 21102 21103 21104 21105 21106 21107 21108 21109 21110 21111 21112 21113 21114 21115 21116 21117 21118 21119 21120 21121 21122 21123 21124 21125 21126 21127 21128 21129 21130 21131 21132 21133 21134 21135 21136 21137 21138 21139 21140 21141 21142 21143 21144 21145 21146 21147 21148 21149 21150 21151 21152 21153 21154 21155 21156 21157 21158 21159 21160 21161 21162 21163 21164 21165 21166 21167 21168 21169 21170 21171 21172 21173 21174 21175 21176 21177 21178 21179 21180 21181 21182 21183 21184 21185 21186 21187 21188 21189 21190 21191 21192 21193 21194 21195 21196 21197 21198 21199 21200 21201 21202 21203 21204 21205 21206 21207 21208 21209 21210 21211 21212 21213 21214 21215 21216 21217 21218 21219 21220 21221 21222 21223 21224 21225 21226 21227 21228 21229 21230 21231 21232 21233 21234 21235 21236 21237 21238 21239 21240 21241 21242 21243 21244 21245 21246 21247 21248 21249 21250 21251 21252 21253 21254 21255 21256 21257 21258 21259 21260 21261 21262 21263 21264 21265 21266 21267 21268 21269 21270 21271 21272 21273 21274 21275 21276 21277 21278 21279 21280 21281 21282 21283 21284 21285 21286 21287 21288 21289 21290 21291 21292 21293 21294 21295 21296 21297 21298 21299 21300 21301 21302 21303 21304 21305 21306 21307 21308 21309 21310 21311 21312 21313 21314 21315 21316 21317 21318 21319 21320 21321 21322 21323 21324 21325 21326 21327 21328 21329 21330 21331 21332 21333 21334 21335 21336 21337 21338 21339 21340 21341 21342 21343 21344 21345 21346 21347 21348 21349 21350 21351 21352 21353 21354 21355 21356 21357 21358 21359 21360 21361 21362 21363 21364 21365 21366 21367 21368 21369 21370 21371 21372 21373 21374 21375 21376 21377 21378 21379 21380 21381 21382 21383 21384 21385 21386 21387 21388 21389 21390 21391 21392 21393 21394 21395 21396 21397 21398 21399 21400 21401 21402 21403 21404 21405 21406 21407 21408 21409 21410 21411 21412 21413 21414 21415 21416 21417 21418 21419 21420 21421 21422 21423 21424 21425 21426 21427 21428 21429 21430 21431 21432 21433 21434 21435 21436 21437 21438 21439 21440 21441 21442 21443 21444 21445 21446 21447 21448 21449 21450 21451 21452 21453 21454 21455 21456 21457 21458 21459 21460 21461 21462 21463 21464 21465 21466 21467 21468 21469 21470 21471 21472 21473 21474 21475 21476 21477 21478 21479 21480 21481 21482 21483 21484 21485 21486 21487 21488 21489 21490 21491 21492 21493 21494 21495 21496 21497 21498 21499 21500 21501 21502 21503 21504 21505 21506 21507 21508 21509 21510 21511 21512 21513 21514 21515 21516 21517 21518 21519 21520 21521 21522 21523 21524 21525 21526 21527 21528 21529 21530 21531 21532 21533 21534 21535 21536 21537 21538 21539 21540 21541 21542 21543 21544 21545 21546 21547 21548 21549 21550 21551 21552 21553 21554 21555 21556 21557 21558 21559 21560 21561 21562 21563 21564 21565 21566 21567 21568 21569 21570 21571 21572 21573 21574 21575 21576 21577 21578 21579 21580 21581 21582 21583 21584 21585 21586 21587 21588 21589 21590 21591 21592 21593 21594 21595 21596 21597 21598 21599 21600 21601 21602 21603 21604 21605 21606 21607 21608 21609 21610 21611 21612 21613 21614 21615 21616 21617 21618 21619 21620 21621 21622 21623 21624 21625 21626 21627 21628 21629 21630 21631 21632 21633 21634 21635 21636 21637 21638 21639 21640 21641 21642 21643 21644 21645 21646 21647 21648 21649 21650 21651 21652 21653 21654 21655 21656 21657 21658 21659 21660 21661 21662 21663 21664 21665 21666 21667 21668 21669 21670 21671 21672 21673 21674 21675 21676 21677 21678 21679 21680 21681 21682 21683 21684 21685 21686 21687 21688 21689 21690 21691 21692 21693 21694 21695 21696 21697 21698 21699 21700 21701 21702 21703 21704 21705 21706 21707 21708 21709 21710 21711 21712 21713 21714 21715 21716 21717 21718 21719 21720 21721 21722 21723 21724 21725 21726 21727 21728 21729 21730 21731 21732 21733 21734 21735 21736 21737 21738 21739 21740 21741 21742 21743 21744 21745 21746 21747 21748 21749 21750 21751 21752 21753 21754 21755 21756 21757 21758 21759 21760 21761 21762 21763 21764 21765 21766 21767 21768 21769 21770 21771 21772 21773 21774 21775 21776 21777 21778 21779 21780 21781 21782 21783 21784 21785 21786 21787 21788 21789 21790 21791 21792 21793 21794 21795 21796 21797 21798 21799 21800 21801 21802 21803 21804 21805 21806 21807 21808 21809 21810 21811 21812 21813 21814 21815 21816 21817 21818 21819 21820 21821 21822 21823 21824 21825 21826 21827 21828 21829 21830 21831 21832 21833 21834 21835 21836 21837 21838 21839 21840 21841 21842 21843 21844 21845 21846 21847 21848 21849 21850 21851 21852 21853 21854 21855 21856 21857 21858 21859 21860 21861 21862 21863 21864 21865 21866 21867 21868 21869 21870 21871 21872 21873 21874 21875 21876 21877 21878 21879 21880 21881 21882 21883 21884 21885 21886 21887 21888 21889 21890 21891 21892 21893 21894 21895 21896 21897 21898 21899 21900 21901 21902 21903 21904 21905 21906 21907 21908 21909 21910 21911 21912 21913 21914 21915 21916 21917 21918 21919 21920 21921 21922 21923 21924 21925 21926 21927 21928 21929 21930 21931 21932 21933 21934 21935 21936 21937 21938 21939 21940 21941 21942 21943 21944 21945 21946 21947 21948 21949 21950 21951 21952 21953 21954 21955 21956 21957 21958 21959 21960 21961 21962 21963 21964 21965 21966 21967 21968 21969 21970 21971 21972 21973 21974 21975 21976 21977 21978 21979 21980 21981 21982 21983 21984 21985 21986 21987 21988 21989 21990 21991 21992 21993 21994 21995 21996 21997 21998 21999 22000 22001 22002 22003 22004 22005 22006 22007 22008 22009 22010 22011 22012 22013 22014 22015 22016 22017 22018 22019 22020 22021 22022 22023 22024 22025 22026 22027 22028 22029 22030 22031 22032 22033 22034 22035 22036 22037 22038 22039 22040 22041 22042 22043 22044 22045 22046 22047 22048 22049 22050 22051 22052 22053 22054 22055 22056 22057 22058 22059 22060 22061 22062 22063 22064 22065 22066 22067 22068 22069 22070 22071 22072 22073 22074 22075 22076 22077 22078 22079 22080 22081 22082 22083 22084 22085 22086 22087 22088 22089 22090 22091 22092 22093 22094 22095 22096 22097 22098 22099 22100 22101 22102 22103 22104 22105 22106 22107 22108 22109 22110 22111 22112 22113 22114 22115 22116 22117 22118 22119 22120 22121 22122 22123 22124 22125 22126 22127 22128 22129 22130 22131 22132 22133 22134 22135 22136 22137 22138 22139 22140 22141 22142 22143 22144 22145 22146 22147 22148 22149 22150 22151 22152 22153 22154 22155 22156 22157 22158 22159 22160 22161 22162 22163 22164 22165 22166 22167 22168 22169 22170 22171 22172 22173 22174 22175 22176 22177 22178 22179 22180 22181 22182 22183 22184 22185 22186 22187 22188 22189 22190 22191 22192 22193 22194 22195 22196 22197 22198 22199 22200 22201 22202 22203 22204 22205 22206 22207 22208 22209 22210 22211 22212 22213 22214 22215 22216 22217 22218 22219 22220 22221 22222 22223 22224 22225 22226 22227 22228 22229 22230 22231 22232 22233 22234 22235 22236 22237 22238 22239 22240 22241 22242 22243 22244 22245 22246 22247 22248 22249 22250 22251 22252 22253 22254 22255 22256 22257 22258 22259 22260 22261 22262 22263 22264 22265 22266 22267 22268 22269 22270 22271 22272 22273 22274 22275 22276 22277 22278 22279 22280 22281 22282 22283 22284 22285 22286 22287 22288 22289 22290 22291 22292 22293 22294 22295 22296 22297 22298 22299 22300 22301 22302 22303 22304 22305 22306 22307 22308 22309 22310 22311 22312 22313 22314 22315 22316 22317 22318 22319 22320 22321 22322 22323 22324 22325 22326 22327 22328 22329 22330 22331 22332 22333 22334 22335 22336 22337 22338 22339 22340 22341 22342 22343 22344 22345 22346 22347 22348 22349 22350 22351 22352 22353 22354 22355 22356 22357 22358 22359 22360 22361 22362 22363 22364 22365 22366 22367 22368 22369 22370 22371 22372 22373 22374 22375 22376 22377 22378 22379 22380 22381 22382 22383 22384 22385 22386 22387 22388 22389 22390 22391 22392 22393 22394 22395 22396 22397 22398 22399 22400 22401 22402 22403 22404 22405 22406 22407 22408 22409 22410 22411 22412 22413 22414 22415 22416 22417 22418 22419 22420 22421 22422 22423 22424 22425 22426 22427 22428 22429 22430 22431 22432 22433 22434 22435 22436 22437 22438 22439 22440 22441 22442 22443 22444 22445 22446 22447 22448 22449 22450 22451 22452 22453 22454 22455 22456 22457 22458 22459 22460 22461 22462 22463 22464 22465 22466 22467 22468 22469 22470 22471 22472 22473 22474 22475 22476 22477 22478 22479 22480 22481 22482 22483 22484 22485 22486 22487 22488 22489 22490 22491 22492 22493 22494 22495 22496 22497 22498 22499 22500 22501 22502 22503 22504 22505 22506 22507 22508 22509 22510 22511 22512 22513 22514 22515 22516 22517 22518 22519 22520 22521 22522 22523 22524 22525 22526 22527 22528 22529 22530 22531 22532 22533 22534 22535 22536 22537 22538 22539 22540 22541 22542 22543 22544 22545 22546 22547 22548 22549 22550 22551 22552 22553 22554 22555 22556 22557 22558 22559 22560 22561 22562 22563 22564 22565 22566 22567 22568 22569 22570 22571 22572 22573 22574 22575 22576 22577 22578 22579 22580 22581 22582 22583 22584 22585 22586 22587 22588 22589 22590 22591 22592 22593 22594 22595 22596 22597 22598 22599 22600 22601 22602 22603 22604 22605 22606 22607 22608 22609 22610 22611 22612 22613 22614 22615 22616 22617 22618 22619 22620 22621 22622 22623 22624 22625 22626 22627 22628 22629 22630 22631 22632 22633 22634 22635 22636 22637 22638 22639 22640 22641 22642 22643 22644 22645 22646 22647 22648 22649 22650 22651 22652 22653 22654 22655 22656 22657 22658 22659 22660 22661 22662 22663 22664 22665 22666 22667 22668 22669 22670 22671 22672 22673 22674 22675 22676 22677 22678 22679 22680 22681 22682 22683 22684 22685 22686 22687 22688 22689 22690 22691 22692 22693 22694 22695 22696 22697 22698 22699 22700 22701 22702 22703 22704 22705 22706 22707 22708 22709 22710 22711 22712 22713 22714 22715 22716 22717 22718 22719 22720 22721 22722 22723 22724 22725 22726 22727 22728 22729 22730 22731 22732 22733 22734 22735 22736 22737 22738 22739 22740 22741 22742 22743 22744 22745 22746 22747 22748 22749 22750 22751 22752 22753 22754 22755 22756 22757 22758 22759 22760 22761 22762 22763 22764 22765 22766 22767 22768 22769 22770 22771 22772 22773 22774 22775 22776 22777 22778 22779 22780 22781 22782 22783 22784 22785 22786 22787 22788 22789 22790 22791 22792 22793 22794 22795 22796 22797 22798 22799 22800 22801 22802 22803 22804 22805 22806 22807 22808 22809 22810 22811 22812 22813 22814 22815 22816 22817 22818 22819 22820 22821 22822 22823 22824 22825 22826 22827 22828 22829 22830 22831 22832 22833 22834 22835 22836 22837 22838 22839 22840 22841 22842 22843 22844 22845 22846 22847 22848 22849 22850 22851 22852 22853 22854 22855 22856 22857 22858 22859 22860 22861 22862 22863 22864 22865 22866 22867 22868 22869 22870 22871 22872 22873 22874 22875 22876 22877 22878 22879 22880 22881 22882 22883 22884 22885 22886 22887 22888 22889 22890 22891 22892 22893 22894 22895 22896 22897 22898 22899 22900 22901 22902 22903 22904 22905 22906 22907 22908 22909 22910 22911 22912 22913 22914 22915 22916 22917 22918 22919 22920 22921 22922 22923 22924 22925 22926 22927 22928 22929 22930 22931 22932 22933 22934 22935 22936 22937 22938 22939 22940 22941 22942 22943 22944 22945 22946 22947 22948 22949 22950 22951 22952 22953 22954 22955 22956 22957 22958 22959 22960 22961 22962 22963 22964 22965 22966 22967 22968 22969 22970 22971 22972 22973 22974 22975 22976 22977 22978 22979 22980 22981 22982 22983 22984 22985 22986 22987 22988 22989 22990 22991 22992 22993 22994 22995 22996 22997 22998 22999 23000 23001 23002 23003 23004 23005 23006 23007 23008 23009 23010 23011 23012 23013 23014 23015 23016 23017 23018 23019 23020 23021 23022 23023 23024 23025 23026 23027 23028 23029 23030 23031 23032 23033 23034 23035 23036 23037 23038 23039 23040 23041 23042 23043 23044 23045 23046 23047 23048 23049 23050 23051 23052 23053 23054 23055 23056 23057 23058 23059 23060 23061 23062 23063 23064 23065 23066 23067 23068 23069 23070 23071 23072 23073 23074 23075 23076 23077 23078 23079 23080 23081 23082 23083 23084 23085 23086 23087 23088 23089 23090 23091 23092 23093 23094 23095 23096 23097 23098 23099 23100 23101 23102 23103 23104 23105 23106 23107 23108 23109 23110 23111 23112 23113 23114 23115 23116 23117 23118 23119 23120 23121 23122 23123 23124 23125 23126 23127 23128 23129 23130 23131 23132 23133 23134 23135 23136 23137 23138 23139 23140 23141 23142 23143 23144 23145 23146 23147 23148 23149 23150 23151 23152 23153 23154 23155 23156 23157 23158 23159 23160 23161 23162 23163 23164 23165 23166 23167 23168 23169 23170 23171 23172 23173 23174 23175 23176 23177 23178 23179 23180 23181 23182 23183 23184 23185 23186 23187 23188 23189 23190 23191 23192 23193 23194 23195 23196 23197 23198 23199 23200 23201 23202 23203 23204 23205 23206 23207 23208 23209 23210 23211 23212 23213 23214 23215 23216 23217 23218 23219 23220 23221 23222 23223 23224 23225 23226 23227 23228 23229 23230 23231 23232 23233 23234 23235 23236 23237 23238 23239 23240 23241 23242 23243 23244 23245 23246 23247 23248 23249 23250 23251 23252 23253 23254 23255 23256 23257 23258 23259 23260 23261 23262 23263 23264 23265 23266 23267 23268 23269 23270 23271 23272 23273 23274 23275 23276 23277 23278 23279 23280 23281 23282 23283 23284 23285 23286 23287 23288 23289 23290 23291 23292 23293 23294 23295 23296 23297 23298 23299 23300 23301 23302 23303 23304 23305 23306 23307 23308 23309 23310 23311 23312 23313 23314 23315 23316 23317 23318 23319 23320 23321 23322 23323 23324 23325 23326 23327 23328 23329 23330 23331 23332 23333 23334 23335 23336 23337 23338 23339 23340 23341 23342 23343 23344 23345 23346 23347 23348 23349 23350 23351 23352 23353 23354 23355 23356 23357 23358 23359 23360 23361 23362 23363 23364 23365 23366 23367 23368 23369 23370 23371 23372 23373 23374 23375 23376 23377 23378 23379 23380 23381 23382 23383 23384 23385 23386 23387 23388 23389 23390 23391 23392 23393 23394 23395 23396 23397 23398 23399 23400 23401 23402 23403 23404 23405 23406 23407 23408 23409 23410 23411 23412 23413 23414 23415 23416 23417 23418 23419 23420 23421 23422 23423 23424 23425 23426 23427 23428 23429 23430 23431 23432 23433 23434 23435 23436 23437 23438 23439 23440 23441 23442 23443 23444 23445 23446 23447 23448 23449 23450 23451 23452 23453 23454 23455 23456 23457 23458 23459 23460 23461 23462 23463 23464 23465 23466 23467 23468 23469 23470 23471 23472 23473 23474 23475 23476 23477 23478 23479 23480 23481 23482 23483 23484 23485 23486 23487 23488 23489 23490 23491 23492 23493 23494 23495 23496 23497 23498 23499 23500 23501 23502 23503 23504 23505 23506 23507 23508 23509 23510 23511 23512 23513 23514 23515 23516 23517 23518 23519 23520 23521 23522 23523 23524 23525 23526 23527 23528 23529 23530 23531 23532 23533 23534 23535 23536 23537 23538 23539 23540 23541 23542 23543 23544 23545 23546 23547 23548 23549 23550 23551 23552 23553 23554 23555 23556 23557 23558 23559 23560 23561 23562 23563 23564 23565 23566 23567 23568 23569 23570 23571 23572 23573 23574 23575 23576 23577 23578 23579 23580 23581 23582 23583 23584 23585 23586 23587 23588 23589 23590 23591 23592 23593 23594 23595 23596 23597 23598 23599 23600 23601 23602 23603 23604 23605 23606 23607 23608 23609 23610 23611 23612 23613 23614 23615 23616 23617 23618 23619 23620 23621 23622 23623 23624 23625 23626 23627 23628 23629 23630 23631 23632 23633 23634 23635 23636 23637 23638 23639 23640 23641 23642 23643 23644 23645 23646 23647 23648 23649 23650 23651 23652 23653 23654 23655 23656 23657 23658 23659 23660 23661 23662 23663 23664 23665 23666 23667 23668 23669 23670 23671 23672 23673 23674 23675 23676 23677 23678 23679 23680 23681 23682 23683 23684 23685 23686 23687 23688 23689 23690 23691 23692 23693 23694 23695 23696 23697 23698 23699 23700 23701 23702 23703 23704 23705 23706 23707 23708 23709 23710 23711 23712 23713 23714 23715 23716 23717 23718 23719 23720 23721 23722 23723 23724 23725 23726 23727 23728 23729 23730 23731 23732 23733 23734 23735 23736 23737 23738 23739 23740 23741 23742 23743 23744 23745 23746 23747 23748 23749 23750 23751 23752 23753 23754 23755 23756 23757 23758 23759 23760 23761 23762 23763 23764 23765 23766 23767 23768 23769 23770 23771 23772 23773 23774 23775 23776 23777 23778 23779 23780 23781 23782 23783 23784 23785 23786 23787 23788 23789 23790 23791 23792 23793 23794 23795 23796 23797 23798 23799 23800 23801 23802 23803 23804 23805 23806 23807 23808 23809 23810 23811 23812 23813 23814 23815 23816 23817 23818 23819 23820 23821 23822 23823 23824 23825 23826 23827 23828 23829 23830 23831 23832 23833 23834 23835 23836 23837 23838 23839 23840 23841 23842 23843 23844 23845 23846 23847 23848 23849 23850 23851 23852 23853 23854 23855 23856 23857 23858 23859 23860 23861 23862 23863 23864 23865 23866 23867 23868 23869 23870 23871 23872 23873 23874 23875 23876 23877 23878 23879 23880 23881 23882 23883 23884 23885 23886 23887 23888 23889 23890 23891 23892 23893 23894 23895 23896 23897 23898 23899 23900 23901 23902 23903 23904 23905 23906 23907 23908 23909 23910 23911 23912 23913 23914 23915 23916 23917 23918 23919 23920 23921 23922 23923 23924 23925 23926 23927 23928 23929 23930 23931 23932 23933 23934 23935 23936 23937 23938 23939 23940 23941 23942 23943 23944 23945 23946 23947 23948 23949 23950 23951 23952 23953 23954 23955 23956 23957 23958 23959 23960 23961 23962 23963 23964 23965 23966 23967 23968 23969 23970 23971 23972 23973 23974 23975 23976 23977 23978 23979 23980 23981 23982 23983 23984 23985 23986 23987 23988 23989 23990 23991 23992 23993 23994 23995 23996 23997 23998 23999 24000 24001 24002 24003 24004 24005 24006 24007 24008 24009 24010 24011 24012 24013 24014 24015 24016 24017 24018 24019 24020 24021 24022 24023 24024 24025 24026 24027 24028 24029 24030 24031 24032 24033 24034 24035 24036 24037 24038 24039 24040 24041 24042 24043 24044 24045 24046 24047 24048 24049 24050 24051 24052 24053 24054 24055 24056 24057 24058 24059 24060 24061 24062 24063 24064 24065 24066 24067 24068 24069 24070 24071 24072 24073 24074 24075 24076 24077 24078 24079 24080 24081 24082 24083 24084 24085 24086 24087 24088 24089 24090 24091 24092 24093 24094 24095 24096 24097 24098 24099 24100 24101 24102 24103 24104 24105 24106 24107 24108 24109 24110 24111 24112 24113 24114 24115 24116 24117 24118 24119 24120 24121 24122 24123 24124 24125 24126 24127 24128 24129 24130 24131 24132 24133 24134 24135 24136 24137 24138 24139 24140 24141 24142 24143 24144 24145 24146 24147 24148 24149 24150 24151 24152 24153 24154 24155 24156 24157 24158 24159 24160 24161 24162 24163 24164 24165 24166 24167 24168 24169 24170 24171 24172 24173 24174 24175 24176 24177 24178 24179 24180 24181 24182 24183 24184 24185 24186 24187 24188 24189 24190 24191 24192 24193 24194 24195 24196 24197 24198 24199 24200 24201 24202 24203 24204 24205 24206 24207 24208 24209 24210 24211 24212 24213 24214 24215 24216 24217 24218 24219 24220 24221 24222 24223 24224 24225 24226 24227 24228 24229 24230 24231 24232 24233 24234 24235 24236 24237 24238 24239 24240 24241 24242 24243 24244 24245 24246 24247 24248 24249 24250 24251 24252 24253 24254 24255 24256 24257 24258 24259 24260 24261 24262 24263 24264 24265 24266 24267 24268 24269 24270 24271 24272 24273 24274 24275 24276 24277 24278 24279 24280 24281 24282 24283 24284 24285 24286 24287 24288 24289 24290 24291 24292 24293 24294 24295 24296 24297 24298 24299 24300 24301 24302 24303 24304 24305 24306 24307 24308 24309 24310 24311 24312 24313 24314 24315 24316 24317 24318 24319 24320 24321 24322 24323 24324 24325 24326 24327 24328 24329 24330 24331 24332 24333 24334 24335 24336 24337 24338 24339 24340 24341 24342 24343 24344 24345 24346 24347 24348 24349 24350 24351 24352 24353 24354 24355 24356 24357 24358 24359 24360 24361 24362 24363 24364 24365 24366 24367 24368 24369 24370 24371 24372 24373 24374 24375 24376 24377 24378 24379 24380 24381 24382 24383 24384 24385 24386 24387 24388 24389 24390 24391 24392 24393 24394 24395 24396 24397 24398 24399 24400 24401 24402 24403 24404 24405 24406 24407 24408 24409 24410 24411 24412 24413 24414 24415 24416 24417 24418 24419 24420 24421 24422 24423 24424 24425 24426 24427 24428 24429 24430 24431 24432 24433 24434 24435 24436 24437 24438 24439 24440 24441 24442 24443 24444 24445 24446 24447 24448 24449 24450 24451 24452 24453 24454 24455 24456 24457 24458 24459 24460 24461 24462 24463 24464 24465 24466 24467 24468 24469 24470 24471 24472 24473 24474 24475 24476 24477 24478 24479 24480 24481 24482 24483 24484 24485 24486 24487 24488 24489 24490 24491 24492 24493 24494 24495 24496 24497 24498 24499 24500 24501 24502 24503 24504 24505 24506 24507 24508 24509 24510 24511 24512 24513 24514 24515 24516 24517 24518 24519 24520 24521 24522 24523 24524 24525 24526 24527 24528 24529 24530 24531 24532 24533 24534 24535 24536 24537 24538 24539 24540 24541 24542 24543 24544 24545 24546 24547 24548 24549 24550 24551 24552 24553 24554 24555 24556 24557 24558 24559 24560 24561 24562 24563 24564 24565 24566 24567 24568 24569 24570 24571 24572 24573 24574 24575 24576 24577 24578 24579 24580 24581 24582 24583 24584 24585 24586 24587 24588 24589 24590 24591 24592 24593 24594 24595 24596 24597 24598 24599 24600 24601 24602 24603 24604 24605 24606 24607 24608 24609 24610 24611 24612 24613 24614 24615 24616 24617 24618 24619 24620 24621 24622 24623 24624 24625 24626 24627 24628 24629 24630 24631 24632 24633 24634 24635 24636 24637 24638 24639 24640 24641 24642 24643 24644 24645 24646 24647 24648 24649 24650 24651 24652 24653 24654 24655 24656 24657 24658 24659 24660 24661 24662 24663 24664 24665 24666 24667 24668 24669 24670 24671 24672 24673 24674 24675 24676 24677 24678 24679 24680 24681 24682 24683 24684 24685 24686 24687 24688 24689 24690 24691 24692 24693 24694 24695 24696 24697 24698 24699 24700 24701 24702 24703 24704 24705 24706 24707 24708 24709 24710 24711 24712 24713 24714 24715 24716 24717 24718 24719 24720 24721 24722 24723 24724 24725 24726 24727 24728 24729 24730 24731 24732 24733 24734 24735 24736 24737 24738 24739 24740 24741 24742 24743 24744 24745 24746 24747 24748 24749 24750 24751 24752 24753 24754 24755 24756 24757 24758 24759 24760 24761 24762 24763 24764 24765 24766 24767 24768 24769 24770 24771 24772 24773 24774 24775 24776 24777 24778 24779 24780 24781 24782 24783 24784 24785 24786 24787 24788 24789 24790 24791 24792 24793 24794 24795 24796 24797 24798 24799 24800 24801 24802 24803 24804 24805 24806 24807 24808 24809 24810 24811 24812 24813 24814 24815 24816 24817 24818 24819 24820 24821 24822 24823 24824 24825 24826 24827 24828 24829 24830 24831 24832 24833 24834 24835 24836 24837 24838 24839 24840 24841 24842 24843 24844 24845 24846 24847 24848 24849 24850 24851 24852 24853 24854 24855 24856 24857 24858 24859 24860 24861 24862 24863 24864 24865 24866 24867 24868 24869 24870 24871 24872 24873 24874 24875 24876 24877 24878 24879 24880 24881 24882 24883 24884 24885 24886 24887 24888 24889 24890 24891 24892 24893 24894 24895 24896 24897 24898 24899 24900 24901 24902 24903 24904 24905 24906 24907 24908 24909 24910 24911 24912 24913 24914 24915 24916 24917 24918 24919 24920 24921 24922 24923 24924 24925 24926 24927 24928 24929 24930 24931 24932 24933 24934 24935 24936 24937 24938 24939 24940 24941 24942 24943 24944 24945 24946 24947 24948 24949 24950 24951 24952 24953 24954 24955 24956 24957 24958 24959 24960 24961 24962 24963 24964 24965 24966 24967 24968 24969 24970 24971 24972 24973 24974 24975 24976 24977 24978 24979 24980 24981 24982 24983 24984 24985 24986 24987 24988 24989 24990 24991 24992 24993 24994 24995 24996 24997 24998 24999 25000 25001 25002 25003 25004 25005 25006 25007 25008 25009 25010 25011 25012 25013 25014 25015 25016 25017 25018 25019 25020 25021 25022 25023 25024 25025 25026 25027 25028 25029 25030 25031 25032 25033 25034 25035 25036 25037 25038 25039 25040 25041 25042 25043 25044 25045 25046 25047 25048 25049 25050 25051 25052 25053 25054 25055 25056 25057 25058 25059 25060 25061 25062 25063 25064 25065 25066 25067 25068 25069 25070 25071 25072 25073 25074 25075 25076 25077 25078 25079 25080 25081 25082 25083 25084 25085 25086 25087 25088 25089 25090 25091 25092 25093 25094 25095 25096 25097 25098 25099 25100 25101 25102 25103 25104 25105 25106 25107 25108 25109 25110 25111 25112 25113 25114 25115 25116 25117 25118 25119 25120 25121 25122 25123 25124 25125 25126 25127 25128 25129 25130 25131 25132 25133 25134 25135 25136 25137 25138 25139 25140 25141 25142 25143 25144 25145 25146 25147 25148 25149 25150 25151 25152 25153 25154 25155 25156 25157 25158 25159 25160 25161 25162 25163 25164 25165 25166 25167 25168 25169 25170 25171 25172 25173 25174 25175 25176 25177 25178 25179 25180 25181 25182 25183 25184 25185 25186 25187 25188 25189 25190 25191 25192 25193 25194 25195 25196 25197 25198 25199 25200 25201 25202 25203 25204 25205 25206 25207 25208 25209 25210 25211 25212 25213 25214 25215 25216 25217 25218 25219 25220 25221 25222 25223 25224 25225 25226 25227 25228 25229 25230 25231 25232 25233 25234 25235 25236 25237 25238 25239 25240 25241 25242 25243 25244 25245 25246 25247 25248 25249 25250 25251 25252 25253 25254 25255 25256 25257 25258 25259 25260 25261 25262 25263 25264 25265 25266 25267 25268 25269 25270 25271 25272 25273 25274 25275 25276 25277 25278 25279 25280 25281 25282 25283 25284 25285 25286 25287 25288 25289 25290 25291 25292 25293 25294 25295 25296 25297 25298 25299 25300 25301 25302 25303 25304 25305 25306 25307 25308 25309 25310 25311 25312 25313 25314 25315 25316 25317 25318 25319 25320 25321 25322 25323 25324 25325 25326 25327 25328 25329 25330 25331 25332 25333 25334 25335 25336 25337 25338 25339 25340 25341 25342 25343 25344 25345 25346 25347 25348 25349 25350 25351 25352 25353 25354 25355 25356 25357 25358 25359 25360 25361 25362 25363 25364 25365 25366 25367 25368 25369 25370 25371 25372 25373 25374 25375 25376 25377 25378 25379 25380 25381 25382 25383 25384 25385 25386 25387 25388 25389 25390 25391 25392 25393 25394 25395 25396 25397 25398 25399 25400 25401 25402 25403 25404 25405 25406 25407 25408 25409 25410 25411 25412 25413 25414 25415 25416 25417 25418 25419 25420 25421 25422 25423 25424 25425 25426 25427 25428 25429 25430 25431 25432 25433 25434 25435 25436 25437 25438 25439 25440 25441 25442 25443 25444 25445 25446 25447 25448 25449 25450 25451 25452 25453 25454 25455 25456 25457 25458 25459 25460 25461 25462 25463 25464 25465 25466 25467 25468 25469 25470 25471 25472 25473 25474 25475 25476 25477 25478 25479 25480 25481 25482 25483 25484 25485 25486 25487 25488 25489 25490 25491 25492 25493 25494 25495 25496 25497 25498 25499 25500 25501 25502 25503 25504 25505 25506 25507 25508 25509 25510 25511 25512 25513 25514 25515 25516 25517 25518 25519 25520 25521 25522 25523 25524 25525 25526 25527 25528 25529 25530 25531 25532 25533 25534 25535 25536 25537 25538 25539 25540 25541 25542 25543 25544 25545 25546 25547 25548 25549 25550 25551 25552 25553 25554 25555 25556 25557 25558 25559 25560 25561 25562 25563 25564 25565 25566 25567 25568 25569 25570 25571 25572 25573 25574 25575 25576 25577 25578 25579 25580 25581 25582 25583 25584 25585 25586 25587 25588 25589 25590 25591 25592 25593 25594 25595 25596 25597 25598 25599 25600 25601 25602 25603 25604 25605 25606 25607 25608 25609 25610 25611 25612 25613 25614 25615 25616 25617 25618 25619 25620 25621 25622 25623 25624 25625 25626 25627 25628 25629 25630 25631 25632 25633 25634 25635 25636 25637 25638 25639 25640 25641 25642 25643 25644 25645 25646 25647 25648 25649 25650 25651 25652 25653 25654 25655 25656 25657 25658 25659 25660 25661 25662 25663 25664 25665 25666 25667 25668 25669 25670 25671 25672 25673 25674 25675 25676 25677 25678 25679 25680 25681 25682 25683 25684 25685 25686 25687 25688 25689 25690 25691 25692 25693 25694 25695 25696 25697 25698 25699 25700 25701 25702 25703 25704 25705 25706 25707 25708 25709 25710 25711 25712 25713 25714 25715 25716 25717 25718 25719 25720 25721 25722 25723 25724 25725 25726 25727 25728 25729 25730 25731 25732 25733 25734 25735 25736 25737 25738 25739 25740 25741 25742 25743 25744 25745 25746 25747 25748 25749 25750 25751 25752 25753 25754 25755 25756 25757 25758 25759 25760 25761 25762 25763 25764 25765 25766 25767 25768 25769 25770 25771 25772 25773 25774 25775 25776 25777 25778 25779 25780 25781 25782 25783 25784 25785 25786 25787 25788 25789 25790 25791 25792 25793 25794 25795 25796 25797 25798 25799 25800 25801 25802 25803 25804 25805 25806 25807 25808 25809 25810 25811 25812 25813 25814 25815 25816 25817 25818 25819 25820 25821 25822 25823 25824 25825 25826 25827 25828 25829 25830 25831 25832 25833 25834 25835 25836 25837 25838 25839 25840 25841 25842 25843 25844 25845 25846 25847 25848 25849 25850 25851 25852 25853 25854 25855 25856 25857 25858 25859 25860 25861 25862 25863 25864 25865 25866 25867 25868 25869 25870 25871 25872 25873 25874 25875 25876 25877 25878 25879 25880 25881 25882 25883 25884 25885 25886 25887 25888 25889 25890 25891 25892 25893 25894 25895 25896 25897 25898 25899 25900 25901 25902 25903 25904 25905 25906 25907 25908 25909 25910 25911 25912 25913 25914 25915 25916 25917 25918 25919 25920 25921 25922 25923 25924 25925 25926 25927 25928 25929 25930 25931 25932 25933 25934 25935 25936 25937 25938 25939 25940 25941 25942 25943 25944 25945 25946 25947 25948 25949 25950 25951 25952 25953 25954 25955 25956 25957 25958 25959 25960 25961 25962 25963 25964 25965 25966 25967 25968 25969 25970 25971 25972 25973 25974 25975 25976 25977 25978 25979 25980 25981 25982 25983 25984 25985 25986 25987 25988 25989 25990 25991 25992 25993 25994 25995 25996 25997 25998 25999 26000 26001 26002 26003 26004 26005 26006 26007 26008 26009 26010 26011 26012 26013 26014 26015 26016 26017 26018 26019 26020 26021 26022 26023 26024 26025 26026 26027 26028 26029 26030 26031 26032 26033 26034 26035 26036 26037 26038 26039 26040 26041 26042 26043 26044 26045 26046 26047 26048 26049 26050 26051 26052 26053 26054 26055 26056 26057 26058 26059 26060 26061 26062 26063 26064 26065 26066 26067 26068 26069 26070 26071 26072 26073 26074 26075 26076 26077 26078 26079 26080 26081 26082 26083 26084 26085 26086 26087 26088 26089 26090 26091 26092 26093 26094 26095 26096 26097 26098 26099 26100 26101 26102 26103 26104 26105 26106 26107 26108 26109 26110 26111 26112 26113 26114 26115 26116 26117 26118 26119 26120 26121 26122 26123 26124 26125 26126 26127 26128 26129 26130 26131 26132 26133 26134 26135 26136 26137 26138 26139 26140 26141 26142 26143 26144 26145 26146 26147 26148 26149 26150 26151 26152 26153 26154 26155 26156 26157 26158 26159 26160 26161 26162 26163 26164 26165 26166 26167 26168 26169 26170 26171 26172 26173 26174 26175 26176 26177 26178 26179 26180 26181 26182 26183 26184 26185 26186 26187 26188 26189 26190 26191 26192 26193 26194 26195 26196 26197 26198 26199 26200 26201 26202 26203 26204 26205 26206 26207 26208 26209 26210 26211 26212 26213 26214 26215 26216 26217 26218 26219 26220 26221 26222 26223 26224 26225 26226 26227 26228 26229 26230 26231 26232 26233 26234 26235 26236 26237 26238 26239 26240 26241 26242 26243 26244 26245 26246 26247 26248 26249 26250 26251 26252 26253 26254 26255 26256 26257 26258 26259 26260 26261 26262 26263 26264 26265 26266 26267 26268 26269 26270 26271 26272 26273 26274 26275 26276 26277 26278 26279 26280 26281 26282 26283 26284 26285 26286 26287 26288 26289 26290 26291 26292 26293 26294 26295 26296 26297 26298 26299 26300 26301 26302 26303 26304 26305 26306 26307 26308 26309 26310 26311 26312 26313 26314 26315 26316 26317 26318 26319 26320 26321 26322 26323 26324 26325 26326 26327 26328 26329 26330 26331 26332 26333 26334 26335 26336 26337 26338 26339 26340 26341 26342 26343 26344 26345 26346 26347 26348 26349 26350 26351 26352 26353 26354 26355 26356 26357 26358 26359 26360 26361 26362 26363 26364 26365 26366 26367 26368 26369 26370 26371 26372 26373 26374 26375 26376 26377 26378 26379 26380 26381 26382 26383 26384 26385 26386 26387 26388 26389 26390 26391 26392 26393 26394 26395 26396 26397 26398 26399 26400 26401 26402 26403 26404 26405 26406 26407 26408 26409 26410 26411 26412 26413 26414 26415 26416 26417 26418 26419 26420 26421 26422 26423 26424 26425 26426 26427 26428 26429 26430 26431 26432 26433 26434 26435 26436 26437 26438 26439 26440 26441 26442 26443 26444 26445 26446 26447 26448 26449 26450 26451 26452 26453 26454 26455 26456 26457 26458 26459 26460 26461 26462 26463 26464 26465 26466 26467 26468 26469 26470 26471 26472 26473 26474 26475 26476 26477 26478 26479 26480 26481 26482 26483 26484 26485 26486 26487 26488 26489 26490 26491 26492 26493 26494 26495 26496 26497 26498 26499 26500 26501 26502 26503 26504 26505 26506 26507 26508 26509 26510 26511 26512 26513 26514 26515 26516 26517 26518 26519 26520 26521 26522 26523 26524 26525 26526 26527 26528 26529 26530 26531 26532 26533 26534 26535 26536 26537 26538 26539 26540 26541 26542 26543 26544 26545 26546 26547 26548 26549 26550 26551 26552 26553 26554 26555 26556 26557 26558 26559 26560 26561 26562 26563 26564 26565 26566 26567 26568 26569 26570 26571 26572 26573 26574 26575 26576 26577 26578 26579 26580 26581 26582 26583 26584 26585 26586 26587 26588 26589 26590 26591 26592 26593 26594 26595 26596 26597 26598 26599 26600 26601 26602 26603 26604 26605 26606 26607 26608 26609 26610 26611 26612 26613 26614 26615 26616 26617 26618 26619 26620 26621 26622 26623 26624 26625 26626 26627 26628 26629 26630 26631 26632 26633 26634 26635 26636 26637 26638 26639 26640 26641 26642 26643 26644 26645 26646 26647 26648 26649 26650 26651 26652 26653 26654 26655 26656 26657 26658 26659 26660 26661 26662 26663 26664 26665 26666 26667 26668 26669 26670 26671 26672 26673 26674 26675 26676 26677 26678 26679 26680 26681 26682 26683 26684 26685 26686 26687 26688 26689 26690 26691 26692 26693 26694 26695 26696 26697 26698 26699 26700 26701 26702 26703 26704 26705 26706 26707 26708 26709 26710 26711 26712 26713 26714 26715 26716 26717 26718 26719 26720 26721 26722 26723 26724 26725 26726 26727 26728 26729 26730 26731 26732 26733 26734 26735 26736 26737 26738 26739 26740 26741 26742 26743 26744 26745 26746 26747 26748 26749 26750 26751 26752 26753 26754 26755 26756 26757 26758 26759 26760 26761 26762 26763 26764 26765 26766 26767 26768 26769 26770 26771 26772 26773 26774 26775 26776 26777 26778 26779 26780 26781 26782 26783 26784 26785 26786 26787 26788 26789 26790 26791 26792 26793 26794 26795 26796 26797 26798 26799 26800 26801 26802 26803 26804 26805 26806 26807 26808 26809 26810 26811 26812 26813 26814 26815 26816 26817 26818 26819 26820 26821 26822 26823 26824 26825 26826 26827 26828 26829 26830 26831 26832 26833 26834 26835 26836 26837 26838 26839 26840 26841 26842 26843 
</DataArray>
<DataArray type="UInt32" Name="offsets" format="ascii">
3 6 9 12 15 17 20 23 26 28 31 34 37 40 43 46 48 51 54 57 59 62 65 68 71 74 77 80 83 86 88 91 94 97 100 103 105 108 111 114 117 119 122 125 127 130 133 136 139 142 145 148 151 153 156 159 162 165 168 171 174 177 180 183 186 189 192 195 198 201 204 207 210 213 216 219 221 224 227 230 233 236 238 240 243 246 249 252 255 258 261 264 267 270 272 275 278 281 284 287 290 293 296 299 302 305 308 311 314 317 320 323 326 328 331 334 337 340 343 346 348 351 354 357 360 363 366 369 372 375 378 381 384 387 390 392 395 398 401 404 407 410 412 415 417 420 423 426 429 432 435 437 440 443 446 449 451 454 457 460 463 466 469 472 475 478 481 483 486 489 492 495 497 500 503 506 509 512 515 518 521 524 527 529 532 535 537 540 543 546 549 552 555 558 561 564 567 570 573 575 578 581 584 587 590 593 596 599 602 605 608 611 614 617 620 622 625 627 630 633 635 638 641 643 646 648 651 654 656 659 662 665 668 671 674 677 680 682 685 688 691 694 697 699 702 704 706 709 712 715 718 721 724 727 730 733 736 739 742 744 747 749 752 755 758 761 764 767 770 773 776 779 782 785 788 791 794 796 799 802 805 808 810 813 816 819 821 824 827 829 832 835 838 841 844 846 849 852 855 858 861 864 866 869 872 875 878 881 883 886 889 892 895 898 901 904 907 910 913 916 919 921 924 927 929 932 935 938 941 944 947 950 953 956 959 961 964 966 969 972 975 978 981 984 987 989 992 995 998 1001 1004 1007 1010 1013 1016 1019 1022 1025 1027 1030 1032 1035 1038 1041 1044 1047 1050 1053 1055 1058 1061 1063 1066 1069 1071 1074 1077 1080 1083 1086 1088 1091 1094 1097 1100 1102 1105 1108 1111 1113 1116 1118 1121 1124 1127 1130 1133 1136 1139 1142 1145 1148 1151 1154 1157 1160 1163 1166 1169 1172 1175 1177 1180 1183 1186 1189 1192 1195 1198 1201 1204 1207 1210 1213 1216 1218 1221 1224 1227 1230 1233 1235 1238 1241 1244 1247 1250 1252 1255 1257 1260 1262 1265 1268 1271 1274 1277 1280 1283 1286 1289 1292 1295 1298 1301 1304 1307 1310 1313 1316 1319 1322 1325 1328 1331 1334 1337 1340 1343 1346 1349 1352 1355 1358 1361 1364 1367 1370 1373 1376 1379 1382 1384 1387 1390 1393 1395 1398 1401 1404 1406 1409 1411 1414 1417 1420 1423 1425 1428 1431 1433 1436 1439 1442 1445 1448 1451 1454 1457 1460 1463 1466 1469 1472 1475 1478 1481 1484 1487 1489 1492 1495 1497 1500 1503 1505 1508 1511 1514 1517 1520 1523 1526 1529 1531 1534 1537 1539 1542 1545 1548 1551 1554 1557 1560 1563 1566 1569 1572 1575 1578 1581 1584 1587 1589 1592 1595 1598 1601 1604 1607 1609 1612 1615 1618 1621 1624 1627 1630 1632 1635 1638 1641 1643 1646 1649 1652 1655 1657 1660 1663 1666 1668 1671 1674 1677 1680 1683 1686 1688 1691 1694 1697 1700 1703 1706 1709 1712 1715 1718 1720 1723 1726 1729 1731 1734 1737 1740 1743 1746 1749 1752 1755 1758 1761 1764 1767 1769 1772 1775 1778 1781 1784 1786 1789 1792 1795 1798 1801 1804 1807 1810 1813 1815 1817 1820 1822 1825 1828 1831 1834 1837 1840 1843 1845 1848 1851 1854 1856 1859 1861 1863 1866 1869 1872 1874 1877 1879 1881 1884 1887 1890 1893 1895 1898 1901 1904 1907 1910 1913 1916 1919 1921 1924 1927 1930 1932 1935 1938 1941 1944 1946 1949 1952 1954 1957 1960 1963 1966 1969 1971 1974 1977 1980 1983 1986 1989 1992 1995 1998 2001 2004 2007 2010 2013 2016 2019 2022 2025 2028 2031 2034 2037 2039 2042 2045 2048 2051 2054 2057 2060 2063 2066 2069 2072 2075 2078 2081 2084 2087 2090 2093 2096 2099 2102 2104 2107 2110 2113 2116 2119 2122 2125 2128 2131 2134 2137 2140 2143 2146 2149 2152 2154 2157 2160 2163 2165 2168 2171 2174 2176 2179 2182 2185 2188 2191 2193 2196 2199 2202 2205 2207 2210 2213 2216 2219 2222 2225 2228 2230 2233 2236 2239 2242 2245 2247 2250 2253 2255 2258 2261 2264 2267 2270 2273 2276 2279 2282 2285 2288 2291 2294 2297 2300 2303 2306 2309 2312 2315 2318 2321 2324 2326 2329 2332 2335 2338 2341 2344 2347 2349 2352 2355 2358 2361 2363 2366 2369 2372 2375 2378 2381 2384 2387 2390 2393 2396 2399 2402 2405 2408 2411 2413 2416 2418 2421 2424 2427 2430 2433 2436 2439 2442 2445 2448 2451 2454 2457 2460 2463 2466 2468 2470 2473 2476 2478 2481 2484 2487 2490 2493 2495 2497 2500 2502 2504 2506 2509 2511 2514 2517 2520 2523 2526 2528 2531 2534 2537 2540 2542 2545 2547 2550 2552 2554 2557 2560 2562 2565 2567 2570 2573 2575 2578 2581 2584 2587 2590 2592 2595 2598 2601 2603 2606 2609 2612 2614 2617 2620 2623 2626 2629 2632 2635 2637 2639 2642 2644 2647 2650 2652 2654 2657 2660 2662 2665 2667 2670 2673 2676 2678 2681 2684 2686 2689 2691 2693 2695 2698 2701 2704 2707 2709 2712 2715 2718 2721 2724 2727 2729 2732 2735 2738 2740 2743 2746 2748 2751 2754 2757 2760 2762 2765 2768 2771 2774 2777 2780 2783 2786 2789 2792 2795 2797 2800 2803 2806 2809 2812 2814 2817 2820 2823 2826 2829 2832 2834 2836 2839 2842 2845 2847 2850 2853 2856 2859 2862 2865 2868 2871 2874 2877 2879 2882 2885 2888 2891 2893 2895 2898 2900 2903 2906 2908 2910 2913 2916 2919 2922 2925 2928 2930 2933 2936 2939 2942 2944 2947 2949 2952 2955 2958 2960 2963 2966 2969 2972 2975 2978 2981 2984 2987 2990 2993 2996 2999 3001 3004 3007 3010 3013 3016 3019 3022 3025 3028 3031 3034 3037 3040 3043 3046 3049 3052 3055 3058 3061 3064 3066 3069 3072 3075 3078 3081 3084 3087 3090 3092 3094 3097 3100 3103 3106 3109 3112 3115 3118 3121 3124 3127 3130 3133 3136 3139 3142 3145 3148 3151 3153 3156 3159 3162 3165 3167 3170 3173 3175 3178 3181 3184 3187 3190 3193 3196 3199 3202 3205 3208 3211 3214 3217 3219 3222 3225 3227 3230 3233 3236 3239 3242 3245 3248 3251 3254 3257 3260 3262 3265 3268 3271 3274 3276 3279 3282 3285 3288 3291 3294 3297 3300 3302 3304 3307 3310 3313 3316 3318 3321 3324 3327 3330 3332 3335 3338 3341 3344 3347 3350 3353 3356 3359 3362 3365 3367 3370 3373 3376 3379 3382 3385 3387 3390 3393 3396 3398 3401 3404 3407 3410 3413 3416 3419 3422 3425 3428 3430 3432 3435 3437 3440 3443 3446 3449 3452 3455 3458 3461 3464 3467 3470 3473 3476 3479 3482 3485 3488 3491 3494 3497 3500 3503 3506 3509 3512 3515 3518 3521 3523 3526 3529 3532 3535 3538 3540 3543 3546 3549 3552 3554 3557 3560 3563 3566 3569 3572 3574 3577 3580 3583 3586 3589 3592 3595 3597 3600 3603 3606 3609 3612 3615 3618 3621 3624 3627 3630 3633 3636 3639 3642 3645 3648 3651 3654 3657 3659 3661 3664 3667 3670 3673 3676 3679 3682 3685 3688 3691 3694 3697 3699 3702 3705 3708 3711 3714 3717 3720 3723 3726 3729 3732 3735 3738 3741 3744 3747 3750 3753 3756 3759 3762 3765 3768 3770 3773 3776 3779 3782 3784 3787 3789 3791 3794 3797 3800 3803 3805 3808 3811 3813 3816 3819 3822 3825 3828 3831 3834 3837 3840 3843 3846 3849 3852 3855 3857 3860 3863 3865 3868 3871 3874 3877 3880 3882 3885 3888 3891 3894 3897 3900 3903 3906 3909 3912 3915 3918 3921 3924 3927 3930 3933 3936 3939 3942 3945 3948 3951 3953 3956 3959 3962 3965 3968 3971 3974 3977 3980 3983 3986 3989 3992 3995 3998 4001 4004 4006 4009 4011 4014 4017 4020 4023 4025 4028 4031 4034 4037 4040 4043 4046 4048 4051 4054 4057 4060 4063 4066 4069 4072 4075 4077 4080 4082 4085 4088 4090 4092 4095 4098 4101 4104 4107 4110 4112 4115 4118 4121 4124 4127 4130 4132 4135 4138 4140 4143 4146 4149 4152 4155 4158 4161 4164 4167 4170 4173 4176 4179 4182 4185 4188 4191 4194 4197 4200 4203 4206 4209 4212 4215 4218 4221 4224 4227 4230 4233 4236 4238 4241 4244 4247 4250 4252 4255 4258 4261 4263 4265 4268 4271 4274 4277 4280 4283 4286 4289 4292 4295 4298 4301 4303 4306 4309 4312 4315 4318 4321 4324 4327 4330 4333 4336 4339 4342 4345 4347 4350 4353 4356 4358 4361 4364 4367 4370 4372 4375 4378 4381 4384 4387 4390 4393 4396 4399 4402 4405 4408 4411 4414 4417 4420 4422 4425 4428 4431 4434 4437 4439 4442 4444 4447 4449 4452 4455 4457 4460 4463 4466 4469 4472 4475 4478 4480 4483 4485 4488 4491 4494 4497 4499 4502 4505 4508 4511 4513 4515 4518 4521 4524 4526 4529 4532 4534 4537 4540 4543 4546 4549 4552 4555 4558 4561 4564 4567 4569 4572 4574 4577 4580 4583 4585 4587 4590 4593 4596 4599 4601 4604 4607 4610 4613 4616 4619 4622 4625 4628 4631 4634 4636 4639 4642 4645 4648 4650 4653 4656 4659 4662 4665 4668 4671 4674 4677 4680 4683 4686 4689 4691 4694 4697 4700 4703 4706 4709 4712 4715 4718 4721 4723 4726 4729 4732 4734 4737 4740 4743 4745 4748 4751 4753 4756 4758 4761 4763 4766 4769 4772 4774 4777 4780 4783 4786 4788 4791 4793 4796 4799 4802 4805 4807 4810 4813 4816 4819 4821 4824 4827 4830 4833 4836 4839 4842 4845 4848 4851 4854 4857 4859 4862 4865 4868 4870 4873 4876 4879 4882 4884 4887 4890 4892 4895 4898 4901 4904 4907 4910 4913 4916 4919 4922 4925 4928 4931 4934 4937 4940 4943 4946 4949 4952 4955 4957 4960 4963 4966 4969 4972 4975 4978 4981 4984 4987 4990 4993 4996 4999 5002 5005 5008 5011 5014 5017 5020 5023 5026 5029 5032 5035 5038 5041 5044 5047 5050 5053 5056 5058 5061 5064 5067 5070 5073 5076 5079 5082 5085 5088 5091 5094 5097 5100 5102 5105 5108 5111 5114 5117 5120 5122 5125 5128 5131 5133 5136 5139 5142 5145 5148 5151 5154 5157 5160 5163 5166 5169 5172 5175 5178 5181 5184 5187 5190 5193 5196 5199 5201 5204 5207 5210 5213 5215 5218 5221 5224 5227 5230 5233 5235 5238 5241 5244 5247 5250 5253 5256 5259 5262 5265 5268 5271 5274 5277 5279 5282 5285 5288 5291 5294 5297 5300 5303 5306 5308 5310 5313 5316 5319 5322 5325 5328 5331 5334 5336 5339 5342 5345 5348 5350 5353 5356 5359 5362 5364 5367 5369 5372 5375 5378 5381 5383 5386 5389 5392 5395 5398 5401 5404 5407 5410 5413 5416 5419 5422 5425 5428 5431 5434 5436 5439 5442 5445 5448 5451 5454 5457 5460 5462 5464 5467 5470 5473 5476 5479 5482 5484 5487 5490 5492 5495 5498 5500 5502 5504 5507 5510 5512 5514 5517 5519 5521 5524 5527 5529 5532 5535 5538 5541 5543 5546 5549 5552 5554 5557 5559 5562 5565 5568 5571 5574 5577 5580 5582 5585 5588 5591 5593 5596 5599 5601 5604 5607 5610 5613 5616 5619 5622 5625 5627 5629 5632 5635 5638 5641 5644 5646 5649 5652 5655 5658 5661 5663 5666 5669 5672 5675 5678 5680 5683 5686 5689 5692 5694 5697 5700 5703 5706 5709 5711 5714 5716 5719 5722 5725 5728 5731 5733 5736 5739 5742 5745 5748 5751 5754 5757 5760 5762 5764 5767 5770 5772 5775 5777 5780 5783 5786 5789 5792 5795 5798 5801 5804 5807 5809 5812 5815 5817 5820 5823 5826 5828 5831 5834 5837 5840 5843 5846 5849 5852 5855 5858 5861 5864 5867 5870 5873 5876 5879 5882 5885 5888 5891 5893 5896 5898 5901 5904 5907 5910 5913 5916 5919 5922 5925 5928 5930 5932 5935 5938 5941 5944 5947 5949 5952 5955 5958 5961 5964 5967 5970 5973 5976 5978 5980 5983 5986 5989 5992 5994 5997 6000 6003 6006 6009 6011 6014 6017 6020 6023 6026 6029 6031 6034 6036 6038 6041 6044 6047 6050 6053 6056 6059 6062 6065 6068 6071 6074 6077 6079 6082 6085 6087 6090 6093 6095 6098 6101 6103 6106 6109 6112 6115 6118 6121 6124 6127 6130 6132 6135 6138 6140 6143 6146 6149 6152 6154 6157 6159 6162 6165 6168 6171 6174 6177 6180 6183 6185 6188 6191 6193 6196 6199 6202 6205 6208 6211 6214 6217 6220 6223 6226 6228 6231 6234 6237 6240 6242 6245 6248 6251 6253 6256 6259 6262 6265 6267 6270 6273 6276 6279 6282 6285 6288 6291 6294 6296 6299 6302 6305 6307 6310 6312 6315 6318 6320 6323 6326 6329 6332 6335 6338 6341 6344 6347 6350 6353 6355 6358 6361 6364 6367 6370 6373 6376 6379 6382 6385 6387 6390 6393 6396 6399 6402 6405 6408 6411 6413 6416 6419 6422 6424 6427 6430 6432 6435 6437 6440 6442 6445 6448 6451 6453 6456 6459 6462 6465 6468 6471 6474 6477 6480 6483 6485 6488 6491 6494 6497 6499 6502 6504 6507 6510 6513 6516 6519 6522 6525 6527 6530 6533 6536 6539 6542 6545 6548 6550 6553 6556 6559 6562 6564 6567 6570 6573 6576 6579 6582 6585 6588 6591 6594 6597 6600 6603 6606 6609 6611 6614 6617 6619 6622 6624 6627 6630 6633 6635 6638 6641 6643 6646 6649 6652 6654 6656 6658 6661 6664 6666 6668 6671 6674 6676 6679 6681 6684 6687 6690 6692 6695 6697 6700 6703 6705 6708 6711 6713 6716 6718 6721 6724 6727 6729 6732 6734 6737 6740 6742 6744 6747 6750 6753 6755 6758 6760 6763 6766 6768 6770 6772 6775 6778 6781 6784 6787 6790 6793 6795 6797 6800 6802 6805 6807 6809 6812 6814 6817 6820 6822 6825 6828 6831 6834 6837 6839 6842 6845 6847 6850 6853 6856 6859 6862 6865 6868 6871 6874 6877 6880 6883 6886 6889 6892 6894 6897 6900 6903 6906 6909 6912 6915 6918 6921 6924 6927 6930 6933 6936 6939 6942 6945 6948 6951 6954 6957 6960 6963 6966 6969 6972 6975 6978 6981 6984 6987 6990 6993 6996 6999 7002 7005 7008 7011 7014 7017 7020 7023 7026 7028 7030 7033 7036 7039 7041 7044 7047 7050 7053 7056 7059 7062 7065 7067 7070 7073 7076 7079 7082 7084 7087 7090 7093 7096 7099 7102 7105 7108 7111 7114 7116 7119 7121 7124 7127 7130 7132 7135 7138 7141 7143 7146 7149 7152 7154 7157 7159 7162 7165 7168 7171 7174 7177 7180 7183 7186 7189 7192 7195 7198 7201 7204 7207 7210 7213 7215 7218 7221 7224 7227 7230 7233 7236 7238 7241 7244 7246 7248 7251 7254 7257 7260 7262 7265 7268 7271 7274 7277 7280 7282 7285 7288 7290 7293 7296 7299 7302 7305 7308 7311 7313 7316 7319 7322 7325 7328 7331 7334 7337 7340 7343 7346 7349 7351 7354 7357 7360 7362 7365 7368 7371 7374 7377 7380 7382 7385 7388 7391 7394 7397 7400 7403 7406 7409 7412 7415 7418 7421 7424 7427 7430 7433 7435 7437 7440 7442 7445 7447 7450 7453 7456 7459 7462 7465 7468 7471 7473 7476 7479 7482 7484 7486 7489 7491 7494 7496 7499 7501 7504 7507 7510 7513 7515 7518 7521 7524 7526 7529 7531 7533 7536 7539 7541 7544 7547 7550 7552 7554 7557 7559 7562 7565 7567 7569 7572 7575 7577 7579 7582 7585 7588 7591 7594 7597 7600 7602 7605 7607 7610 7613 7616 7619 7622 7625 7627 7630 7633 7636 7639 7642 7645 7648 7651 7654 7657 7660 7663 7666 7669 7672 7675 7678 7680 7683 7685 7687 7690 7693 7695 7698 7701 7704 7707 7710 7713 7716 7719 7722 7725 7728 7731 7734 7737 7740 7743 7746 7749 7752 7755 7758 7760 7763 7766 7768 7771 7773 7776 7779 7782 7784 7787 7790 7793 7796 7799 7802 7805 7808 7810 7813 7816 7818 7820 7823 7826 7828 7831 7834 7837 7840 7843 7846 7848 7851 7854 7857 7860 7863 7865 7868 7871 7874 7877 7880 7882 7884 7887 7889 7891 7894 7896 7899 7901 7903 7906 7909 7911 7913 7915 7918 7921 7924 7927 7930 7933 7936 7939 7941 7944 7947 7950 7953 7955 7958 7960 7963 7966 7968 7971 7974 7976 7979 7982 7985 7988 7991 7994 7997 8000 8003 8006 8009 8012 8014 8016 8019 8022 8025 8027 8030 8033 8036 8039 8042 8045 8048 8051 8054 8057 8060 8063 8066 8068 8071 8074 8077 8080 8083 8086 8088 8091 8094 8097 8100 8103 8106 8108 8111 8114 8116 8119 8122 8125 8128 8131 8134 8137 8139 8142 8145 8148 8150 8152 8155 8158 8160 8163 8166 8169 8172 8175 8178 8181 8184 8187 8190 8193 8196 8199 8202 8205 8208 8211 8214 8217 8220 8223 8226 8228 8231 8233 8236 8239 8241 8244 8247 8249 8252 8255 8258 8261 8263 8266 8269 8271 8274 8277 8280 8283 8285 8287 8290 8293 8295 8298 8301 8304 8307 8310 8312 8315 8318 8321 8323 8326 8329 8331 8334 8337 8339 8342 8345 8347 8350 8353 8356 8359 8362 8365 8368 8371 8374 8377 8380 8383 8386 8389 8392 8395 8398 8401 8403 8406 8409 8412 8415 8418 8421 8424 8427 8430 8432 8435 8437 8440 8443 8446 8449 8452 8455 8458 8461 8464 8467 8470 8473 8476 8478 8481 8484 8486 8489 8491 8494 8497 8500 8503 8506 8509 8511 8514 8517 8520 8523 8526 8528 8531 8533 8536 8538 8541 8544 8547 8550 8553 8556 8559 8562 8565 8567 8570 8573 8576 8579 8582 8585 8588 8591 8594 8597 8600 8603 8606 8609 8612 8615 8618 8621 8624 8627 8630 8633 8636 8639 8642 8645 8647 8650 8653 8656 8659 8662 8665 8668 8671 8674 8677 8679 8682 8685 8688 8690 8693 8696 8699 8702 8705 8708 8711 8714 8717 8719 8722 8725 8728 8730 8733 8735 8738 8741 8744 8747 8750 8753 8756 8759 8762 8765 8767 8769 8772 8775 8778 8781 8783 8786 8789 8791 8794 8797 8800 8803 8806 8808 8810 8813 8816 8819 8822 8824 8827 8830 8832 8835 8838 8841 8844 8847 8850 8853 8856 8859 8862 8865 8868 8871 8874 8877 8880 8883 8885 8888 8890 8893 8895 8897 8900 8903 8906 8909 8911 8914 8917 8920 8923 8926 8929 8931 8934 8937 8940 8943 8946 8949 8952 8955 8957 8960 8963 8965 8968 8970 8973 8976 8979 8982 8985 8988 8991 8994 8997 9000 9003 9006 9009 9012 9015 9018 9021 9024 9027 9030 9033 9035 9038 9041 9043 9045 9048 9051 9054 9057 9059 9062 9065 9068 9071 9074 9076 9079 9082 9084 9087 9090 9092 9095 9097 9100 9103 9106 9109 9112 9115 9118 9121 9123 9126 9129 9132 9135 9138 9141 9143 9145 9148 9151 9154 9157 9159 9162 9165 9167 9170 9173 9175 9178 9181 9184 9187 9190 9193 9196 9199 9202 9205 9208 9211 9214 9217 9220 9223 9226 9229 9232 9234 9237 9240 9243 9246 9249 9252 9255 9258 9261 9264 9267 9269 9271 9274 9277 9280 9283 9286 9289 9291 9294 9297 9300 9303 9306 9309 9312 9315 9318 9321 9324 9326 9329 9332 9334 9337 9340 9343 9346 9349 9352 9355 9358 9360 9363 9366 9368 9371 9374 9377 9380 9383 9385 9388 9390 9393 9396 9398 9401 9403 9406 9409 9411 9414 9417 9420 9423 9426 9429 9432 9435 9438 9441 9444 9447 9450 9453 9455 9457 9460 9463 9466 9469 9471 9474 9477 9480 9483 9486 9489 9492 9495 9498 9500 9503 9506 9509 9512 9515 9517 9520 9523 9526 9529 9532 9535 9538 9541 9544 9547 9549 9552 9555 9558 9561 9564 9566 9569 9572 9575 9577 9580 9583 9586 9589 9592 9595 9598 9601 9604 9607 9610 9613 9616 9618 9620 9623 9626 9629 9632 9635 9638 9641 9644 9647 9649 9652 9654 9657 9660 9663 9665 9668 9671 9674 9676 9679 9682 9685 9688 9691 9694 9697 9699 9701 9704 9707 9710 9713 9715 9718 9721 9723 9726 9729 9732 9735 9738 9740 9743 9746 9749 9752 9755 9758 9761 9763 9766 9769 9772 9775 9777 9780 9783 9786 9789 9791 9794 9796 9799 9801 9804 9806 9809 9812 9814 9816 9819 9822 9825 9827 9830 9833 9836 9838 9841 9844 9847 9850 9853 9856 9859 9862 9865 9868 9870 9873 9876 9879 9882 9884 9887 9890 9893 9895 9898 9901 9904 9907 9910 9912 9915 9918 9921 9924 9927 9930 9933 9936 9939 9942 9945 9948 9951 9954 9957 9960 9963 9966 9969 9971 9974 9977 9980 9983 9986 9989 9992 9995 9998 10001 10004 10007 10010 10013 10016 10019 10022 10025 10028 10031 10034 10037 10040 10043 10046 10049 10052 10055 10058 10060 10063 10066 10069 10071 10074 10077 10080 10082 10085 10087 10090 10093 10096 10098 10100 10103 10106 10109 10111 10114 10116 10119 10122 10124 10126 10129 10131 10134 10137 10140 10143 10145 10148 10151 10154 10156 10158 10161 10164 10167 10170 10172 10175 10177 10180 10183 10186 10189 10191 10194 10197 10200 10203 10205 10208 10211 10214 10217 10220 10223 10226 10228 10231 10234 10237 10239 10242 10245 10248 10251 10254 10257 10260 10263 10266 10269 10272 10275 10278 10281 10284 10287 10289 10292 10295 10298 10300 10303 10306 10309 10311 10314 10317 10320 10322 10325 10328 10331 10333 10336 10339 10342 10344 10347 10349 10352 10354 10357 10360 10362 10365 10368 10370 10373 10376 10378 10380 10383 10386 10388 10391 10394 10397 10399 10402 10404 10406 10409 10411 10414 10417 10420 10423 10425 10427 10430 10433 10436 10439 10441 10444 10447 10450 10452 10455 10458 10460 10463 10465 10468 10471 10474 10477 10479 10481 10484 10487 10490 10493 10496 10499 10502 10505 10508 10511 10514 10516 10518 10521 10524 10526 10528 10530 10533 10536 10538 10541 10544 10547 10550 10552 10555 10557 10560 10563 10566 10569 10572 10574 10577 10580 10583 10585 10588 10591 10594 10597 10599 10601 10604 10607 10609 10611 10614 10617 10620 10623 10626 10629 10632 10635 10638 10641 10644 10647 10650 10653 10656 10659 10662 10665 10668 10671 10674 10677 10680 10683 10686 10689 10692 10695 10698 10701 10704 10707 10710 10713 10716 10719 10722 10725 10728 10731 10734 10737 10740 10743 10746 10749 10752 10755 10758 10761 10763 10766 10769 10772 10775 10778 10781 10783 10785 10788 10790 10793 10796 10799 10802 10804 10807 10810 10812 10815 10818 10821 10824 10827 10830 10833 10836 10839 10842 10845 10848 10851 10854 10856 10859 10862 10865 10868 10871 10874 10876 10879 10882 10885 10888 10890 10893 10896 10899 10902 10905 10908 10911 10914 10917 10920 10923 10926 10929 10932 10935 10938 10941 10944 10947 10950 10953 10956 10959 10962 10965 10968 10971 10974 10977 10980 10983 10986 10989 10992 10995 10998 11001 11004 11007 11010 11013 11015 11018 11021 11024 11026 11029 11032 11035 11038 11041 11044 11047 11050 11053 11056 11059 11062 11065 11068 11071 11074 11077 11080 11083 11085 11088 11091 11094 11097 11100 11102 11105 11108 11110 11112 11115 11118 11121 11124 11127 11130 11132 11135 11138 11141 11144 11147 11150 11153 11156 11159 11161 11164 11167 11170 11173 11176 11178 11181 11184 11187 11190 11193 11195 11197 11200 11203 11206 11208 11211 11214 11217 11220 11223 11226 11228 11231 11233 11236 11239 11242 11245 11248 11251 11254 11256 11258 11261 11264 11267 11270 11273 11275 11277 11279 11282 11285 11288 11290 11293 11296 11298 11301 11303 11306 11309 11312 11314 11317 11320 11323 11326 11328 11330 11333 11336 11339 11342 11345 11348 11351 11354 11357 11360 11363 11366 11369 11372 11375 11377 11380 11383 11385 11388 11391 11394 11397 11400 11403 11406 11409 11412 11415 11417 11420 11423 11425 11428 11431 11434 11437 11439 11442 11445 11448 11450 11453 11456 11459 11461 11464 11467 11470 11473 11476 11479 11482 11485 11488 11491 11494 11497 11499 11502 11505 11508 11511 11514 11517 11519 11522 11525 11528 11531 11534 11537 11540 11543 11546 11549 11551 11554 11557 11560 11563 11566 11568 11571 11574 11577 11579 11582 11585 11588 11590 11593 11595 11598 11600 11603 11606 11609 11612 11615 11617 11619 11622 11625 11628 11631 11634 11637 11640 11643 11646 11649 11652 11655 11658 11661 11664 11667 11670 11673 11676 11679 11682 11685 11687 11689 11692 11695 11698 11700 11703 11705 11708 11711 11714 11716 11719 11722 11725 11728 11730 11733 11736 11739 11742 11745 11748 11751 11754 11757 11759 11762 11764 11767 11770 11772 11775 11778 11781 11784 11787 11790 11793 11796 11799 11801 11803 11806 11809 11812 11815 11818 11821 11823 11825 11828 11831 11834 11837 11840 11843 11846 11849 11852 11855 11858 11861 11864 11867 11870 11872 11875 11878 11880 11883 11886 11889 11892 11895 11898 11901 11904 11907 11910 11912 11914 11917 11920 11923 11926 11929 11931 11934 11937 11939 11942 11945 11948 11950 11952 11954 11957 11959 11962 11965 11968 11971 11973 11976 11978 11981 11984 11987 11989 11992 11995 11997 12000 12002 12005 12007 12010 12013 12016 12019 12021 12023 12026 12029 12031 12034 12037 12040 12042 12044 12047 12050 12053 12055 12058 12061 12064 12067 12069 12072 12075 12078 12081 12083 12086 12089 12092 12094 12097 12100 12102 12105 12108 12111 12114 12117 12120 12123 12126 12129 12131 12134 12137 12139 12142 12145 12148 12151 12154 12156 12159 12162 12165 12168 12170 12173 12176 12178 12181 12184 12187 12189 12192 12195 12198 12201 12204 12207 12209 12212 12215 12218 12221 12224 12227 12230 12233 12236 12239 12242 12245 12248 12250 12253 12256 12259 12262 12265 12268 12271 12274 12277 12280 12283 12286 12289 12292 12295 12298 12301 12304 12307 12310 12312 12315 12318 12321 12324 12327 12330 12332 12335 12338 12341 12344 12347 12350 12352 12355 12358 12360 12363 12366 12368 12370 12373 12376 12379 12382 12385 12388 12390 12393 12396 12398 12401 12404 12407 12409 12412 12415 12418 12421 12423 12426 12429 12432 12434 12437 12439 12442 12445 12448 12451 12454 12457 12460 12462 12464 12467 12469 12472 12474 12477 12480 12483 12485 12488 12491 12494 12497 12499 12502 12505 12507 12510 12512 12514 12517 12520 12522 12525 12528 12530 12533 12535 12538 12541 12543 12546 12548 12551 12554 12556 12559 12561 12564 12567 12570 12573 12576 12579 12582 12585 12588 12591 12593 12595 12598 12601 12604 12607 12610 12612 12615 12618 12621 12623 12626 12629 12632 12635 12638 12641 12644 12647 12650 12653 12656 12659 12662 12665 12668 12670 12673 12676 12679 12682 12685 12688 12691 12694 12697 12700 12703 12706 12709 12712 12715 12718 12721 12724 12726 12729 12732 12734 12737 12740 12743 12745 12748 12750 12753 12756 12759 12762 12765 12768 12770 12773 12775 12778 12780 12783 12786 12789 12792 12795 12797 12800 12803 12806 12809 12812 12815 12818 12821 12824 12827 12830 12833 12835 12838 12841 12843 12846 12849 12852 12854 12856 12859 12862 12865 12868 12871 12873 12876 12879 12882 12885 12888 12891 12894 12897 12899 12902 12905 12908 12911 12914 12917 12919 12922 12925 12928 12931 12934 12937 12940 12943 12945 12948 12951 12954 12956 12959 12961 12964 12967 12970 12973 12976 12979 12982 12985 12988 12991 12994 12997 13000 13003 13006 13009 13012 13015 13017 13020 13023 13026 13029 13032 13035 13038 13040 13043 13046 13049 13051 13054 13057 13060 13063 13066 13069 13072 13075 13078 13081 13084 13087 13089 13092 13095 13098 13101 13104 13107 13109 13111 13114 13117 13120 13122 13125 13128 13131 13134 13137 13140 13143 13146 13149 13151 13154 13157 13160 13163 13166 13169 13172 13175 13177 13180 13183 13186 13188 13191 13194 13197 13200 13202 13205 13208 13211 13214 13217 13220 13223 13226 13229 13231 13234 13237 13240 13243 13246 13249 13252 13255 13258 13261 13264 13267 13270 13272 13275 13278 13281 13284 13287 13290 13293 13296 13299 13302 13304 13307 13310 13313 13315 13318 13321 13324 13327 13330 13332 13335 13337 13340 13343 13346 13348 13351 13354 13357 13360 13363 13366 13369 13372 13375 13377 13380 13383 13386 13389 13392 13395 13398 13401 13404 13407 13410 13413 13416 13419 13422 13425 13428 13431 13434 13437 13440 13443 13446 13449 13452 13455 13458 13461 13464 13467 13470 13472 13475 13478 13481 13484 13487 13490 13493 13496 13499 13502 13505 13508 13511 13514 13517 13520 13523 13526 13529 13532 13535 13538 13541 13544 13547 13550 13553 13556 13559 13562 13565 13568 13571 13574 13577 13580 13583 13585 13588 13591 13594 13597 13600 13603 13606 13609 13612 13615 13618 13621 13624 13627 13630 13633 13636 13639 13642 13645 13648 13650 13653 13655 13658 13661 13664 13667 13670 13673 13676 13679 13682 13685 13688 13691 13693 13696 13698 13701 13704 13707 13709 13711 13714 13717 13720 13723 13726 13729 13732 13735 13738 13741 13744 13747 13750 13752 13755 13758 13760 13762 13765 13768 13771 13774 13777 13780 13782 13784 13786 13789 13791 13794 13797 13800 13803 13806 13809 13812 13815 13818 13821 13824 13827 13830 13833 13836 13839 13842 13845 13848 13851 13854 13857 13860 13863 13866 13869 13872 13875 13878 13880 13882 13885 13888 13891 13894 13897 13900 13903 13906 13909 13912 13915 13918 13920 13923 13926 13928 13931 13934 13937 13940 13943 13945 13948 13950 13952 13955 13957 13960 13963 13966 13969 13972 13974 13976 13979 13982 13984 13987 13990 13993 13996 13999 14002 14004 14006 14009 14011 14014 14017 14020 14023 14026 14029 14032 14035 14038 14041 14044 14047 14050 14052 14055 14058 14061 14064 14067 14070 14073 14076 14079 14082 14085 14088 14091 14094 14097 14100 14103 14105 14108 14111 14114 14117 14120 14123 14126 14129 14131 14134 14137 14140 14143 14145 14148 14151 14153 14156 14158 14161 14163 14166 14169 14172 14175 14178 14180 14183 14186 14189 14192 14195 14198 14201 14204 14207 14210 14212 14215 14218 14221 14224 14227 14230 14233 14236 14239 14242 14245 14248 14251 14254 14257 14260 14263 14266 14269 14272 14275 14278 14281 14284 14286 14289 14291 14294 14297 14300 14303 14305 14308 14310 14313 14316 14319 14321 14324 14327 14330 14333 14335 14338 14341 14343 14346 14349 14352 14355 14358 14361 14364 14367 14370 14372 14374 14377 14380 14383 14386 14389 14392 14394 14397 14400 14403 14405 14408 14411 14413 14416 14419 14422 14425 14428 14431 14433 14436 14439 14442 14445 14448 14451 14453 14456 14458 14461 14464 14467 14469 14472 14475 14478 14481 14484 14487 14489 14492 14494 14497 14500 14503 14506 14508 14511 14514 14517 14520 14523 14526 14529 14532 14535 14538 14541 14544 14546 14549 14552 14555 14558 14561 14563 14566 14569 14572 14575 14578 14581 14584 14586 14589 14591 14594 14597 14600 14602 14604 14607 14610 14613 14616 14619 14622 14625 14627 14630 14633 14636 14639 14642 14645 14648 14650 14653 14656 14659 14662 14664 14667 14670 14673 14676 14679 14682 14685 14688 14691 14694 14697 14700 14703 14706 14709 14712 14715 14717 14720 14723 14726 14729 14731 14734 14737 14740 14743 14746 14749 14751 14754 14757 14760 14763 14766 14769 14772 14775 14778 14780 14783 14785 14788 14790 14793 14796 14799 14802 14804 14807 14810 14812 14815 14818 14820 14823 14826 14828 14831 14834 14837 14840 14842 14845 14847 14850 14853 14856 14858 14860 14863 14866 14869 14872 14875 14877 14880 14882 14885 14888 14890 14893 14896 14898 14901 14904 14907 14910 14912 14915 14918 14921 14924 14927 14929 14932 14935 14938 14941 14944 14946 14949 14952 14954 14957 14960 14963 14966 14969 14972 14975 14978 14980 14983 14986 14989 14991 14994 14997 15000 15002 15005 15008 15011 15014 15017 15020 15023 15026 15029 15032 15035 15038 15041 15044 15047 15050 15053 15056 15059 15062 15065 15068 15071 15073 15076 15079 15082 15085 15088 15090 15093 15096 15099 15102 15105 15108 15111 15114 15117 15120 15123 15125 15127 15130 15133 15135 15138 15140 15143 15146 15149 15151 15154 15156 15159 15161 15164 15167 15169 15172 15175 15178 15181 15184 15186 15189 15192 15195 15198 15201 15204 15206 15209 15212 15215 15217 15220 15223 15226 15228 15231 15234 15237 15240 15243 15246 15249 15252 15255 15258 15261 15264 15267 15270 15273 15276 15279 15282 15285 15287 15290 15293 15295 15298 15300 15303 15305 15308 15311 15314 15317 15320 15323 15326 15329 15331 15334 15337 15340 15342 15345 15348 15351 15354 15357 15360 15362 15365 15368 15370 15373 15376 15379 15382 15384 15387 15390 15393 15396 15399 15402 15405 15407 15410 15413 15416 15419 15422 15425 15428 15431 15434 15437 15440 15442 15444 15447 15449 15452 15455 15458 15461 15464 15467 15470 15473 15476 15479 15482 15485 15488 15491 15494 15497 15500 15503 15506 15509 15512 15515 15518 15521 15524 15527 15530 15533 15536 15539 15542 15545 15548 15551 15554 15557 15560 15563 15566 15568 15571 15574 15577 15580 15583 15586 15589 15592 15594 15597 15600 15603 15606 15609 15612 15615 15618 15621 15624 15627 15630 15633 15635 15638 15641 15644 15647 15650 15653 15656 15658 15661 15664 15667 15670 15673 15675 15678 15681 15684 15686 15689 15692 15695 15698 15701 15703 15705 15708 15711 15713 15716 15719 15722 15724 15727 15729 15732 15735 15738 15741 15744 15747 15749 15752 15755 15758 15761 15764 15767 15770 15772 15775 15778 15781 15784 15787 15790 15793 15796 15799 15802 15805 15808 15810 15813 15815 15817 15820 15823 15826 15829 15831 15834 15837 15840 15842 15844 15847 15849 15851 15854 15857 15860 15863 15866 15868 15870 15873 15876 15879 15882 15885 15887 15890 15893 15896 15899 15901 15904 15907 15909 15912 15914 15917 15920 15923 15926 15929 15932 15935 15937 15940 15943 15945 15948 15950 15953 15956 15959 15961 15963 15966 15969 15971 15974 15976 15978 15981 15984 15987 15990 15993 15996 15998 16000 16002 16005 16008 16011 16014 16017 16019 16021 16024 16027 16030 16033 16036 16039 16041 16044 16047 16050 16053 16055 16058 16061 16064 16067 16069 16072 16075 16077 16080 16083 16086 16089 16092 16095 16098 16101 16104 16107 16110 16113 16116 16118 16121 16123 16125 16128 16131 16134 16137 16140 16142 16145 16147 16150 16153 16156 16159 16162 16165 16167 16170 16173 16176 16179 16182 16184 16187 16190 16192 16195 16198 16200 16203 16206 16209 16212 16215 16218 16221 16224 16227 16230 16233 16235 16238 16241 16244 16247 16250 16253 16256 16259 16262 16265 16268 16270 16273 16276 16279 16282 16284 16286 16289 16292 16295 16298 16301 16304 16306 16309 16312 16315 16317 16320 16323 16326 16329 16332 16335 16337 16340 16343 16346 16349 16352 16355 16358 16361 16364 16367 16370 16373 16376 16379 16382 16385 16387 16390 16393 16396 16398 16401 16404 16407 16410 16413 16416 16419 16422 16425 16428 16431 16434 16437 16440 16443 16446 16449 16451 16454 16457 16460 16463 16466 16469 16472 16474 16477 16480 16483 16486 16489 16492 16494 16496 16499 16502 16504 16507 16509 16512 16515 16518 16521 16524 16527 16530 16533 16535 16538 16541 16544 16547 16550 16553 16556 16559 16562 16565 16568 16571 16573 16575 16577 16580 16583 16586 16589 16592 16595 16598 16601 16604 16607 16610 16613 16616 16619 16622 16625 16628 16631 16634 16637 16640 16643 16646 16649 16652 16655 16658 16661 16664 16667 16670 16673 16676 16679 16682 16685 16688 16691 16694 16697 16700 16703 16706 16709 16712 16715 16718 16721 16724 16727 16730 16733 16736 16739 16742 16745 16748 16751 16754 16757 16760 16763 16766 16769 16771 16773 16776 16779 16782 16784 16787 16789 16792 16795 16798 16801 16804 16807 16810 16813 16816 16819 16822 16824 16827 16830 16833 16836 16839 16842 16845 16848 16851 16854 16856 16859 16861 16864 16867 16869 16872 16875 16878 16880 16883 16886 16889 16891 16894 16897 16900 16903 16905 16908 16911 16914 16917 16920 16923 16926 16929 16932 16935 16938 16941 16944 16947 16950 16953 16956 16959 16962 16965 16968 16971 16974 16977 16980 16983 16986 16989 16992 16995 16998 17001 17004 17007 17009 17011 17014 17017 17020 17023 17026 17029 17032 17035 17038 17041 17044 17047 17050 17053 17055 17058 17061 17064 17067 17070 17073 17076 17079 17082 17084 17087 17090 17092 17095 17098 17101 17104 17107 17110 17112 17115 17117 17120 17123 17125 17128 17131 17134 17137 17139 17141 17144 17147 17150 17153 17156 17159 17161 17164 17167 17170 17172 17175 17177 17180 17182 17184 17187 17190 17193 17196 17199 17201 17204 17207 17210 17213 17216 17219 17221 17224 17227 17230 17232 17235 17237 17240 17243 17245 17248 17251 17253 17256 17258 17261 17264 17267 17270 17273 17276 17279 17282 17284 17287 17290 17293 17296 17299 17302 17305 17308 17311 17314 17317 17320 17323 17326 17329 17332 17335 17338 17341 17344 17347 17350 17353 17356 17359 17362 17365 17368 17371 17374 17377 17380 17383 17386 17389 17392 17395 17397 17400 17403 17406 17409 17412 17415 17418 17421 17424 17427 17430 17433 17436 17439 17442 17444 17447 17450 17453 17456 17459 17462 17465 17468 17471 17474 17477 17480 17483 17486 17489 17492 17495 17498 17501 17504 17507 17510 17513 17516 17519 17522 17525 17528 17531 17534 17537 17540 17543 17546 17549 17552 17555 17558 17561 17564 17567 17570 17573 17575 17578 17581 17584 17587 17590 17593 17596 17599 17602 17605 17608 17610 17613 17616 17619 17621 17624 17626 17629 17632 17635 17638 17641 17644 17647 17650 17653 17656 17659 17662 17665 17668 17671 17674 17677 17680 17683 17686 17689 17692 17695 17698 17701 17704 17707 17710 17713 17716 17718 17721 17724 17727 17730 17733 17736 17739 17741 17744 17747 17750 17753 17756 17759 17761 17764 17767 17770 17773 17776 17779 17782 17785 17788 17791 17794 17797 17800 17803 17806 17809 17812 17814 17817 17820 17823 17826 17829 17832 17835 17838 17841 17844 17847 17850 17853 17856 17859 17862 17865 17868 17871 17874 17877 17880 17883 17886 17888 17890 17893 17896 17899 17902 17905 17908 17911 17914 17917 17919 17922 17925 17928 17931 17933 17936 17939 17941 17944 17947 17950 17953 17956 17959 17962 17965 17968 17971 17973 17976 17979 17982 17985 17988 17991 17994 17997 18000 18003 18006 18009 18012 18015 18018 18021 18024 18027 18030 18033 18036 18039 18042 18045 18048 18051 18054 18057 18060 18063 18066 18069 18072 18075 18078 18081 18084 18087 18090 18093 18096 18099 18102 18105 18108 18111 18114 18117 18120 18123 18126 18128 18131 18134 18137 18140 18143 18146 18148 18151 18153 18156 18159 18162 18165 18168 18171 18173 18176 18179 18182 18185 18188 18191 18194 18197 18200 18203 18206 18209 18212 18214 18217 18220 18223 18226 18229 18232 18235 18238 18241 18244 18247 18250 18253 18256 18259 18262 18265 18268 18271 18274 18277 18280 18283 18286 18289 18292 18295 18298 18301 18304 18307 18310 18313 18316 18319 18322 18325 18328 18331 18334 18337 18340 18343 18346 18349 18352 18355 18358 18361 18363 18366 18368 18371 18374 18377 18380 18383 18386 18389 18392 18395 18398 18400 18403 18406 18409 18411 18414 18417 18420 18423 18426 18429 18431 18434 18437 18440 18443 18446 18448 18451 18454 18456 18459 18462 18465 18468 18471 18474 18477 18480 18483 18486 18489 18492 18495 18497 18499 18502 18505 18508 18511 18514 18517 18519 18522 18525 18527 18530 18532 18535 18537 18539 18541 18544 18547 18550 18553 18556 18559 18562 18565 18567 18570 18573 18576 18579 18582 18584 18587 18590 18592 18595 18598 18601 18604 18606 18609 18612 18615 18618 18621 18624 18626 18629 18632 18635 18638 18641 18644 18647 18650 18653 18656 18659 18662 18665 18667 18670 18673 18676 18678 18681 18684 18687 18690 18693 18695 18698 18700 18703 18706 18709 18711 18714 18716 18719 18721 18723 18726 18728 18731 18734 18737 18740 18743 18746 18749 18752 18754 18756 18759 18762 18765 18768 18771 18774 18777 18780 18783 18786 18789 18791 18794 18796 18799 18802 18805 18808 18810 18813 18816 18819 18821 18824 18827 18829 18832 18834 18837 18839 18842 18845 18847 18850 18853 18856 18859 18862 18865 18867 18870 18873 18876 18878 18881 18884 18887 18890 18893 18896 18899 18901 18904 18907 18910 18913 18916 18919 18922 18925 18928 18930 18933 18936 18939 18942 18945 18948 18951 18954 18957 18960 18963 18966 18969 18971 18973 18976 18979 18982 18984 18986 18989 18992 18995 18998 19001 19004 19006 19008 19011 19014 19017 19020 19023 19026 19028 19031 19033 19036 19039 19041 19044 19047 19050 19053 19055 19058 19061 19064 19067 19070 19073 19076 19079 19082 19085 19088 19091 19094 19097 19100 19103 19106 19109 19112 19115 19118 19121 19124 19127 19130 19133 19136 19138 19140 19143 19145 19148 19150 19153 19156 19159 19162 19165 19168 19171 19174 19176 19179 19182 19184 19187 19190 19192 19195 19198 19201 19204 19207 19210 19213 19216 19219 19222 19225 19228 19231 19234 19237 19240 19243 19246 19249 19252 19255 19258 19261 19264 19267 19270 19273 19276 19279 19282 19285 19288 19291 19293 19296 19299 19302 19305 19307 19310 19313 19315 19318 19321 19324 19327 19330 19333 19336 19339 19342 19344 19347 19350 19353 19356 19358 19361 19363 19366 19369 19372 19375 19378 19381 19384 19387 19390 19393 19396 19399 19402 19405 19408 19411 19414 19417 19419 19422 19425 19428 19431 19434 19437 19440 19443 19446 19448 19451 19454 19457 19460 19463 19466 19469 19471 19474 19477 19480 19483 19486 19489 19492 19494 19497 19499 19502 19505 19508 19511 19514 19517 19519 19522 19525 19528 19531 19533 19535 19538 19541 19543 19546 19548 19551 19554 19556 19558 19561 19564 19567 19569 19572 19575 19578 19581 19584 19587 19589 19591 19594 19597 19600 19603 19606 19609 19611 19614 19617 19620 19623 19625 19628 19631 19634 19637 19640 19643 19646 19649 19651 19654 19657 19660 19662 19665 19668 19671 19674 19677 19680 19683 19686 19689 19692 19694 19697 19700 19703 19706 19709 19712 19715 19718 19721 19724 19727 19730 19733 19736 19739 19742 19745 19748 19751 19754 19757 19760 19763 19766 19769 19772 19775 19778 19781 19784 19787 19790 19793 19796 19799 19802 19805 19808 19811 19814 19817 19820 19823 19826 19829 19832 19835 19838 19841 19844 19847 19850 19853 19856 19859 19862 19864 19867 19870 19873 19876 19879 19882 19885 19888 19890 19893 19896 19899 19901 19904 19907 19910 19912 19915 19918 19921 19923 19926 19928 19931 19934 19937 19940 19943 19946 19949 19952 19955 19958 19961 19964 19967 19970 19973 19976 19979 19982 19985 19988 19991 19994 19997 20000 20003 20006 20009 20012 20015 20018 20021 20024 20027 20030 20033 20036 20039 20041 20044 20047 20049 20052 20055 20058 20061 20064 20067 20070 20073 20076 20079 20081 20084 20087 20090 20093 20096 20099 20102 20104 20107 20109 20112 20115 20118 20121 20124 20127 20130 20132 20135 20138 20140 20143 20146 20148 20151 20154 20157 20160 20163 20166 20169 20172 20174 20177 20180 20183 20186 20189 20191 20193 20196 20199 20201 20204 20207 20210 20212 20214 20216 20219 20222 20225 20228 20231 20234 20237 20240 20242 20244 20247 20249 20252 20255 20258 20260 20263 20266 20269 20271 20274 20277 20280 20283 20285 20288 20290 20293 20296 20298 20301 20304 20307 20310 20313 20315 20318 20320 20323 20326 20329 20332 20335 20338 20341 20344 20347 20350 20352 20355 20357 20360 20363 20366 20369 20372 20375 20378 20381 20384 20387 20390 20392 20395 20397 20400 20403 20406 20409 20411 20414 20417 20420 20423 20426 20428 20431 20434 20436 20438 20441 20444 20447 20449 20451 20454 20457 20460 20463 20466 20469 20471 20473 20476 20479 20481 20484 20487 20490 20492 20494 20497 20500 20503 20505 20508 20510 20513 20516 20518 20521 20524 20526 20529 20532 20535 20537 20540 20543 20546 20548 20551 20554 20557 20560 20563 20566 20569 20572 20575 20578 20581 20584 20587 20590 20592 20595 20598 20601 20604 20606 20609 20612 20615 20617 20620 20623 20626 20629 20632 20635 20637 20640 20643 20646 20649 20652 20654 20657 20660 20663 20666 20669 20672 20674 20676 20679 20682 20685 20688 20690 20693 20696 20699 20702 20705 20708 20711 20713 20716 20718 20721 20724 20727 20729 20732 20735 20737 20739 20742 20745 20748 20750 20752 20755 20758 20760 20763 20766 20768 20771 20773 20776 20778 20781 20784 20787 20790 20793 20796 20799 20802 20805 20808 20811 20814 20817 20820 20823 20826 20829 20832 20835 20838 20841 20844 20847 20850 20853 20856 20859 20862 20864 20867 20870 20873 20875 20878 20881 20884 20887 20890 20892 20894 20897 20900 20903 20906 20908 20911 20914 20917 20920 20922 20924 20926 20929 20932 20934 20937 20940 20943 20946 20948 20950 20953 20956 20959 20962 20965 20967 20970 20973 20976 20979 20982 20984 20986 20988 20991 20994 20997 21000 21002 21005 21008 21011 21013 21015 21018 21021 21024 21027 21030 21033 21036 21039 21042 21045 21048 21051 21054 21056 21059 21062 21065 21068 21071 21074 21076 21079 21082 21085 21087 21090 21093 21096 21099 21102 21105 21108 21110 21113 21116 21119 21122 21125 21128 21131 21134 21137 21139 21141 21144 21147 21150 21152 21154 21157 21160 21162 21165 21168 21171 21173 21176 21179 21182 21185 21187 21190 21192 21195 21198 21201 21203 21206 21208 21210 21212 21215 21218 21221 21224 21227 21230 21233 21236 21239 21242 21245 21248 21251 21253 21256 21259 21262 21265 21267 21270 21273 21276 21278 21281 21283 21286 21289 21292 21295 21298 21301 21304 21307 21310 21313 21315 21318 21320 21323 21326 21329 21332 21335 21338 21341 21344 21346 21349 21352 21355 21358 21361 21364 21367 21370 21373 21376 21379 21382 21385 21388 21391 21394 21396 21399 21402 21405 21408 21411 21414 21417 21420 21422 21425 21428 21430 21433 21435 21438 21440 21443 21446 21449 21452 21455 21458 21461 21463 21466 21469 21471 21474 21477 21480 21483 21486 21488 21491 21494 21497 21500 21502 21505 21508 21510 21513 21516 21519 21522 21525 21528 21530 21533 21536 21539 21542 21544 21547 21550 21553 21556 21559 21562 21565 21568 21571 21574 21577 21580 21583 21586 21589 21592 21595 21598 21601 21604 21607 21610 21613 21615 21618 21621 21624 21626 21628 21631 21634 21637 21640 21643 21645 21647 21650 21653 21655 21658 21661 21664 21667 21670 21673 21676 21679 21682 21685 21688 21691 21693 21696 21699 21701 21704 21707 21710 21713 21716 21719 21722 21724 21727 21730 21733 21736 21739 21741 21744 21747 21749 21752 21755 21757 21760 21763 21766 21769 21772 21775 21778 21781 21784 21787 21790 21793 21795 21798 21801 21804 21807 21810 21813 21816 21819 21822 21825 21828 21831 21833 21836 21839 21842 21845 21848 21850 21853 21856 21858 21861 21864 21867 21870 21873 21876 21878 21881 21884 21887 21889 21892 21895 21898 21901 21904 21907 21910 21913 21916 21918 21921 21923 21926 21929 21932 21935 21938 21941 21944 21947 21949 21952 21955 21958 21961 21964 21967 21970 21973 21976 21979 21982 21985 21988 21991 21994 21997 22000 22003 22006 22009 22012 22015 22018 22021 22024 22026 22029 22032 22035 22038 22040 22043 22045 22048 22051 22054 22056 22059 22062 22065 22067 22070 22073 22076 22079 22082 22085 22088 22091 22094 22097 22099 22101 22103 22106 22109 22112 22115 22118 22121 22124 22127 22130 22133 22136 22138 22141 22143 22146 22149 22151 22154 22157 22160 22163 22165 22168 22170 22172 22174 22177 22180 22183 22186 22189 22192 22195 22198 22200 22202 22204 22207 22209 22212 22214 22217 22220 22223 22226 22229 22232 22235 22238 22241 22244 22247 22250 22252 22255 22258 22261 22264 22267 22270 22272 22275 22278 22281 22284 22287 22289 22292 22294 22297 22300 22302 22305 22308 22310 22313 22316 22318 22321 22324 22327 22329 22331 22333 22336 22339 22342 22345 22348 22351 22353 22356 22359 22362 22365 22368 22371 22373 22376 22379 22382 22384 22387 22390 22393 22396 22399 22402 22405 22408 22411 22414 22416 22419 22422 22425 22428 22431 22434 22437 22440 22443 22446 22449 22452 22455 22458 22461 22464 22467 22470 22473 22476 22479 22482 22485 22488 22491 22493 22496 22499 22502 22504 22507 22510 22513 22515 22517 22520 22523 22526 22529 22531 22534 22537 22540 22543 22545 22548 22550 22553 22556 22559 22562 22565 22567 22570 22573 22575 22578 22580 22583 22586 22588 22591 22594 22597 22599 22602 22604 22606 22609 22612 22614 22617 22620 22622 22625 22627 22630 22633 22636 22639 22641 22644 22647 22650 22652 22654 22657 22660 22663 22665 22668 22671 22674 22677 22680 22682 22685 22688 22691 22694 22696 22699 22702 22705 22707 22710 22713 22716 22719 22722 22725 22728 22731 22733 22736 22739 22742 22745 22748 22751 22754 22757 22760 22762 22765 22768 22771 22774 22777 22780 22783 22786 22789 22792 22795 22798 22801 22804 22807 22810 22813 22816 22819 22822 22825 22828 22831 22834 22837 22839 22842 22845 22848 22851 22854 22857 22860 22863 22866 22869 22871 22874 22877 22880 22883 22886 22889 22892 22895 22898 22900 22903 22905 22908 22911 22914 22917 22920 22923 22925 22928 22931 22934 22936 22939 22942 22945 22948 22951 22953 22956 22959 22962 22965 22968 22971 22974 22977 22980 22983 22986 22989 22992 22995 22998 23001 23004 23007 23010 23013 23016 23019 23022 23024 23027 23030 23033 23036 23039 23042 23045 23048 23051 23053 23056 23059 23062 23064 23067 23070 23073 23076 23079 23081 23084 23087 23090 23093 23096 23099 23102 23105 23108 23111 23113 23116 23119 23122 23125 23127 23130 23133 23136 23138 23141 23144 23147 23150 23152 23155 23157 23160 23163 23166 23169 23172 23175 23178 23181 23184 23187 23190 23193 23196 23199 23202 23205 23208 23211 23214 23217 23220 23223 23226 23229 23232 23235 23238 23241 23244 23247 23250 23252 23255 23258 23261 23263 23266 23268 23271 23274 23277 23280 23283 23286 23289 23292 23295 23298 23301 23304 23306 23309 23312 23315 23318 23321 23323 23326 23329 23332 23335 23338 23341 23344 23347 23350 23353 23356 23359 23362 23365 23368 23371 23374 23377 23380 23383 23386 23389 23391 23394 23397 23400 23402 23405 23408 23411 23413 23416 23419 23422 23425 23428 23431 23434 23437 23440 23443 23446 23449 23451 23454 23457 23460 23463 23466 23469 23472 23475 23478 23481 23483 23486 23488 23491 23494 23497 23500 23503 23506 23509 23512 23515 23518 23521 23523 23526 23529 23532 23534 23537 23540 23543 23546 23549 23552 23555 23558 23561 23564 23567 23570 23573 23575 23578 23581 23584 23587 23590 23593 23596 23599 23601 23604 23607 23610 23612 23615 23618 23621 23624 23627 23630 23633 23636 23639 23642 23645 23648 23651 23654 23657 23660 23663 23665 23668 23671 23674 23676 23679 23681 23684 23687 23690 23692 23695 23698 23701 23704 23707 23710 23713 23716 23719 23722 23725 23728 23731 23734 23737 23739 23742 23745 23747 23750 23753 23756 23759 23762 23764 23767 23770 23773 23776 23779 23782 23785 23787 23790 23793 23796 23799 23802 23805 23808 23811 23813 23816 23819 23822 23825 23828 23831 23834 23837 23840 23842 23845 23848 23851 23854 23857 23860 23863 23866 23869 23872 23875 23878 23881 23883 23886 23889 23891 23894 23897 23900 23903 23905 23908 23911 23914 23917 23920 23923 23926 23929 23932 23935 23938 23941 23944 23947 23950 23953 23955 23958 23961 23964 23966 23969 23972 23975 23978 23981 23984 23987 23990 23993 23996 23998 24001 24004 24007 24010 24013 24015 24018 24021 24024 24027 24030 24032 24035 24038 24041 24044 24047 24050 24053 24056 24059 24062 24065 24067 24070 24073 24076 24079 24082 24085 24088 24090 24093 24096 24099 24102 24105 24108 24111 24114 24116 24119 24122 24125 24128 24131 24133 24136 24139 24142 24145 24148 24151 24154 24157 24160 24163 24166 24169 24172 24175 24178 24181 24184 24187 24189 24191 24194 24197 24200 24203 24206 24209 24212 24214 24217 24220 24223 24226 24228 24230 24233 24236 24239 24242 24245 24248 24251 24254 24256 24259 24262 24264 24267 24270 24273 24276 24279 24281 24283 24286 24289 24292 24295 24298 24301 24303 24306 24309 24312 24315 24318 24320 24323 24325 24328 24331 24333 24336 24339 24341 24343 24346 24349 24352 24355 24357 24360 24363 24366 24369 24372 24375 24378 24381 24384 24386 24389 24392 24395 24398 24401 24403 24405 24408 24410 24413 24416 24419 24422 24425 24427 24430 24433 24436 24439 24442 24445 24447 24450 24453 24456 24459 24462 24465 24468 24471 24474 24476 24479 24481 24484 24487 24489 24492 24494 24497 24500 24502 24505 24508 24511 24514 24517 24520 24523 24525 24528 24531 24534 24537 24540 24543 24546 24549 24552 24555 24558 24561 24564 24567 24570 24573 24576 24579 24582 24584 24587 24590 24593 24596 24599 24602 24605 24608 24611 24614 24617 24620 24623 24626 24629 24632 24634 24637 24640 24643 24645 24648 24651 24653 24656 24659 24662 24665 24668 24670 24673 24675 24678 24681 24683 24686 24689 24691 24694 24696 24699 24702 24705 24708 24711 24714 24717 24720 24722 24725 24728 24731 24733 24735 24738 24741 24744 24747 24749 24751 24754 24757 24760 24763 24766 24769 24772 24775 24778 24781 24784 24787 24789 24791 24794 24797 24800 24802 24805 24808 24811 24813 24816 24819 24822 24825 24828 24831 24834 24836 24839 24841 24844 24847 24849 24852 24855 24858 24861 24864 24866 24869 24872 24875 24878 24880 24882 24885 24888 24891 24894 24897 24899 24902 24905 24908 24911 24914 24916 24919 24922 24925 24928 24931 24934 24937 24940 24942 24945 24948 24951 24953 24955 24958 24961 24964 24967 24970 24973 24976 24978 24981 24984 24987 24990 24992 24995 24997 25000 25003 25006 25009 25012 25014 25017 25020 25023 25026 25029 25032 25035 25038 25041 25043 25046 25049 25052 25054 25057 25060 25063 25066 25069 25071 25074 25077 25080 25083 25086 25089 25092 25095 25098 25101 25104 25107 25110 25113 25115 25118 25120 25123 25126 25129 25132 25135 25138 25141 25144 25146 25149 25152 25155 25157 25160 25162 25165 25167 25170 25173 25175 25178 25181 25184 25187 25190 25193 25195 25198 25201 25204 25207 25210 25213 25215 25218 25221 25224 25227 25230 25233 25236 25239 25242 25245 25248 25251 25254 25257 25259 25261 25264 25267 25270 25273 25276 25279 25282 25285 25287 25290 25293 25296 25299 25301 25304 25307 25310 25312 25315 25318 25321 25324 25327 25330 25333 25336 25339 25341 25344 25347 25350 25353 25355 25358 25361 25364 25367 25370 25373 25376 25378 25381 25384 25387 25390 25393 25395 25398 25401 25404 25406 25409 25412 25415 25418 25421 25424 25427 25430 25433 25436 25439 25442 25444 25447 25450 25453 25456 25459 25462 25464 25467 25470 25473 25476 25479 25482 25485 25488 25491 25494 25497 25500 25502 25505 25508 25510 25513 25516 25519 25522 25525 25528 25530 25533 25535 25538 25541 25544 25547 25550 25553 25556 25558 25561 25563 25566 25569 25572 25575 25578 25581 25584 25587 25590 25593 25596 25599 25602 25605 25607 25610 25613 25616 25619 25622 25625 25628 25631 25634 25637 25640 25643 25645 25648 25651 25654 25657 25660 25663 25666 25669 25672 25674 25677 25680 25683 25685 25688 25691 25694 25697 25700 25703 25706 25709 25712 25715 25717 25720 25723 25726 25729 25732 25735 25737 25740 25743 25746 25749 25751 25754 25757 25760 25763 25765 25768 25770 25773 25775 25778 25781 25783 25786 25789 25791 25794 25797 25799 25802 25804 25806 25809 25812 25814 25817 25820 25823 25826 25829 25831 25834 25837 25840 25843 25846 25849 25852 25855 25858 25860 25863 25866 25869 25872 25875 25878 25881 25883 25885 25888 25891 25894 25897 25900 25903 25906 25909 25912 25915 25918 25920 25922 25925 25928 25930 25932 25935 25938 25940 25943 25946 25949 25952 25955 25958 25961 25964 25967 25970 25973 25975 25978 25981 25983 25986 25989 25992 25995 25998 26001 26004 26007 26010 26013 26016 26019 26022 26025 26028 26031 26033 26036 26039 26042 26045 26048 26051 26054 26057 26060 26062 26065 26068 26070 26073 26075 26077 26080 26082 26085 26087 26090 26093 26096 26098 26100 26103 26106 26109 26112 26115 26118 26120 26122 26125 26128 26130 26133 26136 26139 26141 26144 26147 26150 26153 26155 26158 26161 26164 26167 26170 26173 26176 26179 26182 26184 26187 26189 26192 26195 26198 26201 26203 26205 26208 26211 26214 26217 26220 26223 26226 26229 26232 26235 26238 26241 26244 26247 26250 26253 26256 26259 26262 26265 26268 26270 26273 26275 26278 26281 26284 26287 26290 26293 26296 26299 26302 26305 26307 26309 26312 26315 26318 26321 26324 26326 26329 26331 26334 26337 26339 26342 26344 26347 26350 26352 26354 26357 26360 26363 26366 26368 26371 26374 26376 26379 26382 26385 26388 26391 26394 26396 26399 26402 26405 26408 26411 26414 26417 26419 26422 26425 26428 26431 26434 26437 26440 26443 26446 26449 26451 26453 26456 26459 26462 26465 26468 26471 26474 26477 26480 26483 26486 26488 26491 26494 26496 26498 26500 26502 26505 26508 26511 26514 26517 26520 26523 26526 26529 26532 26535 26538 26541 26544 26547 26550 26553 26556 26558 26561 26564 26567 26570 26573 26576 26579 26582 26585 26588 26591 26594 26597 26600 26603 26606 26609 26612 26615 26618 26621 26624 26627 26630 26633 26636 26639 26642 26645 26648 26651 26654 26657 26660 26663 26666 26669 26672 26675 26678 26681 26684 26686 26689 26692 26695 26698 26701 26703 26706 26709 26712 26714 26717 26720 26723 26726 26729 26732 26735 26738 26741 26744 26747 26750 26753 26756 26759 26762 26764 26767 26770 26773 26775 26778 26780 26783 26786 26789 26791 26794 26797 26800 26803 26806 26808 26811 26814 26816 26819 26822 26825 26828 26830 26833 26836 26838 26841 26844 
</DataArray>
<DataArray type="UInt32" Name="types" format="ascii">
5 5 5 5 5 3 5 5 5 3 5 5 5 5 5 5 3 5 5 5 3 5 5 5 5 5 5 5 5 5 3 5 5 5 5 5 3 5 5 5 5 3 5 5 3 5 5 5 5 5 5 5 5 3 5 5 5 5 5 5 5 5 5 5 5 5 5 5 5 5 5 5 5 5 5 5 3 5 5 5 5 5 3 3 5 5 5 5 5 5 5 5 5 5 3 5 5 5 5 5 5 5 5 5 5 5 5 5 5 5 5 5 5 3 5 5 5 5 5 5 3 5 5 5 5 5 5 5 5 5 5 5 5 5 5 3 5 5 5 5 5 5 3 5 3 5 5 5 5 5 5 3 5 5 5 5 3 5 5 5 5 5 5 5 5 5 5 3 5 5 5 5 3 5 5 5 5 5 5 5 5 5 5 3 5 5 3 5 5 5 5 5 5 5 5 5 5 5 5 3 5 5 5 5 5 5 5 5 5 5 5 5 5 5 5 3 5 3 5 5 3 5 5 3 5 3 5 5 3 5 5 5 5 5 5 5 5 3 5 5 5 5 5 3 5 3 3 5 5 5 5 5 5 5 5 5 5 5 5 3 5 3 5 5 5 5 5 5 5 5 5 5 5 5 5 5 5 3 5 5 5 5 3 5 5 5 3 5 5 3 5 5 5 5 5 3 5 5 5 5 5 5 3 5 5 5 5 5 3 5 5 5 5 5 5 5 5 5 5 5 5 3 5 5 3 5 5 5 5 5 5 5 5 5 5 3 5 3 5 5 5 5 5 5 5 3 5 5 5 5 5 5 5 5 5 5 5 5 3 5 3 5 5 5 5 5 5 5 3 5 5 3 5 5 3 5 5 5 5 5 3 5 5 5 5 3 5 5 5 3 5 3 5 5 5 5 5 5 5 5 5 5 5 5 5 5 5 5 5 5 5 3 5 5 5 5 5 5 5 5 5 5 5 5 5 3 5 5 5 5 5 3 5 5 5 5 5 3 5 3 5 3 5 5 5 5 5 5 5 5 5 5 5 5 5 5 5 5 5 5 5 5 5 5 5 5 5 5 5 5 5 5 5 5 5 5 5 5 5 5 5 5 3 5 5 5 3 5 5 5 3 5 3 5 5 5 5 3 5 5 3 5 5 5 5 5 5 5 5 5 5 5 5 5 5 5 5 5 5 3 5 5 3 5 5 3 5 5 5 5 5 5 5 5 3 5 5 3 5 5 5 5 5 5 5 5 5 5 5 5 5 5 5 5 3 5 5 5 5 5 5 3 5 5 5 5 5 5 5 3 5 5 5 3 5 5 5 5 3 5 5 5 3 5 5 5 5 5 5 3 5 5 5 5 5 5 5 5 5 5 3 5 5 5 3 5 5 5 5 5 5 5 5 5 5 5 5 3 5 5 5 5 5 3 5 5 5 5 5 5 5 5 5 3 3 5 3 5 5 5 5 5 5 5 3 5 5 5 3 5 3 3 5 5 5 3 5 3 3 5 5 5 5 3 5 5 5 5 5 5 5 5 3 5 5 5 3 5 5 5 5 3 5 5 3 5 5 5 5 5 3 5 5 5 5 5 5 5 5 5 5 5 5 5 5 5 5 5 5 5 5 5 5 3 5 5 5 5 5 5 5 5 5 5 5 5 5 5 5 5 5 5 5 5 5 3 5 5 5 5 5 5 5 5 5 5 5 5 5 5 5 5 3 5 5 5 3 5 5 5 3 5 5 5 5 5 3 5 5 5 5 3 5 5 5 5 5 5 5 3 5 5 5 5 5 3 5 5 3 5 5 5 5 5 5 5 5 5 5 5 5 5 5 5 5 5 5 5 5 5 5 5 3 5 5 5 5 5 5 5 3 5 5 5 5 3 5 5 5 5 5 5 5 5 5 5 5 5 5 5 5 5 3 5 3 5 5 5 5 5 5 5 5 5 5 5 5 5 5 5 5 3 3 5 5 3 5 5 5 5 5 3 3 5 3 3 3 5 3 5 5 5 5 5 3 5 5 5 5 3 5 3 5 3 3 5 5 3 5 3 5 5 3 5 5 5 5 5 3 5 5 5 3 5 5 5 3 5 5 5 5 5 5 5 3 3 5 3 5 5 3 3 5 5 3 5 3 5 5 5 3 5 5 3 5 3 3 3 5 5 5 5 3 5 5 5 5 5 5 3 5 5 5 3 5 5 3 5 5 5 5 3 5 5 5 5 5 5 5 5 5 5 5 3 5 5 5 5 5 3 5 5 5 5 5 5 3 3 5 5 5 3 5 5 5 5 5 5 5 5 5 5 3 5 5 5 5 3 3 5 3 5 5 3 3 5 5 5 5 5 5 3 5 5 5 5 3 5 3 5 5 5 3 5 5 5 5 5 5 5 5 5 5 5 5 5 3 5 5 5 5 5 5 5 5 5 5 5 5 5 5 5 5 5 5 5 5 5 3 5 5 5 5 5 5 5 5 3 3 5 5 5 5 5 5 5 5 5 5 5 5 5 5 5 5 5 5 5 3 5 5 5 5 3 5 5 3 5 5 5 5 5 5 5 5 5 5 5 5 5 5 3 5 5 3 5 5 5 5 5 5 5 5 5 5 5 3 5 5 5 5 3 5 5 5 5 5 5 5 5 3 3 5 5 5 5 3 5 5 5 5 3 5 5 5 5 5 5 5 5 5 5 5 3 5 5 5 5 5 5 3 5 5 5 3 5 5 5 5 5 5 5 5 5 5 3 3 5 3 5 5 5 5 5 5 5 5 5 5 5 5 5 5 5 5 5 5 5 5 5 5 5 5 5 5 5 5 3 5 5 5 5 5 3 5 5 5 5 3 5 5 5 5 5 5 3 5 5 5 5 5 5 5 3 5 5 5 5 5 5 5 5 5 5 5 5 5 5 5 5 5 5 5 5 3 3 5 5 5 5 5 5 5 5 5 5 5 5 3 5 5 5 5 5 5 5 5 5 5 5 5 5 5 5 5 5 5 5 5 5 5 5 3 5 5 5 5 3 5 3 3 5 5 5 5 3 5 5 3 5 5 5 5 5 5 5 5 5 5 5 5 5 5 3 5 5 3 5 5 5 5 5 3 5 5 5 5 5 5 5 5 5 5 5 5 5 5 5 5 5 5 5 5 5 5 5 3 5 5 5 5 5 5 5 5 5 5 5 5 5 5 5 5 5 3 5 3 5 5 5 5 3 5 5 5 5 5 5 5 3 5 5 5 5 5 5 5 5 5 3 5 3 5 5 3 3 5 5 5 5 5 5 3 5 5 5 5 5 5 3 5 5 3 5 5 5 5 5 5 5 5 5 5 5 5 5 5 5 5 5 5 5 5 5 5 5 5 5 5 5 5 5 5 5 5 3 5 5 5 5 3 5 5 5 3 3 5 5 5 5 5 5 5 5 5 5 5 5 3 5 5 5 5 5 5 5 5 5 5 5 5 5 5 3 5 5 5 3 5 5 5 5 3 5 5 5 5 5 5 5 5 5 5 5 5 5 5 5 5 3 5 5 5 5 5 3 5 3 5 3 5 5 3 5 5 5 5 5 5 5 3 5 3 5 5 5 5 3 5 5 5 5 3 3 5 5 5 3 5 5 3 5 5 5 5 5 5 5 5 5 5 5 3 5 3 5 5 5 3 3 5 5 5 5 3 5 5 5 5 5 5 5 5 5 5 5 3 5 5 5 5 3 5 5 5 5 5 5 5 5 5 5 5 5 5 3 5 5 5 5 5 5 5 5 5 5 3 5 5 5 3 5 5 5 3 5 5 3 5 3 5 3 5 5 5 3 5 5 5 5 3 5 3 5 5 5 5 3 5 5 5 5 3 5 5 5 5 5 5 5 5 5 5 5 5 3 5 5 5 3 5 5 5 5 3 5 5 3 5 5 5 5 5 5 5 5 5 5 5 5 5 5 5 5 5 5 5 5 5 3 5 5 5 5 5 5 5 5 5 5 5 5 5 5 5 5 5 5 5 5 5 5 5 5 5 5 5 5 5 5 5 5 5 3 5 5 5 5 5 5 5 5 5 5 5 5 5 5 3 5 5 5 5 5 5 3 5 5 5 3 5 5 5 5 5 5 5 5 5 5 5 5 5 5 5 5 5 5 5 5 5 5 3 5 5 5 5 3 5 5 5 5 5 5 3 5 5 5 5 5 5 5 5 5 5 5 5 5 5 3 5 5 5 5 5 5 5 5 5 3 3 5 5 5 5 5 5 5 5 3 5 5 5 5 3 5 5 5 5 3 5 3 5 5 5 5 3 5 5 5 5 5 5 5 5 5 5 5 5 5 5 5 5 5 3 5 5 5 5 5 5 5 5 3 3 5 5 5 5 5 5 3 5 5 3 5 5 3 3 3 5 5 3 3 5 3 3 5 5 3 5 5 5 5 3 5 5 5 3 5 3 5 5 5 5 5 5 5 3 5 5 5 3 5 5 3 5 5 5 5 5 5 5 5 3 3 5 5 5 5 5 3 5 5 5 5 5 3 5 5 5 5 5 3 5 5 5 5 3 5 5 5 5 5 3 5 3 5 5 5 5 5 3 5 5 5 5 5 5 5 5 5 3 3 5 5 3 5 3 5 5 5 5 5 5 5 5 5 5 3 5 5 3 5 5 5 3 5 5 5 5 5 5 5 5 5 5 5 5 5 5 5 5 5 5 5 5 5 3 5 3 5 5 5 5 5 5 5 5 5 5 3 3 5 5 5 5 5 3 5 5 5 5 5 5 5 5 5 3 3 5 5 5 5 3 5 5 5 5 5 3 5 5 5 5 5 5 3 5 3 3 5 5 5 5 5 5 5 5 5 5 5 5 5 3 5 5 3 5 5 3 5 5 3 5 5 5 5 5 5 5 5 5 3 5 5 3 5 5 5 5 3 5 3 5 5 5 5 5 5 5 5 3 5 5 3 5 5 5 5 5 5 5 5 5 5 5 3 5 5 5 5 3 5 5 5 3 5 5 5 5 3 5 5 5 5 5 5 5 5 5 3 5 5 5 3 5 3 5 5 3 5 5 5 5 5 5 5 5 5 5 5 3 5 5 5 5 5 5 5 5 5 5 3 5 5 5 5 5 5 5 5 3 5 5 5 3 5 5 3 5 3 5 3 5 5 5 3 5 5 5 5 5 5 5 5 5 5 3 5 5 5 5 3 5 3 5 5 5 5 5 5 5 3 5 5 5 5 5 5 5 3 5 5 5 5 3 5 5 5 5 5 5 5 5 5 5 5 5 5 5 5 3 5 5 3 5 3 5 5 5 3 5 5 3 5 5 5 3 3 3 5 5 3 3 5 5 3 5 3 5 5 5 3 5 3 5 5 3 5 5 3 5 3 5 5 5 3 5 3 5 5 3 3 5 5 5 3 5 3 5 5 3 3 3 5 5 5 5 5 5 5 3 3 5 3 5 3 3 5 3 5 5 3 5 5 5 5 5 3 5 5 3 5 5 5 5 5 5 5 5 5 5 5 5 5 5 5 3 5 5 5 5 5 5 5 5 5 5 5 5 5 5 5 5 5 5 5 5 5 5 5 5 5 5 5 5 5 5 5 5 5 5 5 5 5 5 5 5 5 5 5 5 3 3 5 5 5 3 5 5 5 5 5 5 5 5 3 5 5 5 5 5 3 5 5 5 5 5 5 5 5 5 5 3 5 3 5 5 5 3 5 5 5 3 5 5 5 3 5 3 5 5 5 5 5 5 5 5 5 5 5 5 5 5 5 5 5 5 3 5 5 5 5 5 5 5 3 5 5 3 3 5 5 5 5 3 5 5 5 5 5 5 3 5 5 3 5 5 5 5 5 5 5 3 5 5 5 5 5 5 5 5 5 5 5 5 3 5 5 5 3 5 5 5 5 5 5 3 5 5 5 5 5 5 5 5 5 5 5 5 5 5 5 5 5 3 3 5 3 5 3 5 5 5 5 5 5 5 5 3 5 5 5 3 3 5 3 5 3 5 3 5 5 5 5 3 5 5 5 3 5 3 3 5 5 3 5 5 5 3 3 5 3 5 5 3 3 5 5 3 3 5 5 5 5 5 5 5 3 5 3 5 5 5 5 5 5 3 5 5 5 5 5 5 5 5 5 5 5 5 5 5 5 5 5 3 5 3 3 5 5 3 5 5 5 5 5 5 5 5 5 5 5 5 5 5 5 5 5 5 5 5 5 3 5 5 3 5 3 5 5 5 3 5 5 5 5 5 5 5 5 3 5 5 3 3 5 5 3 5 5 5 5 5 5 3 5 5 5 5 5 3 5 5 5 5 5 3 3 5 3 3 5 3 5 3 3 5 5 3 3 3 5 5 5 5 5 5 5 5 3 5 5 5 5 3 5 3 5 5 3 5 5 3 5 5 5 5 5 5 5 5 5 5 5 5 3 3 5 5 5 3 5 5 5 5 5 5 5 5 5 5 5 5 5 3 5 5 5 5 5 5 3 5 5 5 5 5 5 3 5 5 3 5 5 5 5 5 5 5 3 5 5 5 3 3 5 5 3 5 5 5 5 5 5 5 5 5 5 5 5 5 5 5 5 5 5 5 5 5 5 3 5 3 5 5 3 5 5 3 5 5 5 5 3 5 5 3 5 5 5 5 3 3 5 5 3 5 5 5 5 5 3 5 5 5 3 5 5 3 5 5 3 5 5 3 5 5 5 5 5 5 5 5 5 5 5 5 5 5 5 5 5 5 3 5 5 5 5 5 5 5 5 5 3 5 3 5 5 5 5 5 5 5 5 5 5 5 5 5 3 5 5 3 5 3 5 5 5 5 5 5 3 5 5 5 5 5 3 5 3 5 3 5 5 5 5 5 5 5 5 5 3 5 5 5 5 5 5 5 5 5 5 5 5 5 5 5 5 5 5 5 5 5 5 5 5 5 5 3 5 5 5 5 5 5 5 5 5 5 3 5 5 5 3 5 5 5 5 5 5 5 5 5 3 5 5 5 3 5 3 5 5 5 5 5 5 5 5 5 5 3 3 5 5 5 5 3 5 5 3 5 5 5 5 5 3 3 5 5 5 5 3 5 5 3 5 5 5 5 5 5 5 5 5 5 5 5 5 5 5 5 5 3 5 3 5 3 3 5 5 5 5 3 5 5 5 5 5 5 3 5 5 5 5 5 5 5 5 3 5 5 3 5 3 5 5 5 5 5 5 5 5 5 5 5 5 5 5 5 5 5 5 5 5 5 3 5 5 3 3 5 5 5 5 3 5 5 5 5 5 3 5 5 3 5 5 3 5 3 5 5 5 5 5 5 5 5 3 5 5 5 5 5 5 3 3 5 5 5 5 3 5 5 3 5 5 3 5 5 5 5 5 5 5 5 5 5 5 5 5 5 5 5 5 5 5 3 5 5 5 5 5 5 5 5 5 5 5 3 3 5 5 5 5 5 5 3 5 5 5 5 5 5 5 5 5 5 5 3 5 5 3 5 5 5 5 5 5 5 5 3 5 5 3 5 5 5 5 5 3 5 3 5 5 3 5 3 5 5 3 5 5 5 5 5 5 5 5 5 5 5 5 5 5 3 3 5 5 5 5 3 5 5 5 5 5 5 5 5 5 3 5 5 5 5 5 3 5 5 5 5 5 5 5 5 5 5 3 5 5 5 5 5 3 5 5 5 3 5 5 5 5 5 5 5 5 5 5 5 5 5 3 3 5 5 5 5 5 5 5 5 5 3 5 3 5 5 5 3 5 5 5 3 5 5 5 5 5 5 5 3 3 5 5 5 5 3 5 5 3 5 5 5 5 5 3 5 5 5 5 5 5 5 3 5 5 5 5 3 5 5 5 5 3 5 3 5 3 5 3 5 5 3 3 5 5 5 3 5 5 5 3 5 5 5 5 5 5 5 5 5 5 3 5 5 5 5 3 5 5 5 3 5 5 5 5 5 3 5 5 5 5 5 5 5 5 5 5 5 5 5 5 5 5 5 5 5 3 5 5 5 5 5 5 5 5 5 5 5 5 5 5 5 5 5 5 5 5 5 5 5 5 5 5 5 5 5 3 5 5 5 3 5 5 5 3 5 3 5 5 5 3 3 5 5 5 3 5 3 5 5 3 3 5 3 5 5 5 5 3 5 5 5 3 3 5 5 5 5 3 5 3 5 5 5 5 3 5 5 5 5 3 5 5 5 5 5 5 5 3 5 5 5 3 5 5 5 5 5 5 5 5 5 5 5 5 5 5 5 5 3 5 5 5 3 5 5 5 3 5 5 5 3 5 5 5 3 5 5 5 3 5 3 5 3 5 5 3 5 5 3 5 5 3 3 5 5 3 5 5 5 3 5 3 3 5 3 5 5 5 5 3 3 5 5 5 5 3 5 5 5 3 5 5 3 5 3 5 5 5 5 3 3 5 5 5 5 5 5 5 5 5 5 5 3 3 5 5 3 3 3 5 5 3 5 5 5 5 3 5 3 5 5 5 5 5 3 5 5 5 3 5 5 5 5 3 3 5 5 3 3 5 5 5 5 5 5 5 5 5 5 5 5 5 5 5 5 5 5 5 5 5 5 5 5 5 5 5 5 5 5 5 5 5 5 5 5 5 5 5 5 5 5 5 5 5 5 5 5 5 5 3 5 5 5 5 5 5 3 3 5 3 5 5 5 5 3 5 5 3 5 5 5 5 5 5 5 5 5 5 5 5 5 5 3 5 5 5 5 5 5 3 5 5 5 5 3 5 5 5 5 5 5 5 5 5 5 5 5 5 5 5 5 5 5 5 5 5 5 5 5 5 5 5 5 5 5 5 5 5 5 5 5 5 5 5 5 5 3 5 5 5 3 5 5 5 5 5 5 5 5 5 5 5 5 5 5 5 5 5 5 5 3 5 5 5 5 5 3 5 5 3 3 5 5 5 5 5 5 3 5 5 5 5 5 5 5 5 5 3 5 5 5 5 5 3 5 5 5 5 5 3 3 5 5 5 3 5 5 5 5 5 5 3 5 3 5 5 5 5 5 5 5 3 3 5 5 5 5 5 3 3 3 5 5 5 3 5 5 3 5 3 5 5 5 3 5 5 5 5 3 3 5 5 5 5 5 5 5 5 5 5 5 5 5 5 5 3 5 5 3 5 5 5 5 5 5 5 5 5 5 3 5 5 3 5 5 5 5 3 5 5 5 3 5 5 5 3 5 5 5 5 5 5 5 5 5 5 5 5 3 5 5 5 5 5 5 3 5 5 5 5 5 5 5 5 5 5 3 5 5 5 5 5 3 5 5 5 3 5 5 5 3 5 3 5 3 5 5 5 5 5 3 3 5 5 5 5 5 5 5 5 5 5 5 5 5 5 5 5 5 5 5 5 5 5 3 3 5 5 5 3 5 3 5 5 5 3 5 5 5 5 3 5 5 5 5 5 5 5 5 5 3 5 3 5 5 3 5 5 5 5 5 5 5 5 5 3 3 5 5 5 5 5 5 3 3 5 5 5 5 5 5 5 5 5 5 5 5 5 5 5 3 5 5 3 5 5 5 5 5 5 5 5 5 5 3 3 5 5 5 5 5 3 5 5 3 5 5 5 3 3 3 5 3 5 5 5 5 3 5 3 5 5 5 3 5 5 3 5 3 5 3 5 5 5 5 3 3 5 5 3 5 5 5 3 3 5 5 5 3 5 5 5 5 3 5 5 5 5 3 5 5 5 3 5 5 3 5 5 5 5 5 5 5 5 5 3 5 5 3 5 5 5 5 5 3 5 5 5 5 3 5 5 3 5 5 5 3 5 5 5 5 5 5 3 5 5 5 5 5 5 5 5 5 5 5 5 5 3 5 5 5 5 5 5 5 5 5 5 5 5 5 5 5 5 5 5 5 5 3 5 5 5 5 5 5 3 5 5 5 5 5 5 3 5 5 3 5 5 3 3 5 5 5 5 5 5 3 5 5 3 5 5 5 3 5 5 5 5 3 5 5 5 3 5 3 5 5 5 5 5 5 5 3 3 5 3 5 3 5 5 5 3 5 5 5 5 3 5 5 3 5 3 3 5 5 3 5 5 3 5 3 5 5 3 5 3 5 5 3 5 3 5 5 5 5 5 5 5 5 5 5 3 3 5 5 5 5 5 3 5 5 5 3 5 5 5 5 5 5 5 5 5 5 5 5 5 5 5 3 5 5 5 5 5 5 5 5 5 5 5 5 5 5 5 5 5 5 3 5 5 3 5 5 5 3 5 3 5 5 5 5 5 5 3 5 3 5 3 5 5 5 5 5 3 5 5 5 5 5 5 5 5 5 5 5 5 3 5 5 3 5 5 5 3 3 5 5 5 5 5 3 5 5 5 5 5 5 5 5 3 5 5 5 5 5 5 3 5 5 5 5 5 5 5 5 3 5 5 5 3 5 3 5 5 5 5 5 5 5 5 5 5 5 5 5 5 5 5 5 5 3 5 5 5 5 5 5 5 3 5 5 5 3 5 5 5 5 5 5 5 5 5 5 5 5 3 5 5 5 5 5 5 3 3 5 5 5 3 5 5 5 5 5 5 5 5 5 3 5 5 5 5 5 5 5 5 3 5 5 5 3 5 5 5 5 3 5 5 5 5 5 5 5 5 5 3 5 5 5 5 5 5 5 5 5 5 5 5 5 3 5 5 5 5 5 5 5 5 5 5 3 5 5 5 3 5 5 5 5 5 3 5 3 5 5 5 3 5 5 5 5 5 5 5 5 5 3 5 5 5 5 5 5 5 5 5 5 5 5 5 5 5 5 5 5 5 5 5 5 5 5 5 5 5 5 5 5 5 3 5 5 5 5 5 5 5 5 5 5 5 5 5 5 5 5 5 5 5 5 5 5 5 5 5 5 5 5 5 5 5 5 5 5 5 5 5 3 5 5 5 5 5 5 5 5 5 5 5 5 5 5 5 5 5 5 5 5 5 3 5 3 5 5 5 5 5 5 5 5 5 5 5 5 3 5 3 5 5 5 3 3 5 5 5 5 5 5 5 5 5 5 5 5 5 3 5 5 3 3 5 5 5 5 5 5 3 3 3 5 3 5 5 5 5 5 5 5 5 5 5 5 5 5 5 5 5 5 5 5 5 5 5 5 5 5 5 5 5 5 3 3 5 5 5 5 5 5 5 5 5 5 5 5 3 5 5 3 5 5 5 5 5 3 5 3 3 5 3 5 5 5 5 5 3 3 5 5 3 5 5 5 5 5 5 3 3 5 3 5 5 5 5 5 5 5 5 5 5 5 5 5 3 5 5 5 5 5 5 5 5 5 5 5 5 5 5 5 5 5 3 5 5 5 5 5 5 5 5 3 5 5 5 5 3 5 5 3 5 3 5 3 5 5 5 5 5 3 5 5 5 5 5 5 5 5 5 5 3 5 5 5 5 5 5 5 5 5 5 5 5 5 5 5 5 5 5 5 5 5 5 5 5 3 5 3 5 5 5 5 3 5 3 5 5 5 3 5 5 5 5 3 5 5 3 5 5 5 5 5 5 5 5 5 3 3 5 5 5 5 5 5 3 5 5 5 3 5 5 3 5 5 5 5 5 5 3 5 5 5 5 5 5 3 5 3 5 5 5 3 5 5 5 5 5 5 3 5 3 5 5 5 5 3 5 5 5 5 5 5 5 5 5 5 5 5 3 5 5 5 5 5 3 5 5 5 5 5 5 5 3 5 3 5 5 5 3 3 5 5 5 5 5 5 5 3 5 5 5 5 5 5 5 3 5 5 5 5 3 5 5 5 5 5 5 5 5 5 5 5 5 5 5 5 5 5 3 5 5 5 5 3 5 5 5 5 5 5 3 5 5 5 5 5 5 5 5 5 3 5 3 5 3 5 5 5 5 3 5 5 3 5 5 3 5 5 3 5 5 5 5 3 5 3 5 5 5 3 3 5 5 5 5 5 3 5 3 5 5 3 5 5 3 5 5 5 5 3 5 5 5 5 5 3 5 5 5 5 5 3 5 5 3 5 5 5 5 5 5 5 5 3 5 5 5 3 5 5 5 3 5 5 5 5 5 5 5 5 5 5 5 5 5 5 5 5 5 5 5 5 5 5 5 3 5 5 5 5 5 3 5 5 5 5 5 5 5 5 5 5 5 3 3 5 5 3 5 3 5 5 5 3 5 3 5 3 5 5 3 5 5 5 5 5 3 5 5 5 5 5 5 3 5 5 5 3 5 5 5 3 5 5 5 5 5 5 5 5 5 5 5 5 5 5 5 5 5 5 5 3 5 5 3 5 3 5 3 5 5 5 5 5 5 5 5 3 5 5 5 3 5 5 5 5 5 5 3 5 5 3 5 5 5 5 3 5 5 5 5 5 5 5 3 5 5 5 5 5 5 5 5 5 5 5 3 3 5 3 5 5 5 5 5 5 5 5 5 5 5 5 5 5 5 5 5 5 5 5 5 5 5 5 5 5 5 5 5 5 5 5 5 5 5 5 5 5 5 3 5 5 5 5 5 5 5 5 3 5 5 5 5 5 5 5 5 5 5 5 5 5 3 5 5 5 5 5 5 5 3 5 5 5 5 5 3 5 5 5 3 5 5 5 5 5 3 3 5 5 3 5 5 5 3 5 3 5 5 5 5 5 5 3 5 5 5 5 5 5 5 3 5 5 5 5 5 5 5 5 5 5 5 5 3 5 3 3 5 5 5 5 3 5 5 5 3 3 5 3 3 5 5 5 5 5 3 3 5 5 5 5 5 3 5 5 5 5 3 5 5 3 5 3 5 5 5 5 5 5 5 3 5 5 3 5 3 5 5 5 3 3 5 5 3 5 3 3 5 5 5 5 5 5 3 3 3 5 5 5 5 5 3 3 5 5 5 5 5 5 3 5 5 5 5 3 5 5 5 5 3 5 5 3 5 5 5 5 5 5 5 5 5 5 5 5 5 3 5 3 3 5 5 5 5 5 3 5 3 5 5 5 5 5 5 3 5 5 5 5 5 3 5 5 3 5 5 3 5 5 5 5 5 5 5 5 5 5 5 3 5 5 5 5 5 5 5 5 5 5 5 3 5 5 5 5 3 3 5 5 5 5 5 5 3 5 5 5 3 5 5 5 5 5 5 3 5 5 5 5 5 5 5 5 5 5 5 5 5 5 5 5 3 5 5 5 3 5 5 5 5 5 5 5 5 5 5 5 5 5 5 5 5 5 3 5 5 5 5 5 5 5 3 5 5 5 5 5 5 3 3 5 5 3 5 3 5 5 5 5 5 5 5 5 3 5 5 5 5 5 5 5 5 5 5 5 5 3 3 3 5 5 5 5 5 5 5 5 5 5 5 5 5 5 5 5 5 5 5 5 5 5 5 5 5 5 5 5 5 5 5 5 5 5 5 5 5 5 5 5 5 5 5 5 5 5 5 5 5 5 5 5 5 5 5 5 5 5 5 5 5 5 5 5 3 3 5 5 5 3 5 3 5 5 5 5 5 5 5 5 5 5 5 3 5 5 5 5 5 5 5 5 5 5 3 5 3 5 5 3 5 5 5 3 5 5 5 3 5 5 5 5 3 5 5 5 5 5 5 5 5 5 5 5 5 5 5 5 5 5 5 5 5 5 5 5 5 5 5 5 5 5 5 5 5 5 5 3 3 5 5 5 5 5 5 5 5 5 5 5 5 5 5 3 5 5 5 5 5 5 5 5 5 3 5 5 3 5 5 5 5 5 5 3 5 3 5 5 3 5 5 5 5 3 3 5 5 5 5 5 5 3 5 5 5 3 5 3 5 3 3 5 5 5 5 5 3 5 5 5 5 5 5 3 5 5 5 3 5 3 5 5 3 5 5 3 5 3 5 5 5 5 5 5 5 5 3 5 5 5 5 5 5 5 5 5 5 5 5 5 5 5 5 5 5 5 5 5 5 5 5 5 5 5 5 5 5 5 5 5 5 5 5 5 3 5 5 5 5 5 5 5 5 5 5 5 5 5 5 5 3 5 5 5 5 5 5 5 5 5 5 5 5 5 5 5 5 5 5 5 5 5 5 5 5 5 5 5 5 5 5 5 5 5 5 5 5 5 5 5 5 5 5 5 3 5 5 5 5 5 5 5 5 5 5 5 3 5 5 5 3 5 3 5 5 5 5 5 5 5 5 5 5 5 5 5 5 5 5 5 5 5 5 5 5 5 5 5 5 5 5 5 5 3 5 5 5 5 5 5 5 3 5 5 5 5 5 5 3 5 5 5 5 5 5 5 5 5 5 5 5 5 5 5 5 5 3 5 5 5 5 5 5 5 5 5 5 5 5 5 5 5 5 5 5 5 5 5 5 5 5 3 3 5 5 5 5 5 5 5 5 5 3 5 5 5 5 3 5 5 3 5 5 5 5 5 5 5 5 5 5 3 5 5 5 5 5 5 5 5 5 5 5 5 5 5 5 5 5 5 5 5 5 5 5 5 5 5 5 5 5 5 5 5 5 5 5 5 5 5 5 5 5 5 5 5 5 5 5 5 5 5 5 3 5 5 5 5 5 5 3 5 3 5 5 5 5 5 5 3 5 5 5 5 5 5 5 5 5 5 5 5 5 3 5 5 5 5 5 5 5 5 5 5 5 5 5 5 5 5 5 5 5 5 5 5 5 5 5 5 5 5 5 5 5 5 5 5 5 5 5 5 5 5 5 5 5 5 5 5 5 5 5 3 5 3 5 5 5 5 5 5 5 5 5 5 3 5 5 5 3 5 5 5 5 5 5 3 5 5 5 5 5 3 5 5 3 5 5 5 5 5 5 5 5 5 5 5 5 5 3 3 5 5 5 5 5 5 3 5 5 3 5 3 5 3 3 3 5 5 5 5 5 5 5 5 3 5 5 5 5 5 3 5 5 3 5 5 5 5 3 5 5 5 5 5 5 3 5 5 5 5 5 5 5 5 5 5 5 5 5 3 5 5 5 3 5 5 5 5 5 3 5 3 5 5 5 3 5 3 5 3 3 5 3 5 5 5 5 5 5 5 5 3 3 5 5 5 5 5 5 5 5 5 5 5 3 5 3 5 5 5 5 3 5 5 5 3 5 5 3 5 3 5 3 5 5 3 5 5 5 5 5 5 3 5 5 5 3 5 5 5 5 5 5 5 3 5 5 5 5 5 5 5 5 5 3 5 5 5 5 5 5 5 5 5 5 5 5 5 3 3 5 5 5 3 3 5 5 5 5 5 5 3 3 5 5 5 5 5 5 3 5 3 5 5 3 5 5 5 5 3 5 5 5 5 5 5 5 5 5 5 5 5 5 5 5 5 5 5 5 5 5 5 5 5 5 5 5 3 3 5 3 5 3 5 5 5 5 5 5 5 5 3 5 5 3 5 5 3 5 5 5 5 5 5 5 5 5 5 5 5 5 5 5 5 5 5 5 5 5 5 5 5 5 5 5 5 5 5 5 5 5 3 5 5 5 5 3 5 5 3 5 5 5 5 5 5 5 5 5 3 5 5 5 5 3 5 3 5 5 5 5 5 5 5 5 5 5 5 5 5 5 5 5 5 5 3 5 5 5 5 5 5 5 5 5 3 5 5 5 5 5 5 5 3 5 5 5 5 5 5 5 3 5 3 5 5 5 5 5 5 3 5 5 5 5 3 3 5 5 3 5 3 5 5 3 3 5 5 5 3 5 5 5 5 5 5 3 3 5 5 5 5 5 5 3 5 5 5 5 3 5 5 5 5 5 5 5 5 3 5 5 5 3 5 5 5 5 5 5 5 5 5 5 3 5 5 5 5 5 5 5 5 5 5 5 5 5 5 5 5 5 5 5 5 5 5 5 5 5 5 5 5 5 5 5 5 5 5 5 5 5 5 5 5 5 5 5 5 5 5 5 5 5 5 5 5 5 5 5 5 3 5 5 5 5 5 5 5 5 3 5 5 5 3 5 5 5 3 5 5 5 3 5 3 5 5 5 5 5 5 5 5 5 5 5 5 5 5 5 5 5 5 5 5 5 5 5 5 5 5 5 5 5 5 5 5 5 5 5 5 5 3 5 5 3 5 5 5 5 5 5 5 5 5 5 3 5 5 5 5 5 5 5 3 5 3 5 5 5 5 5 5 5 3 5 5 3 5 5 3 5 5 5 5 5 5 5 5 3 5 5 5 5 5 3 3 5 5 3 5 5 5 3 3 3 5 5 5 5 5 5 5 5 3 3 5 3 5 5 5 3 5 5 5 3 5 5 5 5 3 5 3 5 5 3 5 5 5 5 5 3 5 3 5 5 5 5 5 5 5 5 5 5 3 5 3 5 5 5 5 5 5 5 5 5 5 5 3 5 3 5 5 5 5 3 5 5 5 5 5 3 5 5 3 3 5 5 5 3 3 5 5 5 5 5 5 3 3 5 5 3 5 5 5 3 3 5 5 5 3 5 3 5 5 3 5 5 3 5 5 5 3 5 5 5 3 5 5 5 5 5 5 5 5 5 5 5 5 5 5 3 5 5 5 5 3 5 5 5 3 5 5 5 5 5 5 3 5 5 5 5 5 3 5 5 5 5 5 5 3 3 5 5 5 5 3 5 5 5 5 5 5 5 3 5 3 5 5 5 3 5 5 3 3 5 5 5 3 3 5 5 3 5 5 3 5 3 5 3 5 5 5 5 5 5 5 5 5 5 5 5 5 5 5 5 5 5 5 5 5 5 5 5 5 5 5 5 3 5 5 5 3 5 5 5 5 5 3 3 5 5 5 5 3 5 5 5 5 3 3 3 5 5 3 5 5 5 5 3 3 5 5 5 5 5 3 5 5 5 5 5 3 3 3 5 5 5 5 3 5 5 5 3 3 5 5 5 5 5 5 5 5 5 5 5 5 5 3 5 5 5 5 5 5 3 5 5 5 3 5 5 5 5 5 5 5 3 5 5 5 5 5 5 5 5 5 3 3 5 5 5 3 3 5 5 3 5 5 5 3 5 5 5 5 3 5 3 5 5 5 3 5 3 3 3 5 5 5 5 5 5 5 5 5 5 5 5 5 3 5 5 5 5 3 5 5 5 3 5 3 5 5 5 5 5 5 5 5 5 5 3 5 3 5 5 5 5 5 5 5 5 3 5 5 5 5 5 5 5 5 5 5 5 5 5 5 5 5 3 5 5 5 5 5 5 5 5 3 5 5 3 5 3 5 3 5 5 5 5 5 5 5 3 5 5 3 5 5 5 5 5 3 5 5 5 5 3 5 5 3 5 5 5 5 5 5 3 5 5 5 5 3 5 5 5 5 5 5 5 5 5 5 5 5 5 5 5 5 5 5 5 5 5 5 5 3 5 5 5 3 3 5 5 5 5 5 3 3 5 5 3 5 5 5 5 5 5 5 5 5 5 5 5 3 5 5 3 5 5 5 5 5 5 5 3 5 5 5 5 5 3 5 5 3 5 5 3 5 5 5 5 5 5 5 5 5 5 5 5 3 5 5 5 5 5 5 5 5 5 5 5 5 3 5 5 5 5 5 3 5 5 3 5 5 5 5 5 5 3 5 5 5 3 5 5 5 5 5 5 5 5 5 3 5 3 5 5 5 5 5 5 5 5 3 5 5 5 5 5 5 5 5 5 5 5 5 5 5 5 5 5 5 5 5 5 5 5 5 5 3 5 5 5 5 3 5 3 5 5 5 3 5 5 5 3 5 5 5 5 5 5 5 5 5 5 3 3 3 5 5 5 5 5 5 5 5 5 5 5 3 5 3 5 5 3 5 5 5 5 3 5 3 3 3 5 5 5 5 5 5 5 5 3 3 3 5 3 5 3 5 5 5 5 5 5 5 5 5 5 5 5 3 5 5 5 5 5 5 3 5 5 5 5 5 3 5 3 5 5 3 5 5 3 5 5 3 5 5 5 3 3 3 5 5 5 5 5 5 3 5 5 5 5 5 5 3 5 5 5 3 5 5 5 5 5 5 5 5 5 5 3 5 5 5 5 5 5 5 5 5 5 5 5 5 5 5 5 5 5 5 5 5 5 5 5 5 3 5 5 5 3 5 5 5 3 3 5 5 5 5 3 5 5 5 5 3 5 3 5 5 5 5 5 3 5 5 3 5 3 5 5 3 5 5 5 3 5 3 3 5 5 3 5 5 3 5 3 5 5 5 5 3 5 5 5 3 3 5 5 5 3 5 5 5 5 5 3 5 5 5 5 3 5 5 5 3 5 5 5 5 5 5 5 5 3 5 5 5 5 5 5 5 5 5 3 5 5 5 5 5 5 5 5 5 5 5 5 5 5 5 5 5 5 5 5 5 5 5 5 5 3 5 5 5 5 5 5 5 5 5 5 3 5 5 5 5 5 5 5 5 5 3 5 3 5 5 5 5 5 5 3 5 5 5 3 5 5 5 5 5 3 5 5 5 5 5 5 5 5 5 5 5 5 5 5 5 5 5 5 5 5 5 5 5 3 5 5 5 5 5 5 5 5 5 3 5 5 5 3 5 5 5 5 5 3 5 5 5 5 5 5 5 5 5 5 3 5 5 5 5 3 5 5 5 3 5 5 5 5 3 5 3 5 5 5 5 5 5 5 5 5 5 5 5 5 5 5 5 5 5 5 5 5 5 5 5 5 5 5 5 5 5 5 3 5 5 5 3 5 3 5 5 5 5 5 5 5 5 5 5 5 5 3 5 5 5 5 5 3 5 5 5 5 5 5 5 5 5 5 5 5 5 5 5 5 5 5 5 5 5 5 3 5 5 5 3 5 5 5 3 5 5 5 5 5 5 5 5 5 5 5 5 3 5 5 5 5 5 5 5 5 5 5 3 5 3 5 5 5 5 5 5 5 5 5 5 5 3 5 5 5 3 5 5 5 5 5 5 5 5 5 5 5 5 5 3 5 5 5 5 5 5 5 5 3 5 5 5 3 5 5 5 5 5 5 5 5 5 5 5 5 5 5 5 5 5 3 5 5 5 3 5 3 5 5 5 3 5 5 5 5 5 5 5 5 5 5 5 5 5 5 5 3 5 5 3 5 5 5 5 5 3 5 5 5 5 5 5 5 3 5 5 5 5 5 5 5 5 3 5 5 5 5 5 5 5 5 5 3 5 5 5 5 5 5 5 5 5 5 5 5 5 3 5 5 3 5 5 5 5 3 5 5 5 5 5 5 5 5 5 5 5 5 5 5 5 5 3 5 5 5 3 5 5 5 5 5 5 5 5 5 5 3 5 5 5 5 5 3 5 5 5 5 5 3 5 5 5 5 5 5 5 5 5 5 5 3 5 5 5 5 5 5 5 3 5 5 5 5 5 5 5 5 3 5 5 5 5 5 3 5 5 5 5 5 5 5 5 5 5 5 5 5 5 5 5 5 5 3 3 5 5 5 5 5 5 5 3 5 5 5 5 3 3 5 5 5 5 5 5 5 5 3 5 5 3 5 5 5 5 5 3 3 5 5 5 5 5 5 3 5 5 5 5 5 3 5 3 5 5 3 5 5 3 3 5 5 5 5 3 5 5 5 5 5 5 5 5 5 3 5 5 5 5 5 3 3 5 3 5 5 5 5 5 3 5 5 5 5 5 5 3 5 5 5 5 5 5 5 5 5 3 5 3 5 5 3 5 3 5 5 3 5 5 5 5 5 5 5 3 5 5 5 5 5 5 5 5 5 5 5 5 5 5 5 5 5 5 5 3 5 5 5 5 5 5 5 5 5 5 5 5 5 5 5 5 3 5 5 5 3 5 5 3 5 5 5 5 5 3 5 3 5 5 3 5 5 3 5 3 5 5 5 5 5 5 5 5 3 5 5 5 3 3 5 5 5 5 3 3 5 5 5 5 5 5 5 5 5 5 5 5 3 3 5 5 5 3 5 5 5 3 5 5 5 5 5 5 5 3 5 3 5 5 3 5 5 5 5 5 3 5 5 5 5 3 3 5 5 5 5 5 3 5 5 5 5 5 3 5 5 5 5 5 5 5 5 3 5 5 5 3 3 5 5 5 5 5 5 5 3 5 5 5 5 3 5 3 5 5 5 5 5 3 5 5 5 5 5 5 5 5 5 3 5 5 5 3 5 5 5 5 5 3 5 5 5 5 5 5 5 5 5 5 5 5 5 5 3 5 3 5 5 5 5 5 5 5 5 3 5 5 5 3 5 3 5 3 5 5 3 5 5 5 5 5 5 3 5 5 5 5 5 5 3 5 5 5 5 5 5 5 5 5 5 5 5 5 5 3 3 5 5 5 5 5 5 5 5 3 5 5 5 5 3 5 5 5 3 5 5 5 5 5 5 5 5 5 3 5 5 5 5 3 5 5 5 5 5 5 5 3 5 5 5 5 5 3 5 5 5 3 5 5 5 5 5 5 5 5 5 5 5 5 3 5 5 5 5 5 5 3 5 5 5 5 5 5 5 5 5 5 5 5 3 5 5 3 5 5 5 5 5 5 3 5 3 5 5 5 5 5 5 5 3 5 3 5 5 5 5 5 5 5 5 5 5 5 5 5 5 3 5 5 5 5 5 5 5 5 5 5 5 5 3 5 5 5 5 5 5 5 5 5 3 5 5 5 3 5 5 5 5 5 5 5 5 5 5 3 5 5 5 5 5 5 3 5 5 5 5 3 5 5 5 5 3 5 3 5 3 5 5 3 5 5 3 5 5 3 5 3 3 5 5 3 5 5 5 5 5 3 5 5 5 5 5 5 5 5 5 3 5 5 5 5 5 5 5 3 3 5 5 5 5 5 5 5 5 5 5 5 3 3 5 5 3 3 5 5 3 5 5 5 5 5 5 5 5 5 5 5 3 5 5 3 5 5 5 5 5 5 5 5 5 5 5 5 5 5 5 5 3 5 5 5 5 5 5 5 5 5 3 5 5 3 5 3 3 5 3 5 3 5 5 5 3 3 5 5 5 5 5 5 3 3 5 5 3 5 5 5 3 5 5 5 5 3 5 5 5 5 5 5 5 5 5 3 5 3 5 5 5 5 3 3 5 5 5 5 5 5 5 5 5 5 5 5 5 5 5 5 5 5 5 5 5 3 5 3 5 5 5 5 5 5 5 5 5 5 3 3 5 5 5 5 5 3 5 3 5 5 3 5 3 5 5 3 3 5 5 5 5 3 5 5 3 5 5 5 5 5 5 3 5 5 5 5 5 5 5 3 5 5 5 5 5 5 5 5 5 5 3 3 5 5 5 5 5 5 5 5 5 5 5 3 5 5 3 3 3 3 5 5 5 5 5 5 5 5 5 5 5 5 5 5 5 5 5 5 3 5 5 5 5 5 5 5 5 5 5 5 5 5 5 5 5 5 5 5 5 5 5 5 5 5 5 5 5 5 5 5 5 5 5 5 5 5 5 5 5 5 5 3 5 5 5 5 5 3 5 5 5 3 5 5 5 5 5 5 5 5 5 5 5 5 5 5 5 5 3 5 5 5 3 5 3 5 5 5 3 5 5 5 5 5 3 5 5 3 5 5 5 5 3 5 5 3 5 5 
</DataArray>
</Cells>
<PointData Scalars="" Vectors="displacement," Tensors="">
<DataArray type="Float64" Name="displacement" NumberOfComponents="3" format="ascii">
0.014997347833563997 0.014999751665395826 0 0.014825900340382626 0.014006931910416687 0 0.014998766796375292 0.011352374211935971 0 0.014997347833563997 0.014999751665395826 0 0.014825900340382626 0.014006931910416687 0 0.01387183524544832 0.014998638544365509 0 0.014825900340382626 0.014006931910416687 0 0.014956268114471533 0.013259648603652311 0 0.014849158048142963 0.014225795220731797 0 0.014956268114471533 0.013259648603652311 0 0.015010248378827746 0.013581979776940737 0 0.014849158048142963 0.014225795220731797 0 0.014956268114471533 0.013259648603652311 0 0.015010248378827746 0.013581979776940737 0 0.014849428693036343 0.013371942678194124 0 0.014077944073259512 0.014205236531669344 0 0.014062987499130769 0.014663635590667582 0 0.013291428118851482 0.015213135973864415 0 0.012968714501617889 0.015000003887978834 0 0.01317134731165169 0.015095464589271359 0 0.014825900340382626 0.014006931910416687 0 0.014849158048142963 0.014225795220731797 0 0.01387183524544832 0.014998638544365509 0 0.013109779481591557 0.014773777274691327 0 0.013291428118851482 0.015213135973864415 0 0.01317134731165169 0.015095464589271359 0 0.014062987499130769 0.014663635590667582 0 0.013867341487009119 0.014999818385510661 0 0.013291428118851482 0.015213135973864415 0 0.013866504309470541 0.014999729619676577 0 0.012968714501617889 0.015000003887978834 0 0.012968714501617889 0.015000003887978834 0 0.012964094480252821 0.015063614703533703 0 0.012070301595072401 0.014999283274653863 0 0.012968714501617889 0.015000003887978834 0 0.012964094480252821 0.015063614703533703 0 0.01317134731165169 0.015095464589271359 0 0.012070301595072401 0.014999283274653863 0 0.011610032607449491 0.015048653685871946 0 0.011170854129847562 0.014999702177885333 0 0.012964094480252821 0.015063614703533703 0 0.012070301595072401 0.014999283274653863 0 0.011610032607449491 0.015048653685871946 0 0.012964094480252821 0.015063614703533703 0 0.011610032607449491 0.015048653685871946 0 0.013317011088931142 0.014783297167982485 0 0.011698767110932833 0.0148294113924251 0 0.011734217150915239 0.01470732372086145 0 0.011610032607449491 0.015048653685871946 0 0.010622035815462259 0.014468288331518626 0 0.010924723756828895 0.014708967979865472 0 0.010622035815462259 0.014468288331518626 0 0.01057219337257531 0.014040387610338354 0 0.010924723756828895 0.014708967979865472 0 0.012964094480252821 0.015063614703533703 0 0.013317011088931142 0.014783297167982485 0 0.013731782046668299 0.014542800264967719 0 0.011734217150915239 0.01470732372086145 0 0.0137085673657315 0.013148646021978789 0 0.013317011088931142 0.014783297167982485 0 0.013731782046668299 0.014542800264967719 0 0.0140802132102437 0.014288677092504034 0 0.010622035815462259 0.014468288331518626 0 0.01057219337257531 0.014040387610338354 0 0.010178630723120856 0.013796373484510568 0 0.013109779481591557 0.014773777274691327 0 0.01317134731165169 0.015095464589271359 0 0.013631448143190054 0.014667503245864426 0 0.012964094480252821 0.015063614703533703 0 0.01317134731165169 0.015095464589271359 0 0.013631448143190054 0.014667503245864426 0 0.012964094480252821 0.015063614703533703 0 0.013631448143190054 0.014667503245864426 0 0.013731782046668299 0.014542800264967719 0 0.013631448143190054 0.014667503245864426 0 0.014318661370464921 0.014147952851555352 0 0.014336508872275179 0.013651470006778471 0 0.013631448143190054 0.014667503245864426 0 0.013731782046668299 0.014542800264967719 0 0.014318661370464921 0.014147952851555352 0 0.013731782046668299 0.014542800264967719 0 0.014318661370464921 0.014147952851555352 0 0.0140802132102437 0.014288677092504034 0 0.015010248378827746 0.013581979776940737 0 0.014336508872275179 0.013651470006778471 0 0.014849428693036343 0.013371942678194124 0 0.014077944073259512 0.014205236531669344 0 0.01428310210809533 0.013741651377973207 0 0.013109779481591557 0.014773777274691327 0 0.013631448143190054 0.014667503245864426 0 0.014336508872275179 0.013651470006778471 0 0.014778903976927181 0.013070992585647033 0 0.014336508872275179 0.013651470006778471 0 0.014826885517616396 0.013178680633652396 0 0.014778903976927181 0.013070992585647033 0 0.014336508872275179 0.013651470006778471 0 0.014849428693036343 0.013371942678194124 0 0.014318661370464921 0.014147952851555352 0 0.014826885517616396 0.013178680633652396 0 0.015483043274664167 0.013566479191229747 0 0.014318661370464921 0.014147952851555352 0 0.014336508872275179 0.013651470006778471 0 0.014826885517616396 0.013178680633652396 0 0.014449228958243658 0.013945029050803708 0 0.0137085673657315 0.013148646021978789 0 0.014826885517616396 0.013178680633652396 0 0.015087555340678285 0.012418182934102222 0 0.015527537144412741 0.012514659895274531 0 0.014826885517616396 0.013178680633652396 0 0.015483043274664167 0.013566479191229747 0 0.015527537144412741 0.012514659895274531 0 0.014778903976927181 0.013070992585647033 0 0.015087555340678285 0.012418182934102222 0 0.015028613752619012 0.012343324725009829 0 0.014778903976927181 0.013070992585647033 0 0.014826885517616396 0.013178680633652396 0 0.015087555340678285 0.012418182934102222 0 0.0137085673657315 0.013148646021978789 0 0.012491848639456602 0.011676247637089585 0 0.01057219337257531 0.014040387610338354 0 0.010178630723120856 0.013796373484510568 0 0.0103974055837542 0.013351737736200003 0 0.015419421187365985 0.010047896875188303 0 0.015582270459538087 0.010663513044948492 0 0.014815197961820417 0.010353220106541945 0 0.0137085673657315 0.013148646021978789 0 0.015624580233232765 0.011357281680100242 0 0.015582270459538087 0.010663513044948492 0 0.014815197961820417 0.010353220106541945 0 0.015280879099610291 0.011090868574875552 0 0.014815197961820417 0.010353220106541945 0 0.014945229509896196 0.011043537388377222 0 0.015280879099610291 0.011090868574875552 0 0.015582270459538087 0.010663513044948492 0 0.015280879099610291 0.011090868574875552 0 0.015542428191172615 0.011560730118938127 0 0.014945229509896196 0.011043537388377222 0 0.015280879099610291 0.011090868574875552 0 0.015468726136278274 0.011521160874017529 0 0.015280879099610291 0.011090868574875552 0 0.015542428191172615 0.011560730118938127 0 0.015468726136278274 0.011521160874017529 0 0.014945229509896196 0.011043537388377222 0 0.014685005962157275 0.011333061753601846 0 0.015303379383497318 0.01164631614702266 0 0.014945229509896196 0.011043537388377222 0 0.015303379383497318 0.01164631614702266 0 0.015468726136278274 0.011521160874017529 0 0.015087555340678285 0.012418182934102222 0 0.015228399301757185 0.011814278141052436 0 0.015028613752619012 0.012343324725009829 0 0.015624580233232765 0.011357281680100242 0 0.015538009449372503 0.011609047908360662 0 0.015087555340678285 0.012418182934102222 0 0.015527537144412741 0.012514659895274531 0 0.015542428191172615 0.011560730118938127 0 0.015087555340678285 0.012418182934102222 0 0.015542428191172615 0.011560730118938127 0 0.015228399301757185 0.011814278141052436 0 0.015542428191172615 0.011560730118938127 0 0.015228399301757185 0.011814278141052436 0 0.015333787533320299 0.011458951098493989 0 0.015542428191172615 0.011560730118938127 0 0.015333787533320299 0.011458951098493989 0 0.015468726136278274 0.011521160874017529 0 0.015228399301757185 0.011814278141052436 0 0.015293976975381448 0.011510830215643659 0 0.015333787533320299 0.011458951098493989 0 0.015228399301757185 0.011814278141052436 0 0.015293976975381448 0.011510830215643659 0 0.015028613752619012 0.012343324725009829 0 0.014825900340382626 0.014006931910416687 0 0.014956268114471533 0.013259648603652311 0 0.014998766796375292 0.011352374211935971 0 0.015293976975381448 0.011510830215643659 0 0.015028613752619012 0.012343324725009829 0 0.015036375489239726 0.01230092669829199 0 0.015293976975381448 0.011510830215643659 0 0.015036375489239726 0.01230092669829199 0 0.014998766796375292 0.011352374211935971 0 0.014956268114471533 0.013259648603652311 0 0.015036375489239726 0.01230092669829199 0 0.014998766796375292 0.011352374211935971 0 0.014956268114471533 0.013259648603652311 0 0.015036375489239726 0.01230092669829199 0 0.014929452898189203 0.012986637835276893 0 0.014778903976927181 0.013070992585647033 0 0.014929452898189203 0.012986637835276893 0 0.014849428693036343 0.013371942678194124 0 0.014956268114471533 0.013259648603652311 0 0.014929452898189203 0.012986637835276893 0 0.014849428693036343 0.013371942678194124 0 0.015028613752619012 0.012343324725009829 0 0.015036375489239726 0.01230092669829199 0 0.014929452898189203 0.012986637835276893 0 0.014778903976927181 0.013070992585647033 0 0.015028613752619012 0.012343324725009829 0 0.014929452898189203 0.012986637835276893 0 0.01127138596035545 0.01364748693234733 0 0.011475839058855693 0.013117288864842862 0 0.011948478352597415 0.01373412378700014 0 0.01127138596035545 0.01364748693234733 0 0.011009812992298673 0.013430121397313468 0 0.011475839058855693 0.013117288864842862 0 0.01127138596035545 0.01364748693234733 0 0.01110059495434235 0.013887326911028439 0 0.010993415248557851 0.013793685077822852 0 0.01127138596035545 0.01364748693234733 0 0.01110059495434235 0.013887326911028439 0 0.011194805686186885 0.014039168467012423 0 0.01110059495434235 0.013887326911028439 0 0.011194805686186885 0.014039168467012423 0 0.010954400044881039 0.014048184033204639 0 0.01127138596035545 0.01364748693234733 0 0.011576365804155596 0.014026861478544978 0 0.011948478352597415 0.01373412378700014 0 0.01127138596035545 0.01364748693234733 0 0.011576365804155596 0.014026861478544978 0 0.011194805686186885 0.014039168467012423 0 0.010007547019200928 0.015072431686673939 0 0.0093740134256828211 0.015193321409964976 0 0.011576365804155596 0.014026861478544978 0 0.011450188522622091 0.014433461255405565 0 0.011895835497777332 0.014311251771930072 0 0.011576365804155596 0.014026861478544978 0 0.011450188522622091 0.014433461255405565 0 0.011194805686186885 0.014039168467012423 0 0.0085227762260149734 0.01585387388162858 0 0.0075773992384238374 0.014998726027083173 0 0.010685490808950128 0.014622627058562963 0 0.0085227762260149734 0.01585387388162858 0 0.0075773992384238374 0.014998726027083173 0 0.0073846420017520857 0.015436283889894962 0 0.007576116735276737 0.014999995252166564 0 0.0084125092057031874 0.015252052635679166 0 0.008474853711180199 0.015000004458896307 0 0.0075767584535030384 0.014999949015755989 0 0.0095605822916210673 0.014968619092664132 0 0.010007547019200928 0.015072431686673939 0 0.010641013761563381 0.014736755210400203 0 0.0085227762260149734 0.01585387388162858 0 0.010685490808950128 0.014622627058562963 0 0.010767357576553905 0.014609328513876604 0 0.011450188522622091 0.014433461255405565 0 0.010983505752892532 0.014257080861626498 0 0.010767357576553905 0.014609328513876604 0 0.011450188522622091 0.014433461255405565 0 0.010983505752892532 0.014257080861626498 0 0.011194805686186885 0.014039168467012423 0 0.010983505752892532 0.014257080861626498 0 0.011194805686186885 0.014039168467012423 0 0.010954400044881039 0.014048184033204639 0 0.010983505752892532 0.014257080861626498 0 0.010954400044881039 0.014048184033204639 0 0.010833557510981381 0.014196822017748559 0 0.010833557510981381 0.014196822017748559 0 0.010767357576553905 0.014609328513876604 0 0.01082833309101724 0.0141586255302495 0 0.010954400044881039 0.014048184033204639 0 0.010833557510981381 0.014196822017748559 0 0.010851795719118514 0.014015893687403313 0 0.010983505752892532 0.014257080861626498 0 0.010833557510981381 0.014196822017748559 0 0.010767357576553905 0.014609328513876604 0 0.010685490808950128 0.014622627058562963 0 0.010767357576553905 0.014609328513876604 0 0.01082833309101724 0.0141586255302495 0 0.0084125092057031874 0.015252052635679166 0 0.0088868493332122257 0.015188939519322051 0 0.0092817107427526583 0.0154585221842052 0 0.0095605822916210673 0.014968619092664132 0 0.010061759535885688 0.014814200736630234 0 0.0084125092057031874 0.015252052635679166 0 0.0088868493332122257 0.015188939519322051 0 0.008474853711180199 0.015000004458896307 0 0.0088868493332122257 0.015188939519322051 0 0.0093736947405328123 0.014999917350273291 0 0.0092817107427526583 0.0154585221842052 0 0.0088868493332122257 0.015188939519322051 0 0.008474853711180199 0.015000004458896307 0 0.0093736947405328123 0.014999917350273291 0 0.01082833309101724 0.0141586255302495 0 0.010841848749195335 0.013953160983911288 0 0.010851795719118514 0.014015893687403313 0 0.010833557510981381 0.014196822017748559 0 0.01082833309101724 0.0141586255302495 0 0.010851795719118514 0.014015893687403313 0 0.010841848749195335 0.013953160983911288 0 0.010851795719118514 0.014015893687403313 0 0.010899105404037202 0.01375249162689474 0 0.010954400044881039 0.014048184033204639 0 0.010851795719118514 0.014015893687403313 0 0.010993415248557851 0.013793685077822852 0 0.01110059495434235 0.013887326911028439 0 0.010954400044881039 0.014048184033204639 0 0.010993415248557851 0.013793685077822852 0 0.010851795719118514 0.014015893687403313 0 0.010993415248557851 0.013793685077822852 0 0.010899105404037202 0.01375249162689474 0 0.010993415248557851 0.013793685077822852 0 0.011009812992298673 0.013430121397313468 0 0.010899105404037202 0.01375249162689474 0 0.01127138596035545 0.01364748693234733 0 0.010993415248557851 0.013793685077822852 0 0.011009812992298673 0.013430121397313468 0 0.011009812992298673 0.013430121397313468 0 0.010863453013890832 0.013579514497074304 0 0.010899105404037202 0.01375249162689474 0 0.010841848749195335 0.013953160983911288 0 0.010863453013890832 0.013579514497074304 0 0.010899105404037202 0.01375249162689474 0 0.010863453013890832 0.013579514497074304 0 0.010843558427343237 0.01385531303865716 0 0.010817254041754178 0.013380523385132939 0 0.010841848749195335 0.013953160983911288 0 0.010863453013890832 0.013579514497074304 0 0.010843558427343237 0.01385531303865716 0 0.010843558427343237 0.01385531303865716 0 0.010911054950974481 0.013976133582084134 0 0.010817254041754178 0.013380523385132939 0 0.010843558427343237 0.01385531303865716 0 0.010850727830362547 0.014146151603783689 0 0.010911054950974481 0.013976133582084134 0 0.010841848749195335 0.013953160983911288 0 0.010843558427343237 0.01385531303865716 0 0.010850727830362547 0.014146151603783689 0 0.010061759535885688 0.014814200736630234 0 0.010523604635740605 0.014757986353079419 0 0.0092817107427526583 0.0154585221842052 0 0.0098263680544270066 0.01523001693428846 0 0.010270190672869276 0.015397965704121285 0 0.01082833309101724 0.0141586255302495 0 0.010841848749195335 0.013953160983911288 0 0.010850727830362547 0.014146151603783689 0 0.0093736947405328123 0.014999917350273291 0 0.0098263680544270066 0.01523001693428846 0 0.010272678058623788 0.014999680770536043 0 0.0093736947405328123 0.014999917350273291 0 0.0092817107427526583 0.0154585221842052 0 0.0098263680544270066 0.01523001693428846 0 0.0098263680544270066 0.01523001693428846 0 0.010272678058623788 0.014999680770536043 0 0.010270190672869276 0.015397965704121285 0 0.010270190672869276 0.015397965704121285 0 0.010786666117504966 0.015055890692518527 0 0.010924723756828895 0.014708967979865472 0 0.010523604635740605 0.014757986353079419 0 0.010839303337876929 0.014710171570181113 0 0.010272678058623788 0.014999680770536043 0 0.010786666117504966 0.015055890692518527 0 0.011170854129847562 0.014999702177885333 0 0.010272678058623788 0.014999680770536043 0 0.010270190672869276 0.015397965704121285 0 0.010786666117504966 0.015055890692518527 0 0.011610032607449491 0.015048653685871946 0 0.010786666117504966 0.015055890692518527 0 0.011170854129847562 0.014999702177885333 0 0.011610032607449491 0.015048653685871946 0 0.010786666117504966 0.015055890692518527 0 0.010924723756828895 0.014708967979865472 0 0.010850727830362547 0.014146151603783689 0 0.010924723756828895 0.014708967979865472 0 0.010911054950974481 0.013976133582084134 0 0.010911054950974481 0.013976133582084134 0 0.010797949725258807 0.013826228219320096 0 0.010882911170500439 0.013548138392515575 0 0.010924723756828895 0.014708967979865472 0 0.010911054950974481 0.013976133582084134 0 0.010797949725258807 0.013826228219320096 0 0.01057219337257531 0.014040387610338354 0 0.010924723756828895 0.014708967979865472 0 0.010797949725258807 0.013826228219320096 0 0.0103974055837542 0.013351737736200003 0 0.010797949725258807 0.013826228219320096 0 0.010945639337906788 0.01327320041040214 0 0.01057219337257531 0.014040387610338354 0 0.0103974055837542 0.013351737736200003 0 0.010797949725258807 0.013826228219320096 0 0.010797949725258807 0.013826228219320096 0 0.010882911170500439 0.013548138392515575 0 0.010945639337906788 0.01327320041040214 0 0.010945639337906788 0.01327320041040214 0 0.010832238812222948 0.012245915076979131 0 0.012625571297392115 0.011839548686829933 0 0.010882911170500439 0.013548138392515575 0 0.010945639337906788 0.01327320041040214 0 0.010840327449373513 0.013301825866758219 0 0.0103974055837542 0.013351737736200003 0 0.010945639337906788 0.01327320041040214 0 0.010832238812222948 0.012245915076979131 0 0.012491848639456602 0.011676247637089585 0 0.012420671741164327 0.011374448357363186 0 0.014945229509896196 0.011043537388377222 0 0.013978535120298459 0.011052650112788864 0 0.013954835535164476 0.010478485566967422 0 0.014815197961820417 0.010353220106541945 0 0.014945229509896196 0.011043537388377222 0 0.013954835535164476 0.010478485566967422 0 0.014685005962157275 0.011333061753601846 0 0.013978535120298459 0.011052650112788864 0 0.01404989929668979 0.011797568533099672 0 0.014945229509896196 0.011043537388377222 0 0.014685005962157275 0.011333061753601846 0 0.013978535120298459 0.011052650112788864 0 0.013978535120298459 0.011052650112788864 0 0.012778731691634378 0.01079459317530602 0 0.01404989929668979 0.011797568533099672 0 0.012778731691634378 0.01079459317530602 0 0.012475089893965306 0.010415371908287502 0 0.01204184241439742 0.010256457676136511 0 0.01284667822042042 0.010805616578651641 0 0.012818767247039984 0.011004226880498126 0 0.013978535120298459 0.011052650112788864 0 0.013954835535164476 0.010478485566967422 0 0.012778731691634378 0.01079459317530602 0 0.012420671741164327 0.011374448357363186 0 0.012454139393676332 0.010896978802533245 0 0.013954835535164476 0.010478485566967422 0 0.012778731691634378 0.01079459317530602 0 0.012451605543393168 0.010813716935146865 0 0.010832238812222948 0.012245915076979131 0 0.012625571297392115 0.011839548686829933 0 0.012451605543393168 0.010813716935146865 0 0.012778731691634378 0.01079459317530602 0 0.012451605543393168 0.010813716935146865 0 0.012475089893965306 0.010415371908287502 0 0.012451605543393168 0.010813716935146865 0 0.012590485222580147 0.0104037438582641 0 0.012842010299462574 0.010304938698965293 0 0.012451605543393168 0.010813716935146865 0 0.012590485222580147 0.0104037438582641 0 0.012475089893965306 0.010415371908287502 0 0.012451605543393168 0.010813716935146865 0 0.012842010299462574 0.010304938698965293 0 0.013210340372888586 0.010603185568345467 0 0.011630893712132943 0.012448588302060993 0 0.01195139488517849 0.011554358874943408 0 0.010705160701989434 0.013066119418614491 0 0.010787371306898098 0.012999475383342621 0 0.010697934474133327 0.012477446692990444 0 0.012625571297392115 0.011839548686829933 0 0.012451605543393168 0.010813716935146865 0 0.013210340372888586 0.010603185568345467 0 0.010817254041754178 0.013380523385132939 0 0.010894091655625233 0.013230133878108803 0 0.010787371306898098 0.012999475383342621 0 0.010705160701989434 0.013066119418614491 0 0.010817254041754178 0.013380523385132939 0 0.010787371306898098 0.012999475383342621 0 0.010973162699325462 0.01319958019075985 0 0.011630893712132943 0.012448588302060993 0 0.010945639337906788 0.01327320041040214 0 0.010705160701989434 0.013066119418614491 0 0.010840327449373513 0.013301825866758219 0 0.010705160701989434 0.013066119418614491 0 0.010840327449373513 0.013301825866758219 0 0.010817254041754178 0.013380523385132939 0 0.010911054950974481 0.013976133582084134 0 0.010882911170500439 0.013548138392515575 0 0.010817254041754178 0.013380523385132939 0 0.010882911170500439 0.013548138392515575 0 0.010840327449373513 0.013301825866758219 0 0.010817254041754178 0.013380523385132939 0 0.010863453013890832 0.013579514497074304 0 0.010817254041754178 0.013380523385132939 0 0.010894091655625233 0.013230133878108803 0 0.011009812992298673 0.013430121397313468 0 0.010863453013890832 0.013579514497074304 0 0.010894091655625233 0.013230133878108803 0 0.011009812992298673 0.013430121397313468 0 0.010894091655625233 0.013230133878108803 0 0.01100362988988462 0.012885045323125089 0 0.01100362988988462 0.012885045323125089 0 0.010787371306898098 0.012999475383342621 0 0.010974587548860824 0.012354476442026956 0 0.010894091655625233 0.013230133878108803 0 0.01100362988988462 0.012885045323125089 0 0.010787371306898098 0.012999475383342621 0 0.010787371306898098 0.012999475383342621 0 0.010697934474133327 0.012477446692990444 0 0.010974587548860824 0.012354476442026956 0 0.01195139488517849 0.011554358874943408 0 0.012070300410706888 0.01084681762457217 0 0.010697934474133327 0.012477446692990444 0 0.010974587548860824 0.012354476442026956 0 0.01085321416830304 0.011758876530819737 0 0.010974587548860824 0.012354476442026956 0 0.011227799832651464 0.011821804600807301 0 0.011370716600598766 0.012555033878186159 0 0.01100362988988462 0.012885045323125089 0 0.010974587548860824 0.012354476442026956 0 0.011370716600598766 0.012555033878186159 0 0.010974587548860824 0.012354476442026956 0 0.011227799832651464 0.011821804600807301 0 0.01085321416830304 0.011758876530819737 0 0.011216571636392191 0.011770418014930945 0 0.011681801356855009 0.011409157866969499 0 0.011227799832651464 0.011821804600807301 0 0.011543796965285725 0.012140685316880914 0 0.011727951884106585 0.011718568101481934 0 0.011227799832651464 0.011821804600807301 0 0.011543796965285725 0.012140685316880914 0 0.011370716600598766 0.012555033878186159 0 0.011543796965285725 0.012140685316880914 0 0.011370716600598766 0.012555033878186159 0 0.011780261802520783 0.012452211940240241 0 0.011370716600598766 0.012555033878186159 0 0.011475839058855693 0.013117288864842862 0 0.011780261802520783 0.012452211940240241 0 0.01100362988988462 0.012885045323125089 0 0.011370716600598766 0.012555033878186159 0 0.011475839058855693 0.013117288864842862 0 0.011009812992298673 0.013430121397313468 0 0.01100362988988462 0.012885045323125089 0 0.011475839058855693 0.013117288864842862 0 0.013060289883856595 0.0092486288505124574 0 0.013089972835445999 0.0092494993181321938 0 0.013086225704773425 0.0091517258103372707 0 0.013134451920131497 0.0093279279931835178 0 0.013164572132120415 0.0095032021679912083 0 0.013089972835445999 0.0092494993181321938 0 0.013060289883856595 0.0092486288505124574 0 0.013134451920131497 0.0093279279931835178 0 0.013089972835445999 0.0092494993181321938 0 0.013060289883856595 0.0092486288505124574 0 0.013134451920131497 0.0093279279931835178 0 0.01291003279084612 0.0091470821588428217 0 0.012212777896988544 0.010175925487381023 0 0.012245166330609321 0.0096472269704860163 0 0.013134451920131497 0.0093279279931835178 0 0.013201043426129338 0.0094562913662002788 0 0.01291003279084612 0.0091470821588428217 0 0.011227799832651464 0.011821804600807301 0 0.011223572510721804 0.010888264164244044 0 0.011697730689668867 0.01107345218098992 0 0.012212777896988544 0.010175925487381023 0 0.012070300410706888 0.01084681762457217 0 0.013201043426129338 0.0094562913662002788 0 0.013164572132120415 0.0095032021679912083 0 0.013276287426766674 0.0099392140706824287 0 0.011227799832651464 0.011821804600807301 0 0.011223572510721804 0.010888264164244044 0 0.01085321416830304 0.011758876530819737 0 0.013134451920131497 0.0093279279931835178 0 0.013201043426129338 0.0094562913662002788 0 0.013164572132120415 0.0095032021679912083 0 0.013164572132120415 0.0095032021679912083 0 0.013276287426766674 0.0099392140706824287 0 0.013045966909493516 0.009841957326816397 0 0.013210340372888586 0.010603185568345467 0 0.013276287426766674 0.0099392140706824287 0 0.013045966909493516 0.009841957326816397 0 0.013164572132120415 0.0095032021679912083 0 0.013045966909493516 0.009841957326816397 0 0.013025436669171641 0.0093515506004022003 0 0.013045966909493516 0.009841957326816397 0 0.013025436669171641 0.0093515506004022003 0 0.01285685290481902 0.0094168530612787054 0 0.013164572132120415 0.0095032021679912083 0 0.013025436669171641 0.0093515506004022003 0 0.013089972835445999 0.0092494993181321938 0 0.013025436669171641 0.0093515506004022003 0 0.013089972835445999 0.0092494993181321938 0 0.012906892404269286 0.0090822401033591408 0 0.013025436669171641 0.0093515506004022003 0 0.01285685290481902 0.0094168530612787054 0 0.012906892404269286 0.0090822401033591408 0 0.01285685290481902 0.0094168530612787054 0 0.012825962135606469 0.0090605576073235702 0 0.012906892404269286 0.0090822401033591408 0 0.012793465800137748 0.0091867297014824618 0 0.01285685290481902 0.0094168530612787054 0 0.012825962135606469 0.0090605576073235702 0 0.012239877469875373 0.0091138717959878789 0 0.013008058465538578 0.0094626516327115159 0 0.012445002589649382 0.0092270674136141206 0 0.012553360531189078 0.0095807245001146724 0 0.01285685290481902 0.0094168530612787054 0 0.012445002589649382 0.0092270674136141206 0 0.012553360531189078 0.0095807245001146724 0 0.012165458749075849 0.0096801454408635777 0 0.013045966909493516 0.009841957326816397 0 0.01285685290481902 0.0094168530612787054 0 0.012612577303178269 0.0099751766709864961 0 0.012842010299462574 0.010304938698965293 0 0.013045966909493516 0.009841957326816397 0 0.012612577303178269 0.0099751766709864961 0 0.012842010299462574 0.010304938698965293 0 0.013210340372888586 0.010603185568345467 0 0.013045966909493516 0.009841957326816397 0 0.012590485222580147 0.0104037438582641 0 0.012475089893965306 0.010415371908287502 0 0.012612577303178269 0.0099751766709864961 0 0.012590485222580147 0.0104037438582641 0 0.012842010299462574 0.010304938698965293 0 0.012612577303178269 0.0099751766709864961 0 0.012475089893965306 0.010415371908287502 0 0.012612577303178269 0.0099751766709864961 0 0.012344307125882919 0.009996440648440956 0 0.012553360531189078 0.0095807245001146724 0 0.01285685290481902 0.0094168530612787054 0 0.012612577303178269 0.0099751766709864961 0 0.012553360531189078 0.0095807245001146724 0 0.012612577303178269 0.0099751766709864961 0 0.012344307125882919 0.009996440648440956 0 0.012553360531189078 0.0095807245001146724 0 0.012165458749075849 0.0096801454408635777 0 0.012344307125882919 0.009996440648440956 0 0.012165458749075849 0.0096801454408635777 0 0.012344307125882919 0.009996440648440956 0 0.01204184241439742 0.010256457676136511 0 0.012475089893965306 0.010415371908287502 0 0.012344307125882919 0.009996440648440956 0 0.01204184241439742 0.010256457676136511 0 0.014685005962157275 0.011333061753601846 0 0.01404989929668979 0.011797568533099672 0 0.015303379383497318 0.01164631614702266 0 0.01404989929668979 0.011797568533099672 0 0.014992705163508223 0.012602309832872959 0 0.015303379383497318 0.01164631614702266 0 0.012818767247039984 0.011004226880498126 0 0.014850861765572421 0.010724265030165627 0 0.012165458749075849 0.0096801454408635777 0 0.01204184241439742 0.010256457676136511 0 0.011712824074840894 0.0097694366972139821 0 0.014850861765572421 0.010724265030165627 0 0.014226265874419251 0.0094587674140090734 0 0.012165458749075849 0.0096801454408635777 0 0.011712824074840894 0.0097694366972139821 0 0.011868121201426211 0.0093552844456480707 0 0.012445002589649382 0.0092270674136141206 0 0.012165458749075849 0.0096801454408635777 0 0.011868121201426211 0.0093552844456480707 0 0.012239877469875373 0.0091138717959878789 0 0.014280764595030018 0.0090967329009023785 0 0.012793465800137748 0.0091867297014824618 0 0.012722806837978894 0.0091336094115859502 0 0.012901647759393543 0.0089400199022501899 0 0.012445002589649382 0.0092270674136141206 0 0.011868121201426211 0.0093552844456480707 0 0.01200629245461894 0.0089730019194885855 0 0.014226265874419251 0.0094587674140090734 0 0.014280764595030018 0.0090967329009023785 0 0.016591873911434598 0.0097482802825162741 0 0.016770142357044892 0.0092798650337219679 0 0.016203956823876962 0.0094123990507892375 0 0.014280764595030018 0.0090967329009023785 0 0.016862317619293007 0.0090128556808878619 0 0.015955623190292333 0.0087393852354406745 0 0.015980305932358576 0.0087631855699746661 0 0.016084350735959811 0.0088553741908606511 0 0.015955623190292333 0.0087393852354406745 0 0.015980305932358576 0.0087631855699746661 0 0.015981795877799874 0.0086941007592213591 0 0.014280764595030018 0.0090967329009023785 0 0.014445396067935205 0.0086368244472295741 0 0.012722806837978894 0.0091336094115859502 0 0.012901647759393543 0.0089400199022501899 0 0.012876441506727891 0.0086524463104783057 0 0.012901647759393543 0.0089400199022501899 0 0.012876441506727891 0.0086524463104783057 0 0.013440631748428727 0.0082869479775225987 0 0.015980305932358576 0.0087631855699746661 0 0.015981795877799874 0.0086941007592213591 0 0.015877554181370913 0.0085880658567541596 0 0.015980305932358576 0.0087631855699746661 0 0.015877554181370913 0.0085880658567541596 0 0.015906433868485108 0.0086540898764172793 0 0.015877554181370913 0.0085880658567541596 0 0.015730829456707712 0.0083981528322168396 0 0.015918009285033372 0.0083280916476502122 0 0.015730829456707712 0.0083981528322168396 0 0.015918009285033372 0.0083280916476502122 0 0.015626643407683653 0.0080309455387498913 0 0.015730829456707712 0.0083981528322168396 0 0.015456138924101775 0.0080465921464143685 0 0.015626643407683653 0.0080309455387498913 0 0.015918009285033372 0.0083280916476502122 0 0.015626643407683653 0.0080309455387498913 0 0.015771860113980424 0.0078360566752562616 0 0.014445396067935205 0.0086368244472295741 0 0.014647087012401796 0.008118640661425652 0 0.012876441506727891 0.0086524463104783057 0 0.013406812553551891 0.0078324243090713234 0 0.013440631748428727 0.0082869479775225987 0 0.015981795877799874 0.0086941007592213591 0 0.015877554181370913 0.0085880658567541596 0 0.015918009285033372 0.0083280916476502122 0 0.013440631748428727 0.0082869479775225987 0 0.014001336477734945 0.0077141480156310855 0 0.013917219741430516 0.0084251828249044709 0 0.013406812553551891 0.0078324243090713234 0 0.013440631748428727 0.0082869479775225987 0 0.014001336477734945 0.0077141480156310855 0 0.013406812553551891 0.0078324243090713234 0 0.014001336477734945 0.0077141480156310855 0 0.013867989871993402 0.0073923533895419863 0 0.014647087012401796 0.008118640661425652 0 0.014804381348943817 0.0076405997296039203 0 0.014001336477734945 0.0077141480156310855 0 0.013917219741430516 0.0084251828249044709 0 0.014392173278722583 0.0078795078588624438 0 0.013336966041817496 0.0086631953177486697 0 0.013604371634877981 0.0082703730045246612 0 0.01293259041873087 0.0089252545597943538 0 0.013336966041817496 0.0086631953177486697 0 0.012901647759393543 0.0089400199022501899 0 0.013440631748428727 0.0082869479775225987 0 0.013917219741430516 0.0084251828249044709 0 0.012793465800137748 0.0091867297014824618 0 0.012901647759393543 0.0089400199022501899 0 0.012825962135606469 0.0090605576073235702 0 0.012901647759393543 0.0089400199022501899 0 0.01278658378317408 0.0089251321174147243 0 0.012825962135606469 0.0090605576073235702 0 0.01278658378317408 0.0089251321174147243 0 0.012825962135606469 0.0090605576073235702 0 0.012906892404269286 0.0090822401033591408 0 0.012906892404269286 0.0090822401033591408 0 0.012882135916813064 0.0089150402704397374 0 0.013008231899082555 0.0089471556417481234 0 0.013089972835445999 0.0092494993181321938 0 0.012906892404269286 0.0090822401033591408 0 0.013008231899082555 0.0089471556417481234 0 0.012882135916813064 0.0089150402704397374 0 0.012820237144343162 0.0086631153654149248 0 0.013008231899082555 0.0089471556417481234 0 0.01278658378317408 0.0089251321174147243 0 0.012882135916813064 0.0089150402704397374 0 0.012820237144343162 0.0086631153654149248 0 0.01278658378317408 0.0089251321174147243 0 0.012906892404269286 0.0090822401033591408 0 0.012882135916813064 0.0089150402704397374 0 0.014392173278722583 0.0078795078588624438 0 0.014455696600895558 0.0075508746778739618 0 0.014392972260160295 0.0074500305115841109 0 0.014001336477734945 0.0077141480156310855 0 0.014392173278722583 0.0078795078588624438 0 0.014392972260160295 0.0074500305115841109 0 0.012820237144343162 0.0086631153654149248 0 0.013067431220103733 0.0082181627659004743 0 0.013008231899082555 0.0089471556417481234 0 0.013604371634877981 0.0082703730045246612 0 0.013765591751097877 0.0078938927517689991 0 0.013067431220103733 0.0082181627659004743 0 0.013415775682956975 0.0083625009217373394 0 0.013008231899082555 0.0089471556417481234 0 0.013765591751097877 0.0078938927517689991 0 0.01389573156783242 0.0076964036500853207 0 0.013067431220103733 0.0082181627659004743 0 0.013415775682956975 0.0083625009217373394 0 0.013901191314086823 0.0076745848453431461 0 0.013415775682956975 0.0083625009217373394 0 0.013008231899082555 0.0089471556417481234 0 0.013169049828266718 0.0091024832842801738 0 0.013008231899082555 0.0089471556417481234 0 0.013086225704773425 0.0091517258103372707 0 0.013169049828266718 0.0091024832842801738 0 0.013089972835445999 0.0092494993181321938 0 0.013008231899082555 0.0089471556417481234 0 0.013086225704773425 0.0091517258103372707 0 0.013060289883856595 0.0092486288505124574 0 0.013086225704773425 0.0091517258103372707 0 0.013169049828266718 0.0091024832842801738 0 0.014998766796375292 0.011352374211935971 0 0.015269618405664492 0.010177206204381974 0 0.014999691050304969 0.0091126841890988974 0 0.01567726212419385 0.009908840683720381 0 0.015269618405664492 0.010177206204381974 0 0.015349984745918017 0.0093469849246814226 0 0.01567726212419385 0.009908840683720381 0 0.015269618405664492 0.010177206204381974 0 0.015332200824361432 0.010744802427360848 0 0.01567726212419385 0.009908840683720381 0 0.015872872553422665 0.0095300418374067702 0 0.015704930400636617 0.0093433627864270962 0 0.01567726212419385 0.009908840683720381 0 0.015704930400636617 0.0093433627864270962 0 0.015349984745918017 0.0093469849246814226 0 0.015269618405664492 0.010177206204381974 0 0.014999691050304969 0.0091126841890988974 0 0.015349984745918017 0.0093469849246814226 0 0.015293976975381448 0.011510830215643659 0 0.014998766796375292 0.011352374211935971 0 0.015332200824361432 0.010744802427360848 0 0.014998766796375292 0.011352374211935971 0 0.015269618405664492 0.010177206204381974 0 0.015332200824361432 0.010744802427360848 0 0.01567726212419385 0.009908840683720381 0 0.015332200824361432 0.010744802427360848 0 0.015951868509062828 0.010618365117218049 0 0.015293976975381448 0.011510830215643659 0 0.015332200824361432 0.010744802427360848 0 0.015951868509062828 0.010618365117218049 0 0.015309646506198395 0.011459840041966542 0 0.015522045410532689 0.01093409330172917 0 0.015293976975381448 0.011510830215643659 0 0.015333787533320299 0.011458951098493989 0 0.015121518374109952 0.011276945371499945 0 0.015333787533320299 0.011458951098493989 0 0.015383204851823675 0.01122944001258672 0 0.015468726136278274 0.011521160874017529 0 0.015333787533320299 0.011458951098493989 0 0.015383204851823675 0.01122944001258672 0 0.015121518374109952 0.011276945371499945 0 0.015383204851823675 0.01122944001258672 0 0.015121518374109952 0.011276945371499945 0 0.015064032127288213 0.010589327310029753 0 0.015522045410532689 0.01093409330172917 0 0.015619945563475008 0.010201271753861584 0 0.015303379383497318 0.01164631614702266 0 0.015468726136278274 0.011521160874017529 0 0.015579657902131455 0.011280916101576003 0 0.015383204851823675 0.01122944001258672 0 0.015468726136278274 0.011521160874017529 0 0.015579657902131455 0.011280916101576003 0 0.015383204851823675 0.01122944001258672 0 0.015579657902131455 0.011280916101576003 0 0.015607989726238992 0.010806669145780226 0 0.014850861765572421 0.010724265030165627 0 0.01528793062587259 0.011972288248926185 0 0.01585028517193127 0.011219561074821976 0 0.015579657902131455 0.011280916101576003 0 0.015949883101325807 0.010687831571088382 0 0.01585028517193127 0.011219561074821976 0 0.015303379383497318 0.01164631614702266 0 0.015579657902131455 0.011280916101576003 0 0.014850861765572421 0.010724265030165627 0 0.016174721666341832 0.01028522872530822 0 0.016438825577458349 0.010186591316306214 0 0.016591873911434598 0.0097482802825162741 0 0.01613066588911518 0.0098025891617646039 0 0.015949883101325807 0.010687831571088382 0 0.015607989726238992 0.010806669145780226 0 0.015911766877539431 0.0096197207536832217 0 0.015579657902131455 0.011280916101576003 0 0.015949883101325807 0.010687831571088382 0 0.015607989726238992 0.010806669145780226 0 0.015911766877539431 0.0096197207536832217 0 0.016203956823876962 0.0094123990507892375 0 0.016050705826760898 0.0091831637928922721 0 0.01613066588911518 0.0098025891617646039 0 0.015911766877539431 0.0096197207536832217 0 0.016203956823876962 0.0094123990507892375 0 0.016174721666341832 0.01028522872530822 0 0.015805733385714865 0.0096316234779809003 0 0.015911766877539431 0.0096197207536832217 0 0.016050705826760898 0.0091831637928922721 0 0.015938205307625977 0.0092345901449265126 0 0.016591873911434598 0.0097482802825162741 0 0.01613066588911518 0.0098025891617646039 0 0.016203956823876962 0.0094123990507892375 0 0.01567726212419385 0.009908840683720381 0 0.015951868509062828 0.010618365117218049 0 0.016151155609326697 0.0098364268681611633 0 0.015607989726238992 0.010806669145780226 0 0.015911766877539431 0.0096197207536832217 0 0.015064032127288213 0.010589327310029753 0 0.015383204851823675 0.01122944001258672 0 0.015607989726238992 0.010806669145780226 0 0.015064032127288213 0.010589327310029753 0 0.016151155609326697 0.0098364268681611633 0 0.015995817380639619 0.0090929993427554291 0 0.015938205307625977 0.0092345901449265126 0 0.015619945563475008 0.010201271753861584 0 0.01592712844858132 0.0093359148743310215 0 0.015911766877539431 0.0096197207536832217 0 0.015064032127288213 0.010589327310029753 0 0.015938205307625977 0.0092345901449265126 0 0.01567726212419385 0.009908840683720381 0 0.016151155609326697 0.0098364268681611633 0 0.015872872553422665 0.0095300418374067702 0 0.016151155609326697 0.0098364268681611633 0 0.015872872553422665 0.0095300418374067702 0 0.015995817380639619 0.0090929993427554291 0 0.015872872553422665 0.0095300418374067702 0 0.015995817380639619 0.0090929993427554291 0 0.015704930400636617 0.0093433627864270962 0 0.015995817380639619 0.0090929993427554291 0 0.015972759188638101 0.0085419167804127484 0 0.015812200273777478 0.0088433975700839811 0 0.016011783968997405 0.0090927084246702396 0 0.015771589739202809 0.0090961628956211689 0 0.015995817380639619 0.0090929993427554291 0 0.016143823944115905 0.0087085947246813393 0 0.015938205307625977 0.0092345901449265126 0 0.015995817380639619 0.0090929993427554291 0 0.016143823944115905 0.0087085947246813393 0 0.015972759188638101 0.0085419167804127484 0 0.016143823944115905 0.0087085947246813393 0 0.015972759188638101 0.0085419167804127484 0 0.016192053488741278 0.0082889296467930935 0 0.016203956823876962 0.0094123990507892375 0 0.016084350735959811 0.0088553741908606511 0 0.016050705826760898 0.0091831637928922721 0 0.016770142357044892 0.0092798650337219679 0 0.016203956823876962 0.0094123990507892375 0 0.016084350735959811 0.0088553741908606511 0 0.016143823944115905 0.0087085947246813393 0 0.016084350735959811 0.0088553741908606511 0 0.016050705826760898 0.0091831637928922721 0 0.016143823944115905 0.0087085947246813393 0 0.016050705826760898 0.0091831637928922721 0 0.015938205307625977 0.0092345901449265126 0 0.016143823944115905 0.0087085947246813393 0 0.016084350735959811 0.0088553741908606511 0 0.015906433868485108 0.0086540898764172793 0 0.015980305932358576 0.0087631855699746661 0 0.016084350735959811 0.0088553741908606511 0 0.015906433868485108 0.0086540898764172793 0 0.015730829456707712 0.0083981528322168396 0 0.015906433868485108 0.0086540898764172793 0 0.015726070129288245 0.0084954852879977737 0 0.015877554181370913 0.0085880658567541596 0 0.015730829456707712 0.0083981528322168396 0 0.015906433868485108 0.0086540898764172793 0 0.016143823944115905 0.0087085947246813393 0 0.015906433868485108 0.0086540898764172793 0 0.015726070129288245 0.0084954852879977737 0 0.016161256604812806 0.0086421026744171146 0 0.01627414844670555 0.0082382438229221186 0 0.016815211844899144 0.0080391494699186359 0 0.01671517444887425 0.0075182177676598825 0 0.017138021085783803 0.007423994286524082 0 0.016815211844899144 0.0080391494699186359 0 0.01633934033346365 0.007777801846011941 0 0.01671517444887425 0.0075182177676598825 0 0.01627414844670555 0.0082382438229221186 0 0.016295816167528499 0.0077234480812899409 0 0.015730829456707712 0.0083981528322168396 0 0.015726070129288245 0.0084954852879977737 0 0.015456138924101775 0.0080465921464143685 0 0.015972759188638101 0.0085419167804127484 0 0.016192053488741278 0.0082889296467930935 0 0.015972226467741608 0.0079135931797429965 0 0.016143823944115905 0.0087085947246813393 0 0.016815211844899144 0.0080391494699186359 0 0.016192053488741278 0.0082889296467930935 0 0.016815211844899144 0.0080391494699186359 0 0.016192053488741278 0.0082889296467930935 0 0.01633934033346365 0.007777801846011941 0 0.01633934033346365 0.007777801846011941 0 0.015972226467741608 0.0079135931797429965 0 0.016099495045303249 0.0071637175560157959 0 0.016192053488741278 0.0082889296467930935 0 0.01633934033346365 0.007777801846011941 0 0.015972226467741608 0.0079135931797429965 0 0.015972759188638101 0.0085419167804127484 0 0.015972226467741608 0.0079135931797429965 0 0.015594929273879548 0.008353334653123233 0 0.015972226467741608 0.0079135931797429965 0 0.015594929273879548 0.008353334653123233 0 0.015602274026594216 0.0071271819609625905 0 0.015972759188638101 0.0085419167804127484 0 0.015594929273879548 0.008353334653123233 0 0.015812200273777478 0.0088433975700839811 0 0.015594929273879548 0.008353334653123233 0 0.015812200273777478 0.0088433975700839811 0 0.015462391351881015 0.0088917340330755493 0 0.015771589739202809 0.0090961628956211689 0 0.015386800027735365 0.0091158947241199821 0 0.015594929273879548 0.008353334653123233 0 0.014999951634025325 0.0091112202617096467 0 0.015462391351881015 0.0088917340330755493 0 0.014997526376238279 0.0091136780542064068 0 0.015386800027735365 0.0091158947241199821 0 0.015594929273879548 0.008353334653123233 0 0.014999544878845038 0.0077550234306974514 0 0.015602274026594216 0.0071271819609625905 0 0.015594929273879548 0.008353334653123233 0 0.014999951634025325 0.0091112202617096467 0 0.014999544878845038 0.0077550234306974514 0 0.015602274026594216 0.0071271819609625905 0 0.014999517838897875 0.0049401149749319128 0 0.015906520884197646 0.0056557492934113107 0 0.014999544878845038 0.0077550234306974514 0 0.015602274026594216 0.0071271819609625905 0 0.014999517838897875 0.0049401149749319128 0 0.015972226467741608 0.0079135931797429965 0 0.016099495045303249 0.0071637175560157959 0 0.015602274026594216 0.0071271819609625905 0 0.016099495045303249 0.0071637175560157959 0 0.015602274026594216 0.0071271819609625905 0 0.015965920503524741 0.006527249304571766 0 0.015602274026594216 0.0071271819609625905 0 0.015965920503524741 0.006527249304571766 0 0.015906520884197646 0.0056557492934113107 0 0.015976159368690606 0.0065008524142342091 0 0.016297178598418557 0.0060869210782505184 0 0.015965920503524741 0.006527249304571766 0 0.015906520884197646 0.0056557492934113107 0 0.016409004928897641 0.0057400818196620242 0 0.014999517838897875 0.0049401149749319128 0 0.015765755027765758 0.0039957096520305789 0 0.014999795902355461 0.0029215147730314002 0 0.014999517838897875 0.0049401149749319128 0 0.015906520884197646 0.0056557492934113107 0 0.015949791418845144 0.0049208196404447692 0 0.015906520884197646 0.0056557492934113107 0 0.015949791418845144 0.0049208196404447692 0 0.016367368018787205 0.0053512946489644286 0 0.015949791418845144 0.0049208196404447692 0 0.015765755027765758 0.0039957096520305789 0 0.016536236224634727 0.0044890303392271557 0 0.015765755027765758 0.0039957096520305789 0 0.016536236224634727 0.0044890303392271557 0 0.016461151252533335 0.0036382811863899995 0 0.014999517838897875 0.0049401149749319128 0 0.015949791418845144 0.0049208196404447692 0 0.015765755027765758 0.0039957096520305789 0 0.016094608496989706 0.0053416661069115093 0 0.016124706542264826 0.0053576379123966757 0 0.016094047657881607 0.0053551688741364893 0 0.016094608496989706 0.0053416661069115093 0 0.015972020191410946 0.0052850274587286847 0 0.016124706542264826 0.0053576379123966757 0 0.016079283682204577 0.0052947656901919087 0 0.016094608496989706 0.0053416661069115093 0 0.015972020191410946 0.0052850274587286847 0 0.016079283682204577 0.0052947656901919087 0 0.016094608496989706 0.0053416661069115093 0 0.016094047657881607 0.0053551688741364893 0 0.015554295601866559 0.0057391291063019143 0 0.015475364854598102 0.0058441743439351119 0 0.015522123420455418 0.0057893328776075217 0 0.015831642757884967 0.0054166271738329943 0 0.016189773176243222 0.0057033293040213888 0 0.01562498556845433 0.005619551125646308 0 0.015554295601866559 0.0057391291063019143 0 0.015522123420455418 0.0057893328776075217 0 0.015572389882442524 0.0059991793884089433 0 0.016189773176243222 0.0057033293040213888 0 0.015430696552699266 0.0059866131753737728 0 0.015475364854598102 0.0058441743439351119 0 0.015358214080255953 0.0060728035236433863 0 0.015475364854598102 0.0058441743439351119 0 0.01557580527139883 0.0057053028407106823 0 0.015610581836846507 0.0056547817360478982 0 0.01562498556845433 0.005619551125646308 0 0.01557580527139883 0.0057053028407106823 0 0.015610581836846507 0.0056547817360478982 0 0.01562498556845433 0.005619551125646308 0 0.015554295601866559 0.0057391291063019143 0 0.01557580527139883 0.0057053028407106823 0 0.015554295601866559 0.0057391291063019143 0 0.015475364854598102 0.0058441743439351119 0 0.01557580527139883 0.0057053028407106823 0 0.01562498556845433 0.005619551125646308 0 0.015610581836846507 0.0056547817360478982 0 0.015805728901521217 0.0053054219136700817 0 0.015610581836846507 0.0056547817360478982 0 0.015805728901521217 0.0053054219136700817 0 0.01548402057903534 0.0058635650578403664 0 0.015764630883374608 0.0053299386766970918 0 0.015791513541160644 0.0054280587356887438 0 0.01562498556845433 0.005619551125646308 0 0.015805728901521217 0.0053054219136700817 0 0.015833770323692167 0.0051666404462044849 0 0.016079283682204577 0.0052947656901919087 0 0.015833770323692167 0.0051666404462044849 0 0.015972020191410946 0.0052850274587286847 0 0.015831642757884967 0.0054166271738329943 0 0.01584585732337096 0.0052695233115910532 0 0.015797301519993267 0.0051605046519829943 0 0.015909810104010828 0.0053376005651161662 0 0.015972020191410946 0.0052850274587286847 0 0.015833770323692167 0.0051666404462044849 0 0.015797301519993267 0.0051605046519829943 0 0.015972020191410946 0.0052850274587286847 0 0.016217467141398136 0.0048910037198416868 0 0.015990642697775937 0.0043026745687496813 0 0.015797301519993267 0.0051605046519829943 0 0.015909810104010828 0.0053376005651161662 0 0.015513891219212858 0.0049832336097169333 0 0.015909810104010828 0.0053376005651161662 0 0.016170636602987946 0.0053639828500048814 0 0.016124706542264826 0.0053576379123966757 0 0.015909810104010828 0.0053376005651161662 0 0.015972020191410946 0.0052850274587286847 0 0.016124706542264826 0.0053576379123966757 0 0.016170636602987946 0.0053639828500048814 0 0.016367368018787205 0.0053512946489644286 0 0.01624183935474378 0.0053357271429031686 0 0.016170636602987946 0.0053639828500048814 0 0.01624183935474378 0.0053357271429031686 0 0.016124706542264826 0.0053576379123966757 0 0.016217467141398136 0.0048910037198416868 0 0.016346406948137073 0.0053000207237834749 0 0.015949791418845144 0.0049208196404447692 0 0.016536236224634727 0.0044890303392271557 0 0.016367368018787205 0.0053512946489644286 0 0.015909810104010828 0.0053376005651161662 0 0.016170636602987946 0.0053639828500048814 0 0.016367368018787205 0.0053512946489644286 0 0.015906520884197646 0.0056557492934113107 0 0.016367368018787205 0.0053512946489644286 0 0.016409004928897641 0.0057400818196620242 0 0.016367368018787205 0.0053512946489644286 0 0.01624183935474378 0.0053357271429031686 0 0.016409004928897641 0.0057400818196620242 0 0.016535229738986971 0.005650713407946561 0 0.016297178598418557 0.0060869210782505184 0 0.016663159275479997 0.0060321094883725654 0 0.01693359143965488 0.0062936291742544037 0 0.016610670420820671 0.0063866803246863321 0 0.016663159275479997 0.0060321094883725654 0 0.016989733144223983 0.0060186126670773027 0 0.01693359143965488 0.0062936291742544037 0 0.01624183935474378 0.0053357271429031686 0 0.016124706542264826 0.0053576379123966757 0 0.016094047657881607 0.0053551688741364893 0 0.016535229738986971 0.005650713407946561 0 0.016189773176243222 0.0057033293040213888 0 0.016663159275479997 0.0060321094883725654 0 0.017060081602283117 0.0056750726079711948 0 0.016989733144223983 0.0060186126670773027 0 0.016189773176243222 0.0057033293040213888 0 0.016398526316983159 0.006192734885301243 0 0.017060081602283117 0.0056750726079711948 0 0.016989733144223983 0.0060186126670773027 0 0.017299062447983026 0.006062336812265587 0 0.015358214080255953 0.0060728035236433863 0 0.015340250232897248 0.0062618933764664684 0 0.015325070749279539 0.0063511945401540943 0 0.015430696552699266 0.0059866131753737728 0 0.015358214080255953 0.0060728035236433863 0 0.015340250232897248 0.0062618933764664684 0 0.016989733144223983 0.0060186126670773027 0 0.01693359143965488 0.0062936291742544037 0 0.017299062447983026 0.006062336812265587 0 0.017178665634135771 0.0065376254561618921 0 0.01693359143965488 0.0062936291742544037 0 0.017299062447983026 0.006062336812265587 0 0.01693359143965488 0.0062936291742544037 0 0.016808770981882611 0.0065823231007717435 0 0.016610670420820671 0.0063866803246863321 0 0.017178665634135771 0.0065376254561618921 0 0.01693359143965488 0.0062936291742544037 0 0.016808770981882611 0.0065823231007717435 0 0.017178665634135771 0.0065376254561618921 0 0.016808770981882611 0.0065823231007717435 0 0.016891693519155745 0.0069740409649541183 0 0.016808770981882611 0.0065823231007717435 0 0.016427733347251606 0.0067262840279969233 0 0.016891693519155745 0.0069740409649541183 0 0.017178665634135771 0.0065376254561618921 0 0.016891693519155745 0.0069740409649541183 0 0.017345247196528614 0.0069074141808361071 0 0.016281877858032357 0.0063776826412666413 0 0.016610670420820671 0.0063866803246863321 0 0.016427733347251606 0.0067262840279969233 0 0.016663159275479997 0.0060321094883725654 0 0.016281877858032357 0.0063776826412666413 0 0.016610670420820671 0.0063866803246863321 0 0.016808770981882611 0.0065823231007717435 0 0.016610670420820671 0.0063866803246863321 0 0.016427733347251606 0.0067262840279969233 0 0.015965920503524741 0.006527249304571766 0 0.016281877858032357 0.0063776826412666413 0 0.016427733347251606 0.0067262840279969233 0 0.016099495045303249 0.0071637175560157959 0 0.015965920503524741 0.006527249304571766 0 0.016427733347251606 0.0067262840279969233 0 0.016099495045303249 0.0071637175560157959 0 0.016427733347251606 0.0067262840279969233 0 0.016459049860554159 0.0072056427223635569 0 0.016427733347251606 0.0067262840279969233 0 0.016459049860554159 0.0072056427223635569 0 0.016891693519155745 0.0069740409649541183 0 0.01633934033346365 0.007777801846011941 0 0.016459049860554159 0.0072056427223635569 0 0.01671517444887425 0.0075182177676598825 0 0.01633934033346365 0.007777801846011941 0 0.016099495045303249 0.0071637175560157959 0 0.016459049860554159 0.0072056427223635569 0 0.016295816167528499 0.0077234480812899409 0 0.016431977089663378 0.0072143953453842726 0 0.016891693519155745 0.0069740409649541183 0 0.017138021085783803 0.007423994286524082 0 0.017345247196528614 0.0069074141808361071 0 0.016459049860554159 0.0072056427223635569 0 0.016891693519155745 0.0069740409649541183 0 0.01671517444887425 0.0075182177676598825 0 0.016891693519155745 0.0069740409649541183 0 0.01671517444887425 0.0075182177676598825 0 0.017138021085783803 0.007423994286524082 0 0.015456138924101775 0.0080465921464143685 0 0.015626643407683653 0.0080309455387498913 0 0.015319419882782185 0.0075328597756306069 0 0.015626643407683653 0.0080309455387498913 0 0.015319419882782185 0.0075328597756306069 0 0.015495073630380484 0.0076415513741834038 0 0.015319419882782185 0.0075328597756306069 0 0.015495073630380484 0.0076415513741834038 0 0.015276995434004861 0.0073079802548082374 0 0.015491048015275654 0.0074838666998800806 0 0.015495073630380484 0.0076415513741834038 0 0.015771860113980424 0.0078360566752562616 0 0.015491048015275654 0.0074838666998800806 0 0.015495073630380484 0.0076415513741834038 0 0.015276995434004861 0.0073079802548082374 0 0.015626643407683653 0.0080309455387498913 0 0.015495073630380484 0.0076415513741834038 0 0.015771860113980424 0.0078360566752562616 0 0.014001336477734945 0.0077141480156310855 0 0.013867989871993402 0.0073923533895419863 0 0.014225703745270702 0.0073109694051176769 0 0.014001336477734945 0.0077141480156310855 0 0.014225703745270702 0.0073109694051176769 0 0.014392972260160295 0.0074500305115841109 0 0.014225703745270702 0.0073109694051176769 0 0.014392972260160295 0.0074500305115841109 0 0.014515597384723616 0.0071277144709655793 0 0.014225703745270702 0.0073109694051176769 0 0.014266111350976033 0.0071228650750087249 0 0.014515597384723616 0.0071277144709655793 0 0.014804381348943817 0.0076405997296039203 0 0.014854455401779694 0.0072345908685610676 0 0.013867989871993402 0.0073923533895419863 0 0.014225703745270702 0.0073109694051176769 0 0.014266111350976033 0.0071228650750087249 0 0.015491048015275654 0.0074838666998800806 0 0.015771860113980424 0.0078360566752562616 0 0.01548449757054427 0.0072615286911498194 0 0.015491048015275654 0.0074838666998800806 0 0.01548449757054427 0.0072615286911498194 0 0.015276995434004861 0.0073079802548082374 0 0.01548449757054427 0.0072615286911498194 0 0.015168770620364274 0.0069243316152347995 0 0.015276995434004861 0.0073079802548082374 0 0.014266111350976033 0.0071228650750087249 0 0.014852162011876342 0.0068458147448795595 0 0.014515597384723616 0.0071277144709655793 0 0.014854455401779694 0.0072345908685610676 0 0.014851449377102068 0.0069306620094881522 0 0.01548449757054427 0.0072615286911498194 0 0.014852162011876342 0.0068458147448795595 0 0.015168770620364274 0.0069243316152347995 0 0.014852162011876342 0.0068458147448795595 0 0.015168770620364274 0.0069243316152347995 0 0.014968507234368118 0.0066838049653826703 0 0.015168770620364274 0.0069243316152347995 0 0.014995364365047547 0.0070222857367914938 0 0.015059434958608061 0.0065253391180835887 0 0.015168770620364274 0.0069243316152347995 0 0.014995364365047547 0.0070222857367914938 0 0.015276995434004861 0.0073079802548082374 0 0.017178665634135771 0.0065376254561618921 0 0.017540758006387221 0.0064575232918716256 0 0.017299062447983026 0.006062336812265587 0 0.015677816184687783 0.006707879158711203 0 0.016398526316983159 0.006192734885301243 0 0.015319419882782185 0.0075328597756306069 0 0.015257358462460541 0.0072646305657286568 0 0.015276995434004861 0.0073079802548082374 0 0.016431977089663378 0.0072143953453842726 0 0.015677816184687783 0.006707879158711203 0 0.017178665634135771 0.0065376254561618921 0 0.017345247196528614 0.0069074141808361071 0 0.017540758006387221 0.0064575232918716256 0 0.015677816184687783 0.006707879158711203 0 0.015340116480514384 0.0072437564851735373 0 0.014455696600895558 0.0075508746778739618 0 0.014329945671540703 0.0075744349439713244 0 0.014452653007880943 0.007473550649748294 0 0.014455696600895558 0.0075508746778739618 0 0.013901191314086823 0.0076745848453431461 0 0.014329945671540703 0.0075744349439713244 0 0.013901191314086823 0.0076745848453431461 0 0.014329945671540703 0.0075744349439713244 0 0.014137716686706671 0.007809444285852298 0 0.014329945671540703 0.0075744349439713244 0 0.014452653007880943 0.007473550649748294 0 0.014524643023096834 0.0072778532556456287 0 0.014452653007880943 0.007473550649748294 0 0.014392972260160295 0.0074500305115841109 0 0.014524643023096834 0.0072778532556456287 0 0.014455696600895558 0.0075508746778739618 0 0.014452653007880943 0.007473550649748294 0 0.014392972260160295 0.0074500305115841109 0 0.014392972260160295 0.0074500305115841109 0 0.014515597384723616 0.0071277144709655793 0 0.014524643023096834 0.0072778532556456287 0 0.014852162011876342 0.0068458147448795595 0 0.014515597384723616 0.0071277144709655793 0 0.014712133277551 0.0068639813384097012 0 0.014712133277551 0.0068639813384097012 0 0.014524643023096834 0.0072778532556456287 0 0.014543918982231094 0.0072432049391098884 0 0.014515597384723616 0.0071277144709655793 0 0.014712133277551 0.0068639813384097012 0 0.014524643023096834 0.0072778532556456287 0 0.014329945671540703 0.0075744349439713244 0 0.014524643023096834 0.0072778532556456287 0 0.014543918982231094 0.0072432049391098884 0 0.014712133277551 0.0068639813384097012 0 0.014543918982231094 0.0072432049391098884 0 0.014789960829890605 0.0067541372847117753 0 0.014543918982231094 0.0072432049391098884 0 0.014689759456811648 0.0070864757031867337 0 0.014789960829890605 0.0067541372847117753 0 0.014543918982231094 0.0072432049391098884 0 0.014689759456811648 0.0070864757031867337 0 0.014137716686706671 0.007809444285852298 0 0.014329945671540703 0.0075744349439713244 0 0.014543918982231094 0.0072432049391098884 0 0.014137716686706671 0.007809444285852298 0 0.014984856957565178 0.0063930311293260841 0 0.014789960829890605 0.0067541372847117753 0 0.014956556464461774 0.0066448701764500124 0 0.014689759456811648 0.0070864757031867337 0 0.014789960829890605 0.0067541372847117753 0 0.014956556464461774 0.0066448701764500124 0 0.014712133277551 0.0068639813384097012 0 0.014789960829890605 0.0067541372847117753 0 0.014928312764329973 0.0064477542268672654 0 0.014984856957565178 0.0063930311293260841 0 0.014789960829890605 0.0067541372847117753 0 0.014928312764329973 0.0064477542268672654 0 0.014712133277551 0.0068639813384097012 0 0.014928312764329973 0.0064477542268672654 0 0.014932529497859965 0.0064055339407394938 0 0.014928312764329973 0.0064477542268672654 0 0.014932529497859965 0.0064055339407394938 0 0.015060978933892136 0.0061818517150270128 0 0.014852162011876342 0.0068458147448795595 0 0.014712133277551 0.0068639813384097012 0 0.014932529497859965 0.0064055339407394938 0 0.014932529497859965 0.0064055339407394938 0 0.015152078222392808 0.0060215002308204252 0 0.015129959866738655 0.0059743659750554007 0 0.014932529497859965 0.0064055339407394938 0 0.015152078222392808 0.0060215002308204252 0 0.015060978933892136 0.0061818517150270128 0 0.015152078222392808 0.0060215002308204252 0 0.015398562054789825 0.0056250615866653541 0 0.015129959866738655 0.0059743659750554007 0 0.015152078222392808 0.0060215002308204252 0 0.015398562054789825 0.0056250615866653541 0 0.015192686434825936 0.0059148614213823981 0 0.015152078222392808 0.0060215002308204252 0 0.015192686434825936 0.0059148614213823981 0 0.015060978933892136 0.0061818517150270128 0 0.015192686434825936 0.0059148614213823981 0 0.015060978933892136 0.0061818517150270128 0 0.015081594710756836 0.0061564016734601979 0 0.014928312764329973 0.0064477542268672654 0 0.015060978933892136 0.0061818517150270128 0 0.015081594710756836 0.0061564016734601979 0 0.014984856957565178 0.0063930311293260841 0 0.014928312764329973 0.0064477542268672654 0 0.015081594710756836 0.0061564016734601979 0 0.015192686434825936 0.0059148614213823981 0 0.015147771365634013 0.0060120548368824776 0 0.015202997536654272 0.0058935254906438183 0 0.015192686434825936 0.0059148614213823981 0 0.015081594710756836 0.0061564016734601979 0 0.015147771365634013 0.0060120548368824776 0 0.015081594710756836 0.0061564016734601979 0 0.015147771365634013 0.0060120548368824776 0 0.015138772971757702 0.0060994718849832347 0 0.015081594710756836 0.0061564016734601979 0 0.015138772971757702 0.0060994718849832347 0 0.015101341376665795 0.006190860211869046 0 0.015147771365634013 0.0060120548368824776 0 0.015138772971757702 0.0060994718849832347 0 0.015159936487639693 0.0060150778101583134 0 0.014984856957565178 0.0063930311293260841 0 0.015081594710756836 0.0061564016734601979 0 0.015101341376665795 0.006190860211869046 0 0.0151823225992667 0.0065114966314648842 0 0.015059434958608061 0.0065253391180835887 0 0.014965513293717389 0.0065971593695033602 0 0.0151823225992667 0.0065114966314648842 0 0.015059434958608061 0.0065253391180835887 0 0.015248605737779348 0.0063960364370626924 0 0.0151823225992667 0.0065114966314648842 0 0.015340250232897248 0.0062618933764664684 0 0.015248605737779348 0.0063960364370626924 0 0.015430696552699266 0.0059866131753737728 0 0.0151823225992667 0.0065114966314648842 0 0.015340250232897248 0.0062618933764664684 0 0.015378057204235495 0.0060129714217847787 0 0.01527025286479961 0.0061319963337209031 0 0.015340250232897248 0.0062618933764664684 0 0.015248605737779348 0.0063960364370626924 0 0.015325070749279539 0.0063511945401540943 0 0.015242987703680074 0.0061309164344609986 0 0.015248605737779348 0.0063960364370626924 0 0.015325070749279539 0.0063511945401540943 0 0.015242987703680074 0.0061309164344609986 0 0.015059434958608061 0.0065253391180835887 0 0.015248605737779348 0.0063960364370626924 0 0.015677816184687783 0.006707879158711203 0 0.014904989656943358 0.0065027536023960757 0 0.015168770620364274 0.0069243316152347995 0 0.015059434958608061 0.0065253391180835887 0 0.014968507234368118 0.0066838049653826703 0 0.014852162011876342 0.0068458147448795595 0 0.014932529497859965 0.0064055339407394938 0 0.014968507234368118 0.0066838049653826703 0 0.014932529497859965 0.0064055339407394938 0 0.014968507234368118 0.0066838049653826703 0 0.014965513293717389 0.0065971593695033602 0 0.014976293601395761 0.0063814578981846804 0 0.01507718665824292 0.0062723769381500347 0 0.015059434958608061 0.0065253391180835887 0 0.014968507234368118 0.0066838049653826703 0 0.014965513293717389 0.0065971593695033602 0 0.01527025286479961 0.0061319963337209031 0 0.01507718665824292 0.0062723769381500347 0 0.015397458195128782 0.0057673895232643125 0 0.015140709713044218 0.0059349832233655158 0 0.015240079193145812 0.0058781912309267504 0 0.015140709713044218 0.0059349832233655158 0 0.015240079193145812 0.0058781912309267504 0 0.015129959866738655 0.0059743659750554007 0 0.014932529497859965 0.0064055339407394938 0 0.015140709713044218 0.0059349832233655158 0 0.015129959866738655 0.0059743659750554007 0 0.015398562054789825 0.0056250615866653541 0 0.015129959866738655 0.0059743659750554007 0 0.015173796298424502 0.0058970659406389339 0 0.015444478417905295 0.0056047452885235674 0 0.015618331857729303 0.0055171557008455909 0 0.015240079193145812 0.0058781912309267504 0 0.015129959866738655 0.0059743659750554007 0 0.015173796298424502 0.0058970659406389339 0 0.015173796298424502 0.0058970659406389339 0 0.015454391755461403 0.0057889818916715503 0 0.01548402057903534 0.0058635650578403664 0 0.015618331857729303 0.0055171557008455909 0 0.015791513541160644 0.0054280587356887438 0 0.015240079193145812 0.0058781912309267504 0 0.015173796298424502 0.0058970659406389339 0 0.015454391755461403 0.0057889818916715503 0 0.015397458195128782 0.0057673895232643125 0 0.015240079193145812 0.0058781912309267504 0 0.015454391755461403 0.0057889818916715503 0 0.015430696552699266 0.0059866131753737728 0 0.015475364854598102 0.0058441743439351119 0 0.015397458195128782 0.0057673895232643125 0 0.015475364854598102 0.0058441743439351119 0 0.015610581836846507 0.0056547817360478982 0 0.015454391755461403 0.0057889818916715503 0 0.015475364854598102 0.0058441743439351119 0 0.015397458195128782 0.0057673895232643125 0 0.015454391755461403 0.0057889818916715503 0 0.015610581836846507 0.0056547817360478982 0 0.015454391755461403 0.0057889818916715503 0 0.01548402057903534 0.0058635650578403664 0 0.01614832910304536 0.0050087938039614149 0 0.016117376641465023 0.004886507539013183 0 0.016089144651192329 0.0047528614377168443 0 0.016117376641465023 0.004886507539013183 0 0.016105527844485872 0.0044564743898224783 0 0.01609851930080956 0.0046360833815563057 0 0.016117376641465023 0.004886507539013183 0 0.016105527844485872 0.0044564743898224783 0 0.016089144651192329 0.0047528614377168443 0 0.016117376641465023 0.004886507539013183 0 0.01605581021056364 0.0050303562651120058 0 0.01609851930080956 0.0046360833815563057 0 0.016018363162243535 0.0051252045355131776 0 0.01614832910304536 0.0050087938039614149 0 0.016117376641465023 0.004886507539013183 0 0.016018363162243535 0.0051252045355131776 0 0.016117376641465023 0.004886507539013183 0 0.01605581021056364 0.0050303562651120058 0 0.015398562054789825 0.0056250615866653541 0 0.016018363162243535 0.0051252045355131776 0 0.015932891234883551 0.0054011820734549548 0 0.015932891234883551 0.0054011820734549548 0 0.01605581021056364 0.0050303562651120058 0 0.016118271074803948 0.0048844374094168435 0 0.016018363162243535 0.0051252045355131776 0 0.015932891234883551 0.0054011820734549548 0 0.01605581021056364 0.0050303562651120058 0 0.01605581021056364 0.0050303562651120058 0 0.016106482943490076 0.0047142703667386199 0 0.01609851930080956 0.0046360833815563057 0 0.01605581021056364 0.0050303562651120058 0 0.016106482943490076 0.0047142703667386199 0 0.016118271074803948 0.0048844374094168435 0 0.016106482943490076 0.0047142703667386199 0 0.016118271074803948 0.0048844374094168435 0 0.016298270225015309 0.0043951103697966402 0 0.015958068501307678 0.0056207829199511677 0 0.016064947125926838 0.0048213734093714615 0 0.015932891234883551 0.0054011820734549548 0 0.016118271074803948 0.0048844374094168435 0 0.016639688199357478 0.0045805716566266527 0 0.016118271074803948 0.0048844374094168435 0 0.016298270225015309 0.0043951103697966402 0 0.016639688199357478 0.0045805716566266527 0 0.016287107572387903 0.0042810930905883794 0 0.016064947125926838 0.0048213734093714615 0 0.016298270225015309 0.0043951103697966402 0 0.016124294547367864 0.00436824586913596 0 0.016210889307429675 0.004159638405301154 0 0.016106482943490076 0.0047142703667386199 0 0.016298270225015309 0.0043951103697966402 0 0.016124294547367864 0.00436824586913596 0 0.016287107572387903 0.0042810930905883794 0 0.016187438712989655 0.0041735616544000924 0 0.016124294547367864 0.00436824586913596 0 0.016106606565141547 0.0042692297853291171 0 0.01611715747783151 0.0041158615001727836 0 0.016124294547367864 0.00436824586913596 0 0.01611715747783151 0.0041158615001727836 0 0.016210889307429675 0.004159638405301154 0 0.016124294547367864 0.00436824586913596 0 0.016106606565141547 0.0042692297853291171 0 0.01609851930080956 0.0046360833815563057 0 0.016106606565141547 0.0042692297853291171 0 0.016105527844485872 0.0044564743898224783 0 0.016113947071974773 0.0039028634866972362 0 0.016106606565141547 0.0042692297853291171 0 0.016108592054340416 0.0039415366294841842 0 0.016113947071974773 0.0039028634866972362 0 0.016106606565141547 0.0042692297853291171 0 0.016108592054340416 0.0039415366294841842 0 0.01611715747783151 0.0041158615001727836 0 0.016106606565141547 0.0042692297853291171 0 0.016105527844485872 0.0044564743898224783 0 0.01609851930080956 0.0046360833815563057 0 0.016106482943490076 0.0047142703667386199 0 0.016124294547367864 0.00436824586913596 0 0.01609851930080956 0.0046360833815563057 0 0.015509960129028295 0.0058108330414750791 0 0.015656741557520788 0.0050969000697806245 0 0.015175860405522337 0.0059955040443732061 0 0.015178491225207202 0.0059441878272336905 0 0.015188467890032911 0.0059081738337761645 0 0.015173601724193844 0.0060154031700850553 0 0.015175860405522337 0.0059955040443732061 0 0.015178491225207202 0.0059441878272336905 0 0.015423908820716556 0.005928899687064647 0 0.015509960129028295 0.0058108330414750791 0 0.015173601724193844 0.0060154031700850553 0 0.015158214709777259 0.0061032853578520049 0 0.015159936487639693 0.0060150778101583134 0 0.015138772971757702 0.0060994718849832347 0 0.015158214709777259 0.0061032853578520049 0 0.015159936487639693 0.0060150778101583134 0 0.015173601724193844 0.0060154031700850553 0 0.015159936487639693 0.0060150778101583134 0 0.015178491225207202 0.0059441878272336905 0 0.015147771365634013 0.0060120548368824776 0 0.015159936487639693 0.0060150778101583134 0 0.015202997536654272 0.0058935254906438183 0 0.015159936487639693 0.0060150778101583134 0 0.015202997536654272 0.0058935254906438183 0 0.015178491225207202 0.0059441878272336905 0 0.015202997536654272 0.0058935254906438183 0 0.015178491225207202 0.0059441878272336905 0 0.015237279401846934 0.0058393378572017879 0 0.015178491225207202 0.0059441878272336905 0 0.015237279401846934 0.0058393378572017879 0 0.015188467890032911 0.0059081738337761645 0 0.015202997536654272 0.0058935254906438183 0 0.015237279401846934 0.0058393378572017879 0 0.015382456898584057 0.0056903802984127512 0 0.015237279401846934 0.0058393378572017879 0 0.015382456898584057 0.0056903802984127512 0 0.015295837470463855 0.0059399694130527021 0 0.015192686434825936 0.0059148614213823981 0 0.015202997536654272 0.0058935254906438183 0 0.015382456898584057 0.0056903802984127512 0 0.015398562054789825 0.0056250615866653541 0 0.015932891234883551 0.0054011820734549548 0 0.015382456898584057 0.0056903802984127512 0 0.015398562054789825 0.0056250615866653541 0 0.015192686434825936 0.0059148614213823981 0 0.015382456898584057 0.0056903802984127512 0 0.015932891234883551 0.0054011820734549548 0 0.015382456898584057 0.0056903802984127512 0 0.015530910502273534 0.0057929863031108827 0 0.015382456898584057 0.0056903802984127512 0 0.015530910502273534 0.0057929863031108827 0 0.015295837470463855 0.0059399694130527021 0 0.015530910502273534 0.0057929863031108827 0 0.015654560711357315 0.0062113879158224965 0 0.015295837470463855 0.0059399694130527021 0 0.015932891234883551 0.0054011820734549548 0 0.015530910502273534 0.0057929863031108827 0 0.015654560711357315 0.0062113879158224965 0 0.016064947125926838 0.0048213734093714615 0 0.015778486784194475 0.0052746173833428016 0 0.016087570832723053 0.0045105485146085091 0 0.016217665479677266 0.0044602708390576616 0 0.01612028831743112 0.0042792028605225839 0 0.016257159078933842 0.0041241536671211181 0 0.016268570770821094 0.0041556389556393278 0 0.016263403385052073 0.0040975736953372905 0 0.016087570832723053 0.0045105485146085091 0 0.016217665479677266 0.0044602708390576616 0 0.016248468027865386 0.0045291201488272858 0 0.016217665479677266 0.0044602708390576616 0 0.01628780311189745 0.0045648151880810419 0 0.01630017428480272 0.0043294817079788436 0 0.016217665479677266 0.0044602708390576616 0 0.016248468027865386 0.0045291201488272858 0 0.01628780311189745 0.0045648151880810419 0 0.015237279401846934 0.0058393378572017879 0 0.015295837470463855 0.0059399694130527021 0 0.015188467890032911 0.0059081738337761645 0 0.015778486784194475 0.0052746173833428016 0 0.015656741557520788 0.0050969000697806245 0 0.016248468027865386 0.0045291201488272858 0 0.016218320440607687 0.0043917334952769055 0 0.01628780311189745 0.0045648151880810419 0 0.016218320440607687 0.0043917334952769055 0 0.01628780311189745 0.0045648151880810419 0 0.016057989581924476 0.0044820866715818454 0 0.01628780311189745 0.0045648151880810419 0 0.015929587616865359 0.0048056054617655712 0 0.016057989581924476 0.0044820866715818454 0 0.015929587616865359 0.0048056054617655712 0 0.016057989581924476 0.0044820866715818454 0 0.015753803038222866 0.0045622343109367851 0 0.015981515677254515 0.0042238971332077824 0 0.016057989581924476 0.0044820866715818454 0 0.015753803038222866 0.0045622343109367851 0 0.015981515677254515 0.0042238971332077824 0 0.016218320440607687 0.0043917334952769055 0 0.016057989581924476 0.0044820866715818454 0 0.015836290226792192 0.0051757072703620946 0 0.01615929160817297 0.0050732912044776134 0 0.015982746545180202 0.0055491524180640954 0 0.016339299228321769 0.0046226749858165718 0 0.016295704553890959 0.00492970805851611 0 0.015836290226792192 0.0051757072703620946 0 0.015982746545180202 0.0055491524180640954 0 0.015661490604472202 0.0054277005693236938 0 0.01628780311189745 0.0045648151880810419 0 0.015929587616865359 0.0048056054617655712 0 0.01615929160817297 0.0050732912044776134 0 0.015929587616865359 0.0048056054617655712 0 0.015836290226792192 0.0051757072703620946 0 0.01615929160817297 0.0050732912044776134 0 0.016302647904318499 0.0045853826140296768 0 0.016339299228321769 0.0046226749858165718 0 0.01628780311189745 0.0045648151880810419 0 0.016522638692541908 0.0042633383836230068 0 0.01630017428480272 0.0043294817079788436 0 0.016522638692541908 0.0042633383836230068 0 0.016396798019500863 0.0040867881269980458 0 0.01630017428480272 0.0043294817079788436 0 0.016522638692541908 0.0042633383836230068 0 0.016396798019500863 0.0040867881269980458 0 0.016629985990115996 0.003951472994342428 0 0.016396798019500863 0.0040867881269980458 0 0.01612028831743112 0.0042792028605225839 0 0.016295955814128359 0.0038918049729641706 0 0.016238011298940338 0.0040491352613181058 0 0.016273023499749434 0.0039579905130628385 0 0.016217665479677266 0.0044602708390576616 0 0.01630017428480272 0.0043294817079788436 0 0.01612028831743112 0.0042792028605225839 0 0.016396798019500863 0.0040867881269980458 0 0.01630017428480272 0.0043294817079788436 0 0.01612028831743112 0.0042792028605225839 0 0.016263403385052073 0.0040975736953372905 0 0.016275640293797407 0.0040493767593159534 0 0.016188688914594091 0.0039152871576632747 0 0.016064947125926838 0.0048213734093714615 0 0.016238011298940338 0.0040491352613181058 0 0.016268570770821094 0.0041556389556393278 0 0.016263403385052073 0.0040975736953372905 0 0.016275640293797407 0.0040493767593159534 0 0.016275640293797407 0.0040493767593159534 0 0.016188688914594091 0.0039152871576632747 0 0.016295955814128359 0.0038918049729641706 0 0.016188688914594091 0.0039152871576632747 0 0.016248256290059347 0.003788074957543418 0 0.016156878255576091 0.0037510031363379671 0 0.016188688914594091 0.0039152871576632747 0 0.016248256290059347 0.003788074957543418 0 0.016295955814128359 0.0038918049729641706 0 0.016156878255576091 0.0037510031363379671 0 0.016249293039432029 0.0036573582656007878 0 0.016051260396222192 0.0035567377752788029 0 0.016248256290059347 0.003788074957543418 0 0.016156878255576091 0.0037510031363379671 0 0.016249293039432029 0.0036573582656007878 0 0.016195157001402064 0.0036607648957450731 0 0.016668206459441878 0.0036401944206362231 0 0.016249293039432029 0.0036573582656007878 0 0.016566087655196737 0.0036330764899186034 0 0.016286636292369861 0.0035083823505259269 0 0.016248256290059347 0.003788074957543418 0 0.016249293039432029 0.0036573582656007878 0 0.016333562325079338 0.0037733425403569882 0 0.016249293039432029 0.0036573582656007878 0 0.016333562325079338 0.0037733425403569882 0 0.016442197874139565 0.0036897477094937725 0 0.016333562325079338 0.0037733425403569882 0 0.016295955814128359 0.0038918049729641706 0 0.016441044449103236 0.0038466015485791177 0 0.016248256290059347 0.003788074957543418 0 0.016333562325079338 0.0037733425403569882 0 0.016295955814128359 0.0038918049729641706 0 0.016396798019500863 0.0040867881269980458 0 0.016295955814128359 0.0038918049729641706 0 0.016441044449103236 0.0038466015485791177 0 0.016396798019500863 0.0040867881269980458 0 0.016441044449103236 0.0038466015485791177 0 0.016629985990115996 0.003951472994342428 0 0.016333562325079338 0.0037733425403569882 0 0.016441044449103236 0.0038466015485791177 0 0.016442197874139565 0.0036897477094937725 0 0.016566087655196737 0.0036330764899186034 0 0.016898762295731295 0.0036240728087015644 0 0.016624827152555897 0.0034275166759098375 0 0.016441044449103236 0.0038466015485791177 0 0.016442197874139565 0.0036897477094937725 0 0.016568853411079245 0.0037863154983076028 0 0.016668206459441878 0.0036401944206362231 0 0.016029804072348868 0.0039005417467959124 0 0.016442197874139565 0.0036897477094937725 0 0.016697011020329323 0.0036917222750192896 0 0.016568853411079245 0.0037863154983076028 0 0.015813848858769072 0.0059869434078820187 0 0.015982746545180202 0.0055491524180640954 0 0.015669314103975266 0.0056770234282088423 0 0.016441044449103236 0.0038466015485791177 0 0.016568853411079245 0.0037863154983076028 0 0.016629985990115996 0.003951472994342428 0 0.016029804072348868 0.0039005417467959124 0 0.016295704553890959 0.00492970805851611 0 0.016697011020329323 0.0036917222750192896 0 0.016568853411079245 0.0037863154983076028 0 0.016629985990115996 0.003951472994342428 0 0.016154538380337546 0.003876242330372925 0 0.016097642288991645 0.0038645662157768268 0 0.01618766816117909 0.0040126442166723364 0 0.016154538380337546 0.003876242330372925 0 0.016097642288991645 0.0038645662157768268 0 0.016094823324116592 0.003773967942485195 0 0.016097642288991645 0.0038645662157768268 0 0.016094823324116592 0.003773967942485195 0 0.016075337623075125 0.0036898816155124321 0 0.016097642288991645 0.0038645662157768268 0 0.016075337623075125 0.0036898816155124321 0 0.01610984462276743 0.0037090237625555067 0 0.016097642288991645 0.0038645662157768268 0 0.016108592054340416 0.0039415366294841842 0 0.01610984462276743 0.0037090237625555067 0 0.016097642288991645 0.0038645662157768268 0 0.016108592054340416 0.0039415366294841842 0 0.01611715747783151 0.0041158615001727836 0 0.016097642288991645 0.0038645662157768268 0 0.01611715747783151 0.0041158615001727836 0 0.01618766816117909 0.0040126442166723364 0 0.01611715747783151 0.0041158615001727836 0 0.01618766816117909 0.0040126442166723364 0 0.016210889307429675 0.004159638405301154 0 0.01618766816117909 0.0040126442166723364 0 0.016264135443238993 0.0040735640482027092 0 0.016284887811342692 0.0039637203317897654 0 0.01618766816117909 0.0040126442166723364 0 0.016210889307429675 0.004159638405301154 0 0.016264135443238993 0.0040735640482027092 0 0.016257159078933842 0.0041241536671211181 0 0.016263403385052073 0.0040975736953372905 0 0.016264135443238993 0.0040735640482027092 0 0.016261471699074326 0.0040974639146264587 0 0.016138114879548561 0.0039268994846013601 0 0.016263403385052073 0.0040975736953372905 0 0.016264135443238993 0.0040735640482027092 0 0.016284887811342692 0.0039637203317897654 0 0.016257159078933842 0.0041241536671211181 0 0.016210889307429675 0.004159638405301154 0 0.016264135443238993 0.0040735640482027092 0 0.016263403385052073 0.0040975736953372905 0 0.016188688914594091 0.0039152871576632747 0 0.016027965914070907 0.0039727925451043282 0 0.016154538380337546 0.003876242330372925 0 0.016284887811342692 0.0039637203317897654 0 0.016169352858061845 0.0037586719084226313 0 0.016154538380337546 0.003876242330372925 0 0.01618766816117909 0.0040126442166723364 0 0.016284887811342692 0.0039637203317897654 0 0.016138114879548561 0.0039268994846013601 0 0.016009992010613469 0.0039652632132839566 0 0.016027965914070907 0.0039727925451043282 0 0.015939101761971847 0.0037379928218403196 0 0.015814369512079471 0.0037847199985437938 0 0.016027965914070907 0.0039727925451043282 0 0.016046060012696258 0.0037802263347250236 0 0.015939101761971847 0.0037379928218403196 0 0.016188688914594091 0.0039152871576632747 0 0.016156878255576091 0.0037510031363379671 0 0.016046060012696258 0.0037802263347250236 0 0.016188688914594091 0.0039152871576632747 0 0.016027965914070907 0.0039727925451043282 0 0.016046060012696258 0.0037802263347250236 0 0.016046060012696258 0.0037802263347250236 0 0.015939101761971847 0.0037379928218403196 0 0.016051260396222192 0.0035567377752788029 0 0.016156878255576091 0.0037510031363379671 0 0.016046060012696258 0.0037802263347250236 0 0.016051260396222192 0.0035567377752788029 0 0.015857655313005085 0.0036224375917102802 0 0.015832716336451259 0.0035634627938119093 0 0.016051260396222192 0.0035567377752788029 0 0.015939101761971847 0.0037379928218403196 0 0.015857655313005085 0.0036224375917102802 0 0.016051260396222192 0.0035567377752788029 0 0.015939101761971847 0.0037379928218403196 0 0.015857655313005085 0.0036224375917102802 0 0.015814369512079471 0.0037847199985437938 0 0.016234415214492547 0.0030717618685013803 0 0.015942238854158491 0.0017578750177810534 0 0.016009992010613469 0.0039652632132839566 0 0.016054436279556709 0.0024832425476565231 0 0.015857655313005085 0.0036224375917102802 0 0.015814369512079471 0.0037847199985437938 0 0.015606545861506907 0.0035677254190084567 0 0.016054436279556709 0.0024832425476565231 0 0.015942238854158491 0.0017578750177810534 0 0.015857655313005085 0.0036224375917102802 0 0.015606545861506907 0.0035677254190084567 0 0.015829459646629403 0.0035537821293178343 0 0.016169352858061845 0.0037586719084226313 0 0.016107999281662639 0.0037426469642443221 0 0.016104503834426322 0.0036834736987801956 0 0.016169352858061845 0.0037586719084226313 0 0.016094823324116592 0.003773967942485195 0 0.016107999281662639 0.0037426469642443221 0 0.016154538380337546 0.003876242330372925 0 0.016169352858061845 0.0037586719084226313 0 0.016094823324116592 0.003773967942485195 0 0.016094823324116592 0.003773967942485195 0 0.016079391290747751 0.0037484437328534704 0 0.016075337623075125 0.0036898816155124321 0 0.016094823324116592 0.003773967942485195 0 0.016107999281662639 0.0037426469642443221 0 0.016079391290747751 0.0037484437328534704 0 0.016107999281662639 0.0037426469642443221 0 0.016104503834426322 0.0036834736987801956 0 0.016079391290747751 0.0037484437328534704 0 0.016054436279556709 0.0024832425476565231 0 0.016072409866664236 0.0023164688017492919 0 0.016104503834426322 0.0036834736987801956 0 0.016027998370979412 0.0036837126490622666 0 0.016079391290747751 0.0037484437328534704 0 0.016200837459094359 0.0010417701157716501 0 0.015384985593229669 0.0011155066262085989 0 0.015575151484730442 0.00085123356027863692 0 0.015384985593229669 0.0011155066262085989 0 0.015300868426576868 0.0010224493322638071 0 0.015575151484730442 0.00085123356027863692 0 0.016072409866664236 0.0023164688017492919 0 0.016295918552557399 0.0040693903026210142 0 0.016525059036199972 0.0017972722440797945 0 0.016280481512857423 0.0020250251648120743 0 0.016118595230783541 0.0018606260905515808 0 0.016255349885628885 0.0020355399272323151 0 0.016309015389997687 0.0031860255607985073 0 0.016255349885628885 0.0020355399272323151 0 0.016251880461854704 0.0012061987697345848 0 0.016150855729928349 0.003805879216201553 0 0.016163834427021562 0.0038033704135355252 0 0.016197274396673456 0.0037178231449883628 0 0.016801196434804128 0.0005527884939807347 0 0.016814193273166064 0.00047179143392102975 0 0.016293055079934875 0.00059702557279305219 0 0.016525059036199972 0.0017972722440797945 0 0.016280481512857423 0.0020250251648120743 0 0.01646063256250856 0.0023244975716389224 0 0.016255349885628885 0.0020355399272323151 0 0.01611624308427935 0.001169889913470486 0 0.016079867872401076 0.0020061535698999238 0 0.016285751366847009 0.0019851261660225371 0 0.016253001579571689 0.0021926921229032913 0 0.016072409866664236 0.0023164688017492919 0 0.01611624308427935 0.001169889913470486 0 0.016072409866664236 0.0023164688017492919 0 0.016255349885628885 0.0020355399272323151 0 0.016280481512857423 0.0020250251648120743 0 0.01646063256250856 0.0023244975716389224 0 0.016045674281128689 0.0021231482638567039 0 0.016197274396673456 0.0037178231449883628 0 0.016079391290747751 0.0037484437328534704 0 0.016075337623075125 0.0036898816155124321 0 0.016150855729928349 0.003805879216201553 0 0.016197274396673456 0.0037178231449883628 0 0.016079391290747751 0.0037484437328534704 0 0.016075337623075125 0.0036898816155124321 0 0.016212936166573301 0.0032698781730704546 0 0.01610984462276743 0.0037090237625555067 0 0.016309015389997687 0.0031860255607985073 0 0.016242031899748138 0.0031859537915402384 0 0.01646063256250856 0.0023244975716389224 0 0.016212936166573301 0.0032698781730704546 0 0.015948004557980656 0.0025879267241515772 0 0.016197274396673456 0.0037178231449883628 0 0.016075337623075125 0.0036898816155124321 0 0.016212936166573301 0.0032698781730704546 0 0.016108592054340416 0.0039415366294841842 0 0.01610984462276743 0.0037090237625555067 0 0.016113947071974773 0.0039028634866972362 0 0.016212936166573301 0.0032698781730704546 0 0.01610984462276743 0.0037090237625555067 0 0.016113947071974773 0.0039028634866972362 0 0.015745236666283358 0.0029152510816217812 0 0.015948004557980656 0.0025879267241515772 0 0.015755588819481574 0.0024230052740085964 0 0.016212936166573301 0.0032698781730704546 0 0.015745236666283358 0.0029152510816217812 0 0.015948004557980656 0.0025879267241515772 0 0.015948004557980656 0.0025879267241515772 0 0.015755588819481574 0.0024230052740085964 0 0.015887665671995108 0.0022035518603027849 0 0.015887665671995108 0.0022035518603027849 0 0.016045674281128689 0.0021231482638567039 0 0.015820995950403854 0.0019144113061806251 0 0.015892110910311681 0.0024342604859955959 0 0.016034300520104284 0.0010523543947732483 0 0.015887665671995108 0.0022035518603027849 0 0.015911741435235164 0.0016262975850709345 0 0.015664955353668929 0.0019198918815153438 0 0.01646063256250856 0.0023244975716389224 0 0.015948004557980656 0.0025879267241515772 0 0.016045674281128689 0.0021231482638567039 0 0.015948004557980656 0.0025879267241515772 0 0.015887665671995108 0.0022035518603027849 0 0.016045674281128689 0.0021231482638567039 0 0.016251880461854704 0.0012061987697345848 0 0.016034300520104284 0.0010523543947732483 0 0.016045674281128689 0.0021231482638567039 0 0.016118595230783541 0.0018606260905515808 0 0.015820995950403854 0.0019144113061806251 0 0.016293055079934875 0.00059702557279305219 0 0.015786855730714755 0.0006448126448345378 0 0.016013438308055985 0.00039210132155747645 0 0.016280481512857423 0.0020250251648120743 0 0.016045674281128689 0.0021231482638567039 0 0.016118595230783541 0.0018606260905515808 0 0.016645532476941574 0.00020246063611238841 0 0.016149242283238618 0.0002534627966949048 0 0.016373070925516941 1.5547729055010395e-05 0 0.016034300520104284 0.0010523543947732483 0 0.015919372985267268 0.00084476503847109657 0 0.015871990918862048 4.4123729528353652e-05 0 0.016149242283238618 0.0002534627966949048 0 0.015618639012156724 0.00032708656171648759 0 0.015871990918862048 4.4123729528353652e-05 0 0.016149242283238618 0.0002534627966949048 0 0.016107858206453718 -0.00019404527207404353 0 0.015919372985267268 0.00084476503847109657 0 0.015443483077776333 0.00069838808404071068 0 0.015613297136167752 0.001488423054569879 0 0.015529485344620923 0.0015583856802102666 0 0.015381790917875279 0.0010785539084525015 0 0.015613297136167752 0.001488423054569879 0 0.015529485344620923 0.0015583856802102666 0 0.015664955353668929 0.0019198918815153438 0 0.015911741435235164 0.0016262975850709345 0 0.015613297136167752 0.001488423054569879 0 0.015664955353668929 0.0019198918815153438 0 0.014999990667240674 0.00043473903587173751 0 0.015317130659040069 6.6376425102559507e-05 0 0.014999990115912173 -0.00024703486560984328 0 0.014999990667240674 0.00043473903587173751 0 0.015317130659040069 6.6376425102559507e-05 0 0.015618639012156724 0.00032708656171648759 0 0.015000008351721683 0.00043500285801600138 0 0.015443483077776333 0.00069838808404071068 0 0.015871990918862048 4.4123729528353652e-05 0 0.015618639012156724 0.00032708656171648759 0 0.015594391365646757 -0.00020914123317182482 0 0.015317130659040069 6.6376425102559507e-05 0 0.015618639012156724 0.00032708656171648759 0 0.015594391365646757 -0.00020914123317182482 0 0.015529485344620923 0.0015583856802102666 0 0.015381790917875279 0.0010785539084525015 0 0.015356658925229819 0.00142969578374758 0 0.01499992864287285 0.00043621622258299404 0 0.015381790917875279 0.0010785539084525015 0 0.015356658925229819 0.00142969578374758 0 0.01499992864287285 0.00043621622258299404 0 0.015356658925229819 0.00142969578374758 0 0.014999785424937854 0.0014740055283821675 0 0.015529485344620923 0.0015583856802102666 0 0.015356658925229819 0.00142969578374758 0 0.015596645228488706 0.0019774933545752367 0 0.015356658925229819 0.00142969578374758 0 0.015596645228488706 0.0019774933545752367 0 0.015471645310952893 0.0022388003081574978 0 0.015356658925229819 0.00142969578374758 0 0.014999785424937854 0.0014740055283821675 0 0.015471645310952893 0.0022388003081574978 0 0.015755588819481574 0.0024230052740085964 0 0.015887665671995108 0.0022035518603027849 0 0.015664955353668929 0.0019198918815153438 0 0.015755588819481574 0.0024230052740085964 0 0.015664955353668929 0.0019198918815153438 0 0.015596645228488706 0.0019774933545752367 0 0.015529485344620923 0.0015583856802102666 0 0.015664955353668929 0.0019198918815153438 0 0.015596645228488706 0.0019774933545752367 0 0.015596645228488706 0.0019774933545752367 0 0.015802630917213168 0.0025881286643037286 0 0.015471645310952893 0.0022388003081574978 0 0.015755588819481574 0.0024230052740085964 0 0.015596645228488706 0.0019774933545752367 0 0.015802630917213168 0.0025881286643037286 0 0.015745236666283358 0.0029152510816217812 0 0.015755588819481574 0.0024230052740085964 0 0.015802630917213168 0.0025881286643037286 0 0.015802630917213168 0.0025881286643037286 0 0.015766539659536984 0.0030978995871561938 0 0.016200549727207834 0.0029517460521850713 0 0.015802630917213168 0.0025881286643037286 0 0.015471645310952893 0.0022388003081574978 0 0.015766539659536984 0.0030978995871561938 0 0.015471645310952893 0.0022388003081574978 0 0.014999795902355461 0.0029215147730314002 0 0.015766539659536984 0.0030978995871561938 0 0.014999785424937854 0.0014740055283821675 0 0.015471645310952893 0.0022388003081574978 0 0.014999795902355461 0.0029215147730314002 0 0.015765755027765758 0.0039957096520305789 0 0.014999795902355461 0.0029215147730314002 0 0.015766539659536984 0.0030978995871561938 0 0.015766539659536984 0.0030978995871561938 0 0.016461151252533335 0.0036382811863899995 0 0.016200549727207834 0.0029517460521850713 0 0.015765755027765758 0.0039957096520305789 0 0.015766539659536984 0.0030978995871561938 0 0.016461151252533335 0.0036382811863899995 0 0.015513891219212858 0.0049832336097169333 0 0.01575662487816587 0.0048629691765224676 0 0.015397457614344592 0.0042170665489336514 0 0.015990642697775937 0.0043026745687496813 0 0.015809523858744731 0.0036023334323511194 0 0.015861371464962321 0.0044222676111857259 0 0.01575662487816587 0.0048629691765224676 0 0.015397457614344592 0.0042170665489336514 0 0.015833770323692167 0.0051666404462044849 0 0.015797301519993267 0.0051605046519829943 0 0.01575662487816587 0.0048629691765224676 0 0.015797301519993267 0.0051605046519829943 0 0.015513891219212858 0.0049832336097169333 0 0.01575662487816587 0.0048629691765224676 0 0.01575662487816587 0.0048629691765224676 0 0.015860983308073055 0.0050167652251117897 0 0.015947891459356836 0.0047514926887162693 0 0.015805728901521217 0.0053054219136700817 0 0.015833770323692167 0.0051666404462044849 0 0.015860983308073055 0.0050167652251117897 0 0.015833770323692167 0.0051666404462044849 0 0.01575662487816587 0.0048629691765224676 0 0.015860983308073055 0.0050167652251117897 0 0.015805728901521217 0.0053054219136700817 0 0.015860983308073055 0.0050167652251117897 0 0.016009831681581613 0.0049715639581168437 0 0.015860983308073055 0.0050167652251117897 0 0.016009831681581613 0.0049715639581168437 0 0.015947891459356836 0.0047514926887162693 0 0.01614832910304536 0.0050087938039614149 0 0.016009831681581613 0.0049715639581168437 0 0.016089144651192329 0.0047528614377168443 0 0.015805728901521217 0.0053054219136700817 0 0.01614832910304536 0.0050087938039614149 0 0.016009831681581613 0.0049715639581168437 0 0.016009831681581613 0.0049715639581168437 0 0.016089144651192329 0.0047528614377168443 0 0.015947891459356836 0.0047514926887162693 0 0.016089144651192329 0.0047528614377168443 0 0.015947891459356836 0.0047514926887162693 0 0.016032941485184204 0.0043600882561695142 0 0.016105527844485872 0.0044564743898224783 0 0.016089144651192329 0.0047528614377168443 0 0.016032941485184204 0.0043600882561695142 0 0.015861371464962321 0.0044222676111857259 0 0.01575662487816587 0.0048629691765224676 0 0.015947891459356836 0.0047514926887162693 0 0.015861371464962321 0.0044222676111857259 0 0.015947891459356836 0.0047514926887162693 0 0.016032941485184204 0.0043600882561695142 0 0.016032941485184204 0.0043600882561695142 0 0.016113947071974773 0.0039028634866972362 0 0.015985342678661391 0.0038164741738017515 0 0.015861371464962321 0.0044222676111857259 0 0.016032941485184204 0.0043600882561695142 0 0.015985342678661391 0.0038164741738017515 0 0.016105527844485872 0.0044564743898224783 0 0.016032941485184204 0.0043600882561695142 0 0.016113947071974773 0.0039028634866972362 0 0.016212936166573301 0.0032698781730704546 0 0.016113947071974773 0.0039028634866972362 0 0.015985342678661391 0.0038164741738017515 0 0.015745236666283358 0.0029152510816217812 0 0.015985342678661391 0.0038164741738017515 0 0.015397457614344592 0.0042170665489336514 0 0.016212936166573301 0.0032698781730704546 0 0.015745236666283358 0.0029152510816217812 0 0.015985342678661391 0.0038164741738017515 0 0.015750026483040049 0.0029914598664867341 0 0.015809523858744731 0.0036023334323511194 0 0.015745236666283358 0.0029152510816217812 0 0.015802630917213168 0.0025881286643037286 0 0.016200549727207834 0.0029517460521850713 0 0.015861371464962321 0.0044222676111857259 0 0.015985342678661391 0.0038164741738017515 0 0.015397457614344592 0.0042170665489336514 0 0.0073382892019747976 0.0083322364183161524 0 0.0072994843437693222 0.0083612213483741406 0 0.0073568266380893638 0.0083466913739472567 0 0.0072994843437693222 0.0083612213483741406 0 0.007220656056876054 0.0084736772480284092 0 0.0073193256018824196 0.0083880018897842211 0 0.0073382892019747976 0.0083322364183161524 0 0.0072994843437693222 0.0083612213483741406 0 0.007220656056876054 0.0084736772480284092 0 0.0072994843437693222 0.0083612213483741406 0 0.0073193256018824196 0.0083880018897842211 0 0.0073297974556884886 0.0083466245259221552 0 0.0072994843437693222 0.0083612213483741406 0 0.0073299248495439402 0.0083465758590650033 0 0.0073568266380893638 0.0083466913739472567 0 0.0073299248495439402 0.0083465758590650033 0 0.0073596542554306768 0.0083608858986657826 0 0.0073392741235823889 0.0083399135879977417 0 0.0073299248495439402 0.0083465758590650033 0 0.0073297974556884886 0.0083466245259221552 0 0.007343632559149973 0.0083329600242264025 0 0.0072994843437693222 0.0083612213483741406 0 0.0073299248495439402 0.0083465758590650033 0 0.0073297974556884886 0.0083466245259221552 0 0.0073299248495439402 0.0083465758590650033 0 0.007343632559149973 0.0083329600242264025 0 0.0073392741235823889 0.0083399135879977417 0 0.0073299248495439402 0.0083465758590650033 0 0.0073568266380893638 0.0083466913739472567 0 0.0073596542554306768 0.0083608858986657826 0 0.0073568266380893638 0.0083466913739472567 0 0.0074328522348657885 0.0083687897799747547 0 0.0073596542554306768 0.0083608858986657826 0 0.0073568266380893638 0.0083466913739472567 0 0.0074328522348657885 0.0083687897799747547 0 0.0074619366775046953 0.008290370707955564 0 0.0074328522348657885 0.0083687897799747547 0 0.0075565442971186727 0.0083581349466322896 0 0.0074619366775046953 0.008290370707955564 0 0.0075565442971186727 0.0083581349466322896 0 0.0074619366775046953 0.008290370707955564 0 0.0078222584278628653 0.0083936241090595467 0 0.0090092470403974993 0.0094385944989892109 0 0.010584162399699719 0.0091753923468497912 0 0.0077088591804928344 0.0085149238298287289 0 0.0075966604392482913 0.0084750481258136917 0 0.0078222584278628653 0.0083936241090595467 0 0.0077088591804928344 0.0085149238298287289 0 0.0075966604392482913 0.0084750481258136917 0 0.0076469996935986696 0.0086540577518328596 0 0.0074328522348657885 0.0083687897799747547 0 0.0075323211496523268 0.0083826320576917707 0 0.0075565442971186727 0.0083581349466322896 0 0.0079404121110997084 0.0083037840868447205 0 0.0077702003275312865 0.0083298844801542385 0 0.0075966604392482913 0.0084750481258136917 0 0.0075565442971186727 0.0083581349466322896 0 0.0078222584278628653 0.0083936241090595467 0 0.010816254069943977 0.010553730809510432 0 0.010664167825246864 0.0098032723585770396 0 0.011437588156634005 0.0099505912945635835 0 0.010816254069943977 0.010553730809510432 0 0.011437588156634005 0.0099505912945635835 0 0.011637489070918376 0.010928799126054232 0 0.0086513256548472455 0.0092654370699000958 0 0.0090092470403974993 0.0094385944989892109 0 0.0099208078754592539 0.010179436330329484 0 0.010816254069943977 0.010553730809510432 0 0.010664167825246864 0.0098032723585770396 0 0.0073382892019747976 0.0083322364183161524 0 0.0073568266380893638 0.0083466913739472567 0 0.0074619366775046953 0.008290370707955564 0 0.0099208078754592539 0.010179436330329484 0 0.010664167825246864 0.0098032723585770396 0 0.010153604826129608 0.0091574179667735702 0 0.011558041041254083 0.0087081496541622973 0 0.011251540640768483 0.0088515634433407805 0 0.011545499780633746 0.0087525776743778323 0 0.010664167825246864 0.0098032723585770396 0 0.011437588156634005 0.0099505912945635835 0 0.011251540640768483 0.0088515634433407805 0 0.011612688965904217 0.0095049374036763144 0 0.011240381802552673 0.0087693186118253125 0 0.011251540640768483 0.0088515634433407805 0 0.010153604826129608 0.0091574179667735702 0 0.010352834628282277 0.0085244758048430326 0 0.010664167825246864 0.0098032723585770396 0 0.011251540640768483 0.0088515634433407805 0 0.010153604826129608 0.0091574179667735702 0 0.010153604826129608 0.0091574179667735702 0 0.0093870741049416045 0.0091906069647670306 0 0.0092601081624683005 0.0084979574372660866 0 0.0099208078754592539 0.010179436330329484 0 0.010153604826129608 0.0091574179667735702 0 0.0093870741049416045 0.0091906069647670306 0 0.0086513256548472455 0.0092654370699000958 0 0.0080841850953927916 0.0091136100911868578 0 0.0099208078754592539 0.010179436330329484 0 0.0089175587377822788 0.0097501959361431575 0 0.0093870741049416045 0.0091906069647670306 0 0.0086785489813276349 0.0089716934697872241 0 0.0093870741049416045 0.0091906069647670306 0 0.0092601081624683005 0.0084979574372660866 0 0.0089175587377822788 0.0097501959361431575 0 0.0086785489813276349 0.0089716934697872241 0 0.0093870741049416045 0.0091906069647670306 0 0.0086785489813276349 0.0089716934697872241 0 0.0077601873917130543 0.0090280211998475454 0 0.0080275164609130197 0.0084835640360780371 0 0.0089175587377822788 0.0097501959361431575 0 0.0086785489813276349 0.0089716934697872241 0 0.0077601873917130543 0.0090280211998475454 0 0.0086785489813276349 0.0089716934697872241 0 0.0092601081624683005 0.0084979574372660866 0 0.0080275164609130197 0.0084835640360780371 0 0.0077601873917130543 0.0090280211998475454 0 0.0077156517662985459 0.0091061745589074549 0 0.0080275164609130197 0.0084835640360780371 0 0.0071775695067882008 0.0077963745798775878 0 0.0073943170962166346 0.0078479614655268346 0 0.0070667954775143534 0.0069623361995141356 0 0.006570717058705898 0.0066318687965726021 0 0.0074622573761629063 0.0078922910548627385 0 0.0077156517662985459 0.0091061745589074549 0 0.0074622573761629063 0.0078922910548627385 0 0.0080275164609130197 0.0084835640360780371 0 0.0070667954775143534 0.0069623361995141356 0 0.006570717058705898 0.0066318687965726021 0 0.0070252104993666587 0.0064095774695247876 0 0.0077601873917130543 0.0090280211998475454 0 0.0077156517662985459 0.0091061745589074549 0 0.0074293585135624188 0.008415350508305117 0 0.0077156517662985459 0.0091061745589074549 0 0.0074293585135624188 0.008415350508305117 0 0.0076512792880136619 0.0074011511971014323 0 0.0071775695067882008 0.0077963745798775878 0 0.0070496256338362156 0.0064016691188046671 0 0.006570717058705898 0.0066318687965726021 0 0.0067889348971506489 0.0059722980206266298 0 0.0064919039950722878 0.0053601314881987824 0 0.006570717058705898 0.0066318687965726021 0 0.0067889348971506489 0.0059722980206266298 0 0.0070252104993666587 0.0064095774695247876 0 0.0080841850953927916 0.0091136100911868578 0 0.0078064192423976681 0.0090367460849888406 0 0.007220656056876054 0.0084736772480284092 0 0.0074293585135624188 0.008415350508305117 0 0.0073193256018824196 0.0083880018897842211 0 0.007220656056876054 0.0084736772480284092 0 0.0077601873917130543 0.0090280211998475454 0 0.0074293585135624188 0.008415350508305117 0 0.0077161514592711455 0.0066993275922683079 0 0.0072945552110440359 0.0067949815584161539 0 0.0074168101281913562 0.0063763814502362124 0 0.0077161514592711455 0.0066993275922683079 0 0.0078799128242275172 0.0071906438779345506 0 0.0075205277571635419 0.0073411749237088627 0 0.0077161514592711455 0.0066993275922683079 0 0.0072945552110440359 0.0067949815584161539 0 0.0075205277571635419 0.0073411749237088627 0 0.0072945552110440359 0.0067949815584161539 0 0.0075205277571635419 0.0073411749237088627 0 0.0073715548692116373 0.007432370948592895 0 0.0070667954775143534 0.0069623361995141356 0 0.0072945552110440359 0.0067949815584161539 0 0.0073715548692116373 0.007432370948592895 0 0.0070667954775143534 0.0069623361995141356 0 0.0072945552110440359 0.0067949815584161539 0 0.0070252104993666587 0.0064095774695247876 0 0.0067889348971506489 0.0059722980206266298 0 0.0070252104993666587 0.0064095774695247876 0 0.0071264976047075764 0.0059172728148583365 0 0.0070252104993666587 0.0064095774695247876 0 0.0071264976047075764 0.0059172728148583365 0 0.0074168101281913562 0.0063763814502362124 0 0.0072945552110440359 0.0067949815584161539 0 0.0070252104993666587 0.0064095774695247876 0 0.0074168101281913562 0.0063763814502362124 0 0.0077161514592711455 0.0066993275922683079 0 0.0074168101281913562 0.0063763814502362124 0 0.0077222693041880883 0.005917737420583831 0 0.0071264976047075764 0.0059172728148583365 0 0.0074168101281913562 0.0063763814502362124 0 0.0077222693041880883 0.005917737420583831 0 0.0077161514592711455 0.0066993275922683079 0 0.0077222693041880883 0.005917737420583831 0 0.0080370676047508555 0.0063818735914857871 0 0.0071264976047075764 0.0059172728148583365 0 0.0077222693041880883 0.005917737420583831 0 0.0072473224756881447 0.004977101383759547 0 0.0077222693041880883 0.005917737420583831 0 0.0072473224756881447 0.004977101383759547 0 0.0081664850848219544 0.0053079179980185173 0 0.0071264976047075764 0.0059172728148583365 0 0.0069143737667680593 0.0052781095877512388 0 0.0072473224756881447 0.004977101383759547 0 0.0071264976047075764 0.0059172728148583365 0 0.0068336527770260815 0.0056319280177938797 0 0.0069143737667680593 0.0052781095877512388 0 0.0067889348971506489 0.0059722980206266298 0 0.0071264976047075764 0.0059172728148583365 0 0.0068336527770260815 0.0056319280177938797 0 0.0069143737667680593 0.0052781095877512388 0 0.0069150703903019424 0.0048162543978586833 0 0.0072473224756881447 0.004977101383759547 0 0.0069143737667680593 0.0052781095877512388 0 0.0069150703903019424 0.0048162543978586833 0 0.0067649575221689186 0.0050280689682266387 0 0.0069150703903019424 0.0048162543978586833 0 0.0067649575221689186 0.0050280689682266387 0 0.0068307351911648531 0.0048520693702304224 0 0.0069150703903019424 0.0048162543978586833 0 0.0072473224756881447 0.004977101383759547 0 0.0069082698333600527 0.0044895991317070554 0 0.0073382716743488167 0.0083132742172963674 0 0.0071097103097126548 0.0074345694637031516 0 0.0074293585135624188 0.008415350508305117 0 0.0073515721993073577 0.0083559256278582222 0 0.0073631059349897835 0.0083319769853858628 0 0.0073515721993073577 0.0083559256278582222 0 0.0073297974556884886 0.0083466245259221552 0 0.0073469647787668246 0.0083398806671377557 0 0.0073515721993073577 0.0083559256278582222 0 0.0073193256018824196 0.0083880018897842211 0 0.0073297974556884886 0.0083466245259221552 0 0.0074293585135624188 0.008415350508305117 0 0.0073515721993073577 0.0083559256278582222 0 0.0073193256018824196 0.0083880018897842211 0 0.0074293585135624188 0.008415350508305117 0 0.0076512792880136619 0.0074011511971014323 0 0.0067981378681772411 0.0066234505684705895 0 0.0067889348971506489 0.0059722980206266298 0 0.0068336527770260815 0.0056319280177938797 0 0.0064919039950722878 0.0053601314881987824 0 0.0068336527770260815 0.0056319280177938797 0 0.0069143737667680593 0.0052781095877512388 0 0.0064919039950722878 0.0053601314881987824 0 0.0070496256338362156 0.0064016691188046671 0 0.0068900475254954196 0.005019463883378459 0 0.0076512792880136619 0.0074011511971014323 0 0.0067981378681772411 0.0066234505684705895 0 0.0068469454187075904 0.0048718956506268148 0 0.0064919039950722878 0.0053601314881987824 0 0.0067649575221689186 0.0050280689682266387 0 0.0068469454187075904 0.0048718956506268148 0 0.0069143737667680593 0.0052781095877512388 0 0.0064919039950722878 0.0053601314881987824 0 0.0067649575221689186 0.0050280689682266387 0 0.0067649575221689186 0.0050280689682266387 0 0.0068469454187075904 0.0048718956506268148 0 0.0068307351911648531 0.0048520693702304224 0 0.0071097103097126548 0.0074345694637031516 0 0.006948325241769541 0.0066436721938581671 0 0.0073631059349897835 0.0083319769853858628 0 0.007343632559149973 0.0083329600242264025 0 0.007355536889342415 0.0083190950481684088 0 0.0073515721993073577 0.0083559256278582222 0 0.0073631059349897835 0.0083319769853858628 0 0.0073469647787668246 0.0083398806671377557 0 0.0073631059349897835 0.0083319769853858628 0 0.0073469647787668246 0.0083398806671377557 0 0.007343632559149973 0.0083329600242264025 0 0.0073297974556884886 0.0083466245259221552 0 0.0073469647787668246 0.0083398806671377557 0 0.007343632559149973 0.0083329600242264025 0 0.007343632559149973 0.0083329600242264025 0 0.0073454509293973212 0.0083293234749943872 0 0.007355536889342415 0.0083190950481684088 0 0.007343632559149973 0.0083329600242264025 0 0.0073454509293973212 0.0083293234749943872 0 0.0073392741235823889 0.0083399135879977417 0 0.0073454509293973212 0.0083293234749943872 0 0.0073448775841853586 0.0083247935348802725 0 0.007355536889342415 0.0083190950481684088 0 0.0073454509293973212 0.0083293234749943872 0 0.0073448775841853586 0.0083247935348802725 0 0.0073392741235823889 0.0083399135879977417 0 0.0067981378681772411 0.0066234505684705895 0 0.0065020827331005587 0.0046898377133915556 0 0.0068469454187075904 0.0048718956506268148 0 0.0068469454187075904 0.0048718956506268148 0 0.0068307351911648531 0.0048520693702304224 0 0.0068425175336815159 0.0047163530303808649 0 0.0068469454187075904 0.0048718956506268148 0 0.0068425175336815159 0.0047163530303808649 0 0.0067525774100612706 0.0045761673703332995 0 0.0068425175336815159 0.0047163530303808649 0 0.0067525774100612706 0.0045761673703332995 0 0.0068674287718728973 0.0045747477744168775 0 0.0065020827331005587 0.0046898377133915556 0 0.0068469454187075904 0.0048718956506268148 0 0.0067525774100612706 0.0045761673703332995 0 0.0065020827331005587 0.0046898377133915556 0 0.0067525774100612706 0.0045761673703332995 0 0.0066612507311469204 0.0044554509325424275 0 0.0067525774100612706 0.0045761673703332995 0 0.0066612507311469204 0.0044554509325424275 0 0.0068739921706099808 0.0044422830199431513 0 0.0073448775841853586 0.0083247935348802725 0 0.0073551813061928459 0.0082815946719852988 0 0.0073410926271930115 0.008344858418929171 0 0.006948325241769541 0.0066436721938581671 0 0.0071360706408484069 0.0058282612969822048 0 0.0071682777847883695 0.0056406984145942569 0 0.0072609601847148835 0.0057768565430628529 0 0.0074866272688157145 0.0055548093876685942 0 0.0071360706408484069 0.0058282612969822048 0 0.0072911873270867355 0.0071673911207561815 0 0.0073448775841853586 0.0083247935348802725 0 0.007355536889342415 0.0083190950481684088 0 0.0073551813061928459 0.0082815946719852988 0 0.0072473224756881447 0.004977101383759547 0 0.0069082698333600527 0.0044895991317070554 0 0.0066685281452269849 0.0042872870377531798 0 0.0069082698333600527 0.0044895991317070554 0 0.0069001469745474438 0.0046217298837473659 0 0.0069045022164698523 0.0045401143433398709 0 0.0069001469745474438 0.0046217298837473659 0 0.0068674287718728973 0.0045747477744168775 0 0.0069045022164698523 0.0045401143433398709 0 0.0069150703903019424 0.0048162543978586833 0 0.0069082698333600527 0.0044895991317070554 0 0.0069001469745474438 0.0046217298837473659 0 0.0069150703903019424 0.0048162543978586833 0 0.0068307351911648531 0.0048520693702304224 0 0.0068425175336815159 0.0047163530303808649 0 0.0069150703903019424 0.0048162543978586833 0 0.0068425175336815159 0.0047163530303808649 0 0.0069001469745474438 0.0046217298837473659 0 0.0068425175336815159 0.0047163530303808649 0 0.0069001469745474438 0.0046217298837473659 0 0.0068674287718728973 0.0045747477744168775 0 0.0067525774100612706 0.0045761673703332995 0 0.0068674287718728973 0.0045747477744168775 0 0.0068739921706099808 0.0044422830199431513 0 0.0068674287718728973 0.0045747477744168775 0 0.006887260054641243 0.0045214540458206366 0 0.0068739921706099808 0.0044422830199431513 0 0.006887260054641243 0.0045214540458206366 0 0.006870844097991601 0.004528366593608486 0 0.0068739921706099808 0.0044422830199431513 0 0.0068674287718728973 0.0045747477744168775 0 0.006887260054641243 0.0045214540458206366 0 0.0069045022164698523 0.0045401143433398709 0 0.0069082698333600527 0.0044895991317070554 0 0.006870844097991601 0.004528366593608486 0 0.0065408364842047869 0.0041780667324805452 0 0.0069082698333600527 0.0044895991317070554 0 0.0069045022164698523 0.0045401143433398709 0 0.006870844097991601 0.004528366593608486 0 0.006887260054641243 0.0045214540458206366 0 0.0069045022164698523 0.0045401143433398709 0 0.006870844097991601 0.004528366593608486 0 0.0057190046609897523 0.0036567272818807568 0 0.0059846621064877413 0.003282125066462986 0 0.0063121647219879541 0.0035825856107306441 0 0.006298216118269407 0.0040756376611288019 0 0.0065135940644091969 0.0041863707859025366 0 0.0058116423628734003 0.0032606758319189324 0 0.005679835761989215 0.0034237397459538107 0 0.0056526394636326298 0.0026247521102581938 0 0.0054855298571115365 0.0027365164308136821 0 0.0058140273452645854 0.0026418659522635043 0 0.0059846621064877413 0.003282125066462986 0 0.0054926510348196995 0.0032281669994135495 0 0.0061565657534669999 0.0030264506463985653 0 0.005679835761989215 0.0034237397459538107 0 0.0059708158190526018 0.0027789731197308885 0 0.0057190046609897523 0.0036567272818807568 0 0.0059846621064877413 0.003282125066462986 0 0.0052578144349171548 0.0032132559193355707 0 0.0056526394636326298 0.0026247521102581938 0 0.0054855298571115365 0.0027365164308136821 0 0.0055268880093652072 0.0025937103750043717 0 0.0054248451353662522 0.0027293617321824484 0 0.0055268880093652072 0.0025937103750043717 0 0.0053040894966697536 0.002644799042146974 0 0.0054855298571115365 0.0027365164308136821 0 0.0054248451353662522 0.0027293617321824484 0 0.0055268880093652072 0.0025937103750043717 0 0.0057190046609897523 0.0036567272818807568 0 0.0052578144349171548 0.0032132559193355707 0 0.005142809280420154 0.0032515168521984185 0 0.006298216118269407 0.0040756376611288019 0 0.0061302762015269284 0.0037052826508643709 0 0.005679835761989215 0.0034237397459538107 0 0.0059491306420616993 0.0035479338640022448 0 0.0058563859813933992 0.0034861967226140762 0 0.0059733455861542828 0.0034473793482592149 0 0.0060607082621949434 0.0035067639769049619 0 0.005679835761989215 0.0034237397459538107 0 0.0061302762015269284 0.0037052826508643709 0 0.0061302762015269284 0.0037052826508643709 0 0.0059491306420616993 0.0035479338640022448 0 0.0059491306420616993 0.0035479338640022448 0 0.0056873112276391398 0.0027182404036039595 0 0.0055900016311421601 0.0023353352832267632 0 0.0056172742120698975 0.0023876272910678185 0 0.0055659597229754327 0.0023292540155575225 0 0.0055498278416218679 0.0024913370049182634 0 0.0056873112276391398 0.0027182404036039595 0 0.0055900016311421601 0.0023353352832267632 0 0.00562058976878503 0.0023345066988985849 0 0.005585070344226277 0.0022883480673495239 0 0.0055900016311421601 0.0023353352832267632 0 0.0055753268705942341 0.0023157067781741031 0 0.005585070344226277 0.0022883480673495239 0 0.0055900016311421601 0.0023353352832267632 0 0.00562058976878503 0.0023345066988985849 0 0.0056172742120698975 0.0023876272910678185 0 0.0056172742120698975 0.0023876272910678185 0 0.0056804937001986942 0.0023623442093299533 0 0.005793976959648452 0.0025068908733735331 0 0.0056526394636326298 0.0026247521102581938 0 0.0055268880093652072 0.0025937103750043717 0 0.005793976959648452 0.0025068908733735331 0 0.0055498278416218679 0.0024913370049182634 0 0.0057950455981669955 0.0024897827078923206 0 0.00562058976878503 0.0023345066988985849 0 0.0056172742120698975 0.0023876272910678185 0 0.0056804937001986942 0.0023623442093299533 0 0.00562058976878503 0.0023345066988985849 0 0.0056804937001986942 0.0023623442093299533 0 0.0056508793209999698 0.0022468674731399197 0 0.0056804937001986942 0.0023623442093299533 0 0.005793976959648452 0.0025068908733735331 0 0.0058079155945253086 0.0022859837579784102 0 0.0056526394636326298 0.0026247521102581938 0 0.0058140273452645854 0.0026418659522635043 0 0.005793976959648452 0.0025068908733735331 0 0.0065657208318783073 0.0042776617177882363 0 0.0062287335849584673 0.004096129913423275 0 0.0057379242292502361 0.0024836101522631398 0 0.0056606343312951479 0.0024922947546624323 0 0.0056826286186756137 0.0024412257738781768 0 0.0062623204881712708 0.0033823844924102896 0 0.0062287335849584673 0.004096129913423275 0 0.0060903717647094041 0.0038552612013224023 0 0.0060904579168402796 0.0039415694230391938 0 0.0063847333927164506 0.0038868348941255839 0 0.0065657208318783073 0.0042776617177882363 0 0.0062623204881712708 0.0033823844924102896 0 0.0071360706408484069 0.0058282612969822048 0 0.0065657208318783073 0.0042776617177882363 0 0.0071682777847883695 0.0056406984145942569 0 0.0071671688726605686 0.0057650066044420195 0 0.0072609601847148835 0.0057768565430628529 0 0.006681507445756297 0.0044147668406507613 0 0.0063287054920452305 0.004553545182501114 0 0.0066805096144403166 0.0045976522342485336 0 0.0071360706408484069 0.0058282612969822048 0 0.0061302762015269284 0.0037052826508643709 0 0.006681507445756297 0.0044147668406507613 0 0.0062933171973688458 0.0045286780189521597 0 0.0063287054920452305 0.004553545182501114 0 0.0059491306420616993 0.0035479338640022448 0 0.0065657208318783073 0.0042776617177882363 0 0.0058089973160084197 0.003483264687097577 0 0.0063839521138176238 0.0035438052863323586 0 0.0060752984447611635 0.003664651570991185 0 0.0063839521138176238 0.0035438052863323586 0 0.0063839609347398074 0.0036075776205114871 0 0.0060752984447611635 0.003664651570991185 0 0.0062623204881712708 0.0033823844924102896 0 0.0056873112276391398 0.0027182404036039595 0 0.0057407231829533752 0.0025007191411664277 0 0.0058749834347683735 0.0024672950929469422 0 0.0057391823580286092 0.0024200300615691882 0 0.0055659597229754327 0.0023292540155575225 0 0.0055753268705942341 0.0023157067781741031 0 0.0055709526860554899 0.0022949975530196982 0 0.0055659597229754327 0.0023292540155575225 0 0.0055709526860554899 0.0022949975530196982 0 0.0055892920863730702 0.002299948807942721 0 0.0055900016311421601 0.0023353352832267632 0 0.0055659597229754327 0.0023292540155575225 0 0.0055753268705942341 0.0023157067781741031 0 0.0055753268705942341 0.0023157067781741031 0 0.005585070344226277 0.0022883480673495239 0 0.0055709526860554899 0.0022949975530196982 0 0.0056873112276391398 0.0027182404036039595 0 0.0055866280302396942 0.0022032164376526468 0 0.0058749834347683735 0.0024672950929469422 0 0.0057391823580286092 0.0024200300615691882 0 0.0055892920863730702 0.002299948807942721 0 0.0056826286186756137 0.0024412257738781768 0 0.0057391823580286092 0.0024200300615691882 0 0.0056359244598655845 0.0023971742461953794 0 0.0057379242292502361 0.0024836101522631398 0 0.0056826286186756137 0.0024412257738781768 0 0.0057391823580286092 0.0024200300615691882 0 0.0062623204881712708 0.0033823844924102896 0 0.0060691657624168099 0.0025866455491544535 0 0.0056606343312951479 0.0024922947546624323 0 0.0056826286186756137 0.0024412257738781768 0 0.0056359244598655845 0.0023971742461953794 0 0.0056359244598655845 0.0023971742461953794 0 0.0055868321076769454 0.0023068186609525609 0 0.0055892920863730702 0.002299948807942721 0 0.0057391823580286092 0.0024200300615691882 0 0.0056359244598655845 0.0023971742461953794 0 0.0055892920863730702 0.002299948807942721 0 0.0068410655557663352 0.002629254961096731 0 0.0082355139574482889 0.0034200157765952831 0 0.0084540140904469478 0.0028330023211544041 0 0.0091987184147436837 0.0027855552996694662 0 0.0091436463972302071 0.0019656246414307796 0 0.0056359244598655845 0.0023971742461953794 0 0.0055868321076769454 0.0023068186609525609 0 0.0055045323714267404 0.0024723306956759847 0 0.0097476229629036015 0.0025080598300598008 0 0.0091987184147436837 0.0027855552996694662 0 0.0091436463972302071 0.0019656246414307796 0 0.0097476229629036015 0.0025080598300598008 0 0.0091436463972302071 0.0019656246414307796 0 0.010312963860917948 0.0022449129970285964 0 0.0097476229629036015 0.0025080598300598008 0 0.010171250610554199 0.0025858803591492065 0 0.0098074111358544061 0.0029427747042736381 0 0.0097476229629036015 0.0025080598300598008 0 0.0091987184147436837 0.0027855552996694662 0 0.0098074111358544061 0.0029427747042736381 0 0.0095828063000252921 0.0052377231976455801 0 0.0096114305637254316 0.0051888362733476801 0 0.0094608502291854604 0.0051798350617336493 0 0.0082355139574482889 0.0034200157765952831 0 0.010352342385049335 0.003028229298757801 0 0.0085568808755919698 0.0051061605923486807 0 0.0082355139574482889 0.0034200157765952831 0 0.0095980353926632695 0.0053095673246732313 0 0.009545587605557012 0.0053972586807247164 0 0.009513673556503446 0.0053257069242652732 0 0.0085568808755919698 0.0051061605923486807 0 0.0096455675838912347 0.005254615588613217 0 0.0064911313824683493 0.0043750118065985361 0 0.0084578501829989626 0.0040164984101658165 0 0.0080363567213697848 0.0045443823917234658 0 0.0072609601847148835 0.0057768565430628529 0 0.0075704046267963824 0.005730031228019716 0 0.0074866272688157145 0.0055548093876685942 0 0.0062287335849584673 0.004096129913423275 0 0.0085568808755919698 0.0051061605923486807 0 0.0062287335849584673 0.004096129913423275 0 0.0082355139574482889 0.0034200157765952831 0 0.0056606343312951479 0.0024922947546624323 0 0.0056359244598655845 0.0023971742461953794 0 0.0055045323714267404 0.0024723306956759847 0 0.0074866272688157145 0.0055548093876685942 0 0.007680919183070364 0.0056010103476409594 0 0.0077932678429605386 0.0054804566153993988 0 0.0072911873270867355 0.0071673911207561815 0 0.0081779574832748329 0.0066692501597729412 0 0.0075704046267963824 0.005730031228019716 0 0.0074866272688157145 0.0055548093876685942 0 0.007680919183070364 0.0056010103476409594 0 0.0085568808755919698 0.0051061605923486807 0 0.0087021431797759587 0.0053906296383791005 0 0.0073410926271930115 0.008344858418929171 0 0.0073596542554306768 0.0083608858986657826 0 0.0074266467085327302 0.0084030312999628029 0 0.0073410926271930115 0.008344858418929171 0 0.0073596542554306768 0.0083608858986657826 0 0.0073392741235823889 0.0083399135879977417 0 0.0073448775841853586 0.0083247935348802725 0 0.0073410926271930115 0.008344858418929171 0 0.0073392741235823889 0.0083399135879977417 0 0.0093144648919550269 0.0073211158471020929 0 0.011129269038293168 0.0070094779549080668 0 0.012911889607891311 0.0086527380272632751 0 0.012806803287284353 0.0079818895970996846 0 0.01260059390540701 0.0084356982525888753 0 0.0093466302650205644 0.0055775788319420991 0 0.0094739825603322222 0.0055208126546183308 0 0.0094036842709844977 0.0054590366487707181 0 0.0093144648919550269 0.0073211158471020929 0 0.0081779574832748329 0.0066692501597729412 0 0.0077088591804928344 0.0085149238298287289 0 0.0076469996935986696 0.0086540577518328596 0 0.007885727288239738 0.0085835338415080654 0 0.0093144648919550269 0.0073211158471020929 0 0.011254330693065499 0.0089313090629014793 0 0.0079404121110997084 0.0083037840868447205 0 0.0093144648919550269 0.0073211158471020929 0 0.0079404121110997084 0.0083037840868447205 0 0.0081779574832748329 0.0066692501597729412 0 0.008268169745564994 0.0076545343189193173 0 0.0081950586278717336 0.0073058585771944217 0 0.0086605397884193351 0.0071470651822391294 0 0.0074328522348657885 0.0083687897799747547 0 0.0075323211496523268 0.0083826320576917707 0 0.0074266467085327302 0.0084030312999628029 0 0.0074328522348657885 0.0083687897799747547 0 0.0073596542554306768 0.0083608858986657826 0 0.0074266467085327302 0.0084030312999628029 0 0.0094739825603322222 0.0055208126546183308 0 0.0094709257903304225 0.0054025806771212182 0 0.0094036842709844977 0.0054590366487707181 0 0.0087021431797759587 0.0053906296383791005 0 0.0081779574832748329 0.0066692501597729412 0 0.009545587605557012 0.0053972586807247164 0 0.0094739825603322222 0.0055208126546183308 0 0.0094709257903304225 0.0054025806771212182 0 0.009545587605557012 0.0053972586807247164 0 0.0094709257903304225 0.0054025806771212182 0 0.009513673556503446 0.0053257069242652732 0 0.0094709257903304225 0.0054025806771212182 0 0.0094036079445763421 0.0053248780720501331 0 0.009513673556503446 0.0053257069242652732 0 0.0093466302650205644 0.0055775788319420991 0 0.0094036842709844977 0.0054590366487707181 0 0.0093230506612137446 0.0054104135305375984 0 0.0094036842709844977 0.0054590366487707181 0 0.0093230506612137446 0.0054104135305375984 0 0.0094036079445763421 0.0053248780720501331 0 0.0094709257903304225 0.0054025806771212182 0 0.0094036842709844977 0.0054590366487707181 0 0.0094036079445763421 0.0053248780720501331 0 0.011129269038293168 0.0070094779549080668 0 0.011392564125593857 0.0043464170736439486 0 0.0094036079445763421 0.0053248780720501331 0 0.0094608502291854604 0.0051798350617336493 0 0.0093068373791709239 0.0052461920840772931 0 0.0093230506612137446 0.0054104135305375984 0 0.0094036079445763421 0.0053248780720501331 0 0.0093068373791709239 0.0052461920840772931 0 0.010692147148691673 0.0021573043064813248 0 0.011306619730732874 0.0022137370962776464 0 0.011618608650844386 0.0017951583553236768 0 0.010352342385049335 0.003028229298757801 0 0.011392564125593857 0.0043464170736439486 0 0.0095828063000252921 0.0052377231976455801 0 0.0095056846327775269 0.0052693702131928304 0 0.0094608502291854604 0.0051798350617336493 0 0.0094036079445763421 0.0053248780720501331 0 0.0095056846327775269 0.0052693702131928304 0 0.0094608502291854604 0.0051798350617336493 0 0.0093716308822957787 0.0053264871235440443 0 0.0096455675838912347 0.005254615588613217 0 0.0091436463972302071 0.0019656246414307796 0 0.010312963860917948 0.0022449129970285964 0 0.010638409827507356 0.0021196427628504487 0 0.0097476229629036015 0.0025080598300598008 0 0.010312963860917948 0.0022449129970285964 0 0.010171250610554199 0.0025858803591492065 0 0.010312963860917948 0.0022449129970285964 0 0.010587566758593979 0.0024616113148126432 0 0.010171250610554199 0.0025858803591492065 0 0.010312963860917948 0.0022449129970285964 0 0.010587566758593979 0.0024616113148126432 0 0.010647486432843621 0.0021224245423018514 0 0.010537418180554325 0.0026772516469986732 0 0.010352342385049335 0.003028229298757801 0 0.010587566758593979 0.0024616113148126432 0 0.010647486432843621 0.0021224245423018514 0 0.01095233779965505 0.002523066376296461 0 0.010587566758593979 0.0024616113148126432 0 0.010742865714241599 0.0027673292481063742 0 0.01095233779965505 0.002523066376296461 0 0.010742865714241599 0.0027673292481063742 0 0.010466205978770333 0.002719054546037763 0 0.010555335264216386 0.0029436645195428175 0 0.010466205978770333 0.002719054546037763 0 0.010276839439945533 0.0028677074615801753 0 0.010555335264216386 0.0029436645195428175 0 0.010587566758593979 0.0024616113148126432 0 0.010742865714241599 0.0027673292481063742 0 0.010466205978770333 0.002719054546037763 0 0.010276839439945533 0.0028677074615801753 0 0.010171250610554199 0.0025858803591492065 0 0.0098074111358544061 0.0029427747042736381 0 0.010587566758593979 0.0024616113148126432 0 0.010466205978770333 0.002719054546037763 0 0.010171250610554199 0.0025858803591492065 0 0.010466205978770333 0.002719054546037763 0 0.010276839439945533 0.0028677074615801753 0 0.010171250610554199 0.0025858803591492065 0 0.011306619730732874 0.0022137370962776464 0 0.01180693845071556 0.0025763590501635338 0 0.011618608650844386 0.0017951583553236768 0 0.011306619730732874 0.0022137370962776464 0 0.011366997251060891 0.0027106874442194592 0 0.01180693845071556 0.0025763590501635338 0 0.011306619730732874 0.0022137370962776464 0 0.01095233779965505 0.002523066376296461 0 0.011366997251060891 0.0027106874442194592 0 0.010352342385049335 0.003028229298757801 0 0.011214186246660268 0.002398077626373622 0 0.010647486432843621 0.0021224245423018514 0 0.011306619730732874 0.0022137370962776464 0 0.01095233779965505 0.002523066376296461 0 0.01095233779965505 0.002523066376296461 0 0.011026204256936711 0.0028454232838735515 0 0.011366997251060891 0.0027106874442194592 0 0.010742865714241599 0.0027673292481063742 0 0.01095233779965505 0.002523066376296461 0 0.011026204256936711 0.0028454232838735515 0 0.011026204256936711 0.0028454232838735515 0 0.011366997251060891 0.0027106874442194592 0 0.011260824464675254 0.0030576576628863136 0 0.011366997251060891 0.0027106874442194592 0 0.01180693845071556 0.0025763590501635338 0 0.011551080385993616 0.0030187713200819726 0 0.011793558866821345 0.0023772050280919219 0 0.011392564125593857 0.0043464170736439486 0 0.011948393423742721 0.0028359229127979603 0 0.011887435749130537 0.0023440415633318875 0 0.012122157065210323 0.0025021637475643606 0 0.011948393423742721 0.0028359229127979603 0 0.012392026566340737 0.0025410330211592222 0 0.0124785987448611 0.0030277954773456268 0 0.011948393423742721 0.0028359229127979603 0 0.012122157065210323 0.0025021637475643606 0 0.012392026566340737 0.0025410330211592222 0 0.011887435749130537 0.0023440415633318875 0 0.012122157065210323 0.0025021637475643606 0 0.012198311280130488 0.0022368282784233119 0 0.012122157065210323 0.0025021637475643606 0 0.012377103865214281 0.0021776941310766634 0 0.012392026566340737 0.0025410330211592222 0 0.012122157065210323 0.0025021637475643606 0 0.012198311280130488 0.0022368282784233119 0 0.012377103865214281 0.0021776941310766634 0 0.012226339275709399 0.0047753257965388448 0 0.012037103275858873 0.0050780192213385946 0 0.011392564125593857 0.0043464170736439486 0 0.012226339275709399 0.0047753257965388448 0 0.0126699971279048 0.0072424241477040937 0 0.012230185578613008 0.0074420210123186748 0 0.012459528767394484 0.0077417363995971253 0 0.012392026566340737 0.0025410330211592222 0 0.013044467940677816 0.0023532970418939131 0 0.013082044259157146 0.0017400452726146652 0 0.012377103865214281 0.0021776941310766634 0 0.012392026566340737 0.0025410330211592222 0 0.012793464396455182 0.0020486655662888061 0 0.012493707950799862 0.0019095647173276327 0 0.013212881506109034 0.0036788905494488239 0 0.012230185578613008 0.0074420210123186748 0 0.011971746560961271 0.0075551771714677573 0 0.011750919593475883 0.0078529555849780538 0 0.01284944626798828 0.0027178399835124886 0 0.012392026566340737 0.0025410330211592222 0 0.013044467940677816 0.0023532970418939131 0 0.01284944626798828 0.0027178399835124886 0 0.012392026566340737 0.0025410330211592222 0 0.0124785987448611 0.0030277954773456268 0 0.01284944626798828 0.0027178399835124886 0 0.0124785987448611 0.0030277954773456268 0 0.012999290289675591 0.0030986414845272795 0 0.01284944626798828 0.0027178399835124886 0 0.013469392920682334 0.0026614425678928477 0 0.012999290289675591 0.0030986414845272795 0 0.013469392920682334 0.0026614425678928477 0 0.013554045270279407 0.0032777960108973554 0 0.012999290289675591 0.0030986414845272795 0 0.01284944626798828 0.0027178399835124886 0 0.013469392920682334 0.0026614425678928477 0 0.013044467940677816 0.0023532970418939131 0 0.013469392920682334 0.0026614425678928477 0 0.014150381606438179 0.0029154484137737489 0 0.014204776851094749 0.0022886858584625115 0 0.013469392920682334 0.0026614425678928477 0 0.014150381606438179 0.0029154484137737489 0 0.013554045270279407 0.0032777960108973554 0 0.013469392920682334 0.0026614425678928477 0 0.013434238347178766 0.0021086681745327283 0 0.014204776851094749 0.0022886858584625115 0 0.014442582390288205 0.0050751332356800084 0 0.01485394335281018 0.0040644947194895019 0 0.013434238347178766 0.0021086681745327283 0 0.013482422675292996 0.0015989373873945046 0 0.014204776851094749 0.0022886858584625115 0 0.013044467940677816 0.0023532970418939131 0 0.013434238347178766 0.0021086681745327283 0 0.013082044259157146 0.0017400452726146652 0 0.013469392920682334 0.0026614425678928477 0 0.013044467940677816 0.0023532970418939131 0 0.013434238347178766 0.0021086681745327283 0 0.013025809803625525 0.0051913029602585134 0 0.013260618491371097 0.0049127001900116088 0 0.014034984956473949 0.004811116579289159 0 0.013212881506109034 0.0036788905494488239 0 0.012504370772821037 0.0060753577969172674 0 0.013212881506109034 0.0036788905494488239 0 0.014442582390288205 0.0050751332356800084 0 0.013434238347178766 0.0021086681745327283 0 0.013082044259157146 0.0017400452726146652 0 0.013482422675292996 0.0015989373873945046 0 0.012504370772821037 0.0060753577969172674 0 0.014292894290424504 0.0061245625487949696 0 0.012811170756256283 0.0062725432474422943 0 0.01324740740630052 0.0060761673682729481 0 0.013098699164604518 0.0059292724899202608 0 0.013260618491371097 0.0049127001900116088 0 0.01386628557083922 0.004643415984438736 0 0.014034984956473949 0.004811116579289159 0 0.014292894290424504 0.0061245625487949696 0 0.013161376411689199 0.0073888315931202389 0 0.014292894290424504 0.0061245625487949696 0 0.014442582390288205 0.0050751332356800084 0 0.010898333849012024 0.0081610430704784822 0 0.011205853390020819 0.0081886857119320179 0 0.011377649396991013 0.0083347201163769032 0 0.010898333849012024 0.0081610430704784822 0 0.011205853390020819 0.0081886857119320179 0 0.011119838272601689 0.0080806760550202698 0 0.011205853390020819 0.0081886857119320179 0 0.011377649396991013 0.0083347201163769032 0 0.011349335294611976 0.0081641097579963021 0 0.011205853390020819 0.0081886857119320179 0 0.011242177714824629 0.0080752163441486224 0 0.011349335294611976 0.0081641097579963021 0 0.011205853390020819 0.0081886857119320179 0 0.011242177714824629 0.0080752163441486224 0 0.011119838272601689 0.0080806760550202698 0 0.011105729328382687 0.0079357716754214196 0 0.011242177714824629 0.0080752163441486224 0 0.011432541336498537 0.0080167943199309383 0 0.012504370772821037 0.0060753577969172674 0 0.013161376411689199 0.0073888315931202389 0 0.011105729328382687 0.0079357716754214196 0 0.011242177714824629 0.0080752163441486224 0 0.011119838272601689 0.0080806760550202698 0 0.011105729328382687 0.0079357716754214196 0 0.010898333849012024 0.0081610430704784822 0 0.011119838272601689 0.0080806760550202698 0 0.016018490087710509 0.0060668436597845384 0 0.015996403660599949 0.0060473761054025202 0 0.015791729578682006 0.0061839475517718899 0 0.016088177243363221 0.0060449030248540918 0 0.015758230802295253 0.0057097228662844907 0 0.015733420262239294 0.0059691547045997075 0 0.014442582390288205 0.0050751332356800084 0 0.016212122438306772 0.0060758118212870292 0 0.016088177243363221 0.0060449030248540918 0 0.015791729578682006 0.0061839475517718899 0 0.015733420262239294 0.0059691547045997075 0 0.013161376411689199 0.0073888315931202389 0 0.014272600513703913 0.0081428655892600635 0 0.016018490087710509 0.0060668436597845384 0 0.015791729578682006 0.0061839475517718899 0 0.015691321989106534 0.0063245012089036797 0 0.01254736563726812 0.01002452150449654 0 0.012802361958617926 0.009410545904891654 0 0.01331742885228627 0.0092192930485371985 0 0.015063191237765776 0.0068254751127904446 0 0.015144512115587332 0.0067712808171810817 0 0.015124469360547935 0.0067646865430280268 0 0.014292894290424504 0.0061245625487949696 0 0.015674482400607617 0.0065594329556017128 0 0.015063191237765776 0.0068254751127904446 0 0.015054535699776789 0.0068197440884462885 0 0.015124469360547935 0.0067646865430280268 0 0.010898333849012024 0.0081610430704784822 0 0.011482700999448767 0.0085025480721254553 0 0.011377649396991013 0.0083347201163769032 0 0.01254736563726812 0.01002452150449654 0 0.012384843915371644 0.0095129372026046717 0 0.012143945265584112 0.0093023099297567854 0 0.01254736563726812 0.01002452150449654 0 0.012559302489939202 0.0095764729141543884 0 0.012384843915371644 0.0095129372026046717 0 0.01254736563726812 0.01002452150449654 0 0.012559302489939202 0.0095764729141543884 0 0.012802361958617926 0.009410545904891654 0 0.012559302489939202 0.0095764729141543884 0 0.012802361958617926 0.009410545904891654 0 0.012504370113177028 0.0093648752373795361 0 0.012802361958617926 0.009410545904891654 0 0.012504370113177028 0.0093648752373795361 0 0.012490790256261422 0.0089953299527095517 0 0.012504370113177028 0.0093648752373795361 0 0.012384843915371644 0.0095129372026046717 0 0.012295290600220998 0.0092408573075522232 0 0.012559302489939202 0.0095764729141543884 0 0.012504370113177028 0.0093648752373795361 0 0.012384843915371644 0.0095129372026046717 0 0.012384843915371644 0.0095129372026046717 0 0.012295290600220998 0.0092408573075522232 0 0.012143945265584112 0.0093023099297567854 0 0.012143945265584112 0.0093023099297567854 0 0.011804934427622307 0.009098497029473027 0 0.011943030170691737 0.0090784650001754612 0 0.010898333849012024 0.0081610430704784822 0 0.011657093345911106 0.0087785120389805137 0 0.011804934427622307 0.009098497029473027 0 0.01254736563726812 0.01002452150449654 0 0.012143945265584112 0.0093023099297567854 0 0.011804934427622307 0.009098497029473027 0 0.013161376411689199 0.0073888315931202389 0 0.0114863706429131 0.0095391207977299254 0 0.010898333849012024 0.0081610430704784822 0 0.011657093345911106 0.0087785120389805137 0 0.011482700999448767 0.0085025480721254553 0 0.011657093345911106 0.0087785120389805137 0 0.011482700999448767 0.0085025480721254553 0 0.011704036620508616 0.0085319421472784939 0 0.011569368327702693 0.0084634053810628811 0 0.011609274814233884 0.0083377336653657937 0 0.011377649396991013 0.0083347201163769032 0 0.011569368327702693 0.0084634053810628811 0 0.011609274814233884 0.0083377336653657937 0 0.011704036620508616 0.0085319421472784939 0 0.011569368327702693 0.0084634053810628811 0 0.011482700999448767 0.0085025480721254553 0 0.011704036620508616 0.0085319421472784939 0 0.011569368327702693 0.0084634053810628811 0 0.011482700999448767 0.0085025480721254553 0 0.011377649396991013 0.0083347201163769032 0 0.011860300883152935 0.0083409525522229987 0 0.011917724358125225 0.0086240899149777756 0 0.012284164929499807 0.0082716972883313793 0 0.011860300883152935 0.0083409525522229987 0 0.011704036620508616 0.0085319421472784939 0 0.011917724358125225 0.0086240899149777756 0 0.011609274814233884 0.0083377336653657937 0 0.011860300883152935 0.0083409525522229987 0 0.011704036620508616 0.0085319421472784939 0 0.011657093345911106 0.0087785120389805137 0 0.011704036620508616 0.0085319421472784939 0 0.011917724358125225 0.0086240899149777756 0 0.011917724358125225 0.0086240899149777756 0 0.011871690943158167 0.0088574912522125585 0 0.012092981078472481 0.0089292670788750951 0 0.011657093345911106 0.0087785120389805137 0 0.011917724358125225 0.0086240899149777756 0 0.011871690943158167 0.0088574912522125585 0 0.011871690943158167 0.0088574912522125585 0 0.011804934427622307 0.009098497029473027 0 0.011898197215149979 0.009008199944747098 0 0.011657093345911106 0.0087785120389805137 0 0.011871690943158167 0.0088574912522125585 0 0.011804934427622307 0.009098497029473027 0 0.011898197215149979 0.009008199944747098 0 0.012092981078472481 0.0089292670788750951 0 0.011812694860199684 0.0090884698181068081 0 0.011871690943158167 0.0088574912522125585 0 0.011898197215149979 0.009008199944747098 0 0.012092981078472481 0.0089292670788750951 0 0.012092981078472481 0.0089292670788750951 0 0.012426766448015721 0.0089808347868604674 0 0.012284164929499807 0.0082716972883313793 0 0.012092981078472481 0.0089292670788750951 0 0.012426766448015721 0.0089808347868604674 0 0.011812694860199684 0.0090884698181068081 0 0.012911889607891311 0.0086527380272632751 0 0.012410909598977409 0.0088164306500858082 0 0.01260059390540701 0.0084356982525888753 0 0.012410909598977409 0.0088164306500858082 0 0.01260059390540701 0.0084356982525888753 0 0.012284164929499807 0.0082716972883313793 0 0.011917724358125225 0.0086240899149777756 0 0.012092981078472481 0.0089292670788750951 0 0.012284164929499807 0.0082716972883313793 0 0.011254330693065499 0.0089313090629014793 0 0.012209089934084519 0.0084511155746350777 0 0.012284164929499807 0.0082716972883313793 0 0.012166793817389792 0.0078597803477864076 0 0.011924148055826971 0.0080824375572246792 0 0.012806803287284353 0.0079818895970996846 0 0.0126699971279048 0.0072424241477040937 0 0.012459528767394484 0.0077417363995971253 0 0.012806803287284353 0.0079818895970996846 0 0.012284164929499807 0.0082716972883313793 0 0.012459528767394484 0.0077417363995971253 0 0.012806803287284353 0.0079818895970996846 0 0.01260059390540701 0.0084356982525888753 0 0.012284164929499807 0.0082716972883313793 0 0.012284164929499807 0.0082716972883313793 0 0.012459528767394484 0.0077417363995971253 0 0.012166793817389792 0.0078597803477864076 0 0.012230185578613008 0.0074420210123186748 0 0.012459528767394484 0.0077417363995971253 0 0.012166793817389792 0.0078597803477864076 0 0.012230185578613008 0.0074420210123186748 0 0.012166793817389792 0.0078597803477864076 0 0.011750919593475883 0.0078529555849780538 0 0.012174984452145534 0.0051919943065324636 0 0.012815886992427711 0.0049968225790540449 0 0.012906439452732078 0.0048948935780477962 0 0.012037103275858873 0.0050780192213385946 0 0.012504370772821037 0.0060753577969172674 0 0.012037103275858873 0.0050780192213385946 0 0.013212881506109034 0.0036788905494488239 0 0.011971746560961271 0.0075551771714677573 0 0.011105729328382687 0.0079357716754214196 0 0.011750919593475883 0.0078529555849780538 0 0.012166793817389792 0.0078597803477864076 0 0.011750919593475883 0.0078529555849780538 0 0.011924148055826971 0.0080824375572246792 0 0.011105729328382687 0.0079357716754214196 0 0.011750919593475883 0.0078529555849780538 0 0.011432541336498537 0.0080167943199309383 0 0.011654786519867812 0.0080535762273879572 0 0.011432541336498537 0.0080167943199309383 0 0.011486525096122671 0.0082088236911938769 0 0.011750919593475883 0.0078529555849780538 0 0.011654786519867812 0.0080535762273879572 0 0.011432541336498537 0.0080167943199309383 0 0.011242177714824629 0.0080752163441486224 0 0.011432541336498537 0.0080167943199309383 0 0.011349335294611976 0.0081641097579963021 0 0.011432541336498537 0.0080167943199309383 0 0.011349335294611976 0.0081641097579963021 0 0.011486525096122671 0.0082088236911938769 0 0.011609274814233884 0.0083377336653657937 0 0.011377649396991013 0.0083347201163769032 0 0.011486525096122671 0.0082088236911938769 0 0.011377649396991013 0.0083347201163769032 0 0.011349335294611976 0.0081641097579963021 0 0.011486525096122671 0.0082088236911938769 0 0.011654786519867812 0.0080535762273879572 0 0.011486525096122671 0.0082088236911938769 0 0.011714504030571534 0.0081977759662258017 0 0.011609274814233884 0.0083377336653657937 0 0.011486525096122671 0.0082088236911938769 0 0.011714504030571534 0.0081977759662258017 0 0.011609274814233884 0.0083377336653657937 0 0.011860300883152935 0.0083409525522229987 0 0.011714504030571534 0.0081977759662258017 0 0.011860300883152935 0.0083409525522229987 0 0.011714504030571534 0.0081977759662258017 0 0.011924148055826971 0.0080824375572246792 0 0.011860300883152935 0.0083409525522229987 0 0.012284164929499807 0.0082716972883313793 0 0.011924148055826971 0.0080824375572246792 0 0.011750919593475883 0.0078529555849780538 0 0.011654786519867812 0.0080535762273879572 0 0.011924148055826971 0.0080824375572246792 0 0.011654786519867812 0.0080535762273879572 0 0.011714504030571534 0.0081977759662258017 0 0.011924148055826971 0.0080824375572246792 0 0.015982746545180202 0.0055491524180640954 0 0.015669314103975266 0.0056770234282088423 0 0.015661490604472202 0.0054277005693236938 0 0.015472018157919038 0.0055908207109757477 0 0.015669314103975266 0.0056770234282088423 0 0.015661490604472202 0.0054277005693236938 0 0.015472018157919038 0.0055908207109757477 0 0.015669314103975266 0.0056770234282088423 0 0.015523965513054374 0.0058060547572830927 0 0.016029804072348868 0.0039005417467959124 0 0.015861285715975445 0.0040898677513582504 0 0.015414363908777309 0.0022230218359750946 0 0.016378863015487195 0.0022269714522007047 0 0.01601331227805736 0.0017791370368430456 0 0.015813848858769072 0.0059869434078820187 0 0.015669314103975266 0.0056770234282088423 0 0.015523965513054374 0.0058060547572830927 0 0.015813848858769072 0.0059869434078820187 0 0.015523965513054374 0.0058060547572830927 0 0.015397710991400001 0.0059714014871677544 0 0.015523965513054374 0.0058060547572830927 0 0.015397710991400001 0.0059714014871677544 0 0.015322234866701544 0.0057365307252560315 0 0.015861285715975445 0.0040898677513582504 0 0.015919223057900368 0.004507646118198678 0 0.015397710991400001 0.0059714014871677544 0 0.015322234866701544 0.0057365307252560315 0 0.015035056126094421 0.0059424730156862129 0 0.016378863015487195 0.0022269714522007047 0 0.017327585908766669 0.0022378996133074753 0 0.016906673657609391 0.0018924783846840309 0 0.0149515997522096 0.0060448452187298034 0 0.015919223057900368 0.004507646118198678 0 0.016378863015487195 0.0022269714522007047 0 0.016457045954970086 0.0016901250455878798 0 0.016906673657609391 0.0018924783846840309 0 0.015322234866701544 0.0057365307252560315 0 0.015306416931991888 0.005684437798614674 0 0.015353124106299453 0.0056010443985658777 0 0.015322234866701544 0.0057365307252560315 0 0.015233323229009265 0.0056945259559544473 0 0.015306416931991888 0.005684437798614674 0 0.015472018157919038 0.0055908207109757477 0 0.015523965513054374 0.0058060547572830927 0 0.015322234866701544 0.0057365307252560315 0 0.015472018157919038 0.0055908207109757477 0 0.015322234866701544 0.0057365307252560315 0 0.015233323229009265 0.0056945259559544473 0 0.015233323229009265 0.0056945259559544473 0 0.015371388943538575 0.0058256606078362057 0 0.015306416931991888 0.005684437798614674 0 0.015371388943538575 0.0058256606078362057 0 0.015566244851002008 0.0058309275628718633 0 0.015499214992923041 0.0059825308171311637 0 0.015371388943538575 0.0058256606078362057 0 0.015455203432410369 0.0056901534109234644 0 0.015566244851002008 0.0058309275628718633 0 0.015455203432410369 0.0056901534109234644 0 0.015306416931991888 0.005684437798614674 0 0.015353124106299453 0.0056010443985658777 0 0.015371388943538575 0.0058256606078362057 0 0.015455203432410369 0.0056901534109234644 0 0.015306416931991888 0.005684437798614674 0 0.015322234866701544 0.0057365307252560315 0 0.015353124106299453 0.0056010443985658777 0 0.015360179289566426 0.0055198224801414984 0 0.015455203432410369 0.0056901534109234644 0 0.015353124106299453 0.0056010443985658777 0 0.015443500625459454 0.0054468548217997152 0 0.017327585908766669 0.0022378996133074753 0 0.017595311727795129 0.0020477227787774363 0 0.016906673657609391 0.0018924783846840309 0 0.015353124106299453 0.0056010443985658777 0 0.015360179289566426 0.0055198224801414984 0 0.015443500625459454 0.0054468548217997152 0 0.015919223057900368 0.004507646118198678 0 0.016505573529174908 0.0023027242807411876 0 0.014150381606438179 0.0029154484137737489 0 0.014935362783672145 0.0029776863527572195 0 0.014204776851094749 0.0022886858584625115 0 0.015455203432410369 0.0056901534109234644 0 0.015443500625459454 0.0054468548217997152 0 0.015758230802295253 0.0057097228662844907 0 0.016505573529174908 0.0023027242807411876 0 0.01485394335281018 0.0040644947194895019 0 0.015455203432410369 0.0056901534109234644 0 0.015758230802295253 0.0057097228662844907 0 0.015566244851002008 0.0058309275628718633 0 0.015758230802295253 0.0057097228662844907 0 0.015566244851002008 0.0058309275628718633 0 0.015733420262239294 0.0059691547045997075 0 0.015733420262239294 0.0059691547045997075 0 0.015645468481846576 0.0061184850363151175 0 0.015499214992923041 0.0059825308171311637 0 0.015566244851002008 0.0058309275628718633 0 0.015733420262239294 0.0059691547045997075 0 0.015499214992923041 0.0059825308171311637 0 0.015645468481846576 0.0061184850363151175 0 0.015493513137036258 0.0061576000070086689 0 0.015499214992923041 0.0059825308171311637 0 0.015791729578682006 0.0061839475517718899 0 0.015733420262239294 0.0059691547045997075 0 0.015645468481846576 0.0061184850363151175 0 0.015791729578682006 0.0061839475517718899 0 0.015645468481846576 0.0061184850363151175 0 0.015691321989106534 0.0063245012089036797 0 0.015144512115587332 0.0067712808171810817 0 0.015130398445254531 0.0067630489755587542 0 0.015124469360547935 0.0067646865430280268 0 0.015645468481846576 0.0061184850363151175 0 0.015691321989106534 0.0063245012089036797 0 0.015493513137036258 0.0061576000070086689 0 0.015691321989106534 0.0063245012089036797 0 0.015322333334059045 0.0063164563942810321 0 0.015493513137036258 0.0061576000070086689 0 0.015691321989106534 0.0063245012089036797 0 0.015322333334059045 0.0063164563942810321 0 0.015082062330161532 0.0066942596129018353 0 0.015674482400607617 0.0065594329556017128 0 0.014980680515194562 0.0067048781562378205 0 0.015322333334059045 0.0063164563942810321 0 0.015308978478148974 0.0060541143554960304 0 0.015493513137036258 0.0061576000070086689 0 0.015308978478148974 0.0060541143554960304 0 0.015493513137036258 0.0061576000070086689 0 0.015499214992923041 0.0059825308171311637 0 0.015371388943538575 0.0058256606078362057 0 0.015308978478148974 0.0060541143554960304 0 0.015499214992923041 0.0059825308171311637 0 0.015233323229009265 0.0056945259559544473 0 0.015371388943538575 0.0058256606078362057 0 0.015308978478148974 0.0060541143554960304 0 0.015223547336406131 0.0056899673678665833 0 0.015192473510055926 0.0057334407431447873 0 0.015233323229009265 0.0056945259559544473 0 0.015308978478148974 0.0060541143554960304 0 0.014903801455157586 0.0063688722232358433 0 0.015472018157919038 0.0055908207109757477 0 0.015233323229009265 0.0056945259559544473 0 0.015454301994744849 0.0050734667736459819 0 0.015322333334059045 0.0063164563942810321 0 0.014903801455157586 0.0063688722232358433 0 0.015082062330161532 0.0066942596129018353 0 0.015322333334059045 0.0063164563942810321 0 0.015308978478148974 0.0060541143554960304 0 0.014903801455157586 0.0063688722232358433 0 0.015929587616865359 0.0048056054617655712 0 0.015836290226792192 0.0051757072703620946 0 0.015454301994744849 0.0050734667736459819 0 0.015472018157919038 0.0055908207109757477 0 0.015454301994744849 0.0050734667736459819 0 0.015661490604472202 0.0054277005693236938 0 0.015836290226792192 0.0051757072703620946 0 0.015454301994744849 0.0050734667736459819 0 0.015661490604472202 0.0054277005693236938 0 0.0149937863339122 0.0069006318319895102 0 0.014902565046207444 0.0068199017123512541 0 0.014997643487365269 0.0069090406042028067 0 0.015509960129028295 0.0058108330414750791 0 0.015331415459279551 0.0056323288058694691 0 0.015192473510055926 0.0057334407431447873 0 0.015331415459279551 0.0056323288058694691 0 0.015929587616865359 0.0048056054617655712 0 0.015454301994744849 0.0050734667736459819 0 0.015753803038222866 0.0045622343109367851 0 0.014903801455157586 0.0063688722232358433 0 0.014902565046207444 0.0068199017123512541 0 0.015082062330161532 0.0066942596129018353 0 0.014902565046207444 0.0068199017123512541 0 0.015082062330161532 0.0066942596129018353 0 0.015026943414683962 0.0068636285477508673 0 0.014902565046207444 0.0068199017123512541 0 0.015026943414683962 0.0068636285477508673 0 0.014997643487365269 0.0069090406042028067 0 0.014657329965953637 0.0075165735739749738 0 0.014941638805694858 0.0070991651183748552 0 0.015026943414683962 0.0068636285477508673 0 0.015130398445254531 0.0067630489755587542 0 0.015149132030638461 0.0068355420164427682 0 0.015026943414683962 0.0068636285477508673 0 0.015149132030638461 0.0068355420164427682 0 0.014953127772342936 0.0070418424543334359 0 0.015144512115587332 0.0067712808171810817 0 0.015082062330161532 0.0066942596129018353 0 0.015130398445254531 0.0067630489755587542 0 0.015082062330161532 0.0066942596129018353 0 0.015026943414683962 0.0068636285477508673 0 0.015130398445254531 0.0067630489755587542 0 0.014657329965953637 0.0075165735739749738 0 0.014272600513703913 0.0081428655892600635 0 0.015130398445254531 0.0067630489755587542 0 0.015149132030638461 0.0068355420164427682 0 0.015124469360547935 0.0067646865430280268 0 0.014191669429331814 0.008274940425527115 0 0.014043881887359073 0.0071899980114694438 0 0.013440274538788226 0.0075866934571995571 0 0.014191669429331814 0.008274940425527115 0 0.014043881887359073 0.0071899980114694438 0 0.014953127772342936 0.0070418424543334359 0 0.014018211095643883 0.0066552466538676216 0 0.013733055116497904 0.0062708489983258715 0 0.014395448536667035 0.0063579567700062217 0 0.014018211095643883 0.0066552466538676216 0 0.014530676949934453 0.0067316783581515827 0 0.014395448536667035 0.0063579567700062217 0 0.014043881887359073 0.0071899980114694438 0 0.014018211095643883 0.0066552466538676216 0 0.014530676949934453 0.0067316783581515827 0 0.014530676949934453 0.0067316783581515827 0 0.014907574437973067 0.0064624345724348898 0 0.014953127772342936 0.0070418424543334359 0 0.014530676949934453 0.0067316783581515827 0 0.014907574437973067 0.0064624345724348898 0 0.014395448536667035 0.0063579567700062217 0 0.014043881887359073 0.0071899980114694438 0 0.014530676949934453 0.0067316783581515827 0 0.014953127772342936 0.0070418424543334359 0 0.014953127772342936 0.0070418424543334359 0 0.015081345584226228 0.0068520699106821891 0 0.014997643487365269 0.0069090406042028067 0 0.015026943414683962 0.0068636285477508673 0 0.014953127772342936 0.0070418424543334359 0 0.014997643487365269 0.0069090406042028067 0 0.014905821323010915 0.0064446609984742161 0 0.015038835471965705 0.0065457693795073386 0 0.014907574437973067 0.0064624345724348898 0 0.014953127772342936 0.0070418424543334359 0 0.015081345584226228 0.0068520699106821891 0 0.014907574437973067 0.0064624345724348898 0 0.015145053232228351 0.0062084786284743194 0 0.015067400093420055 0.0062379734736672278 0 0.015158214709777259 0.0061032853578520049 0 0.015145053232228351 0.0062084786284743194 0 0.015137252049011955 0.0061595519880065421 0 0.015173601724193844 0.0060154031700850553 0 0.015158214709777259 0.0061032853578520049 0 0.015145053232228351 0.0062084786284743194 0 0.015145053232228351 0.0062084786284743194 0 0.015137252049011955 0.0061595519880065421 0 0.015067400093420055 0.0062379734736672278 0 0.015173601724193844 0.0060154031700850553 0 0.015174991288957178 0.0060138982627872357 0 0.015145053232228351 0.0062084786284743194 0 0.015509960129028295 0.0058108330414750791 0 0.015038835471965705 0.0065457693795073386 0 0.0149937863339122 0.0069006318319895102 0 0.015081345584226228 0.0068520699106821891 0 0.014997643487365269 0.0069090406042028067 0 0.0117842873717319 0.0085021298446871733 0 0.011686530777522262 0.0087431960264754086 0 0.01188718601213716 0.0088783766649391544 0 0.0117842873717319 0.0085021298446871733 0 0.011599157512775649 0.0087140924726062195 0 0.011686530777522262 0.0087431960264754086 0 0.011612688965904217 0.0095049374036763144 0 0.010584162399699719 0.0091753923468497912 0 0.011558041041254083 0.0087081496541622973 0 0.011599157512775649 0.0087140924726062195 0 0.011518064696557351 0.0088335991752073895 0 0.0117842873717319 0.0085021298446871733 0 0.011599157512775649 0.0087140924726062195 0 0.011633497028504297 0.0086769622338867362 0 0.011558041041254083 0.0087081496541622973 0 0.011599157512775649 0.0087140924726062195 0 0.011633497028504297 0.0086769622338867362 0 0.011599157512775649 0.0087140924726062195 0 0.011605918482645321 0.0088166415053331382 0 0.011686530777522262 0.0087431960264754086 0 0.011605918482645321 0.0088166415053331382 0 0.01170771975491257 0.0088946444214548677 0 0.011686530777522262 0.0087431960264754086 0 0.011599157512775649 0.0087140924726062195 0 0.011605918482645321 0.0088166415053331382 0 0.011518064696557351 0.0088335991752073895 0 0.011605918482645321 0.0088166415053331382 0 0.011518064696557351 0.0088335991752073895 0 0.011587659619998079 0.0089748673685854947 0 0.011605918482645321 0.0088166415053331382 0 0.011587659619998079 0.0089748673685854947 0 0.01170771975491257 0.0088946444214548677 0 0.011465548061532231 0.0091286211027108381 0 0.01140624461516497 0.0088878936151968787 0 0.011587659619998079 0.0089748673685854947 0 0.0077088591804928344 0.0085149238298287289 0 0.007885727288239738 0.0085835338415080654 0 0.0078222584278628653 0.0083936241090595467 0 0.011254330693065499 0.0089313090629014793 0 0.010584162399699719 0.0091753923468497912 0 0.010584162399699719 0.0091753923468497912 0 0.011399977465765394 0.0092337440117333802 0 0.011465548061532231 0.0091286211027108381 0 0.011587659619998079 0.0089748673685854947 0 0.011812694860199684 0.0090884698181068081 0 0.011254330693065499 0.0089313090629014793 0 0.012010449461628769 0.0089965127325290599 0 0.011587659619998079 0.0089748673685854947 0 0.011812694860199684 0.0090884698181068081 0 0.01170771975491257 0.0088946444214548677 0 0.011804934427622307 0.009098497029473027 0 0.011812694860199684 0.0090884698181068081 0 0.011943030170691737 0.0090784650001754612 0 0.011804934427622307 0.009098497029473027 0 0.011898197215149979 0.009008199944747098 0 0.011812694860199684 0.0090884698181068081 0 0.011812694860199684 0.0090884698181068081 0 0.01188718601213716 0.0088783766649391544 0 0.011943030170691737 0.0090784650001754612 0 0.011812694860199684 0.0090884698181068081 0 0.01170771975491257 0.0088946444214548677 0 0.01188718601213716 0.0088783766649391544 0 0.01170771975491257 0.0088946444214548677 0 0.011686530777522262 0.0087431960264754086 0 0.01188718601213716 0.0088783766649391544 0 0.01188718601213716 0.0088783766649391544 0 0.012134391061542488 0.0090452341419039878 0 0.012163124198332017 0.0087829293805785739 0 0.0117842873717319 0.0085021298446871733 0 0.01188718601213716 0.0088783766649391544 0 0.012163124198332017 0.0087829293805785739 0 0.01188718601213716 0.0088783766649391544 0 0.012134391061542488 0.0090452341419039878 0 0.011943030170691737 0.0090784650001754612 0 0.012143945265584112 0.0093023099297567854 0 0.012134391061542488 0.0090452341419039878 0 0.011943030170691737 0.0090784650001754612 0 0.012295290600220998 0.0092408573075522232 0 0.012134391061542488 0.0090452341419039878 0 0.012490790256261422 0.0089953299527095517 0 0.012295290600220998 0.0092408573075522232 0 0.012143945265584112 0.0093023099297567854 0 0.012134391061542488 0.0090452341419039878 0 0.012802361958617926 0.009410545904891654 0 0.012490790256261422 0.0089953299527095517 0 0.01302158184775294 0.0087447927886931641 0 0.012504370113177028 0.0093648752373795361 0 0.012295290600220998 0.0092408573075522232 0 0.012490790256261422 0.0089953299527095517 0 0.012134391061542488 0.0090452341419039878 0 0.012490790256261422 0.0089953299527095517 0 0.012163124198332017 0.0087829293805785739 0 0.012490790256261422 0.0089953299527095517 0 0.01302158184775294 0.0087447927886931641 0 0.012506177772091988 0.0084060191950827475 0 0.012490790256261422 0.0089953299527095517 0 0.012163124198332017 0.0087829293805785739 0 0.012506177772091988 0.0084060191950827475 0 0.014191669429331814 0.008274940425527115 0 0.01331742885228627 0.0092192930485371985 0 0.01302158184775294 0.0087447927886931641 0 0.012802361958617926 0.009410545904891654 0 0.01331742885228627 0.0092192930485371985 0 0.01302158184775294 0.0087447927886931641 0 0.014191669429331814 0.008274940425527115 0 0.013128764862752107 0.0081467621264245099 0 0.013440274538788226 0.0075866934571995571 0 0.014191669429331814 0.008274940425527115 0 0.01302158184775294 0.0087447927886931641 0 0.013128764862752107 0.0081467621264245099 0 0.01302158184775294 0.0087447927886931641 0 0.013128764862752107 0.0081467621264245099 0 0.012506177772091988 0.0084060191950827475 0 0.0117842873717319 0.0085021298446871733 0 0.012163124198332017 0.0087829293805785739 0 0.012506177772091988 0.0084060191950827475 0 0.013128764862752107 0.0081467621264245099 0 0.012506177772091988 0.0084060191950827475 0 0.012826605004502925 0.0077777021014081788 0 0.012506177772091988 0.0084060191950827475 0 0.012122805018259075 0.0077924717612616263 0 0.012826605004502925 0.0077777021014081788 0 0.0117842873717319 0.0085021298446871733 0 0.012506177772091988 0.0084060191950827475 0 0.012122805018259075 0.0077924717612616263 0 0.012122805018259075 0.0077924717612616263 0 0.012589116893618487 0.0071932993391002863 0 0.012044144353997553 0.0074183402298835304 0 0.012122805018259075 0.0077924717612616263 0 0.012826605004502925 0.0077777021014081788 0 0.012928447910892468 0.0069125336120426954 0 0.012182219211029653 0.0077043933908883004 0 0.01271221635160801 0.0071246783418421238 0 0.012826605004502925 0.0077777021014081788 0 0.013440274538788226 0.0075866934571995571 0 0.012928447910892468 0.0069125336120426954 0 0.014043881887359073 0.0071899980114694438 0 0.013440274538788226 0.0075866934571995571 0 0.012928447910892468 0.0069125336120426954 0 0.013128764862752107 0.0081467621264245099 0 0.012826605004502925 0.0077777021014081788 0 0.013440274538788226 0.0075866934571995571 0 0.014018211095643883 0.0066552466538676216 0 0.012928447910892468 0.0069125336120426954 0 0.013733055116497904 0.0062708489983258715 0 0.014043881887359073 0.0071899980114694438 0 0.014018211095643883 0.0066552466538676216 0 0.012928447910892468 0.0069125336120426954 0 0.01271221635160801 0.0071246783418421238 0 0.013477765904658556 0.0063435504952094289 0 0.012719737066546982 0.0068905427335072362 0 0.012589116893618487 0.0071932993391002863 0 0.012919565792046896 0.0068159045760495442 0 0.012719737066546982 0.0068905427335072362 0 0.012589116893618487 0.0071932993391002863 0 0.012575009959061018 0.0068951805572293606 0 0.011715278831659239 0.008701385490287341 0 0.011644289289108576 0.0087187691900599603 0 0.011786161135150051 0.0086825899784612817 0 0.012330840210004242 0.0071074424570667528 0 0.012044144353997553 0.0074183402298835304 0 0.012268729447206998 0.0068394937182631446 0 0.011875769975861138 0.0079722152639438246 0 0.012136805410011473 0.008350382321063091 0 0.012330840210004242 0.0071074424570667528 0 0.012589116893618487 0.0071932993391002863 0 0.012044144353997553 0.0074183402298835304 0 0.012330840210004242 0.0071074424570667528 0 0.012589116893618487 0.0071932993391002863 0 0.012422592662607342 0.0069852119789282161 0 0.012589116893618487 0.0071932993391002863 0 0.012575009959061018 0.0068951805572293606 0 0.012422592662607342 0.0069852119789282161 0 0.012575009959061018 0.0068951805572293606 0 0.012422592662607342 0.0069852119789282161 0 0.012268729447206998 0.0068394937182631446 0 0.011764706629216729 0.0086823534130256747 0 0.011715278831659239 0.008701385490287341 0 0.011786161135150051 0.0086825899784612817 0 0.012330840210004242 0.0071074424570667528 0 0.012422592662607342 0.0069852119789282161 0 0.012268729447206998 0.0068394937182631446 0 0.011958210948034972 0.0084495403857364395 0 0.012136805410011473 0.008350382321063091 0 0.011764706629216729 0.0086823534130256747 0 0.011676156360692408 0.0087089900592226821 0 0.011657576209034929 0.008644870623853702 0 0.011764706629216729 0.0086823534130256747 0 0.011715278831659239 0.008701385490287341 0 0.011676156360692408 0.0087089900592226821 0 0.011676156360692408 0.0087089900592226821 0 0.011570875204853743 0.0087329238092234453 0 0.011657576209034929 0.008644870623853702 0 0.011676156360692408 0.0087089900592226821 0 0.011653447159747204 0.008720097176325008 0 0.011570875204853743 0.0087329238092234453 0 0.011676156360692408 0.0087089900592226821 0 0.011671055417773185 0.0087155879322073516 0 0.011653447159747204 0.008720097176325008 0 0.011715278831659239 0.008701385490287341 0 0.011671055417773185 0.0087155879322073516 0 0.011644289289108576 0.0087187691900599603 0 0.011715278831659239 0.008701385490287341 0 0.011676156360692408 0.0087089900592226821 0 0.011671055417773185 0.0087155879322073516 0 0.011768231739091762 0.0085062815748890522 0 0.011875769975861138 0.0079722152639438246 0 0.0117842873717319 0.0085021298446871733 0 0.012122805018259075 0.0077924717612616263 0 0.012044144353997553 0.0074183402298835304 0 0.011644289289108576 0.0087187691900599603 0 0.011653447159747204 0.008720097176325008 0 0.011686711800502679 0.0086580794147028163 0 0.011671055417773185 0.0087155879322073516 0 0.011644289289108576 0.0087187691900599603 0 0.011653447159747204 0.008720097176325008 0 0.0117842873717319 0.0085021298446871733 0 0.011644289289108576 0.0087187691900599603 0 0.011686711800502679 0.0086580794147028163 0 0.011653447159747204 0.008720097176325008 0 0.011686711800502679 0.0086580794147028163 0 0.011633497028504297 0.0086769622338867362 0 0.0117842873717319 0.0085021298446871733 0 0.011686711800502679 0.0086580794147028163 0 0.011633497028504297 0.0086769622338867362 0 0.011558041041254083 0.0087081496541622973 0 0.011633497028504297 0.0086769622338867362 0 0.011545499780633746 0.0087525776743778323 0 0.011653447159747204 0.008720097176325008 0 0.011633497028504297 0.0086769622338867362 0 0.011545499780633746 0.0087525776743778323 0 0.011251540640768483 0.0088515634433407805 0 0.011545499780633746 0.0087525776743778323 0 0.011570875204853743 0.0087329238092234453 0 0.011251540640768483 0.0088515634433407805 0 0.011570875204853743 0.0087329238092234453 0 0.011475743609447038 0.0086166208290491646 0 0.011653447159747204 0.008720097176325008 0 0.011545499780633746 0.0087525776743778323 0 0.011570875204853743 0.0087329238092234453 0 0.011475743609447038 0.0086166208290491646 0 0.01159090846607364 0.0084386813447702835 0 0.011120371270507424 0.0083013723460417313 0 0.011475743609447038 0.0086166208290491646 0 0.01159090846607364 0.0084386813447702835 0 0.011657576209034929 0.008644870623853702 0 0.011570875204853743 0.0087329238092234453 0 0.011475743609447038 0.0086166208290491646 0 0.011657576209034929 0.008644870623853702 0 0.01159090846607364 0.0084386813447702835 0 0.011511586365847148 0.0081397590170507947 0 0.011120371270507424 0.0083013723460417313 0 0.01159090846607364 0.0084386813447702835 0 0.011511586365847148 0.0081397590170507947 0 0.011833446256075552 0.0084113227601785197 0 0.01159090846607364 0.0084386813447702835 0 0.011787863359076006 0.0085661851602103732 0 0.011833446256075552 0.0084113227601785197 0 0.011787863359076006 0.0085661851602103732 0 0.011948317458157496 0.0085326573700475472 0 0.011833446256075552 0.0084113227601785197 0 0.01159090846607364 0.0084386813447702835 0 0.011787863359076006 0.0085661851602103732 0 0.011657576209034929 0.008644870623853702 0 0.011764706629216729 0.0086823534130256747 0 0.011787863359076006 0.0085661851602103732 0 0.011657576209034929 0.008644870623853702 0 0.012136805410011473 0.008350382321063091 0 0.011961956798205085 0.0089417790752686355 0 0.012136805410011473 0.008350382321063091 0 0.01252636591839182 0.0080158038903115608 0 0.012575009959061018 0.0068951805572293606 0 0.012268729447206998 0.0068394937182631446 0 0.012802415712681989 0.0066772957950331155 0 0.011945831259560015 0.009486294038050961 0 0.012161324758797372 0.0092523906053419164 0 0.012387740137262784 0.0093164210236298273 0 0.011764706629216729 0.0086823534130256747 0 0.011787863359076006 0.0085661851602103732 0 0.011816537892448605 0.0086685372716084029 0 0.011787863359076006 0.0085661851602103732 0 0.011816537892448605 0.0086685372716084029 0 0.011948317458157496 0.0085326573700475472 0 0.011945831259560015 0.009486294038050961 0 0.012161324758797372 0.0092523906053419164 0 0.012043018005147597 0.009078964860825163 0 0.012719737066546982 0.0068905427335072362 0 0.012919565792046896 0.0068159045760495442 0 0.012802415712681989 0.0066772957950331155 0 0.012719737066546982 0.0068905427335072362 0 0.012575009959061018 0.0068951805572293606 0 0.012802415712681989 0.0066772957950331155 0 0.012161324758797372 0.0092523906053419164 0 0.012387740137262784 0.0093164210236298273 0 0.01229661142533567 0.0090106425805391716 0 0.012387740137262784 0.0093164210236298273 0 0.01229661142533567 0.0090106425805391716 0 0.012542629464082118 0.0090182918539823461 0 0.01229661142533567 0.0090106425805391716 0 0.012465331565821299 0.0086983954543662246 0 0.012542629464082118 0.0090182918539823461 0 0.011948317458157496 0.0085326573700475472 0 0.012135840922638443 0.008565265196914711 0 0.011833446256075552 0.0084113227601785197 0 0.01229661142533567 0.0090106425805391716 0 0.012043018005147597 0.009078964860825163 0 0.012135840922638443 0.008565265196914711 0 0.011961956798205085 0.0089417790752686355 0 0.012129399532050993 0.0085120993735022191 0 0.012161324758797372 0.0092523906053419164 0 0.01229661142533567 0.0090106425805391716 0 0.012043018005147597 0.009078964860825163 0 0.012135840922638443 0.008565265196914711 0 0.011992765277201858 0.0083528663097317511 0 0.011833446256075552 0.0084113227601785197 0 0.01229661142533567 0.0090106425805391716 0 0.012135840922638443 0.008565265196914711 0 0.012465331565821299 0.0086983954543662246 0 0.012135840922638443 0.008565265196914711 0 0.012465331565821299 0.0086983954543662246 0 0.012322189380432298 0.0084380665375362734 0 0.012465331565821299 0.0086983954543662246 0 0.012322189380432298 0.0084380665375362734 0 0.012712348588721683 0.0085713285397434769 0 0.012322189380432298 0.0084380665375362734 0 0.011992765277201858 0.0083528663097317511 0 0.01211495828426703 0.0082857858235419919 0 0.012135840922638443 0.008565265196914711 0 0.012322189380432298 0.0084380665375362734 0 0.011992765277201858 0.0083528663097317511 0 0.011992765277201858 0.0083528663097317511 0 0.011885558180835495 0.0081944265318586607 0 0.01211495828426703 0.0082857858235419919 0 0.011992765277201858 0.0083528663097317511 0 0.011744803201324006 0.0082169598339458718 0 0.011885558180835495 0.0081944265318586607 0 0.011744803201324006 0.0082169598339458718 0 0.011538271745370582 0.0080235176739148813 0 0.011885558180835495 0.0081944265318586607 0 0.011744803201324006 0.0082169598339458718 0 0.011538271745370582 0.0080235176739148813 0 0.011511586365847148 0.0081397590170507947 0 0.011744803201324006 0.0082169598339458718 0 0.011511586365847148 0.0081397590170507947 0 0.011833446256075552 0.0084113227601785197 0 0.011992765277201858 0.0083528663097317511 0 0.011744803201324006 0.0082169598339458718 0 0.011833446256075552 0.0084113227601785197 0 0.014984856957565178 0.0063930311293260841 0 0.015101341376665795 0.006190860211869046 0 0.015122828710770281 0.0062927290860007208 0 0.015111089904320569 0.0061716694122868994 0 0.015101341376665795 0.006190860211869046 0 0.015122828710770281 0.0062927290860007208 0 0.015138772971757702 0.0060994718849832347 0 0.015101341376665795 0.006190860211869046 0 0.015137252049011955 0.0061595519880065421 0 0.015138772971757702 0.0060994718849832347 0 0.015158214709777259 0.0061032853578520049 0 0.015137252049011955 0.0061595519880065421 0 0.015111089904320569 0.0061716694122868994 0 0.015101341376665795 0.006190860211869046 0 0.015137252049011955 0.0061595519880065421 0 0.015111089904320569 0.0061716694122868994 0 0.015067400093420055 0.0062379734736672278 0 0.015063768955112402 0.0061384834883014845 0 0.015111089904320569 0.0061716694122868994 0 0.015137252049011955 0.0061595519880065421 0 0.015067400093420055 0.0062379734736672278 0 0.014907574437973067 0.0064624345724348898 0 0.015067400093420055 0.0062379734736672278 0 0.014912737393304851 0.0060660340341402112 0 0.015067400093420055 0.0062379734736672278 0 0.015063768955112402 0.0061384834883014845 0 0.014912737393304851 0.0060660340341402112 0 0.015063768955112402 0.0061384834883014845 0 0.015033712574396134 0.0061191643040263638 0 0.014912737393304851 0.0060660340341402112 0 0.014478220126144654 0.0069836835480727799 0 0.015428948568522553 0.0061184540289184125 0 0.015063768955112402 0.0061384834883014845 0 0.015033712574396134 0.0061191643040263638 0 0.015122828710770281 0.0062927290860007208 0 0.015111089904320569 0.0061716694122868994 0 0.015063768955112402 0.0061384834883014845 0 0.015122828710770281 0.0062927290860007208 0 0.013116842359292006 0.0089387769417635585 0 0.013037589896585345 0.0089388884440848183 0 0.013089858666825266 0.008890045280344986 0 0.012816849383708738 0.0091482421777644759 0 0.012922613124133215 0.0088400676452170465 0 0.013089858666825266 0.008890045280344986 0 0.014478220126144654 0.0069836835480727799 0 0.013335497855294641 0.0076152797943577375 0 0.015017044957353211 0.0057324023399193741 0 0.014912737393304851 0.0060660340341402112 0 0.014379935345863916 0.0058887726158810159 0 0.013335497855294641 0.0076152797943577375 0 0.012784921366437128 0.0093064698751789861 0 0.014478220126144654 0.0069836835480727799 0 0.01492405044668588 0.0058999309373354899 0 0.014907574437973067 0.0064624345724348898 0 0.014912737393304851 0.0060660340341402112 0 0.014658162501541883 0.0062020108851315514 0 0.014658162501541883 0.0062020108851315514 0 0.014395448536667035 0.0063579567700062217 0 0.014379935345863916 0.0058887726158810159 0 0.014907574437973067 0.0064624345724348898 0 0.014658162501541883 0.0062020108851315514 0 0.014395448536667035 0.0063579567700062217 0 0.014912737393304851 0.0060660340341402112 0 0.014658162501541883 0.0062020108851315514 0 0.014379935345863916 0.0058887726158810159 0 0.01252636591839182 0.0080158038903115608 0 0.013335497855294641 0.0076152797943577375 0 0.012919565792046896 0.0068159045760495442 0 0.012802415712681989 0.0066772957950331155 0 0.013219481182004488 0.0065369160652063822 0 0.013733055116497904 0.0062708489983258715 0 0.014395448536667035 0.0063579567700062217 0 0.014379935345863916 0.0058887726158810159 0 0.013477765904658556 0.0063435504952094289 0 0.013335497855294641 0.0076152797943577375 0 0.012816849383708738 0.0091482421777644759 0 0.012731160236400762 0.0088035664669551886 0 0.012922613124133215 0.0088400676452170465 0 0.012387740137262784 0.0093164210236298273 0 0.012816849383708738 0.0091482421777644759 0 0.012542629464082118 0.0090182918539823461 0 0.012816849383708738 0.0091482421777644759 0 0.012542629464082118 0.0090182918539823461 0 0.012731160236400762 0.0088035664669551886 0 0.012465331565821299 0.0086983954543662246 0 0.012731160236400762 0.0088035664669551886 0 0.012712348588721683 0.0085713285397434769 0 0.012731160236400762 0.0088035664669551886 0 0.012712348588721683 0.0085713285397434769 0 0.01292466722379659 0.0087149621653877258 0 0.012465331565821299 0.0086983954543662246 0 0.012542629464082118 0.0090182918539823461 0 0.012731160236400762 0.0088035664669551886 0 0.012322189380432298 0.0084380665375362734 0 0.012712348588721683 0.0085713285397434769 0 0.012569989408832758 0.0084187057947926851 0 0.012712348588721683 0.0085713285397434769 0 0.013086955316148318 0.0085931258743653805 0 0.01292466722379659 0.0087149621653877258 0 0.012712348588721683 0.0085713285397434769 0 0.013086955316148318 0.0085931258743653805 0 0.012806443626801554 0.0083811778636630283 0 0.013086955316148318 0.0085931258743653805 0 0.013138387098202182 0.0087894904247770647 0 0.01292466722379659 0.0087149621653877258 0 0.013116842359292006 0.0089387769417635585 0 0.013138387098202182 0.0087894904247770647 0 0.013089858666825266 0.008890045280344986 0 0.013138387098202182 0.0087894904247770647 0 0.01292466722379659 0.0087149621653877258 0 0.012922613124133215 0.0088400676452170465 0 0.012731160236400762 0.0088035664669551886 0 0.01292466722379659 0.0087149621653877258 0 0.012922613124133215 0.0088400676452170465 0 0.013138387098202182 0.0087894904247770647 0 0.012922613124133215 0.0088400676452170465 0 0.013089858666825266 0.008890045280344986 0 0.014478220126144654 0.0069836835480727799 0 0.014247312991901179 0.0078007665261232654 0 0.015428105879020486 0.0061764870110843336 0 0.015288655159026913 0.0066293314786854927 0 0.015122828710770281 0.0062927290860007208 0 0.013116842359292006 0.0089387769417635585 0 0.013138387098202182 0.0087894904247770647 0 0.013274967522034931 0.0087403188359259799 0 0.014247312991901179 0.0078007665261232654 0 0.014300925419271285 0.0077398206089000759 0 0.013086955316148318 0.0085931258743653805 0 0.013274967522034931 0.0087403188359259799 0 0.013622942870357126 0.0084697409640339793 0 0.013086955316148318 0.0085931258743653805 0 0.013138387098202182 0.0087894904247770647 0 0.013274967522034931 0.0087403188359259799 0 0.015288655159026913 0.0066293314786854927 0 0.014956556464461774 0.0066448701764500124 0 0.014990800202916621 0.0071495970705536434 0 0.014984856957565178 0.0063930311293260841 0 0.014956556464461774 0.0066448701764500124 0 0.015122828710770281 0.0062927290860007208 0 0.015288655159026913 0.0066293314786854927 0 0.014956556464461774 0.0066448701764500124 0 0.015122828710770281 0.0062927290860007208 0 0.014300925419271285 0.0077398206089000759 0 0.014186613332393589 0.0077799500729562859 0 0.014689759456811648 0.0070864757031867337 0 0.014990800202916621 0.0071495970705536434 0 0.014137716686706671 0.007809444285852298 0 0.014689759456811648 0.0070864757031867337 0 0.014956556464461774 0.0066448701764500124 0 0.014990800202916621 0.0071495970705536434 0 0.013086955316148318 0.0085931258743653805 0 0.013622942870357126 0.0084697409640339793 0 0.013219547359497957 0.0083617950208697053 0 0.013622942870357126 0.0084697409640339793 0 0.013219547359497957 0.0083617950208697053 0 0.014137716686706671 0.007809444285852298 0 0.013219547359497957 0.0083617950208697053 0 0.013149417622650053 0.0081373203123578878 0 0.014137716686706671 0.007809444285852298 0 0.013219547359497957 0.0083617950208697053 0 0.012806443626801554 0.0083811778636630283 0 0.013149417622650053 0.0081373203123578878 0 0.013086955316148318 0.0085931258743653805 0 0.013219547359497957 0.0083617950208697053 0 0.012806443626801554 0.0083811778636630283 0 0.012569989408832758 0.0084187057947926851 0 0.012806443626801554 0.0083811778636630283 0 0.012383599442451656 0.0083005629182597972 0 0.012712348588721683 0.0085713285397434769 0 0.012569989408832758 0.0084187057947926851 0 0.012806443626801554 0.0083811778636630283 0 0.012806443626801554 0.0083811778636630283 0 0.012561653722655681 0.0082346950814119885 0 0.012383599442451656 0.0083005629182597972 0 0.012806443626801554 0.0083811778636630283 0 0.012561653722655681 0.0082346950814119885 0 0.013149417622650053 0.0081373203123578878 0 0.012561653722655681 0.0082346950814119885 0 0.012987578645963945 0.008107592028166211 0 0.013149417622650053 0.0081373203123578878 0 0.012987578645963945 0.008107592028166211 0 0.012322956785635487 0.0082886619056660171 0 0.013363000237471397 0.0077401181405615275 0 0.012561653722655681 0.0082346950814119885 0 0.012987578645963945 0.008107592028166211 0 0.012322956785635487 0.0082886619056660171 0 0.012987578645963945 0.008107592028166211 0 0.013596105256801388 0.0078678787289975793 0 0.013363000237471397 0.0077401181405615275 0 0.012987578645963945 0.008107592028166211 0 0.013149417622650053 0.0081373203123578878 0 0.013596105256801388 0.0078678787289975793 0 0.013149417622650053 0.0081373203123578878 0 0.013596105256801388 0.0078678787289975793 0 0.014137716686706671 0.007809444285852298 0 0.013901191314086823 0.0076745848453431461 0 0.013596105256801388 0.0078678787289975793 0 0.013726267970550104 0.0079028672655827668 0 0.013901191314086823 0.0076745848453431461 0 0.013596105256801388 0.0078678787289975793 0 0.014137716686706671 0.007809444285852298 0 0.012003914887386342 0.0082145993644604978 0 0.012056571678032901 0.0082149482504502002 0 0.012194775480282258 0.0082486339060368515 0 0.01187290325104058 0.0081519699725968436 0 0.012003914887386342 0.0082145993644604978 0 0.012056571678032901 0.0082149482504502002 0 0.01187290325104058 0.0081519699725968436 0 0.011784035558598622 0.0082926968758016608 0 0.011749891261516493 0.0083281996509036865 0 0.01187290325104058 0.0081519699725968436 0 0.012003914887386342 0.0082145993644604978 0 0.011784035558598622 0.0082926968758016608 0 0.011826572211117395 0.0081340991463074996 0 0.011554093123790767 0.0080990679757523207 0 0.011538271745370582 0.0080235176739148813 0 0.01187290325104058 0.0081519699725968436 0 0.011438128924983918 0.0078495079034252326 0 0.011538271745370582 0.0080235176739148813 0 0.01187290325104058 0.0081519699725968436 0 0.011885558180835495 0.0081944265318586607 0 0.01187290325104058 0.0081519699725968436 0 0.011885558180835495 0.0081944265318586607 0 0.012056571678032901 0.0082149482504502002 0 0.01211495828426703 0.0082857858235419919 0 0.012383599442451656 0.0083005629182597972 0 0.012056571678032901 0.0082149482504502002 0 0.011885558180835495 0.0081944265318586607 0 0.01211495828426703 0.0082857858235419919 0 0.012056571678032901 0.0082149482504502002 0 0.012322189380432298 0.0084380665375362734 0 0.012569989408832758 0.0084187057947926851 0 0.012383599442451656 0.0083005629182597972 0 0.012322189380432298 0.0084380665375362734 0 0.01211495828426703 0.0082857858235419919 0 0.012383599442451656 0.0083005629182597972 0 0.012561653722655681 0.0082346950814119885 0 0.012383599442451656 0.0083005629182597972 0 0.012194775480282258 0.0082486339060368515 0 0.012383599442451656 0.0083005629182597972 0 0.012056571678032901 0.0082149482504502002 0 0.012194775480282258 0.0082486339060368515 0 0.012194775480282258 0.0082486339060368515 0 0.012186206685255186 0.0084359719654546524 0 0.012176700851305258 0.0083450086412252961 0 0.012561653722655681 0.0082346950814119885 0 0.012194775480282258 0.0082486339060368515 0 0.012322956785635487 0.0082886619056660171 0 0.012194775480282258 0.0082486339060368515 0 0.012322956785635487 0.0082886619056660171 0 0.012186206685255186 0.0084359719654546524 0 0.012322956785635487 0.0082886619056660171 0 0.012186206685255186 0.0084359719654546524 0 0.012149953408693631 0.0087701585250764477 0 0.012186206685255186 0.0084359719654546524 0 0.012176700851305258 0.0083450086412252961 0 0.012270314323638622 0.0086897697816290392 0 0.012003914887386342 0.0082145993644604978 0 0.012176700851305258 0.0083450086412252961 0 0.012425403013289931 0.0084012736280127936 0 0.012003914887386342 0.0082145993644604978 0 0.012194775480282258 0.0082486339060368515 0 0.012176700851305258 0.0083450086412252961 0 0.012003914887386342 0.0082145993644604978 0 0.011784035558598622 0.0082926968758016608 0 0.011754267927084635 0.0082553814636017776 0 0.012030255892179547 0.0082457524223733172 0 0.012079265864712384 0.0083433682448102522 0 0.012176700851305258 0.0083450086412252961 0 0.012425403013289931 0.0084012736280127936 0 0.012270314323638622 0.0086897697816290392 0 0.012079265864712384 0.0083433682448102522 0 0.012167042748554407 0.0084880538867585908 0 0.011754267927084635 0.0082553814636017776 0 0.011415700776228579 0.0082608214224957049 0 0.011480464077798777 0.0081829914365579501 0 0.011754267927084635 0.0082553814636017776 0 0.011415700776228579 0.0082608214224957049 0 0.011668883664823037 0.0083678010921538985 0 0.011415700776228579 0.0082608214224957049 0 0.01111046383684126 0.0082484317435722286 0 0.011241107598800461 0.0082297527043113626 0 0.011415700776228579 0.0082608214224957049 0 0.011339430419857856 0.0084718716039961731 0 0.01111046383684126 0.0082484317435722286 0 0.011654984685876535 0.00840123838808551 0 0.011522425946260318 0.0087429000433737226 0 0.011339430419857856 0.0084718716039961731 0 0.011668883664823037 0.0083678010921538985 0 0.011328580065262295 0.0090034851316256447 0 0.011415700776228579 0.0082608214224957049 0 0.011339430419857856 0.0084718716039961731 0 0.011668883664823037 0.0083678010921538985 0 0.011339430419857856 0.0084718716039961731 0 0.011093489179336139 0.0086444222861770184 0 0.011328580065262295 0.0090034851316256447 0 0.011784035558598622 0.0082926968758016608 0 0.011754267927084635 0.0082553814636017776 0 0.011668883664823037 0.0083678010921538985 0 0.010147023082619564 0.0083469550349850666 0 0.0095061450147222327 0.0078513689976348975 0 0.010398929062606251 0.0075276044326915694 0 0.01111046383684126 0.0082484317435722286 0 0.010147023082619564 0.0083469550349850666 0 0.010398929062606251 0.0075276044326915694 0 0.01111046383684126 0.0082484317435722286 0 0.011226004097934708 0.0082319120875496126 0 0.011241107598800461 0.0082297527043113626 0 0.011106996891976934 0.0082316989076623645 0 0.010805226826113297 0.0078243662317183764 0 0.01111046383684126 0.0082484317435722286 0 0.011093489179336139 0.0086444222861770184 0 0.010605902151676725 0.008860620912620177 0 0.011093489179336139 0.0086444222861770184 0 0.010605902151676725 0.008860620912620177 0 0.011328580065262295 0.0090034851316256447 0 0.011339430419857856 0.0084718716039961731 0 0.01111046383684126 0.0082484317435722286 0 0.011093489179336139 0.0086444222861770184 0 0.01111046383684126 0.0082484317435722286 0 0.010147023082619564 0.0083469550349850666 0 0.010605902151676725 0.008860620912620177 0 0.010147023082619564 0.0083469550349850666 0 0.010605902151676725 0.008860620912620177 0 0.0099167169637202329 0.0091642434931682153 0 0.0099167169637202329 0.0091642434931682153 0 0.010584242204239046 0.0097046056238002318 0 0.0093591665728765556 0.0098269536578389285 0 0.010605902151676725 0.008860620912620177 0 0.0099167169637202329 0.0091642434931682153 0 0.010584242204239046 0.0097046056238002318 0 0.010605902151676725 0.008860620912620177 0 0.010584242204239046 0.0097046056238002318 0 0.011328580065262295 0.0090034851316256447 0 0.011600415359981289 0.0083595170536639989 0 0.011689241631333303 0.0083208687339332843 0 0.011688152905867248 0.0083522416202162428 0 0.01057911961879137 0.0081904042765755386 0 0.011522425946260318 0.0087429000433737226 0 0.011143258107642386 0.007828739239395888 0 0.011090058460985956 0.0077732596485297527 0 0.011194512109299866 0.0077870936690515383 0 0.01057911961879137 0.0081904042765755386 0 0.011595299120889338 0.0080573300103115864 0 0.0092868309131188612 0.007075121717827924 0 0.0088407815799522189 0.0073811043352250295 0 0.0083989382212072781 0.0071257923434420844 0 0.011143258107642386 0.007828739239395888 0 0.011090058460985956 0.0077732596485297527 0 0.011012299950895412 0.0078046757424214026 0 0.01057911961879137 0.0081904042765755386 0 0.0087410332909242886 0.008500903308381675 0 0.01057911961879137 0.0081904042765755386 0 0.010003303328170031 0.0075402926253743154 0 0.011706125838170718 0.0083250514996630314 0 0.011688152905867248 0.0083522416202162428 0 0.011749891261516493 0.0083281996509036865 0 0.011784035558598622 0.0082926968758016608 0 0.011706125838170718 0.0083250514996630314 0 0.011749891261516493 0.0083281996509036865 0 0.011784035558598622 0.0082926968758016608 0 0.011668883664823037 0.0083678010921538985 0 0.011706125838170718 0.0083250514996630314 0 0.011668883664823037 0.0083678010921538985 0 0.011706125838170718 0.0083250514996630314 0 0.011689241631333303 0.0083208687339332843 0 0.011706125838170718 0.0083250514996630314 0 0.011689241631333303 0.0083208687339332843 0 0.011688152905867248 0.0083522416202162428 0 0.011143258107642386 0.007828739239395888 0 0.011194512109299866 0.0077870936690515383 0 0.011206315175556656 0.0078676381052673987 0 0.011595299120889338 0.0080573300103115864 0 0.011554093123790767 0.0080990679757523207 0 0.011194512109299866 0.0077870936690515383 0 0.011438128924983918 0.0078495079034252326 0 0.011206315175556656 0.0078676381052673987 0 0.011538271745370582 0.0080235176739148813 0 0.011438128924983918 0.0078495079034252326 0 0.011206315175556656 0.0078676381052673987 0 0.011538271745370582 0.0080235176739148813 0 0.011511586365847148 0.0081397590170507947 0 0.011122912897491125 0.0077651801393505658 0 0.011538271745370582 0.0080235176739148813 0 0.011122912897491125 0.0077651801393505658 0 0.011206315175556656 0.0078676381052673987 0 0.011511586365847148 0.0081397590170507947 0 0.011122912897491125 0.0077651801393505658 0 0.011120371270507424 0.0083013723460417313 0 0.011122912897491125 0.0077651801393505658 0 0.011206315175556656 0.0078676381052673987 0 0.011138647154906844 0.0078808886294802552 0 0.010982827630596484 0.0077104271384689808 0 0.010574683936408666 0.007373590921754743 0 0.011143258107642386 0.007828739239395888 0 0.011206315175556656 0.0078676381052673987 0 0.011138647154906844 0.0078808886294802552 0 0.011143258107642386 0.007828739239395888 0 0.011012299950895412 0.0078046757424214026 0 0.011138647154906844 0.0078808886294802552 0 0.010574683936408666 0.007373590921754743 0 0.0087951874765854286 0.0074396919788859697 0 0.0096624156357239966 0.0068652845107213638 0 0.0089546690706648006 0.0071337898944670028 0 0.0082996871018116668 0.0065265472373661612 0 0.011012299950895412 0.0078046757424214026 0 0.011138647154906844 0.0078808886294802552 0 0.010905651147202556 0.0078693273076240397 0 0.0089546690706648006 0.0071337898944670028 0 0.0098173519599208618 0.007828169975414306 0 0.0086702483128293477 0.0075227098869758285 0 0.0096624156357239966 0.0068652845107213638 0 0.0089546690706648006 0.0071337898944670028 0 0.0098173519599208618 0.007828169975414306 0 0.011122912897491125 0.0077651801393505658 0 0.0096624156357239966 0.0068652845107213638 0 0.0098173519599208618 0.007828169975414306 0 0.0098173519599208618 0.007828169975414306 0 0.0090358434454078651 0.0079543421699483502 0 0.0092601081624683005 0.0084979574372660866 0 0.0098173519599208618 0.007828169975414306 0 0.0090358434454078651 0.0079543421699483502 0 0.0086702483128293477 0.0075227098869758285 0 0.0090358434454078651 0.0079543421699483502 0 0.0092601081624683005 0.0084979574372660866 0 0.0083326585828043965 0.0079358828512755605 0 0.0098173519599208618 0.007828169975414306 0 0.0092601081624683005 0.0084979574372660866 0 0.010352834628282277 0.0085244758048430326 0 0.010153604826129608 0.0091574179667735702 0 0.0092601081624683005 0.0084979574372660866 0 0.010352834628282277 0.0085244758048430326 0 0.011251540640768483 0.0088515634433407805 0 0.010352834628282277 0.0085244758048430326 0 0.011120371270507424 0.0083013723460417313 0 0.011251540640768483 0.0088515634433407805 0 0.011475743609447038 0.0086166208290491646 0 0.011120371270507424 0.0083013723460417313 0 0.011122912897491125 0.0077651801393505658 0 0.0098173519599208618 0.007828169975414306 0 0.011120371270507424 0.0083013723460417313 0 0.0098173519599208618 0.007828169975414306 0 0.010352834628282277 0.0085244758048430326 0 0.011120371270507424 0.0083013723460417313 0 0.0074588549785165204 0.0076639207312387712 0 0.007556525576890627 0.0076250940276190692 0 0.0074958750403967666 0.0074922511165804503 0 0.007556525576890627 0.0076250940276190692 0 0.0074421325561516045 0.0075055336160160021 0 0.0074958750403967666 0.0074922511165804503 0 0.007556525576890627 0.0076250940276190692 0 0.0074421325561516045 0.0075055336160160021 0 0.0073729827914674048 0.007562061987467894 0 0.007556525576890627 0.0076250940276190692 0 0.0078799128242275172 0.0071906438779345506 0 0.0075205277571635419 0.0073411749237088627 0 0.0074588549785165204 0.0076639207312387712 0 0.0073715548692116373 0.007432370948592895 0 0.0074622573761629063 0.0078922910548627385 0 0.0074588549785165204 0.0076639207312387712 0 0.007556525576890627 0.0076250940276190692 0 0.0075205277571635419 0.0073411749237088627 0 0.0074588549785165204 0.0076639207312387712 0 0.0075205277571635419 0.0073411749237088627 0 0.0073715548692116373 0.007432370948592895 0 0.0070667954775143534 0.0069623361995141356 0 0.0073715548692116373 0.007432370948592895 0 0.0074622573761629063 0.0078922910548627385 0 0.0074622573761629063 0.0078922910548627385 0 0.0080275164609130197 0.0084835640360780371 0 0.0083326585828043965 0.0079358828512755605 0 0.0092601081624683005 0.0084979574372660866 0 0.0080275164609130197 0.0084835640360780371 0 0.0083326585828043965 0.0079358828512755605 0 0.0083326585828043965 0.0079358828512755605 0 0.0078660472738705869 0.0075114590303955548 0 0.0086702483128293477 0.0075227098869758285 0 0.0090358434454078651 0.0079543421699483502 0 0.0083326585828043965 0.0079358828512755605 0 0.0086702483128293477 0.0075227098869758285 0 0.0074622573761629063 0.0078922910548627385 0 0.0083326585828043965 0.0079358828512755605 0 0.0078660472738705869 0.0075114590303955548 0 0.0074588549785165204 0.0076639207312387712 0 0.0078660472738705869 0.0075114590303955548 0 0.00754693301145832 0.0073893542196912894 0 0.0074588549785165204 0.0076639207312387712 0 0.0074622573761629063 0.0078922910548627385 0 0.0078660472738705869 0.0075114590303955548 0 0.0078660472738705869 0.0075114590303955548 0 0.0078242628639663744 0.0069855020348289646 0 0.00754693301145832 0.0073893542196912894 0 0.0078660472738705869 0.0075114590303955548 0 0.0083115605026184251 0.0071331204091353885 0 0.0078242628639663744 0.0069855020348289646 0 0.0075837704948969534 0.0073820323228083861 0 0.0075971894246049301 0.0073887268181355723 0 0.00754693301145832 0.0073893542196912894 0 0.0076977836678274588 0.0072471564370830315 0 0.0075888808725430457 0.0073306902316492596 0 0.0078660472738705869 0.0075114590303955548 0 0.0086702483128293477 0.0075227098869758285 0 0.0083115605026184251 0.0071331204091353885 0 0.0089546690706648006 0.0071337898944670028 0 0.0086702483128293477 0.0075227098869758285 0 0.0083115605026184251 0.0071331204091353885 0 0.0089546690706648006 0.0071337898944670028 0 0.0083115605026184251 0.0071331204091353885 0 0.0082996871018116668 0.0065265472373661612 0 0.0083115605026184251 0.0071331204091353885 0 0.0082996871018116668 0.0065265472373661612 0 0.0078242628639663744 0.0069855020348289646 0 0.010003303328170031 0.0075402926253743154 0 0.0087951874765854286 0.0074396919788859697 0 0.0083953153012590355 0.0076589559307466285 0 0.0075861126300871377 0.0073602183647242447 0 0.0079958814966179046 0.0073465617677352883 0 0.0076212113805780657 0.0073760811013362281 0 0.0075837704948969534 0.0073820323228083861 0 0.0075861126300871377 0.0073602183647242447 0 0.0076212113805780657 0.0073760811013362281 0 0.0075837704948969534 0.0073820323228083861 0 0.0075971894246049301 0.0073887268181355723 0 0.0087951874765854286 0.0074396919788859697 0 0.0072739365532958136 0.0073703328681488075 0 0.0087951874765854286 0.0074396919788859697 0 0.0076977836678274588 0.0072471564370830315 0 0.0075837704948969534 0.0073820323228083861 0 0.0075362619256114892 0.0074019963738319108 0 0.0075861126300871377 0.0073602183647242447 0 0.0075362619256114892 0.0074019963738319108 0 0.0074873441207486116 0.0073748664505372723 0 0.0075861126300871377 0.0073602183647242447 0 0.0075837704948969534 0.0073820323228083861 0 0.0075362619256114892 0.0074019963738319108 0 0.00754693301145832 0.0073893542196912894 0 0.0074588549785165204 0.0076639207312387712 0 0.00754693301145832 0.0073893542196912894 0 0.0074958750403967666 0.0074922511165804503 0 0.0075362619256114892 0.0074019963738319108 0 0.00754693301145832 0.0073893542196912894 0 0.0074958750403967666 0.0074922511165804503 0 0.0074421325561516045 0.0075055336160160021 0 0.0074958750403967666 0.0074922511165804503 0 0.0074557270130965999 0.0074331925124931095 0 0.0075362619256114892 0.0074019963738319108 0 0.0074958750403967666 0.0074922511165804503 0 0.0074557270130965999 0.0074331925124931095 0 0.0074873441207486116 0.0073748664505372723 0 0.0074236712544474099 0.0073029475302328652 0 0.0073612320299004498 0.007395291974667771 0 0.0074557270130965999 0.0074331925124931095 0 0.0074873441207486116 0.0073748664505372723 0 0.0073612320299004498 0.007395291974667771 0 0.0075362619256114892 0.0074019963738319108 0 0.0074557270130965999 0.0074331925124931095 0 0.0074873441207486116 0.0073748664505372723 0 0.0074873441207486116 0.0073748664505372723 0 0.0074236712544474099 0.0073029475302328652 0 0.0076468361449499355 0.007224654501584671 0 0.0080100475905082007 0.0097874425028019844 0 0.008432799333856494 0.0098561716405790121 0 0.0082106213699296958 0.0095814066928641313 0 0.007720140690620568 0.0085434205181708755 0 0.0080907900928215079 0.0085330594821564319 0 0.0074873441207486116 0.0073748664505372723 0 0.0075861126300871377 0.0073602183647242447 0 0.0076468361449499355 0.007224654501584671 0 0.0075861126300871377 0.0073602183647242447 0 0.0076468361449499355 0.007224654501584671 0 0.0079958814966179046 0.0073465617677352883 0 0.008432799333856494 0.0098561716405790121 0 0.0084469333450732653 0.009648539948817203 0 0.0085788730981063779 0.0096851145534094726 0 0.0084469333450732653 0.009648539948817203 0 0.0082106213699296958 0.0095814066928641313 0 0.0085704292465183188 0.0094949661538886888 0 0.0082106213699296958 0.0095814066928641313 0 0.0085704292465183188 0.0094949661538886888 0 0.0084686874270406484 0.0093029239349624298 0 0.008432799333856494 0.0098561716405790121 0 0.0084469333450732653 0.009648539948817203 0 0.0082106213699296958 0.0095814066928641313 0 0.0084469333450732653 0.009648539948817203 0 0.0085788730981063779 0.0096851145534094726 0 0.0085704292465183188 0.0094949661538886888 0 0.0080100475905082007 0.0097874425028019844 0 0.0082106213699296958 0.0095814066928641313 0 0.0078576858352450013 0.009467942794930212 0 0.0082106213699296958 0.0095814066928641313 0 0.0081813858588476659 0.009266777723018 0 0.0078576858352450013 0.009467942794930212 0 0.0088407815799522189 0.0073811043352250295 0 0.0083953153012590355 0.0076589559307466285 0 0.0083989382212072781 0.0071257923434420844 0 0.0083953153012590355 0.0076589559307466285 0 0.0083989382212072781 0.0071257923434420844 0 0.0079958814966179046 0.0073465617677352883 0 0.0093591665728765556 0.0098269536578389285 0 0.0089533675942967544 0.0097735475469530528 0 0.0093825213897039249 0.0093411217945705526 0 0.0076468361449499355 0.007224654501584671 0 0.0083989382212072781 0.0071257923434420844 0 0.0079958814966179046 0.0073465617677352883 0 0.008432799333856494 0.0098561716405790121 0 0.0093591665728765556 0.0098269536578389285 0 0.0089533675942967544 0.0097735475469530528 0 0.0080907900928215079 0.0085330594821564319 0 0.0087410332909242886 0.008500903308381675 0 0.008432799333856494 0.0098561716405790121 0 0.0085788730981063779 0.0096851145534094726 0 0.0089533675942967544 0.0097735475469530528 0 0.0089533675942967544 0.0097735475469530528 0 0.0093825213897039249 0.0093411217945705526 0 0.0092268234926607441 0.0087988347643283664 0 0.0089533675942967544 0.0097735475469530528 0 0.0085704292465183188 0.0094949661538886888 0 0.0088324541601149473 0.0093632157477841465 0 0.0089406089166058338 0.0097276257494775375 0 0.0090401141018120103 0.009118741068146155 0 0.0085788730981063779 0.0096851145534094726 0 0.0089533675942967544 0.0097735475469530528 0 0.0085704292465183188 0.0094949661538886888 0 0.0099167169637202329 0.0091642434931682153 0 0.0093825213897039249 0.0093411217945705526 0 0.0092268234926607441 0.0087988347643283664 0 0.0099167169637202329 0.0091642434931682153 0 0.0093591665728765556 0.0098269536578389285 0 0.0093825213897039249 0.0093411217945705526 0 0.010147023082619564 0.0083469550349850666 0 0.0099167169637202329 0.0091642434931682153 0 0.0092268234926607441 0.0087988347643283664 0 0.0090401141018120103 0.009118741068146155 0 0.0091229548964606652 0.0083702734708896113 0 0.010147023082619564 0.0083469550349850666 0 0.0092268234926607441 0.0087988347643283664 0 0.0095061450147222327 0.0078513689976348975 0 0.0088324541601149473 0.0093632157477841465 0 0.0084686874270406484 0.0093029239349624298 0 0.0085004323038430554 0.0090538360054354169 0 0.0085704292465183188 0.0094949661538886888 0 0.0088324541601149473 0.0093632157477841465 0 0.0084686874270406484 0.0093029239349624298 0 0.0088714948699330724 0.0090413522754098103 0 0.0085004323038430554 0.0090538360054354169 0 0.0087523318877428206 0.0088378254058589616 0 0.0088324541601149473 0.0093632157477841465 0 0.0088714948699330724 0.0090413522754098103 0 0.0085004323038430554 0.0090538360054354169 0 0.0081813858588476659 0.009266777723018 0 0.0084686874270406484 0.0093029239349624298 0 0.0085004323038430554 0.0090538360054354169 0 0.0082106213699296958 0.0095814066928641313 0 0.0081813858588476659 0.009266777723018 0 0.0084686874270406484 0.0093029239349624298 0 0.0085004323038430554 0.0090538360054354169 0 0.0081046746387769628 0.0090235905292527074 0 0.0082948925949336578 0.0088915604573850133 0 0.0081813858588476659 0.009266777723018 0 0.0085004323038430554 0.0090538360054354169 0 0.0081046746387769628 0.0090235905292527074 0 0.0081813858588476659 0.009266777723018 0 0.0081046746387769628 0.0090235905292527074 0 0.0078904656211992719 0.0091957757351338824 0 0.0081046746387769628 0.0090235905292527074 0 0.0080544532142757946 0.0087502887896893818 0 0.0082948925949336578 0.0088915604573850133 0 0.0081046746387769628 0.0090235905292527074 0 0.0080544532142757946 0.0087502887896893818 0 0.0077703655667906756 0.0089887200836956775 0 0.0085004323038430554 0.0090538360054354169 0 0.0082948925949336578 0.0088915604573850133 0 0.0085292819524188258 0.0087254542892923441 0 0.0080544532142757946 0.0087502887896893818 0 0.0082948925949336578 0.0088915604573850133 0 0.0085292819524188258 0.0087254542892923441 0 0.0082272483989092038 0.0084285537187498497 0 0.0086720152551871908 0.0084312012318387784 0 0.0085292819524188258 0.0087254542892923441 0 0.0080544532142757946 0.0087502887896893818 0 0.0082272483989092038 0.0084285537187498497 0 0.0085292819524188258 0.0087254542892923441 0 0.0080457585980410751 0.0087778961079385733 0 0.0082608490368842897 0.008351279150811337 0 0.0080544532142757946 0.0087502887896893818 0 0.0079356234693783185 0.0085612452028541366 0 0.0077822410311325658 0.0086426355570496972 0 0.0080544532142757946 0.0087502887896893818 0 0.0079356234693783185 0.0085612452028541366 0 0.0081637260831270136 0.0085635841055888232 0 0.0079356234693783185 0.0085612452028541366 0 0.0080155375483970271 0.0083020812687859043 0 0.0076677896157278736 0.0084518439743225763 0 0.0079356234693783185 0.0085612452028541366 0 0.0080155375483970271 0.0083020812687859043 0 0.0081637260831270136 0.0085635841055888232 0 0.0082272483989092038 0.0084285537187498497 0 0.0083751275773619963 0.0081461311006613517 0 0.0086720152551871908 0.0084312012318387784 0 0.0082608490368842897 0.008351279150811337 0 0.0082310633922600771 0.0090535755035428579 0 0.0080155375483970271 0.0083020812687859043 0 0.0081637260831270136 0.0085635841055888232 0 0.0083709241588254043 0.0082361058011899274 0 0.0082310633922600771 0.0090535755035428579 0 0.0082772792444417743 0.0098411078905218542 0 0.0068063205086034799 0.0094036771051920522 0 0.0071530071052555398 0.0097611491472948467 0 0.0068620761854883486 0.0099597223323881628 0 0.0082310633922600771 0.0090535755035428579 0 0.0076147880531926169 0.0088153344660089096 0 0.0080155375483970271 0.0083020812687859043 0 0.0083709241588254043 0.0082361058011899274 0 0.0081166967653032319 0.0079283269424834778 0 0.0080155375483970271 0.0083020812687859043 0 0.0081166967653032319 0.0079283269424834778 0 0.0078281554553416878 0.0080290690349069174 0 0.010664982532316302 0.009503158395495509 0 0.010710004379839046 0.009279834301447392 0 0.01093435751951282 0.0091581408683452034 0 0.010978852226883263 0.00914190831304325 0 0.010912323934864557 0.0091329110280817111 0 0.010916357631336296 0.0091601114458164604 0 0.01093435751951282 0.0091581408683452034 0 0.010912323934864557 0.0091329110280817111 0 0.010336640978543919 0.0097708578410634194 0 0.01027434577182031 0.009545270313958916 0 0.010520413456767467 0.009460597214935515 0 0.010916357631336296 0.0091601114458164604 0 0.01093435751951282 0.0091581408683452034 0 0.010918085676667771 0.0091676088109724201 0 0.0098755057849428066 0.0097886535818478646 0 0.01012850171177088 0.0097134453203538522 0 0.010093813040970028 0.0093747100497573715 0 0.010336640978543919 0.0097708578410634194 0 0.01012850171177088 0.0097134453203538522 0 0.01027434577182031 0.009545270313958916 0 0.0098755057849428066 0.0097886535818478646 0 0.01012850171177088 0.0097134453203538522 0 0.010173353120159411 0.010074423015808475 0 0.0082310633922600771 0.0090535755035428579 0 0.0096304538859707401 0.0090748240757415055 0 0.010336640978543919 0.0097708578410634194 0 0.01012850171177088 0.0097134453203538522 0 0.010173353120159411 0.010074423015808475 0 0.010664982532316302 0.009503158395495509 0 0.0096304538859707401 0.0090748240757415055 0 0.01090896455906956 0.0091693607538148886 0 0.010918085676667771 0.0091676088109724201 0 0.010914667838165163 0.0091678650211657105 0 0.010916357631336296 0.0091601114458164604 0 0.01090896455906956 0.0091693607538148886 0 0.010918085676667771 0.0091676088109724201 0 0.01093435751951282 0.0091581408683452034 0 0.010918085676667771 0.0091676088109724201 0 0.010923191320418024 0.0091724970217098804 0 0.010918085676667771 0.0091676088109724201 0 0.010914667838165163 0.0091678650211657105 0 0.010923191320418024 0.0091724970217098804 0 0.010285044536554152 0.0083112915763675754 0 0.011167645410997103 0.0089949746209491716 0 0.0086858413318423085 0.00843294206244166 0 0.0089562806304056379 0.0086983013657053621 0 0.0087523318877428206 0.0088378254058589616 0 0.01137614534841716 0.0082964291319763874 0 0.011269098184632651 0.0084512548004153591 0 0.011320966437785261 0.008709498805779042 0 0.010914667838165163 0.0091678650211657105 0 0.010909321485665329 0.0091593987428498103 0 0.010923191320418024 0.0091724970217098804 0 0.01090896455906956 0.0091693607538148886 0 0.010914667838165163 0.0091678650211657105 0 0.010909321485665329 0.0091593987428498103 0 0.0096304538859707401 0.0090748240757415055 0 0.010285044536554152 0.0083112915763675754 0 0.0096304538859707401 0.0090748240757415055 0 0.0084850731791726274 0.0086061544830100777 0 0.0086858413318423085 0.00843294206244166 0 0.0087523318877428206 0.0088378254058589616 0 0.0085292819524188258 0.0087254542892923441 0 0.0085004323038430554 0.0090538360054354169 0 0.0087523318877428206 0.0088378254058589616 0 0.0085292819524188258 0.0087254542892923441 0 0.0088714948699330724 0.0090413522754098103 0 0.0089562806304056379 0.0086983013657053621 0 0.0087523318877428206 0.0088378254058589616 0 0.0091229548964606652 0.0083702734708896113 0 0.010285044536554152 0.0083112915763675754 0 0.0095061450147222327 0.0078513689976348975 0 0.0097551053498087844 0.0069020666732915971 0 0.010398929062606251 0.0075276044326915694 0 0.01137614534841716 0.0082964291319763874 0 0.011226004097934708 0.0082319120875496126 0 0.011213457864115053 0.0083286123349206095 0 0.010285044536554152 0.0083112915763675754 0 0.010805226826113297 0.0078243662317183764 0 0.011241107598800461 0.0082297527043113626 0 0.011213457864115053 0.0083286123349206095 0 0.011255018496312795 0.0082455449718950701 0 0.011226004097934708 0.0082319120875496126 0 0.011241107598800461 0.0082297527043113626 0 0.011213457864115053 0.0083286123349206095 0 0.011213457864115053 0.0083286123349206095 0 0.011255018496312795 0.0082455449718950701 0 0.011207044773497564 0.0083223087355458157 0 0.011222167291390688 0.0084293932147089714 0 0.011213457864115053 0.0083286123349206095 0 0.011207044773497564 0.0083223087355458157 0 0.01137614534841716 0.0082964291319763874 0 0.011269098184632651 0.0084512548004153591 0 0.011213457864115053 0.0083286123349206095 0 0.011222167291390688 0.0084293932147089714 0 0.011269098184632651 0.0084512548004153591 0 0.011213457864115053 0.0083286123349206095 0 0.011222167291390688 0.0084293932147089714 0 0.011269098184632651 0.0084512548004153591 0 0.011239950665662666 0.0086264988921590912 0 0.011241107598800461 0.0082297527043113626 0 0.011480464077798777 0.0081829914365579501 0 0.011255018496312795 0.0082455449718950701 0 0.011415700776228579 0.0082608214224957049 0 0.011241107598800461 0.0082297527043113626 0 0.011480464077798777 0.0081829914365579501 0 0.011255018496312795 0.0082455449718950701 0 0.011302413633046494 0.0082044661606832086 0 0.011207044773497564 0.0083223087355458157 0 0.011480464077798777 0.0081829914365579501 0 0.011255018496312795 0.0082455449718950701 0 0.011302413633046494 0.0082044661606832086 0 0.011498556719265855 0.0088758188210486463 0 0.012093016779610116 0.0093309195472459638 0 0.012693548972748579 0.0087817637001221735 0 0.012916180541448417 0.0091755805357636062 0 0.012519473129274044 0.0091545514247972689 0 0.012167042748554407 0.0084880538867585908 0 0.011498556719265855 0.0088758188210486463 0 0.011059227128556313 0.0094520735575819147 0 0.011189728395292049 0.0092462588189349305 0 0.011460400963839653 0.009449126757343192 0 0.011059227128556313 0.0094520735575819147 0 0.011189728395292049 0.0092462588189349305 0 0.010887476934890615 0.0091225095332565283 0 0.010674389876749452 0.0088119727840483501 0 0.010887476934890615 0.0091225095332565283 0 0.010939907151168469 0.0088170276782857746 0 0.011498556719265855 0.0088758188210486463 0 0.010798544871319234 0.0091280319245284312 0 0.011498556719265855 0.0088758188210486463 0 0.010999455879909482 0.008550790537890365 0 0.011189728395292049 0.0092462588189349305 0 0.010887476934890615 0.0091225095332565283 0 0.01103312334984834 0.0091313812036030347 0 0.010887476934890615 0.0091225095332565283 0 0.010922410438725522 0.0091325582497227414 0 0.01103312334984834 0.0091313812036030347 0 0.011189728395292049 0.0092462588189349305 0 0.011229577803131175 0.0091809953799655061 0 0.011514669551492504 0.0092507106729694706 0 0.011189728395292049 0.0092462588189349305 0 0.011229577803131175 0.0091809953799655061 0 0.01103312334984834 0.0091313812036030347 0 0.011298012705869005 0.0086204127870812691 0 0.010999455879909482 0.008550790537890365 0 0.011096147754669628 0.0088620521396621053 0 0.011320966437785261 0.008709498805779042 0 0.010978852226883263 0.00914190831304325 0 0.011096147754669628 0.0088620521396621053 0 0.011239950665662666 0.0086264988921590912 0 0.010939907151168469 0.0088170276782857746 0 0.011222167291390688 0.0084293932147089714 0 0.011239950665662666 0.0086264988921590912 0 0.011207044773497564 0.0083223087355458157 0 0.011269098184632651 0.0084512548004153591 0 0.011320966437785261 0.008709498805779042 0 0.011239950665662666 0.0086264988921590912 0 0.011096147754669628 0.0088620521396621053 0 0.011320966437785261 0.008709498805779042 0 0.011239950665662666 0.0086264988921590912 0 0.010887476934890615 0.0091225095332565283 0 0.010939907151168469 0.0088170276782857746 0 0.01099308244989503 0.0089903877576159221 0 0.011096147754669628 0.0088620521396621053 0 0.010939907151168469 0.0088170276782857746 0 0.01099308244989503 0.0089903877576159221 0 0.010887476934890615 0.0091225095332565283 0 0.010931834456457989 0.0091181031659316857 0 0.010922410438725522 0.0091325582497227414 0 0.010887476934890615 0.0091225095332565283 0 0.010931834456457989 0.0091181031659316857 0 0.01099308244989503 0.0089903877576159221 0 0.011096147754669628 0.0088620521396621053 0 0.01099308244989503 0.0089903877576159221 0 0.010978852226883263 0.00914190831304325 0 0.01093435751951282 0.0091581408683452034 0 0.010923191320418024 0.0091724970217098804 0 0.010978852226883263 0.00914190831304325 0 0.011167645410997103 0.0089949746209491716 0 0.0110036059396848 0.0090922260815733662 0 0.010931834456457989 0.0091181031659316857 0 0.010978852226883263 0.00914190831304325 0 0.010890497486004531 0.009146393419875944 0 0.010931834456457989 0.0091181031659316857 0 0.01099308244989503 0.0089903877576159221 0 0.010978852226883263 0.00914190831304325 0 0.010890497486004531 0.009146393419875944 0 0.0107247611043466 0.0091301070060195982 0 0.010912323934864557 0.0091329110280817111 0 0.010978852226883263 0.00914190831304325 0 0.010890497486004531 0.009146393419875944 0 0.010912323934864557 0.0091329110280817111 0 0.010741784924832852 0.009138076636600611 0 0.010710004379839046 0.009279834301447392 0 0.010922410438725522 0.0091325582497227414 0 0.010883065583583953 0.0091230891185440678 0 0.010974794255894548 0.0090951039220156984 0 0.010931834456457989 0.0091181031659316857 0 0.010890497486004531 0.009146393419875944 0 0.010922410438725522 0.0091325582497227414 0 0.010890497486004531 0.009146393419875944 0 0.010922410438725522 0.0091325582497227414 0 0.010883065583583953 0.0091230891185440678 0 0.010883065583583953 0.0091230891185440678 0 0.0107247611043466 0.0091301070060195982 0 0.010873778610805298 0.0090490618052273108 0 0.010883065583583953 0.0091230891185440678 0 0.010974794255894548 0.0090951039220156984 0 0.010873778610805298 0.0090490618052273108 0 0.010890497486004531 0.009146393419875944 0 0.010883065583583953 0.0091230891185440678 0 0.0107247611043466 0.0091301070060195982 0 0.011229577803131175 0.0091809953799655061 0 0.011140880857205052 0.0091337488392198088 0 0.01103312334984834 0.0091313812036030347 0 0.010922410438725522 0.0091325582497227414 0 0.01103312334984834 0.0091313812036030347 0 0.010974794255894548 0.0090951039220156984 0 0.011140880857205052 0.0091337488392198088 0 0.01103312334984834 0.0091313812036030347 0 0.010974794255894548 0.0090951039220156984 0 0.010974794255894548 0.0090951039220156984 0 0.011027466970857696 0.0090880556116294201 0 0.010951619192385666 0.0090361127594581533 0 0.011140880857205052 0.0091337488392198088 0 0.010974794255894548 0.0090951039220156984 0 0.011027466970857696 0.0090880556116294201 0 0.011027466970857696 0.0090880556116294201 0 0.010951619192385666 0.0090361127594581533 0 0.010861305755811268 0.009078547501501319 0 0.010974794255894548 0.0090951039220156984 0 0.010951619192385666 0.0090361127594581533 0 0.010873778610805298 0.0090490618052273108 0 0.010340480025120556 0.0088859177117696364 0 0.010176121915116685 0.0090944608597417244 0 0.010951619192385666 0.0090361127594581533 0 0.010888546779521146 0.0089294887670777513 0 0.010894708541151652 0.0091170499203712691 0 0.010951619192385666 0.0090361127594581533 0 0.010861305755811268 0.009078547501501319 0 0.010894708541151652 0.0091170499203712691 0 0.010696756867640142 0.0090025539238974897 0 0.010888546779521146 0.0089294887670777513 0 0.010403202654862156 0.0088670119145488318 0 0.0107247611043466 0.0091301070060195982 0 0.010696756867640142 0.0090025539238974897 0 0.010873778610805298 0.0090490618052273108 0 0.0107247611043466 0.0091301070060195982 0 0.010696756867640142 0.0090025539238974897 0 0.010519625830684384 0.0090043721894158633 0 0.010696756867640142 0.0090025539238974897 0 0.010403202654862156 0.0088670119145488318 0 0.010519625830684384 0.0090043721894158633 0 0.010951619192385666 0.0090361127594581533 0 0.010873778610805298 0.0090490618052273108 0 0.010888546779521146 0.0089294887670777513 0 0.010696756867640142 0.0090025539238974897 0 0.010873778610805298 0.0090490618052273108 0 0.010888546779521146 0.0089294887670777513 0 0.0098239320561472297 0.0088006143977838302 0 0.010315514130033008 0.0088805010660330721 0 0.010009957567480908 0.0089542034080013072 0 0.0098239320561472297 0.0088006143977838302 0 0.010315514130033008 0.0088805010660330721 0 0.010403202654862156 0.0088670119145488318 0 0.010340480025120556 0.0088859177117696364 0 0.010377460386540296 0.0088702790141926731 0 0.00587139672390905 0.011389915672401309 0 0.0061613816759762694 0.010755589322868592 0 0.0063287004513810068 0.01111666671944803 0 0.00587139672390905 0.011389915672401309 0 0.0063287004513810068 0.01111666671944803 0 0.0062827398287077065 0.011578023058843485 0 0.010315514130033008 0.0088805010660330721 0 0.010403202654862156 0.0088670119145488318 0 0.010358313688589344 0.0089437030999833574 0 0.0081041481307039254 0.010106858133605684 0 0.008255778067957964 0.0098359309152950304 0 0.010403202654862156 0.0088670119145488318 0 0.010358313688589344 0.0089437030999833574 0 0.010519625830684384 0.0090043721894158633 0 0.0065386527442288225 0.010672655987053409 0 0.0063287004513810068 0.01111666671944803 0 0.0067428468599828361 0.011012743829168323 0 0.0061613816759762694 0.010755589322868592 0 0.0065386527442288225 0.010672655987053409 0 0.0063287004513810068 0.01111666671944803 0 0.0050682410573724872 0.011952214817656608 0 0.0042402534567567811 0.013573604401597484 0 0.002686456754097052 0.0149434542214584 0 0.0027940282244955945 0.014605875905783501 0 0.0023842214726749289 0.015205186674347301 0 0.0063287004513810068 0.01111666671944803 0 0.0067428468599828361 0.011012743829168323 0 0.0062827398287077065 0.011578023058843485 0 0.0027490406900339912 0.014155306749724109 0 0.0028086957698262188 0.014045232142474315 0 0.0038214265886790757 0.012035146904678082 0 0.0041293496428998671 0.011768767803488768 0 0.0038052204228483997 0.011756292222079339 0 0.0028086957698262188 0.014045232142474315 0 0.0050682410573724872 0.011952214817656608 0 0.002686456754097052 0.0149434542214584 0 0.002780906449951439 0.014930529825928103 0 0.0027940282244955945 0.014605875905783501 0 0.0028086957698262188 0.014045232142474315 0 0.0039387187650504795 0.012666255587029926 0 0.0038214265886790757 0.012035146904678082 0 0.0041293496428998671 0.011768767803488768 0 0.004405205502216002 0.011926837387846601 0 0.0020957743022599539 0.014019948219095784 0 0.0024174174874180905 0.014386678568209696 0 0.002902117805139754 0.013927797276698836 0 0.0024174174874180905 0.014386678568209696 0 0.0028350853903557007 0.014267856999979027 0 0.002902117805139754 0.013927797276698836 0 0.0041995794414103164 0.011765306531451147 0 0.0045825824002601965 0.011779695240909169 0 0.0041293496428998671 0.011768767803488768 0 0.0044437372230541582 0.011448300887320585 0 0.0041591341763404345 0.011209313826816898 0 0.0041293496428998671 0.011768767803488768 0 0.0044437372230541582 0.011448300887320585 0 0.0048669110398850612 0.011679537909347207 0 0.0041293496428998671 0.011768767803488768 0 0.0044551513823604142 0.011790476239468172 0 0.004405205502216002 0.011926837387846601 0 0.0065386527442288225 0.010672655987053409 0 0.0067428468599828361 0.011012743829168323 0 0.0068016726677673119 0.0103722406415799 0 0.0050682410573724872 0.011952214817656608 0 0.0071181655218106382 0.010033311507582725 0 0.0041293496428998671 0.011768767803488768 0 0.0038052204228483997 0.011756292222079339 0 0.0041591341763404345 0.011209313826816898 0 0.0050682410573724872 0.011952214817656608 0 0.0056012328413463522 0.010978161572005802 0 0.0065386527442288225 0.010672655987053409 0 0.0068016726677673119 0.0103722406415799 0 0.0064662582172893193 0.010096795999830176 0 0.0067030825078127207 0.011136180452890136 0 0.0068016726677673119 0.0103722406415799 0 0.0071346164564523255 0.010608043569479978 0 0.0068016726677673119 0.0103722406415799 0 0.0071346164564523255 0.010608043569479978 0 0.0070849739711817978 0.010164647021166465 0 0.0041591341763404345 0.011209313826816898 0 0.0046360330920529359 0.010598921217095179 0 0.0046035314143444053 0.011099296269084107 0 0.0056012328413463522 0.010978161572005802 0 0.0064650074387544087 0.0094337549536435399 0 0.0071346164564523255 0.010608043569479978 0 0.0070849739711817978 0.010164647021166465 0 0.007508986607704337 0.010118409221654807 0 0.0044437372230541582 0.011448300887320585 0 0.0041591341763404345 0.011209313826816898 0 0.0046035314143444053 0.011099296269084107 0 0.0081166967653032319 0.0079283269424834778 0 0.0078281554553416878 0.0080290690349069174 0 0.0078110938047198557 0.0075992307820693271 0 0.0071530071052555398 0.0097611491472948467 0 0.0070849739711817978 0.010164647021166465 0 0.007508986607704337 0.010118409221654807 0 0.0076147880531926169 0.0088153344660089096 0 0.0064650074387544087 0.0094337549536435399 0 0.0068063205086034799 0.0094036771051920522 0 0.0068620761854883486 0.0099597223323881628 0 0.0064662582172893193 0.010096795999830176 0 0.0068016726677673119 0.0103722406415799 0 0.0068620761854883486 0.0099597223323881628 0 0.0064662582172893193 0.010096795999830176 0 0.0068016726677673119 0.0103722406415799 0 0.0070849739711817978 0.010164647021166465 0 0.0068620761854883486 0.0099597223323881628 0 0.0071530071052555398 0.0097611491472948467 0 0.0070849739711817978 0.010164647021166465 0 0.0068620761854883486 0.0099597223323881628 0 0.010093813040970028 0.0093747100497573715 0 0.01027434577182031 0.009545270313958916 0 0.010415711568405742 0.0092345290836935955 0 0.01012850171177088 0.0097134453203538522 0 0.010093813040970028 0.0093747100497573715 0 0.01027434577182031 0.009545270313958916 0 0.01027434577182031 0.009545270313958916 0 0.010520413456767467 0.009460597214935515 0 0.010415711568405742 0.0092345290836935955 0 0.010358313688589344 0.0089437030999833574 0 0.010519625830684384 0.0090043721894158633 0 0.010415711568405742 0.0092345290836935955 0 0.0107247611043466 0.0091301070060195982 0 0.010520413456767467 0.009460597214935515 0 0.010415711568405742 0.0092345290836935955 0 0.0107247611043466 0.0091301070060195982 0 0.010519625830684384 0.0090043721894158633 0 0.010415711568405742 0.0092345290836935955 0 0.0061613816759762694 0.010755589322868592 0 0.0065386527442288225 0.010672655987053409 0 0.0064662582172893193 0.010096795999830176 0 0.010358313688589344 0.0089437030999833574 0 0.010093813040970028 0.0093747100497573715 0 0.010415711568405742 0.0092345290836935955 0 0.008255778067957964 0.0098359309152950304 0 0.0082772792444417743 0.0098411078905218542 0 0.013169049828266718 0.0091024832842801738 0 0.012330877704514149 0.0092775346018271667 0 0.012703300427091174 0.0092709515631470181 0 0.013169049828266718 0.0091024832842801738 0 0.012330877704514149 0.0092775346018271667 0 0.012398425490782506 0.0094042600404462811 0 0.013415775682956975 0.0083625009217373394 0 0.013169049828266718 0.0091024832842801738 0 0.013756940833746033 0.0082442887318090428 0 0.013148434614344191 0.0090693636766758703 0 0.013056948112784506 0.0088112437905363966 0 0.013415775682956975 0.0083625009217373394 0 0.013726267970550104 0.0079028672655827668 0 0.013756940833746033 0.0082442887318090428 0 0.013415775682956975 0.0083625009217373394 0 0.013901191314086823 0.0076745848453431461 0 0.013726267970550104 0.0079028672655827668 0 0.013596105256801388 0.0078678787289975793 0 0.013726267970550104 0.0079028672655827668 0 0.013363000237471397 0.0077401181405615275 0 0.013726267970550104 0.0079028672655827668 0 0.013756940833746033 0.0082442887318090428 0 0.013363000237471397 0.0077401181405615275 0 0.013056948112784506 0.0088112437905363966 0 0.012693982698166949 0.008405619962079015 0 0.012322956785635487 0.0082886619056660171 0 0.01200855551848537 0.0090318100278548672 0 0.012084856740149025 0.0091483102302217616 0 0.012398425490782506 0.0094042600404462811 0 0.01200855551848537 0.0090318100278548672 0 0.012091240148213707 0.0092348772531188738 0 0.012368632458140414 0.0083085309487112135 0 0.012693982698166949 0.008405619962079015 0 0.01200855551848537 0.0090318100278548672 0 0.012091240148213707 0.0092348772531188738 0 0.012084856740149025 0.0091483102302217616 0 0.012091240148213707 0.0092348772531188738 0 0.01210320202081785 0.0092966020095571287 0 0.012084856740149025 0.0091483102302217616 0 0.012330877704514149 0.0092775346018271667 0 0.012398425490782506 0.0094042600404462811 0 0.012091240148213707 0.0092348772531188738 0 0.012330877704514149 0.0092775346018271667 0 0.012091240148213707 0.0092348772531188738 0 0.01210320202081785 0.0092966020095571287 0 0.012330877704514149 0.0092775346018271667 0 0.01210320202081785 0.0092966020095571287 0 0.012180121477832883 0.0093165505825390169 0 0.01210320202081785 0.0092966020095571287 0 0.012093835814438974 0.0093750107937777133 0 0.012180121477832883 0.0093165505825390169 0 0.01210320202081785 0.0092966020095571287 0 0.012014150637304717 0.0093062218522778715 0 0.012093835814438974 0.0093750107937777133 0 0.012014150637304717 0.0093062218522778715 0 0.011796407389000813 0.0093235442610517891 0 0.012093835814438974 0.0093750107937777133 0 0.011951570242062006 0.0092663550399996759 0 0.011727475753958784 0.0092619456720465215 0 0.011796407389000813 0.0093235442610517891 0 0.012014150637304717 0.0093062218522778715 0 0.011951570242062006 0.0092663550399996759 0 0.011796407389000813 0.0093235442610517891 0 0.011951570242062006 0.0092663550399996759 0 0.012035464878219002 0.0091801529166698759 0 0.011727475753958784 0.0092619456720465215 0 0.011951570242062006 0.0092663550399996759 0 0.012084856740149025 0.0091483102302217616 0 0.012035464878219002 0.0091801529166698759 0 0.01210320202081785 0.0092966020095571287 0 0.012014150637304717 0.0093062218522778715 0 0.012084856740149025 0.0091483102302217616 0 0.012014150637304717 0.0093062218522778715 0 0.011951570242062006 0.0092663550399996759 0 0.012084856740149025 0.0091483102302217616 0 0.012322956785635487 0.0082886619056660171 0 0.012084856740149025 0.0091483102302217616 0 0.012149953408693631 0.0087701585250764477 0 0.012186206685255186 0.0084359719654546524 0 0.012149953408693631 0.0087701585250764477 0 0.012270314323638622 0.0086897697816290392 0 0.012084856740149025 0.0091483102302217616 0 0.012149953408693631 0.0087701585250764477 0 0.012035464878219002 0.0091801529166698759 0 0.012035464878219002 0.0091801529166698759 0 0.012270314323638622 0.0086897697816290392 0 0.012519473129274044 0.0091545514247972689 0 0.012149953408693631 0.0087701585250764477 0 0.012035464878219002 0.0091801529166698759 0 0.012270314323638622 0.0086897697816290392 0 0.012693548972748579 0.0087817637001221735 0 0.012270314323638622 0.0086897697816290392 0 0.012519473129274044 0.0091545514247972689 0 0.012425403013289931 0.0084012736280127936 0 0.012693548972748579 0.0087817637001221735 0 0.012270314323638622 0.0086897697816290392 0 0.011959800955609143 0.0091972787270531431 0 0.012093016779610116 0.0093309195472459638 0 0.012035464878219002 0.0091801529166698759 0 0.011460400963839653 0.009449126757343192 0 0.011514669551492504 0.0092507106729694706 0 0.011189728395292049 0.0092462588189349305 0 0.011460400963839653 0.009449126757343192 0 0.011514669551492504 0.0092507106729694706 0 0.012035464878219002 0.0091801529166698759 0 0.011514669551492504 0.0092507106729694706 0 0.011727475753958784 0.0092619456720465215 0 0.011727475753958784 0.0092619456720465215 0 0.011570514074652167 0.009260409439233527 0 0.011796407389000813 0.0093235442610517891 0 0.011727475753958784 0.0092619456720465215 0 0.011405043373713872 0.0092067383324659201 0 0.011570514074652167 0.009260409439233527 0 0.011514669551492504 0.0092507106729694706 0 0.011727475753958784 0.0092619456720465215 0 0.011405043373713872 0.0092067383324659201 0 0.011229577803131175 0.0091809953799655061 0 0.011514669551492504 0.0092507106729694706 0 0.011405043373713872 0.0092067383324659201 0 0.011140880857205052 0.0091337488392198088 0 0.011405043373713872 0.0092067383324659201 0 0.011256179370268954 0.0091789132712518425 0 0.011229577803131175 0.0091809953799655061 0 0.011140880857205052 0.0091337488392198088 0 0.011405043373713872 0.0092067383324659201 0 0.011405043373713872 0.0092067383324659201 0 0.011570514074652167 0.009260409439233527 0 0.011256179370268954 0.0091789132712518425 0 0.011570514074652167 0.009260409439233527 0 0.011474043336826605 0.0092892469689425279 0 0.011256179370268954 0.0091789132712518425 0 0.011474043336826605 0.0092892469689425279 0 0.011119764973345004 0.009170442975081277 0 0.011295777748523587 0.0092542353931888786 0 0.011474043336826605 0.0092892469689425279 0 0.011256179370268954 0.0091789132712518425 0 0.011119764973345004 0.009170442975081277 0 0.011027466970857696 0.0090880556116294201 0 0.011256179370268954 0.0091789132712518425 0 0.011119764973345004 0.009170442975081277 0 0.011140880857205052 0.0091337488392198088 0 0.011027466970857696 0.0090880556116294201 0 0.011256179370268954 0.0091789132712518425 0 0.011027466970857696 0.0090880556116294201 0 0.010861305755811268 0.009078547501501319 0 0.011119764973345004 0.009170442975081277 0 0.010861305755811268 0.009078547501501319 0 0.010611060378353923 0.0091413628587060057 0 0.010894708541151652 0.0091170499203712691 0 0.010861305755811268 0.009078547501501319 0 0.010611060378353923 0.0091413628587060057 0 0.010970783224084518 0.0091727990154886006 0 0.010611060378353923 0.0091413628587060057 0 0.010970783224084518 0.0091727990154886006 0 0.010817541400823747 0.0091745613392552813 0 0.010861305755811268 0.009078547501501319 0 0.010970783224084518 0.0091727990154886006 0 0.011119764973345004 0.009170442975081277 0 0.010970783224084518 0.0091727990154886006 0 0.011119764973345004 0.009170442975081277 0 0.011295777748523587 0.0092542353931888786 0 0.010970783224084518 0.0091727990154886006 0 0.011295777748523587 0.0092542353931888786 0 0.011204474040015679 0.0091929843756307968 0 0.011295777748523587 0.0092542353931888786 0 0.011561531839101762 0.0093295650515974691 0 0.011747067529212719 0.0094092551691066211 0 0.011204474040015679 0.0091929843756307968 0 0.011491402311608027 0.0092482284748923206 0 0.011561531839101762 0.0093295650515974691 0 0.011295777748523587 0.0092542353931888786 0 0.011204474040015679 0.0091929843756307968 0 0.011561531839101762 0.0093295650515974691 0 0.010970783224084518 0.0091727990154886006 0 0.010817541400823747 0.0091745613392552813 0 0.011204474040015679 0.0091929843756307968 0 0.011204474040015679 0.0091929843756307968 0 0.011272758050880755 0.0091528843733529024 0 0.011491402311608027 0.0092482284748923206 0 0.011204474040015679 0.0091929843756307968 0 0.011272758050880755 0.0091528843733529024 0 0.011037144908078944 0.0091359461248716762 0 0.010817541400823747 0.0091745613392552813 0 0.011204474040015679 0.0091929843756307968 0 0.011037144908078944 0.0091359461248716762 0 0.012971406288883635 0.010939883541523235 0 0.012761199555707483 0.010704614828060894 0 0.012211720881300877 0.0095545433678260686 0 0.012971406288883635 0.010939883541523235 0 0.012761199555707483 0.010704614828060894 0 0.012493114462249063 0.011395145523862426 0 0.011343884838581312 0.0090894721868649674 0 0.011272758050880755 0.0091528843733529024 0 0.011037144908078944 0.0091359461248716762 0 0.011343884838581312 0.0090894721868649674 0 0.011272758050880755 0.0091528843733529024 0 0.011491402311608027 0.0092482284748923206 0 0.012164238533706509 0.010040216348062245 0 0.012204182892911461 0.0096389944520281507 0 0.011343884838581312 0.0090894721868649674 0 0.011491402311608027 0.0092482284748923206 0 0.012211720881300877 0.0095545433678260686 0 0.011491402311608027 0.0092482284748923206 0 0.011561531839101762 0.0093295650515974691 0 0.012211720881300877 0.0095545433678260686 0 0.011747067529212719 0.0094092551691066211 0 0.012093835814438974 0.0093750107937777133 0 0.012211720881300877 0.0095545433678260686 0 0.011561531839101762 0.0093295650515974691 0 0.011747067529212719 0.0094092551691066211 0 0.012211720881300877 0.0095545433678260686 0 0.011474043336826605 0.0092892469689425279 0 0.011295777748523587 0.0092542353931888786 0 0.011747067529212719 0.0094092551691066211 0 0.011570514074652167 0.009260409439233527 0 0.011474043336826605 0.0092892469689425279 0 0.011796407389000813 0.0093235442610517891 0 0.011474043336826605 0.0092892469689425279 0 0.011747067529212719 0.0094092551691066211 0 0.011796407389000813 0.0093235442610517891 0 0.011747067529212719 0.0094092551691066211 0 0.011796407389000813 0.0093235442610517891 0 0.012093835814438974 0.0093750107937777133 0 0.012093835814438974 0.0093750107937777133 0 0.012180121477832883 0.0093165505825390169 0 0.012211939591412152 0.0093611573147969907 0 0.012330877704514149 0.0092775346018271667 0 0.012180121477832883 0.0093165505825390169 0 0.012211939591412152 0.0093611573147969907 0 0.012211939591412152 0.0093611573147969907 0 0.012211720881300877 0.0095545433678260686 0 0.012153730919593011 0.0099927859118611514 0 0.012093835814438974 0.0093750107937777133 0 0.012211939591412152 0.0093611573147969907 0 0.012211720881300877 0.0095545433678260686 0 0.012761199555707483 0.010704614828060894 0 0.012211720881300877 0.0095545433678260686 0 0.012153730919593011 0.0099927859118611514 0 0.012761199555707483 0.010704614828060894 0 0.012082221692381885 0.010601093917521539 0 0.012153730919593011 0.0099927859118611514 0 0.012772264785026362 0.010727053503346923 0 0.012152061427048732 0.010999450199704752 0 0.012761199555707483 0.010704614828060894 0 0.012159658334709757 0.011395154022764789 0 0.012493114462249063 0.011395145523862426 0 0.012082221692381885 0.010601093917521539 0 0.012153730919593011 0.0099927859118611514 0 0.011963786979995193 0.010225393591975317 0 0.012211939591412152 0.0093611573147969907 0 0.012153730919593011 0.0099927859118611514 0 0.011963786979995193 0.010225393591975317 0 0.011223572510721804 0.010888264164244044 0 0.011567599890407364 0.01012956063316473 0 0.011697730689668867 0.01107345218098992 0 0.011963786979995193 0.010225393591975317 0 0.011567599890407364 0.01012956063316473 0 0.011697730689668867 0.01107345218098992 0 0.012082221692381885 0.010601093917521539 0 0.011963786979995193 0.010225393591975317 0 0.011697730689668867 0.01107345218098992 0 0.012152061427048732 0.010999450199704752 0 0.011681801356855009 0.011409157866969499 0 0.013060289883856595 0.0092486288505124574 0 0.01291003279084612 0.0091470821588428217 0 0.012703300427091174 0.0092709515631470181 0 0.012211939591412152 0.0093611573147969907 0 0.01291003279084612 0.0091470821588428217 0 0.012703300427091174 0.0092709515631470181 0 0.012211939591412152 0.0093611573147969907 0 0.011963786979995193 0.010225393591975317 0 0.011567599890407364 0.01012956063316473 0 0.01223410681833891 0.0093945323062864499 0 0.012245166330609321 0.0096472269704860163 0 0.012330877704514149 0.0092775346018271667 0 0.012211939591412152 0.0093611573147969907 0 0.012703300427091174 0.0092709515631470181 0 0.013060289883856595 0.0092486288505124574 0 0.013169049828266718 0.0091024832842801738 0 0.012703300427091174 0.0092709515631470181 0 0.011475839058855693 0.013117288864842862 0 0.011802947392712477 0.012957519966193595 0 0.011780261802520783 0.012452211940240241 0 0.011802947392712477 0.012957519966193595 0 0.011998429934028143 0.01266113837389209 0 0.012026903360830093 0.013078684659666896 0 0.011802947392712477 0.012957519966193595 0 0.011998429934028143 0.01266113837389209 0 0.011780261802520783 0.012452211940240241 0 0.011998429934028143 0.01266113837389209 0 0.011780261802520783 0.012452211940240241 0 0.012131053958058512 0.012048545031211619 0 0.011780261802520783 0.012452211940240241 0 0.011727951884106585 0.011718568101481934 0 0.012131053958058512 0.012048545031211619 0 0.011543796965285725 0.012140685316880914 0 0.011780261802520783 0.012452211940240241 0 0.011727951884106585 0.011718568101481934 0 0.012159658334709757 0.011395154022764789 0 0.011727951884106585 0.011718568101481934 0 0.012131053958058512 0.012048545031211619 0 0.012131053958058512 0.012048545031211619 0 0.012538753232665092 0.011992939247997613 0 0.012321962142968993 0.01262546131105337 0 0.012159658334709757 0.011395154022764789 0 0.012131053958058512 0.012048545031211619 0 0.012493114462249063 0.011395145523862426 0 0.012131053958058512 0.012048545031211619 0 0.012493114462249063 0.011395145523862426 0 0.012538753232665092 0.011992939247997613 0 0.012493114462249063 0.011395145523862426 0 0.012538753232665092 0.011992939247997613 0 0.013155733077324911 0.011956806495952602 0 0.01272044307270722 0.012363950917309739 0 0.012321962142968993 0.01262546131105337 0 0.012732403678756292 0.012884465686047834 0 0.012538753232665092 0.011992939247997613 0 0.01272044307270722 0.012363950917309739 0 0.012321962142968993 0.01262546131105337 0 0.011998429934028143 0.01266113837389209 0 0.012131053958058512 0.012048545031211619 0 0.012321962142968993 0.01262546131105337 0 0.012321962142968993 0.01262546131105337 0 0.012385707864163544 0.012995833816091167 0 0.012026903360830093 0.013078684659666896 0 0.011998429934028143 0.01266113837389209 0 0.012321962142968993 0.01262546131105337 0 0.012026903360830093 0.013078684659666896 0 0.012321962142968993 0.01262546131105337 0 0.012732403678756292 0.012884465686047834 0 0.012385707864163544 0.012995833816091167 0 0.012732403678756292 0.012884465686047834 0 0.012992283354297925 0.01283976463744336 0 0.012941176668818664 0.01253497265083431 0 0.012992283354297925 0.01283976463744336 0 0.013207369465802537 0.012560932542110045 0 0.012941176668818664 0.01253497265083431 0 0.012732403678756292 0.012884465686047834 0 0.012992283354297925 0.01283976463744336 0 0.012918041841331931 0.01312417964109959 0 0.012343147523025033 0.010363819440377481 0 0.0078705589499233602 0.012194435801970429 0 0.010540956391437725 0.0086787248203360756 0 0.010029143488621054 0.0083388597940996165 0 0.010209248149189972 0.0076876155869832815 0 0.012992283354297925 0.01283976463744336 0 0.013207369465802537 0.012560932542110045 0 0.013201810376860319 0.013070195331600358 0 0.013207369465802537 0.012560932542110045 0 0.013348998782069155 0.013389027632480592 0 0.013201810376860319 0.013070195331600358 0 0.010540956391437725 0.0086787248203360756 0 0.010830323958787703 0.0091076198140510531 0 0.010409251554146379 0.0090562817138507036 0 0.012343147523025033 0.010363819440377481 0 0.011952557920714318 0.010567908712109419 0 0.01272044307270722 0.012363950917309739 0 0.012732403678756292 0.012884465686047834 0 0.012941176668818664 0.01253497265083431 0 0.013207369465802537 0.012560932542110045 0 0.012941176668818664 0.01253497265083431 0 0.013155733077324911 0.011956806495952602 0 0.01272044307270722 0.012363950917309739 0 0.012941176668818664 0.01253497265083431 0 0.013155733077324911 0.011956806495952602 0 0.012538753232665092 0.011992939247997613 0 0.01272044307270722 0.012363950917309739 0 0.013155733077324911 0.011956806495952602 0 0.011343884838581312 0.0090894721868649674 0 0.010830323958787703 0.0091076198140510531 0 0.011037144908078944 0.0091359461248716762 0 0.012971406288883635 0.010939883541523235 0 0.012493114462249063 0.011395145523862426 0 0.013155733077324911 0.011956806495952602 0 0.012164238533706509 0.010040216348062245 0 0.011952557920714318 0.010567908712109419 0 0.010830323958787703 0.0091076198140510531 0 0.011037144908078944 0.0091359461248716762 0 0.010664473768076695 0.0091559979354893482 0 0.010817541400823747 0.0091745613392552813 0 0.011037144908078944 0.0091359461248716762 0 0.010664473768076695 0.0091559979354893482 0 0.010830323958787703 0.0091076198140510531 0 0.010664473768076695 0.0091559979354893482 0 0.010409251554146379 0.0090562817138507036 0 0.010409251554146379 0.0090562817138507036 0 0.010157936309772977 0.0092640225278033343 0 0.0097946727449474847 0.0089123315354734754 0 0.010664473768076695 0.0091559979354893482 0 0.010409251554146379 0.0090562817138507036 0 0.010157936309772977 0.0092640225278033343 0 0.010817541400823747 0.0091745613392552813 0 0.010664473768076695 0.0091559979354893482 0 0.010157936309772977 0.0092640225278033343 0 0.010611060378353923 0.0091413628587060057 0 0.010817541400823747 0.0091745613392552813 0 0.010157936309772977 0.0092640225278033343 0 0.010611060378353923 0.0091413628587060057 0 0.010157936309772977 0.0092640225278033343 0 0.010894708541151652 0.0091170499203712691 0 0.010157936309772977 0.0092640225278033343 0 0.0093687968280283373 0.0090344735177287951 0 0.0094202170394178681 0.0090820827128086715 0 0.010157936309772977 0.0092640225278033343 0 0.0093687968280283373 0.0090344735177287951 0 0.0097946727449474847 0.0089123315354734754 0 0.0093687968280283373 0.0090344735177287951 0 0.0097946727449474847 0.0089123315354734754 0 0.0084315064991853268 0.0088879359272109413 0 0.010540956391437725 0.0086787248203360756 0 0.010409251554146379 0.0090562817138507036 0 0.0097946727449474847 0.0089123315354734754 0 0.010540956391437725 0.0086787248203360756 0 0.0097946727449474847 0.0089123315354734754 0 0.010029143488621054 0.0083388597940996165 0 0.0097946727449474847 0.0089123315354734754 0 0.010029143488621054 0.0083388597940996165 0 0.0095571882321735229 0.008068295412419775 0 0.0075613094946249031 0.0089141058280538255 0 0.008163145171567205 0.0088862110794238319 0 0.0097946727449474847 0.0089123315354734754 0 0.0095571882321735229 0.008068295412419775 0 0.0084315064991853268 0.0088879359272109413 0 0.0053375723674840541 0.009858995604279169 0 0.0084315064991853268 0.0088879359272109413 0 0.0064513188412008643 0.010680854675847314 0 0.0084315064991853268 0.0088879359272109413 0 0.0064513188412008643 0.010680854675847314 0 0.0076716037511315059 0.010712006385493023 0 0.0053375723674840541 0.009858995604279169 0 0.0064513188412008643 0.010680854675847314 0 0.0052012853771808759 0.011831756001634313 0 0.0064280426515527398 0.011683072529324099 0 0.0064513188412008643 0.010680854675847314 0 0.0052012853771808759 0.011831756001634313 0 0.0064280426515527398 0.011683072529324099 0 0.0076716037511315059 0.010712006385493023 0 0.007360037229278916 0.011918644202192675 0 0.0064280426515527398 0.011683072529324099 0 0.0064513188412008643 0.010680854675847314 0 0.0076716037511315059 0.010712006385493023 0 0.010029143488621054 0.0083388597940996165 0 0.0095571882321735229 0.008068295412419775 0 0.010209248149189972 0.0076876155869832815 0 0.0053375723674840541 0.009858995604279169 0 0.0052012853771808759 0.011831756001634313 0 0.0034237761001284371 0.011176962843199724 0 0.0075613094946249031 0.0089141058280538255 0 0.0078705589499233602 0.012194435801970429 0 0.0038802797919841232 0.015110771293442384 0 0.0078705589499233602 0.012194435801970429 0 0.0052012853771808759 0.011831756001634313 0 0.0040959097675137852 0.01409453261509277 0 0.0034237761001284371 0.011176962843199724 0 0.0052012853771808759 0.011831756001634313 0 0.005808956913056133 0.013052157397422185 0 0.0040959097675137852 0.01409453261509277 0 0.0064280426515527398 0.011683072529324099 0 0.0052012853771808759 0.011831756001634313 0 0.005808956913056133 0.013052157397422185 0 0.0064280426515527398 0.011683072529324099 0 0.005808956913056133 0.013052157397422185 0 0.007360037229278916 0.011918644202192675 0 0.005808956913056133 0.013052157397422185 0 0.0046566188750118776 0.01506400284178195 0 0.0040959097675137852 0.01409453261509277 0 0.0046566188750118776 0.01506400284178195 0 0.0042698268419157949 0.015000815534977435 0 0.0034227733501371259 0.014999180414499366 0 0.0046566188750118776 0.01506400284178195 0 0.0042698268419157949 0.015000815534977435 0 0.0040959097675137852 0.01409453261509277 0 0.0042690155087497924 0.014999980006286677 0 0.0045775801221486388 0.015702135620226532 0 0.0049616675146121614 0.015448320814835421 0 0.004269153120069231 0.014999781967075097 0 0.0038802797919841232 0.015110771293442384 0 0.0045775801221486388 0.015702135620226532 0 0.0049616675146121614 0.015448320814835421 0 0.0052758098514800039 0.015804165049169237 0 0.0042690155087497924 0.014999980006286677 0 0.0049616675146121614 0.015448320814835421 0 0.0051107616834339094 0.01499996436352603 0 0.0049616675146121614 0.015448320814835421 0 0.0051107616834339094 0.01499996436352603 0 0.005499436773956673 0.015400674791443527 0 0.0051107616834339094 0.01499996436352603 0 0.005499436773956673 0.015400674791443527 0 0.0059524708714313217 0.014999969694091442 0 0.0046423304329734428 0.015932000286799908 0 0.007750996071255266 0.015247839625903332 0 0.005499436773956673 0.015400674791443527 0 0.0052758098514800039 0.015804165049169237 0 0.0057999621634015879 0.015735547229701677 0 0.0049616675146121614 0.015448320814835421 0 0.005499436773956673 0.015400674791443527 0 0.0052758098514800039 0.015804165049169237 0 0.0052758098514800039 0.015804165049169237 0 0.0053099731668280704 0.016060342362906415 0 0.0059106155965740134 0.015690657450745566 0 0.01244591408303496 0.014099922474084524 0 0.011905218264175415 0.013912319695642817 0 0.011330897395195296 0.014930152572790411 0 0.0090387363792312839 0.015269489043890042 0 0.007750996071255266 0.015247839625903332 0 0.0045775801221486388 0.015702135620226532 0 0.0052758098514800039 0.015804165049169237 0 0.0053099731668280704 0.016060342362906415 0 0.0090387363792312839 0.015269489043890042 0 0.0078705589499233602 0.012194435801970429 0 0.0045775801221486388 0.015702135620226532 0 0.0053099731668280704 0.016060342362906415 0 0.0048451166136690938 0.016354607474736965 0 0.01244591408303496 0.014099922474084524 0 0.013348998782069155 0.013389027632480592 0 0.013201810376860319 0.013070195331600358 0 0.012992283354297925 0.01283976463744336 0 0.013201810376860319 0.013070195331600358 0 0.012918041841331931 0.01312417964109959 0 0.012760780540384445 0.013382236816215615 0 0.013201810376860319 0.013070195331600358 0 0.012918041841331931 0.01312417964109959 0 0.012522383877188428 0.013600127809532323 0 0.013074448249062573 0.013123069506037253 0 0.01244591408303496 0.014099922474084524 0 0.011905218264175415 0.013912319695642817 0 0.013201810376860319 0.013070195331600358 0 0.012732403678756292 0.012884465686047834 0 0.012918041841331931 0.01312417964109959 0 0.01273942210454203 0.013190963837968141 0 0.012760780540384445 0.013382236816215615 0 0.012918041841331931 0.01312417964109959 0 0.01273942210454203 0.013190963837968141 0 0.012732403678756292 0.012884465686047834 0 0.012587273102698922 0.013138510969980165 0 0.012385707864163544 0.012995833816091167 0 0.012438330268383282 0.013283272697730494 0 0.012587273102698922 0.013138510969980165 0 0.012592801585053642 0.013324695701064263 0 0.01273942210454203 0.013190963837968141 0 0.012587273102698922 0.013138510969980165 0 0.012592801585053642 0.013324695701064263 0 0.012760780540384445 0.013382236816215615 0 0.01273942210454203 0.013190963837968141 0 0.012592801585053642 0.013324695701064263 0 0.012732403678756292 0.012884465686047834 0 0.01273942210454203 0.013190963837968141 0 0.012587273102698922 0.013138510969980165 0 0.012438330268383282 0.013283272697730494 0 0.012587273102698922 0.013138510969980165 0 0.012385707864163544 0.012995833816091167 0 0.012385707864163544 0.012995833816091167 0 0.012245949761840815 0.013262257467527898 0 0.012026903360830093 0.013078684659666896 0 0.012245949761840815 0.013262257467527898 0 0.012080324333532226 0.013481178985211215 0 0.012026903360830093 0.013078684659666896 0 0.012438330268383282 0.013283272697730494 0 0.012385707864163544 0.012995833816091167 0 0.012245949761840815 0.013262257467527898 0 0.012438330268383282 0.013283272697730494 0 0.012245949761840815 0.013262257467527898 0 0.012315116593445839 0.01346151109507452 0 0.012245949761840815 0.013262257467527898 0 0.012315116593445839 0.01346151109507452 0 0.012080324333532226 0.013481178985211215 0 0.012167101464350114 0.013605182512320827 0 0.012315116593445839 0.01346151109507452 0 0.012080324333532226 0.013481178985211215 0 0.012167101464350114 0.013605182512320827 0 0.012315116593445839 0.01346151109507452 0 0.012311615778953181 0.013647811251403378 0 0.012371790395502978 0.013575918240525819 0 0.012315116593445839 0.01346151109507452 0 0.012311615778953181 0.013647811251403378 0 0.012522383877188428 0.013600127809532323 0 0.010485288229381415 0.014462090118720067 0 0.011905218264175415 0.013912319695642817 0 0.011330897395195296 0.014930152572790411 0 0.010483107676965435 0.015077889785305042 0 0.012371790395502978 0.013575918240525819 0 0.012315116593445839 0.01346151109507452 0 0.012515680895747072 0.013483942172542932 0 0.012371790395502978 0.013575918240525819 0 0.012515680895747072 0.013483942172542932 0 0.012300278474412353 0.013758487745455352 0 0.012760780540384445 0.013382236816215615 0 0.012515680895747072 0.013483942172542932 0 0.012300278474412353 0.013758487745455352 0 0.012438330268383282 0.013283272697730494 0 0.012515680895747072 0.013483942172542932 0 0.012592801585053642 0.013324695701064263 0 0.012438330268383282 0.013283272697730494 0 0.012315116593445839 0.01346151109507452 0 0.012515680895747072 0.013483942172542932 0 0.012760780540384445 0.013382236816215615 0 0.012515680895747072 0.013483942172542932 0 0.012592801585053642 0.013324695701064263 0 0.0057999621634015879 0.015735547229701677 0 0.0059179026005310477 0.015377227596578596 0 0.006306598275667521 0.015389553531664475 0 0.007750996071255266 0.015247839625903332 0 0.0069906807990881134 0.015305659527245516 0 0.007750996071255266 0.015247839625903332 0 0.010485288229381415 0.014462090118720067 0 0.005499436773956673 0.015400674791443527 0 0.0057999621634015879 0.015735547229701677 0 0.0059179026005310477 0.015377227596578596 0 0.005499436773956673 0.015400674791443527 0 0.0059179026005310477 0.015377227596578596 0 0.0059524708714313217 0.014999969694091442 0 0.0059179026005310477 0.015377227596578596 0 0.0059524708714313217 0.014999969694091442 0 0.006306598275667521 0.015389553531664475 0 0.0059525253347307242 0.015000001182263264 0 0.0064419788093481901 0.015353449678702608 0 0.0066300471215273256 0.014999994182801386 0 0.0059525253347307242 0.015000001182263264 0 0.0063427971714687826 0.015424526313388701 0 0.0064419788093481901 0.015353449678702608 0 0.0064419788093481901 0.015353449678702608 0 0.0065992016440297825 0.01525442804568209 0 0.0066300471215273256 0.014999994182801386 0 0.0059523309947226623 0.014999869649893348 0 0.0069906807990881134 0.015305659527245516 0 0.0063462492052241849 0.01542366467164441 0 0.0064419788093481901 0.015353449678702608 0 0.0064404141769232202 0.01552952692512847 0 0.0064419788093481901 0.015353449678702608 0 0.0064404141769232202 0.01552952692512847 0 0.0065992016440297825 0.01525442804568209 0 0.0069906807990881134 0.015305659527245516 0 0.0067742205696615636 0.015408853151080927 0 0.0091592819209271262 0.015182183294853014 0 0.0091779610398714084 0.014551116790451542 0 0.010105372251591358 0.014378877464068867 0 0.0083692628400514838 0.014967141423689942 0 0.0081772282035939489 0.015110976257265613 0 0.0082323639847183064 0.014995790711852364 0 0.0077854328655420531 0.015281551814630964 0 0.0087423258969023948 0.015115849113184591 0 0.0069906807990881134 0.015305659527245516 0 0.0077854328655420531 0.015281551814630964 0 0.010515141656590359 0.014337285627352358 0 0.0087423258969023948 0.015115849113184591 0 0.0091592819209271262 0.015182183294853014 0 0.0091779610398714084 0.014551116790451542 0 0.0088350043332770072 0.014821744648461492 0 0.009700944113717155 0.014392430632115994 0 0.0091751341702595701 0.014490923952604984 0 0.009342134283410743 0.014675638032675844 0 0.010515141656590359 0.014337285627352358 0 0.0098369477158499908 0.014799006935643552 0 0.0098369477158499908 0.014799006935643552 0 0.0087423258969023948 0.015115849113184591 0 0.0081772282035939489 0.015110976257265613 0 0.0081435075749468934 0.015072593910927195 0 0.0082323639847183064 0.014995790711852364 0 0.0077854328655420531 0.015281551814630964 0 0.010485288229381415 0.014462090118720067 0 0.010515141656590359 0.014337285627352358 0 0.010485288229381415 0.014462090118720067 0 0.012099563852753615 0.013797214820757606 0 0.012311615778953181 0.013647811251403378 0 0.012300278474412353 0.013758487745455352 0 0.012371790395502978 0.013575918240525819 0 0.012311615778953181 0.013647811251403378 0 0.012300278474412353 0.013758487745455352 0 0.010515141656590359 0.014337285627352358 0 0.012280224508476465 0.013400858721263348 0 0.012167101464350114 0.013605182512320827 0 0.012078798090566459 0.013767344461113428 0 0.012080324333532226 0.013481178985211215 0 0.012167101464350114 0.013605182512320827 0 0.012157727733098348 0.013754527872454597 0 0.012311615778953181 0.013647811251403378 0 0.012167101464350114 0.013605182512320827 0 0.012157727733098348 0.013754527872454597 0 0.012078798090566459 0.013767344461113428 0 0.012317488208480297 0.014225705662268523 0 0.011895835497777332 0.014311251771930072 0 0.011948478352597415 0.01373412378700014 0 0.0098369477158499908 0.014799006935643552 0 0.0093740134256828211 0.015193321409964976 0 0.006179092286549507 0.016074713936713322 0 0.0066470422365598192 0.015578577555453433 0 0.0070690564742538348 0.015981360153666951 0 0.006179092286549507 0.016074713936713322 0 0.0061251598597324344 0.016012648996335921 0 0.0066470422365598192 0.015578577555453433 0 0.0064404141769232202 0.01552952692512847 0 0.0065992016440297825 0.01525442804568209 0 0.0068459187675364115 0.015184892754935012 0 0.0087423258969023948 0.015115849113184591 0 0.006510149649995362 0.015655323716490272 0 0.0068459187675364115 0.015184892754935012 0 0.0066300471215273256 0.014999994182801386 0 0.0073074667785939535 0.015000007160884529 0 0.0077854328655420531 0.015281551814630964 0 0.0065251064539985212 0.015448280897459718 0 0.0066607082518728329 0.015489533050056715 0 0.0069077860861439444 0.015285496293211543 0 0.0068459187675364115 0.015184892754935012 0 0.0066069665742407571 0.015428518967760757 0 0.0066607082518728329 0.015489533050056715 0 0.0068459187675364115 0.015184892754935012 0 0.0069077860861439444 0.015285496293211543 0 0.0068459187675364115 0.015184892754935012 0 0.0073074667785939535 0.015000007160884529 0 0.0065992016440297825 0.01525442804568209 0 0.0068459187675364115 0.015184892754935012 0 0.0066300471215273256 0.014999994182801386 0 0.0085227762260149734 0.01585387388162858 0 0.0073846420017520857 0.015436283889894962 0 0.0070690564742538348 0.015981360153666951 0 0.0075773992384238374 0.014998726027083173 0 0.0073067075493294968 0.015000759550252093 0 0.0073846420017520857 0.015436283889894962 0 0.0066470422365598192 0.015578577555453433 0 0.0073067075493294968 0.015000759550252093 0 0.0073846420017520857 0.015436283889894962 0 0.006510149649995362 0.015655323716490272 0 0.0073075761094451288 0.014999944830253237 0 0.0066470422365598192 0.015578577555453433 0 0.0073846420017520857 0.015436283889894962 0 0.0070690564742538348 0.015981360153666951 0 0.011576365804155596 0.014026861478544978 0 0.011895835497777332 0.014311251771930072 0 0.011948478352597415 0.01373412378700014 0 0.012078798090566459 0.013767344461113428 0 0.011752536794529709 0.013348508869112584 0 0.012080324333532226 0.013481178985211215 0 0.0098369477158499908 0.014799006935643552 0 0.012255844746977997 0.013487958200911587 0 0.011802947392712477 0.012957519966193595 0 0.011752536794529709 0.013348508869112584 0 0.012026903360830093 0.013078684659666896 0 0.011752536794529709 0.013348508869112584 0 0.012080324333532226 0.013481178985211215 0 0.012026903360830093 0.013078684659666896 0 0.011346434367932355 0.013118198681546263 0 0.012255844746977997 0.013487958200911587 0 0.011475839058855693 0.013117288864842862 0 0.011802947392712477 0.012957519966193595 0 0.011752536794529709 0.013348508869112584 0 0.0023235240712675322 0.01578086823735108 0 0.0024525438598323387 0.01574068498989796 0 0.002370869826259849 0.015649851766964977 0 0.0022858548573057862 0.015785149485378267 0 0.0023235240712675322 0.01578086823735108 0 0.002370869826259849 0.015649851766964977 0 0.0022858548573057862 0.015785149485378267 0 0.002370869826259849 0.015649851766964977 0 0.002230207172721565 0.015621864963401629 0 0.0022858548573057862 0.015785149485378267 0 0.0022559991451953729 0.015807073977533805 0 0.0023235240712675322 0.01578086823735108 0 0.0022559991451953729 0.015807073977533805 0 0.0023235240712675322 0.01578086823735108 0 0.0022721265499306667 0.015801526082772199 0 0.0023235240712675322 0.01578086823735108 0 0.0024525438598323387 0.01574068498989796 0 0.0022721265499306667 0.015801526082772199 0 0.001341813596517552 0.015223916272534371 0 0.0012846929165730451 0.015009064208542026 0 0.0012641180064258445 0.015307780311601208 0 0.0017715885430874424 0.015114391751038847 0 0.0017852795545442422 0.015674386210565321 0 0.002264949109294576 0.015431989124715289 0 0.0017852795545442422 0.015674386210565321 0 0.0020120397343820358 0.015179937563493871 0 0.0022900450122478847 0.015258121392619617 0 0.0019733463058408097 0.015633549413422633 0 0.001341813596517552 0.015223916272534371 0 0.0013480784357633969 0.015047945989037199 0 0.0012846929165730451 0.015009064208542026 0 0.001341813596517552 0.015223916272534371 0 0.0013480784357633969 0.015047945989037199 0 0.0014087608177992342 0.015318055603640801 0 0.0013480784357633969 0.015047945989037199 0 0.0014087608177992342 0.015318055603640801 0 0.0015115790507827021 0.015195388337884079 0 0.0012846929165730451 0.015009064208542026 0 0.0012724554283561149 0.014846445347435426 0 0.0012828519278147959 0.014804782282508784 0 0.0017715885430874424 0.015114391751038847 0 0.0019605490838152965 0.014829452289758285 0 0.0013480784357633969 0.015047945989037199 0 0.0012846929165730451 0.015009064208542026 0 0.0012828519278147959 0.014804782282508784 0 0.0022900450122478847 0.015258121392619617 0 0.0025600863500160214 0.014893427683362354 0 0.0023471758531067024 0.014959877940301885 0 0.0020120397343820358 0.015179937563493871 0 0.0022900450122478847 0.015258121392619617 0 0.0021999352773301741 0.015087755416158474 0 0.0022900450122478847 0.015258121392619617 0 0.0021999352773301741 0.015087755416158474 0 0.0023471758531067024 0.014959877940301885 0 0.0020120397343820358 0.015179937563493871 0 0.0021999352773301741 0.015087755416158474 0 0.0021626888309536976 0.014901344746656012 0 0.002264949109294576 0.015431989124715289 0 0.0022955162551054242 0.015137612832938558 0 0.0020120397343820358 0.015179937563493871 0 0.0020440349213513404 0.014658128078597784 0 0.0021626888309536976 0.014901344746656012 0 0.0020440349213513404 0.014658128078597784 0 0.0021626888309536976 0.014901344746656012 0 0.0024174174874180905 0.014386678568209696 0 0.0021999352773301741 0.015087755416158474 0 0.0021626888309536976 0.014901344746656012 0 0.0023471758531067024 0.014959877940301885 0 0.0021626888309536976 0.014901344746656012 0 0.0026746912617219743 0.014575613706291207 0 0.0024174174874180905 0.014386678568209696 0 0.0021626888309536976 0.014901344746656012 0 0.0023471758531067024 0.014959877940301885 0 0.0024795232457019314 0.014698901277319064 0 0.0021981516172493625 0.014883658427000658 0 0.0025657091774643178 0.014636368611913369 0 0.0025600863500160214 0.014893427683362354 0 0.0023471758531067024 0.014959877940301885 0 0.0024795232457019314 0.014698901277319064 0 0.0026746912617219743 0.014575613706291207 0 0.0024174174874180905 0.014386678568209696 0 0.0028350853903557007 0.014267856999979027 0 0.002686456754097052 0.0149434542214584 0 0.0027657223017683542 0.014934101315082778 0 0.0026291902920584529 0.015456752793014363 0 0.0020957743022599539 0.014019948219095784 0 0.0020440349213513404 0.014658128078597784 0 0.0024174174874180905 0.014386678568209696 0 0.0028086957698262188 0.014045232142474315 0 0.0022955162551054242 0.015137612832938558 0 0.002686456754097052 0.0149434542214584 0 0.0026291902920584529 0.015456752793014363 0 0.0023842214726749289 0.015205186674347301 0 0.0024525438598323387 0.01574068498989796 0 0.0026291902920584529 0.015456752793014363 0 0.002370869826259849 0.015649851766964977 0 0.0026291902920584529 0.015456752793014363 0 0.0023842214726749289 0.015205186674347301 0 0.002370869826259849 0.015649851766964977 0 0.0023842214726749289 0.015205186674347301 0 0.002370869826259849 0.015649851766964977 0 0.002230207172721565 0.015621864963401629 0 0.00587139672390905 0.011389915672401309 0 0.0062827398287077065 0.011578023058843485 0 0.0058591138662595285 0.012113040298927721 0 0.0042402534567567811 0.013573604401597484 0 0.0041283496322746284 0.01377886393180758 0 0.00587139672390905 0.011389915672401309 0 0.0058591138662595285 0.012113040298927721 0 0.0055946386860374351 0.01199031087361749 0 0.0081041481307039254 0.010106858133605684 0 0.0077208308791611897 0.010679801104545967 0 0.010315514130033008 0.0088805010660330721 0 0.010009957567480908 0.0089542034080013072 0 0.0099783767629310783 0.0091452797001073515 0 0.010009957567480908 0.0089542034080013072 0 0.0096573815441393998 0.009048436561206007 0 0.0099783767629310783 0.0091452797001073515 0 0.0098239320561472297 0.0088006143977838302 0 0.010009957567480908 0.0089542034080013072 0 0.0096573815441393998 0.009048436561206007 0 0.0096573815441393998 0.009048436561206007 0 0.0099783767629310783 0.0091452797001073515 0 0.0099022398251716291 0.0093491175938038556 0 0.0058591138662595285 0.012113040298927721 0 0.0055946386860374351 0.01199031087361749 0 0.0054584310123946831 0.012646675901133249 0 0.010177879113858253 0.0092292340831782935 0 0.010176121915116685 0.0090944608597417244 0 0.0098239320561472297 0.0088006143977838302 0 0.0096573815441393998 0.009048436561206007 0 0.0094202170394178681 0.0090820827128086715 0 0.0096573815441393998 0.009048436561206007 0 0.0094202170394178681 0.0090820827128086715 0 0.0092830275711347256 0.0090495531131223415 0 0.0096573815441393998 0.009048436561206007 0 0.0092830275711347256 0.0090495531131223415 0 0.0099022398251716291 0.0093491175938038556 0 0.0093687968280283373 0.0090344735177287951 0 0.0094202170394178681 0.0090820827128086715 0 0.0092830275711347256 0.0090495531131223415 0 0.0093687968280283373 0.0090344735177287951 0 0.0084315064991853268 0.0088879359272109413 0 0.0092830275711347256 0.0090495531131223415 0 0.0092830275711347256 0.0090495531131223415 0 0.0089766311538071325 0.0096657259238458349 0 0.0099022398251716291 0.0093491175938038556 0 0.0089766311538071325 0.0096657259238458349 0 0.0099022398251716291 0.0093491175938038556 0 0.0098191939145879804 0.010411255559547663 0 0.0084315064991853268 0.0088879359272109413 0 0.0089766311538071325 0.0096657259238458349 0 0.0076716037511315059 0.010712006385493023 0 0.0084315064991853268 0.0088879359272109413 0 0.0092830275711347256 0.0090495531131223415 0 0.0089766311538071325 0.0096657259238458349 0 0.0041283496322746284 0.01377886393180758 0 0.0036630404985055027 0.014437864019206227 0 0.0077208308791611897 0.010679801104545967 0 0.0080245016169850913 0.010479526249195573 0 0.0022858548573057862 0.015785149485378267 0 0.002230207172721565 0.015621864963401629 0 0.0023529586318829622 0.015868742059027302 0 0.0055946386860374351 0.01199031087361749 0 0.0054584310123946831 0.012646675901133249 0 0.0053212944475200703 0.012584605599861579 0 0.0080245016169850913 0.010479526249195573 0 0.0051381801511821285 0.01391401943439155 0 0.0054584310123946831 0.012646675901133249 0 0.0053212944475200703 0.012584605599861579 0 0.0050397828193662784 0.013239722041971777 0 0.0036630404985055027 0.014437864019206227 0 0.0051381801511821285 0.01391401943439155 0 0.0022858548573057862 0.015785149485378267 0 0.0022559991451953729 0.015807073977533805 0 0.0023529586318829622 0.015868742059027302 0 0.0022559991451953729 0.015807073977533805 0 0.0023529586318829622 0.015868742059027302 0 0.0023466135512045937 0.015769475228374488 0 0.0023529586318829622 0.015868742059027302 0 0.0023466135512045937 0.015769475228374488 0 0.0026694292005582194 0.015894499981809342 0 0.0023466135512045937 0.015769475228374488 0 0.0024932511666209806 0.015609198063212513 0 0.0026694292005582194 0.015894499981809342 0 0.0024932511666209806 0.015609198063212513 0 0.0026694292005582194 0.015894499981809342 0 0.0028313041202325771 0.015575384545144528 0 0.0023466135512045937 0.015769475228374488 0 0.0024932511666209806 0.015609198063212513 0 0.0021874024472128641 0.015480914126693595 0 0.0089766311538071325 0.0096657259238458349 0 0.0076716037511315059 0.010712006385493023 0 0.0084255897714045555 0.011086184861564584 0 0.0076716037511315059 0.010712006385493023 0 0.0084255897714045555 0.011086184861564584 0 0.007360037229278916 0.011918644202192675 0 0.0089766311538071325 0.0096657259238458349 0 0.0084255897714045555 0.011086184861564584 0 0.0098191939145879804 0.010411255559547663 0 0.0084255897714045555 0.011086184861564584 0 0.0098191939145879804 0.010411255559547663 0 0.0083267128737263586 0.012910605402824552 0 0.0051381801511821285 0.01391401943439155 0 0.002347297914547259 0.016762873903308786 0 0.0026694292005582194 0.015894499981809342 0 0.0032189125776767853 0.015731854171565935 0 0.0028313041202325771 0.015575384545144528 0 0.0030255582917047747 0.016381064396883527 0 0.0033655513004083623 0.015921086240533695 0 0.0032189125776767853 0.015731854171565935 0 0.0051381801511821285 0.01391401943439155 0 0.0060458490194329334 0.014197796352042982 0 0.0084255897714045555 0.011086184861564584 0 0.0083267128737263586 0.012910605402824552 0 0.007360037229278916 0.011918644202192675 0 0.005808956913056133 0.013052157397422185 0 0.0083267128737263586 0.012910605402824552 0 0.007360037229278916 0.011918644202192675 0 0.005808956913056133 0.013052157397422185 0 0.0046566188750118776 0.01506400284178195 0 0.0083267128737263586 0.012910605402824552 0 0.0047545031134823192 0.015069378135412792 0 0.0060458490194329334 0.014197796352042982 0 0.0046566188750118776 0.01506400284178195 0 0.0033655513004083623 0.015921086240533695 0 0.0035492353123640573 0.015480804118726915 0 0.0046566188750118776 0.01506400284178195 0 0.0035492353123640573 0.015480804118726915 0 0.0034867681213344563 0.015243835037806597 0 0.0033655513004083623 0.015921086240533695 0 0.0035492353123640573 0.015480804118726915 0 0.0032189125776767853 0.015731854171565935 0 0.0035492353123640573 0.015480804118726915 0 0.0032053478035108775 0.015443159578017765 0 0.0032189125776767853 0.015731854171565935 0 0.0035492353123640573 0.015480804118726915 0 0.0032053478035108775 0.015443159578017765 0 0.0034867681213344563 0.015243835037806597 0 0.0032053478035108775 0.015443159578017765 0 0.0030212888799062212 0.015257049768532677 0 0.0034867681213344563 0.015243835037806597 0 0.0032053478035108775 0.015443159578017765 0 0.0032189125776767853 0.015731854171565935 0 0.0028313041202325771 0.015575384545144528 0 0.0032053478035108775 0.015443159578017765 0 0.0028313041202325771 0.015575384545144528 0 0.0030212888799062212 0.015257049768532677 0 0.0030212888799062212 0.015257049768532677 0 0.0034227733501371259 0.014999180414499366 0 0.0025754492271189474 0.015000096988652343 0 0.0030212888799062212 0.015257049768532677 0 0.0034867681213344563 0.015243835037806597 0 0.0034227733501371259 0.014999180414499366 0 0.0046566188750118776 0.01506400284178195 0 0.0034867681213344563 0.015243835037806597 0 0.0034227733501371259 0.014999180414499366 0 0.0024932511666209806 0.015609198063212513 0 0.0023612596620942632 0.01544383187045386 0 0.0021874024472128641 0.015480914126693595 0 0.0023612596620942632 0.01544383187045386 0 0.002216140620874153 0.015265320724258589 0 0.0021874024472128641 0.015480914126693595 0 0.0023612596620942632 0.01544383187045386 0 0.0025670448797173269 0.0153791766458492 0 0.002216140620874153 0.015265320724258589 0 0.0028313041202325771 0.015575384545144528 0 0.0030212888799062212 0.015257049768532677 0 0.0025670448797173269 0.0153791766458492 0 0.0024932511666209806 0.015609198063212513 0 0.0023612596620942632 0.01544383187045386 0 0.0025670448797173269 0.0153791766458492 0 0.0024932511666209806 0.015609198063212513 0 0.0028313041202325771 0.015575384545144528 0 0.0025670448797173269 0.0153791766458492 0 0.0025670448797173269 0.0153791766458492 0 0.0025754492271189474 0.015000096988652343 0 0.002216140620874153 0.015265320724258589 0 0.0030212888799062212 0.015257049768532677 0 0.0025670448797173269 0.0153791766458492 0 0.0025754492271189474 0.015000096988652343 0 0.0025754492271189474 0.015000096988652343 0 0.002216140620874153 0.015265320724258589 0 0.0017289710728744393 0.01499987979560524 0 0.002216140620874153 0.015265320724258589 0 0.0014715639526648189 0.015393903169109923 0 0.0017289710728744393 0.01499987979560524 0 0.0021655361844863403 0.0152664194387636 0 0.0017106196692312249 0.015292953742446033 0 0.0014715639526648189 0.015393903169109923 0 0.00081448640581563078 0.015458801131026104 0 0.00088198377273258292 0.015000063108136494 0 0.0017106196692312249 0.015292953742446033 0 0.001154659163148971 0.015381206133532813 0 0.0014715639526648189 0.015393903169109923 0 0.0017289710728744393 0.01499987979560524 0 0.00088198377273258292 0.015000063108136494 0 0.0019366828737804641 0.015202251476815745 0 0.0017741135519832581 0.015400190038951593 0 0.0015357538847549973 0.015192669564116868 0 0.0019366828737804641 0.015202251476815745 0 0.0017741135519832581 0.015400190038951593 0 0.0021874024472128641 0.015480914126693595 0 0.002216140620874153 0.015265320724258589 0 0.0019366828737804641 0.015202251476815745 0 0.0021874024472128641 0.015480914126693595 0 0.0023466135512045937 0.015769475228374488 0 0.0021874024472128641 0.015480914126693595 0 0.0020629862904963524 0.01563247584454816 0 0.0017741135519832581 0.015400190038951593 0 0.0021874024472128641 0.015480914126693595 0 0.0020629862904963524 0.01563247584454816 0 0.0017741135519832581 0.015400190038951593 0 0.0015087415199762995 0.015586198142759985 0 0.0014626957542608781 0.015483088583894376 0 0.0017741135519832581 0.015400190038951593 0 0.0020629862904963524 0.01563247584454816 0 0.0015087415199762995 0.015586198142759985 0 0.0022559991451953729 0.015807073977533805 0 0.0020629862904963524 0.01563247584454816 0 0.0022721265499306667 0.015801526082772199 0 0.0020629862904963524 0.01563247584454816 0 0.0015087415199762995 0.015586198142759985 0 0.0014592169123996187 0.016125257387691598 0 0.0020813119220123347 0.015732553115662649 0 0.0017852795545442422 0.015674386210565321 0 0.0014374551333079422 0.015598178284585635 0 0.0017852795545442422 0.015674386210565321 0 0.0022559991451953729 0.015807073977533805 0 0.0023466135512045937 0.015769475228374488 0 0.0020629862904963524 0.01563247584454816 0 0.001341813596517552 0.015223916272534371 0 0.0014087608177992342 0.015318055603640801 0 0.0013927165416054907 0.015445238478812786 0 0.0014087608177992342 0.015318055603640801 0 0.0013927165416054907 0.015445238478812786 0 0.0014049029987904548 0.015429719688499745 0 0.0015087415199762995 0.015586198142759985 0 0.0012641180064258445 0.015307780311601208 0 0.0013927165416054907 0.015445238478812786 0 0.001341813596517552 0.015223916272534371 0 0.0012641180064258445 0.015307780311601208 0 0.0013927165416054907 0.015445238478812786 0 0.0014003205382631106 0.015463042044959805 0 0.0014200088255974083 0.015448400896060061 0 0.0015087415199762995 0.015586198142759985 0 0.0013927165416054907 0.015445238478812786 0 0.0014626957542608781 0.015483088583894376 0 0.0013927165416054907 0.015445238478812786 0 0.0013782072204788155 0.015450531455986105 0 0.0014049029987904548 0.015429719688499745 0 0.0013782072204788155 0.015450531455986105 0 0.0014049029987904548 0.015429719688499745 0 0.0014005010385439347 0.015462869750366667 0 0.0014049029987904548 0.015429719688499745 0 0.0014400444556986363 0.015462961304713696 0 0.001501153640834393 0.015407230662816691 0 0.0014087608177992342 0.015318055603640801 0 0.0014049029987904548 0.015429719688499745 0 0.001501153640834393 0.015407230662816691 0 0.0014049029987904548 0.015429719688499745 0 0.0014400444556986363 0.015462961304713696 0 0.0014005010385439347 0.015462869750366667 0 0.0014400444556986363 0.015462961304713696 0 0.0014005010385439347 0.015462869750366667 0 0.0014147333379626946 0.015496997844531048 0 0.0017741135519832581 0.015400190038951593 0 0.0014626957542608781 0.015483088583894376 0 0.0015357538847549973 0.015192669564116868 0 0.0013782072204788155 0.015450531455986105 0 0.0014005010385439347 0.015462869750366667 0 0.0013636290862147511 0.015496660360300948 0 0.00083851403011418876 0.015519714710048852 0 0.001154659163148971 0.015381206133532813 0 0.0014200088255974083 0.015448400896060061 0 0.001154659163148971 0.015381206133532813 0 0.0014005010385439347 0.015462869750366667 0 0.0014147333379626946 0.015496997844531048 0 0.0013636290862147511 0.015496660360300948 0 0.00053867221763206224 0.015249617516324657 0 0.00088207452267859013 0.014999998002454216 0 0.0002627247237342946 0.014999998361370932 0 0.00024867523495057295 0.015514529148427872 0 0.00081300282847331475 0.015456757690359086 0 0.00053867221763206224 0.015249617516324657 0 0.00081300282847331475 0.015456757690359086 0 0.00053867221763206224 0.015249617516324657 0 0.00088207452267859013 0.014999998002454216 0 0.001154659163148971 0.015381206133532813 0 0.0008820811346295852 0.015000242521967438 0 0.00024867523495057295 0.015514529148427872 0 0.00053867221763206224 0.015249617516324657 0 0.0002627247237342946 0.014999998361370932 0 0.00024867523495057295 0.015514529148427872 0 0.0002627247237342946 0.014999998361370932 0 -3.9517903705943182e-05 0.015271732435628198 0 0.0002627247237342946 0.014999998361370932 0 -0.00035661484345147408 0.014999997218889149 0 -3.9517903705943182e-05 0.015271732435628198 0 0.00024867523495057295 0.015514529148427872 0 -3.9517903705943182e-05 0.015271732435628198 0 -0.0003119425885405061 0.015570385820518012 0 -0.00035664985975725493 0.014999984952720778 0 -0.00066192399461031709 0.015303243148004386 0 -0.00032204147477849925 0.015563330948629359 0 -0.0003566933708533844 0.015000540550114587 0 0.00044239635190074786 0.015137883050854086 0 -0.00035661484345147408 0.014999997218889149 0 -3.9517903705943182e-05 0.015271732435628198 0 -0.0003119425885405061 0.015570385820518012 0 -0.00035664985975725493 0.014999984952720778 0 -0.00087248234439330267 0.015208963815984236 0 -0.0011355798293373864 0.014999992313762318 0 -0.00035664985975725493 0.014999984952720778 0 -0.00087248234439330267 0.015208963815984236 0 -0.00066192399461031709 0.015303243148004386 0 -0.00066192399461031709 0.015303243148004386 0 -0.00032204147477849925 0.015563330948629359 0 -0.00099243231060157215 0.015442692030806464 0 -0.00087248234439330267 0.015208963815984236 0 -0.00066192399461031709 0.015303243148004386 0 -0.00099243231060157215 0.015442692030806464 0 -0.00032204147477849925 0.015563330948629359 0 -0.00099243231060157215 0.015442692030806464 0 -0.0011739981173564797 0.015642596792992333 0 0.00044239635190074786 0.015137883050854086 0 -0.00056783403458854841 0.014284500651477901 0 0.0010196972539318256 0.013998213875368077 0 0.00076814531921885212 0.014016272512562811 0 0.00091586270043545641 0.01411744852025113 0 0.00083851403011418876 0.015519714710048852 0 0.00044239635190074786 0.015137883050854086 0 0.00044239635190074786 0.015137883050854086 0 0.0013423222697542783 0.014717776347690843 0 0.0014400444556986363 0.015462961304713696 0 0.0014147333379626946 0.015496997844531048 0 0.0014794408333380666 0.015495678059117841 0 0.0014400444556986363 0.015462961304713696 0 0.0014794408333380666 0.015495678059117841 0 0.001501153640834393 0.015407230662816691 0 -0.0018593574824111948 0.01532198204211411 0 -0.0014984483313484514 0.015203433538872749 0 -0.0018846377017237988 0.015719900580513656 0 -0.0014984483313484514 0.015203433538872749 0 -0.0011355798293373864 0.014999992313762318 0 -0.0019145711128800711 0.014999986991105009 0 -0.0018593574824111948 0.01532198204211411 0 -0.0014984483313484514 0.015203433538872749 0 -0.0019145711128800711 0.014999986991105009 0 -0.0014984483313484514 0.015203433538872749 0 -0.0012132146460517711 0.015296683819808053 0 -0.0013621111963117547 0.015484956997744551 0 -0.0012132146460517711 0.015296683819808053 0 -0.0012059369286740219 0.015457463052330525 0 -0.0013621111963117547 0.015484956997744551 0 -0.0014984483313484514 0.015203433538872749 0 -0.0012132146460517711 0.015296683819808053 0 -0.0011355798293373864 0.014999992313762318 0 -0.00087248234439330267 0.015208963815984236 0 -0.0012132146460517711 0.015296683819808053 0 -0.0011355798293373864 0.014999992313762318 0 -0.00087248234439330267 0.015208963815984236 0 -0.0012132146460517711 0.015296683819808053 0 -0.00099243231060157215 0.015442692030806464 0 -0.0012132146460517711 0.015296683819808053 0 -0.00099243231060157215 0.015442692030806464 0 -0.0012059369286740219 0.015457463052330525 0 -0.00099243231060157215 0.015442692030806464 0 -0.0011739981173564797 0.015642596792992333 0 -0.0012059369286740219 0.015457463052330525 0 -0.0011739981173564797 0.015642596792992333 0 -0.0012059369286740219 0.015457463052330525 0 -0.0013621111963117547 0.015484956997744551 0 -0.00056783403458854841 0.014284500651477901 0 -0.0016056527201485046 0.014806074413992681 0 -0.001071916456035673 0.01379530633476435 0 -0.0010777488030878153 0.013789997999812424 0 -0.0010802175102454601 0.013794375610098603 0 -0.0011739981173564797 0.015642596792992333 0 -0.0013621111963117547 0.015484956997744551 0 -0.0018489560560540433 0.015699041539776856 0 -0.0016908437431590471 0.015546066815428698 0 -0.0016056527201485046 0.014806074413992681 0 -0.0014984483313484514 0.015203433538872749 0 -0.0013621111963117547 0.015484956997744551 0 -0.0018489560560540433 0.015699041539776856 0 0.00076814531921885212 0.014016272512562811 0 0.00080045994879301443 0.014209658680683168 0 0.00091586270043545641 0.01411744852025113 0 -0.00056783403458854841 0.014284500651477901 0 -0.00014456946358644537 0.01389540730070658 0 -0.001071916456035673 0.01379530633476435 0 -0.0010777488030878153 0.013789997999812424 0 -0.0010696589828053139 0.013791904489835373 0 -0.0010777488030878153 0.013789997999812424 0 -0.0010696589828053139 0.013791904489835373 0 -0.0010728082641257614 0.013791055570190076 0 -0.00014456946358644537 0.01389540730070658 0 0.00031743835415704296 0.01426570260802275 0 0.00080045994879301443 0.014209658680683168 0 0.00086129709370852436 0.014386961822508338 0 0.00082747536460413002 0.014431813296988578 0 -0.0010696589828053139 0.013791904489835373 0 -0.0010728082641257614 0.013791055570190076 0 -0.0010638744403608262 0.013794121141691923 0 -0.0010777488030878153 0.013789997999812424 0 -0.0010728082641257614 0.013791055570190076 0 -0.0010792040743900233 0.013789031659915739 0 0.0010196972539318256 0.013998213875368077 0 0.0010462303742125537 0.01418764973289648 0 0.00091586270043545641 0.01411744852025113 0 0.0010462303742125537 0.01418764973289648 0 0.00091586270043545641 0.01411744852025113 0 0.00097243127530532308 0.014282507323075106 0 0.00080045994879301443 0.014209658680683168 0 0.00091586270043545641 0.01411744852025113 0 0.00097243127530532308 0.014282507323075106 0 0.00080045994879301443 0.014209658680683168 0 0.00097243127530532308 0.014282507323075106 0 0.00086129709370852436 0.014386961822508338 0 0.00097243127530532308 0.014282507323075106 0 0.00095887821298647332 0.014377928194185626 0 0.00086129709370852436 0.014386961822508338 0 0.00097243127530532308 0.014282507323075106 0 0.0011110011703671404 0.014372277327441849 0 0.00095887821298647332 0.014377928194185626 0 0.0013423222697542783 0.014717776347690843 0 0.0012985338371781455 0.014812366705501937 0 0.0010462303742125537 0.01418764973289648 0 0.00097243127530532308 0.014282507323075106 0 0.0011110011703671404 0.014372277327441849 0 0.0014087608177992342 0.015318055603640801 0 0.001501153640834393 0.015407230662816691 0 0.0015115790507827021 0.015195388337884079 0 0.0012985338371781455 0.014812366705501937 0 0.0012926878166535196 0.014818434842446849 0 0.0013480784357633969 0.015047945989037199 0 0.0015115790507827021 0.015195388337884079 0 0.0012828519278147959 0.014804782282508784 0 0.0011110011703671404 0.014372277327441849 0 0.0012828519278147959 0.014804782282508784 0 0.00095237800093812201 0.01461281265018053 0 0.0011120482091530762 0.014781157526120022 0 0.0012828519278147959 0.014804782282508784 0 0.00095237800093812201 0.01461281265018053 0 0.0011120482091530762 0.014781157526120022 0 0.0012828519278147959 0.014804782282508784 0 0.0011479909344829819 0.014868125292443192 0 0.00031743835415704296 0.01426570260802275 0 0.00079809580928440313 0.014595396953564278 0 0.00095237800093812201 0.01461281265018053 0 0.00083321309292960918 0.014453999280470978 0 0.00066640970526729972 0.014528638026360299 0 0.00094334264628165754 0.014590295870038725 0 0.00084763052591718539 0.014650494006314794 0 0.0011120482091530762 0.014781157526120022 0 0.00095237800093812201 0.01461281265018053 0 0.0010815507952349338 0.014842612226555429 0 0.0011110011703671404 0.014372277327441849 0 0.00095237800093812201 0.01461281265018053 0 0.00093322710878516893 0.014486478742181261 0 0.00095237800093812201 0.01461281265018053 0 0.00093322710878516893 0.014486478742181261 0 0.00083321309292960918 0.014453999280470978 0 0.0011110011703671404 0.014372277327441849 0 0.00093322710878516893 0.014486478742181261 0 0.00095887821298647332 0.014377928194185626 0 0.00093322710878516893 0.014486478742181261 0 0.00095887821298647332 0.014377928194185626 0 0.00089635914993888162 0.014427245821756063 0 0.00095887821298647332 0.014377928194185626 0 0.00089635914993888162 0.014427245821756063 0 0.00086129709370852436 0.014386961822508338 0 0.00093322710878516893 0.014486478742181261 0 0.00089635914993888162 0.014427245821756063 0 0.00083321309292960918 0.014453999280470978 0 0.00089635914993888162 0.014427245821756063 0 0.00086129709370852436 0.014386961822508338 0 0.00083321309292960918 0.014453999280470978 0 0.00051246485630408983 0.014232564547893931 0 0.00031743835415704296 0.01426570260802275 0 -0.0010728082641257614 0.013791055570190076 0 -0.0010638744403608262 0.013794121141691923 0 -0.0010735232262966976 0.013791877629130835 0 -0.0010638744403608262 0.013794121141691923 0 -0.0010735232262966976 0.013791877629130835 0 -0.0010712836890364385 0.013794892857999837 0 0.00031743835415704296 0.01426570260802275 0 -0.00031433158639326619 0.014117265606964285 0 -0.0010792040743900233 0.013789031659915739 0 -0.0010735232262966976 0.013791877629130835 0 -0.0010803730720738661 0.013791131478899921 0 -0.0010728082641257614 0.013791055570190076 0 -0.0010792040743900233 0.013789031659915739 0 -0.0010735232262966976 0.013791877629130835 0 -0.0010803730720738661 0.013791131478899921 0 -0.0010712836890364385 0.013794892857999837 0 -0.0010783840783844144 0.013794850396133257 0 -0.0010735232262966976 0.013791877629130835 0 -0.0010803730720738661 0.013791131478899921 0 -0.0010712836890364385 0.013794892857999837 0 0.00061594587612022955 0.014321746049625482 0 0.00056527798106986423 0.014456766941855855 0 0.00059059100864181948 0.014470299617006977 0 0.00061594587612022955 0.014321746049625482 0 0.00059059100864181948 0.014470299617006977 0 0.00066640970526729972 0.014528638026360299 0 0.00058268844215853682 0.01445241693334769 0 0.00045601791291085604 0.014197957083060455 0 0.00060957126879699285 0.014501283752399868 0 0.00056527798106986423 0.014456766941855855 0 0.00059059100864181948 0.014470299617006977 0 0.00056168950645200889 0.014398124326139634 0 0.00059059100864181948 0.014470299617006977 0 0.00058268844215853682 0.01445241693334769 0 0.00066640970526729972 0.014528638026360299 0 0.00059059100864181948 0.014470299617006977 0 0.00056168950645200889 0.014398124326139634 0 0.00058268844215853682 0.01445241693334769 0 0.00056527798106986423 0.014456766941855855 0 0.00056168950645200889 0.014398124326139634 0 0.00063733658348157389 0.014367077682354403 0 -0.00031433158639326619 0.014117265606964285 0 -0.00018660521166078919 0.014073220049594461 0 0.00051740992104001848 0.014205015187110539 0 0.00045601791291085604 0.014197957083060455 0 0.00041910399125883949 0.013930875889025016 0 0.00063733658348157389 0.014367077682354403 0 0.00051740992104001848 0.014205015187110539 0 0.0008225396378440282 0.014083463820024657 0 0.00056168950645200889 0.014398124326139634 0 0.00063733658348157389 0.014367077682354403 0 0.00051740992104001848 0.014205015187110539 0 0.00056168950645200889 0.014398124326139634 0 0.00058268844215853682 0.01445241693334769 0 0.00045601791291085604 0.014197957083060455 0 0.00076358201409194566 0.014627875025358289 0 0.00084763052591718539 0.014650494006314794 0 0.00056168950645200889 0.014398124326139634 0 0.00051740992104001848 0.014205015187110539 0 0.00045601791291085604 0.014197957083060455 0 0.0010854277251847867 0.014934777446428463 0 0.0010463993762110109 0.014902747269009756 0 0.0010883446506553215 0.014917696539415718 0 0.0010854277251847867 0.014934777446428463 0 0.0011028439289110154 0.014952963634607954 0 0.0010883446506553215 0.014917696539415718 0 0.0025657091774643178 0.014636368611913369 0 0.0030003140768788037 0.014390559695394 0 0.0025600863500160214 0.014893427683362354 0 0.0024795232457019314 0.014698901277319064 0 0.0027990098669321423 0.014588350631010714 0 0.0024795232457019314 0.014698901277319064 0 0.0027990098669321423 0.014588350631010714 0 0.0027601118670865688 0.014489565573870678 0 0.0026746912617219743 0.014575613706291207 0 0.0031742743728629549 0.01422209815067961 0 0.0028350853903557007 0.014267856999979027 0 0.0012724554283561149 0.014846445347435426 0 0.0011028439289110154 0.014952963634607954 0 0.0011479909344829819 0.014868125292443192 0 0.0019605490838152965 0.014829452289758285 0 0.0017456039951240225 0.014988273311207953 0 0.0012724554283561149 0.014846445347435426 0 0.0012828519278147959 0.014804782282508784 0 0.0011479909344829819 0.014868125292443192 0 0.0011120482091530762 0.014781157526120022 0 0.0011479909344829819 0.014868125292443192 0 0.0010815507952349338 0.014842612226555429 0 0.0011028439289110154 0.014952963634607954 0 0.0011479909344829819 0.014868125292443192 0 0.0010883446506553215 0.014917696539415718 0 0.00095237800093812201 0.01461281265018053 0 0.0010815507952349338 0.014842612226555429 0 0.0010463993762110109 0.014902747269009756 0 0.00095237800093812201 0.01461281265018053 0 0.00066640970526729972 0.014528638026360299 0 0.00060957126879699285 0.014501283752399868 0 0.00058268844215853682 0.01445241693334769 0 0.00066640970526729972 0.014528638026360299 0 0.00060957126879699285 0.014501283752399868 0 0.0011479909344829819 0.014868125292443192 0 0.0010815507952349338 0.014842612226555429 0 0.0010883446506553215 0.014917696539415718 0 0.0010815507952349338 0.014842612226555429 0 0.0010463993762110109 0.014902747269009756 0 0.0010883446506553215 0.014917696539415718 0 -0.0011053706947706527 0.013785451171031629 0 -0.0010966106083558668 0.013779861658757284 0 -0.0010948168750779172 0.01376133767209416 0 -0.00095667138375043939 0.013749282237299345 0 -0.0010193818146718931 0.013742185769488564 0 -0.0010966106083558668 0.013779861658757284 0 -0.0010948168750779172 0.01376133767209416 0 -0.0010238820825687256 0.013746675596902729 0 -0.00086716380983454936 0.013716550192747468 0 -0.00095752469217165014 0.013797218077629922 0 -0.00079522312512857911 0.013803343568921668 0 -0.00086716380983454936 0.013716550192747468 0 -0.00070889496269798172 0.013725804600319167 0 -0.00079522312512857911 0.013803343568921668 0 -0.00095667138375043939 0.013749282237299345 0 -0.00099222747053572067 0.013729717211526358 0 -0.0011053706947706527 0.013785451171031629 0 -0.0010948168750779172 0.01376133767209416 0 -0.0010990119968342219 0.013786822125804257 0 -0.00099222747053572067 0.013729717211526358 0 -0.00034824102821432308 0.013886977679768552 0 -0.0010990119968342219 0.013786822125804257 0 -0.0010913691606814313 0.013790958507830157 0 -0.0010838721140542787 0.013798711953242658 0 -0.0010783840783844144 0.013794850396133257 0 -0.0010913691606814313 0.013790958507830157 0 -0.0010838721140542787 0.013798711953242658 0 -0.00018660521166078919 0.014073220049594461 0 -0.00034824102821432308 0.013886977679768552 0 -0.0010783840783844144 0.013794850396133257 0 -0.0010913691606814313 0.013790958507830157 0 -0.001090851605886259 0.013790253184832532 0 -0.0011053706947706527 0.013785451171031629 0 -0.0010990119968342219 0.013786822125804257 0 -0.0010913691606814313 0.013790958507830157 0 -0.0011053706947706527 0.013785451171031629 0 -0.0010913691606814313 0.013790958507830157 0 -0.001090851605886259 0.013790253184832532 0 -0.0011053706947706527 0.013785451171031629 0 -0.001090851605886259 0.013790253184832532 0 -0.0011221307062211302 0.013790402152309466 0 -0.001090851605886259 0.013790253184832532 0 -0.0010899430943136009 0.013786593970622426 0 -0.0011221307062211302 0.013790402152309466 0 -0.0010803730720738661 0.013791131478899921 0 -0.001090851605886259 0.013790253184832532 0 -0.0010899430943136009 0.013786593970622426 0 -0.0010803730720738661 0.013791131478899921 0 -0.0010783840783844144 0.013794850396133257 0 -0.001090851605886259 0.013790253184832532 0 -0.0010792040743900233 0.013789031659915739 0 -0.0010803730720738661 0.013791131478899921 0 -0.0010899430943136009 0.013786593970622426 0 -0.0010792040743900233 0.013789031659915739 0 -0.0010899430943136009 0.013786593970622426 0 -0.0010859294499285512 0.013786072043512024 0 -0.0010978327742891243 0.013781942011568696 0 -0.0010899430943136009 0.013786593970622426 0 -0.0011221307062211302 0.013790402152309466 0 -0.0010978327742891243 0.013781942011568696 0 -0.0010899430943136009 0.013786593970622426 0 -0.0010859294499285512 0.013786072043512024 0 -0.001188636103286107 0.013846566663989958 0 -0.0011216122653096878 0.013779245722994386 0 -0.0012341834215625941 0.013834765456348177 0 -0.0011426338562157733 0.013843606974234935 0 -0.0011221307062211302 0.013790402152309466 0 -0.0011053706947706527 0.013785451171031629 0 -0.0010966106083558668 0.013779861658757284 0 -0.0011221307062211302 0.013790402152309466 0 -0.0011221307062211302 0.013790402152309466 0 -0.0011037472393806067 0.013834138999602171 0 -0.0010773009374527057 0.013796209359439478 0 -0.0010966106083558668 0.013779861658757284 0 -0.0011221307062211302 0.013790402152309466 0 -0.0010773009374527057 0.013796209359439478 0 -0.0011426338562157733 0.013843606974234935 0 -0.0011221307062211302 0.013790402152309466 0 -0.0011037472393806067 0.013834138999602171 0 -0.0011426338562157733 0.013843606974234935 0 -0.0011037472393806067 0.013834138999602171 0 -0.0011299219654461233 0.013885080302678984 0 -0.0011426338562157733 0.013843606974234935 0 -0.0011299219654461233 0.013885080302678984 0 -0.0011649972019281778 0.01389827910422105 0 -0.0012341834215625941 0.013834765456348177 0 -0.0011426338562157733 0.013843606974234935 0 -0.0011649972019281778 0.01389827910422105 0 -0.0012341834215625941 0.013834765456348177 0 -0.0011649972019281778 0.01389827910422105 0 -0.0012591082462868246 0.013998089664513089 0 -0.0011299219654461233 0.013885080302678984 0 -0.0011649972019281778 0.01389827910422105 0 -0.00115591427075135 0.013915772287474643 0 -0.00093768726492294045 0.013479447784319485 0 -0.0020702942757339781 0.015012384087477099 0 -0.0011649972019281778 0.01389827910422105 0 -0.0012591082462868246 0.013998089664513089 0 -0.0012036750603452821 0.014139609031217453 0 -0.0011649972019281778 0.01389827910422105 0 -0.00115591427075135 0.013915772287474643 0 -0.0011886796560657237 0.013946797744899472 0 -0.00115591427075135 0.013915772287474643 0 -0.001130293861354693 0.013924018844810794 0 -0.0011886796560657237 0.013946797744899472 0 -0.0011299219654461233 0.013885080302678984 0 -0.00115591427075135 0.013915772287474643 0 -0.001130293861354693 0.013924018844810794 0 -0.0010777488030878153 0.013789997999812424 0 -0.0010859294499285512 0.013786072043512024 0 -0.001084017116847345 0.013787263385808383 0 -0.0010777488030878153 0.013789997999812424 0 -0.0010792040743900233 0.013789031659915739 0 -0.0010859294499285512 0.013786072043512024 0 -0.0012341834215625941 0.013834765456348177 0 -0.0012591082462868246 0.013998089664513089 0 -0.001386609510315604 0.013985282439728828 0 -0.0010978327742891243 0.013781942011568696 0 -0.0010859294499285512 0.013786072043512024 0 -0.001084017116847345 0.013787263385808383 0 -0.001188636103286107 0.013846566663989958 0 -0.0011495266123295145 0.013732207305579589 0 -0.0012591082462868246 0.013998089664513089 0 -0.001386609510315604 0.013985282439728828 0 -0.0013642718980515082 0.01416203817745521 0 -0.0012591082462868246 0.013998089664513089 0 -0.0013642718980515082 0.01416203817745521 0 -0.0012036750603452821 0.014139609031217453 0 -0.001386609510315604 0.013985282439728828 0 -0.0015357501362195873 0.014185444897622343 0 -0.0013642718980515082 0.01416203817745521 0 -0.0011495266123295145 0.013732207305579589 0 -0.0016056527201485046 0.014806074413992681 0 -0.0010777488030878153 0.013789997999812424 0 -0.001084017116847345 0.013787263385808383 0 -0.0010802175102454601 0.013794375610098603 0 -0.0018846377017237988 0.015719900580513656 0 -0.0023749992054826951 0.015764973702560119 0 -0.0021386539847869485 0.01536389160466846 0 -0.0016056527201485046 0.014806074413992681 0 -0.0018816922478975622 0.014963689301106097 0 -0.0018593574824111948 0.01532198204211411 0 -0.0018846377017237988 0.015719900580513656 0 -0.0021386539847869485 0.01536389160466846 0 -0.0018816922478975622 0.014963689301106097 0 -0.0020702942757339781 0.015012384087477099 0 -0.0023749992054826951 0.015764973702560119 0 -0.0026934746479626765 0.014999995697234335 0 -0.0028547381634730388 0.015808947142924714 0 -0.0026942883002283977 0.015001687140728723 0 -0.0020702942757339781 0.015012384087477099 0 -0.0023749992054826951 0.015764973702560119 0 -0.0026934746479626765 0.014999995697234335 0 -0.0021386539847869485 0.01536389160466846 0 -0.0026934746479626765 0.014999995697234335 0 -0.0021386539847869485 0.01536389160466846 0 -0.0019145711128800711 0.014999986991105009 0 -0.0018593574824111948 0.01532198204211411 0 -0.0021386539847869485 0.01536389160466846 0 -0.0019145711128800711 0.014999986991105009 0 -0.0024522998625924643 0.014897501539729064 0 -0.0020702942757339781 0.015012384087477099 0 -0.0037129955026730934 0.015904744167728673 0 -0.0028827603969796894 0.01582094775340586 0 -0.0034945981246762734 0.014999991758420057 0 -0.0026935462371732808 0.014999986087971076 0 -0.0028827603969796894 0.01582094775340586 0 -0.0034945981246762734 0.014999991758420057 0 -0.0037129955026730934 0.015904744167728673 0 -0.0034945981246762734 0.014999991758420057 0 -0.004295682331598597 0.014999987842098763 0 -0.0037129955026730934 0.015904744167728673 0 -0.0045114937303336149 0.015519755116004025 0 -0.004295682331598597 0.014999987842098763 0 -0.0045114937303336149 0.015519755116004025 0 -0.0048662225464285317 0.015703672398521835 0 -0.0045428915406639176 0.015976107495291682 0 -0.0037129955026730934 0.015904744167728673 0 -0.0045114937303336149 0.015519755116004025 0 -0.0045428915406639176 0.015976107495291682 0 -0.0045114937303336149 0.015519755116004025 0 -0.004295682331598597 0.014999987842098763 0 -0.0050290705714807846 0.015277772423438616 0 -0.004295682331598597 0.014999987842098763 0 -0.0050290705714807846 0.015277772423438616 0 -0.0050967475248962163 0.014999988822371907 0 -0.0050967475248962163 0.014999988822371907 0 -0.0055766148906763579 0.015510033195174727 0 -0.0058978640529455091 0.014999987332791833 0 -0.0050290705714807846 0.015277772423438616 0 -0.0050967475248962163 0.014999988822371907 0 -0.0055766148906763579 0.015510033195174727 0 -0.0055293311671658811 0.015864068081740811 0 -0.0039996245894036182 0.014895377225465046 0 -0.0050290705714807846 0.015277772423438616 0 -0.0055766148906763579 0.015510033195174727 0 -0.0053968999829784132 0.01606676620361816 0 -0.0050290705714807846 0.015277772423438616 0 -0.0048662225464285317 0.015703672398521835 0 -0.0053238737696243025 0.016039742062705371 0 -0.0045114937303336149 0.015519755116004025 0 -0.0050290705714807846 0.015277772423438616 0 -0.0048662225464285317 0.015703672398521835 0 -0.0048662225464285317 0.015703672398521835 0 -0.0053238737696243025 0.016039742062705371 0 -0.0045428915406639176 0.015976107495291682 0 -0.0039996245894036182 0.014895377225465046 0 -0.0026428744783734606 0.014939250225579242 0 -0.0010839339055395594 0.013881492979262236 0 -0.0010752562175218507 0.013859566289830485 0 -0.0010973663778836987 0.01389452708879358 0 -0.0039996245894036182 0.014895377225465046 0 -0.0026156032303408902 0.013807427141927299 0 -0.0010752562175218507 0.013859566289830485 0 -0.0010669571084136954 0.013845150880298954 0 -0.0010570743725233421 0.013836821398899747 0 -0.0010839339055395594 0.013881492979262236 0 -0.0010752562175218507 0.013859566289830485 0 -0.0010669571084136954 0.013845150880298954 0 -0.0010752562175218507 0.013859566289830485 0 -0.001075000040289046 0.013847042158191611 0 -0.0010570743725233421 0.013836821398899747 0 -0.0010752562175218507 0.013859566289830485 0 -0.001075000040289046 0.013847042158191611 0 -0.0010973663778836987 0.01389452708879358 0 -0.001075000040289046 0.013847042158191611 0 -0.0010980996186740523 0.013871059363443043 0 -0.0010757320978697243 0.013822432185818712 0 -0.001075000040289046 0.013847042158191611 0 -0.0010980996186740523 0.013871059363443043 0 -0.0010973663778836987 0.01389452708879358 0 -0.0011037472393806067 0.013834138999602171 0 -0.0011299219654461233 0.013885080302678984 0 -0.0010980996186740523 0.013871059363443043 0 -0.0024522998625924643 0.014897501539729064 0 -0.0026428744783734606 0.014939250225579242 0 -0.001130293861354693 0.013924018844810794 0 -0.0010980996186740523 0.013871059363443043 0 -0.0010973663778836987 0.01389452708879358 0 -0.0011299219654461233 0.013885080302678984 0 -0.001130293861354693 0.013924018844810794 0 -0.0010980996186740523 0.013871059363443043 0 -0.0073217168327882479 0.015563769469756447 0 -0.0072309871602102907 0.015981550508277927 0 -0.0075673472752979783 0.015844558517860222 0 -0.0073217168327882479 0.015563769469756447 0 -0.0070212427030271153 0.015688471732039383 0 -0.0072309871602102907 0.015981550508277927 0 -0.0073217168327882479 0.015563769469756447 0 -0.0069929448675633381 0.015305758127681059 0 -0.0070212427030271153 0.015688471732039383 0 -0.0073217168327882479 0.015563769469756447 0 -0.007331705824322677 0.014999991145918642 0 -0.0069929448675633381 0.015305758127681059 0 -0.0073217168327882479 0.015563769469756447 0 -0.007331705824322677 0.014999991145918642 0 -0.0077916130060629663 0.015490708658486072 0 -0.0066989497790068903 0.014999935859618011 0 -0.0066756642551621453 0.015766608510492556 0 -0.0066988909687133837 0.014999995015480163 0 -0.0066540720750685707 0.015600336175012934 0 -0.0063632162294183945 0.015345117681586444 0 -0.007331705824322677 0.014999991145918642 0 -0.0066990004361437558 0.014999995748042699 0 -0.0069929448675633381 0.015305758127681059 0 -0.0066990004361437558 0.014999995748042699 0 -0.0069929448675633381 0.015305758127681059 0 -0.0067210293140800422 0.015594682948596249 0 -0.0066540720750685707 0.015600336175012934 0 -0.0065470906757308491 0.015843598637010403 0 -0.0066250860334458508 0.016149230450919431 0 -0.0066756642551621453 0.015766608510492556 0 -0.0068362053026837025 0.015230940813835527 0 -0.0069929448675633381 0.015305758127681059 0 -0.0067210293140800422 0.015594682948596249 0 -0.0070212427030271153 0.015688471732039383 0 -0.0067210293140800422 0.015594682948596249 0 -0.0070212427030271153 0.015688471732039383 0 -0.006882926496372622 0.015961715619464748 0 -0.0070212427030271153 0.015688471732039383 0 -0.006882926496372622 0.015961715619464748 0 -0.0072309871602102907 0.015981550508277927 0 -0.0062742586717043263 0.015883750558816124 0 -0.0060694047734841418 0.015584929905544125 0 -0.0059611946539599066 0.016119942296633657 0 -0.0066540720750685707 0.015600336175012934 0 -0.0065470906757308491 0.015843598637010403 0 -0.006369493242741121 0.015630392791894734 0 -0.0065470906757308491 0.015843598637010403 0 -0.0062742586717043263 0.015883750558816124 0 -0.006369493242741121 0.015630392791894734 0 -0.0062742586717043263 0.015883750558816124 0 -0.006369493242741121 0.015630392791894734 0 -0.0060694047734841418 0.015584929905544125 0 -0.006369493242741121 0.015630392791894734 0 -0.0063632162294183945 0.015345117681586444 0 -0.0060694047734841418 0.015584929905544125 0 -0.0066540720750685707 0.015600336175012934 0 -0.006369493242741121 0.015630392791894734 0 -0.0063632162294183945 0.015345117681586444 0 -0.0063632162294183945 0.015345117681586444 0 -0.0058978640529455091 0.014999987332791833 0 -0.0060694047734841418 0.015584929905544125 0 -0.0066988909687133837 0.014999995015480163 0 -0.0063632162294183945 0.015345117681586444 0 -0.0058978640529455091 0.014999987332791833 0 -0.0055766148906763579 0.015510033195174727 0 -0.0058978640529455091 0.014999987332791833 0 -0.0060694047734841418 0.015584929905544125 0 -0.0055766148906763579 0.015510033195174727 0 -0.0060694047734841418 0.015584929905544125 0 -0.0059611946539599066 0.016119942296633657 0 -0.0055766148906763579 0.015510033195174727 0 -0.0053968999829784132 0.01606676620361816 0 -0.0059611946539599066 0.016119942296633657 0 -0.0044964378505997667 0.014043629703612242 0 -0.0045959402321776996 0.014048776666979176 0 -0.0045402521404828066 0.014132585585144398 0 -0.0039996245894036182 0.014895377225465046 0 -0.0053916763987029203 0.015101438312758484 0 -0.0045959402321776996 0.014048776666979176 0 -0.0045402521404828066 0.014132585585144398 0 -0.0046312220536721916 0.014115445819257673 0 -0.0046312220536721916 0.014115445819257673 0 -0.004696315879563308 0.014059123762786948 0 -0.0046782524194833829 0.014170782929521399 0 -0.0059381456250991163 0.015051235372360196 0 -0.0058091746932352343 0.01339070445413521 0 -0.0065337040227610348 0.01504839792215746 0 -0.0062678434357163193 0.013435677349428115 0 -0.0066795434554521652 0.013156127765725152 0 -0.0053916763987029203 0.015101438312758484 0 -0.0059381456250991163 0.015051235372360196 0 -0.0062742586717043263 0.015883750558816124 0 -0.0059611946539599066 0.016119942296633657 0 -0.0065181083975208122 0.016168757240516342 0 -0.0045959402321776996 0.014048776666979176 0 -0.0046312220536721916 0.014115445819257673 0 -0.004696315879563308 0.014059123762786948 0 -0.0065470906757308491 0.015843598637010403 0 -0.0062742586717043263 0.015883750558816124 0 -0.0065181083975208122 0.016168757240516342 0 -0.0063177580648604787 0.016062474142277433 0 -0.0059381456250991163 0.015051235372360196 0 -0.0067210293140800422 0.015594682948596249 0 -0.006882926496372622 0.015961715619464748 0 -0.006725662075636585 0.016155542141431237 0 -0.0065470906757308491 0.015843598637010403 0 -0.0065182103148533586 0.016136576303997639 0 -0.0066250860334458508 0.016149230450919431 0 -0.0072868142975037716 0.015920869670313288 0 -0.0074618427469646115 0.015113406504444708 0 -0.006882926496372622 0.015961715619464748 0 -0.0069443938989398246 0.016193477081067442 0 -0.0072309871602102907 0.015981550508277927 0 -0.0074216960095018743 0.014402424460403332 0 -0.0078567124215783504 0.014449045778430347 0 -0.0072523548607565198 0.013700712698081903 0 -0.006882926496372622 0.015961715619464748 0 -0.0069377457735473828 0.016173745497771917 0 -0.006725662075636585 0.016155542141431237 0 -0.0074618427469646115 0.015113406504444708 0 -0.0068362053026837025 0.015230940813835527 0 -0.0059381456250991163 0.015051235372360196 0 -0.0068362053026837025 0.015230940813835527 0 -0.0068362053026837025 0.015230940813835527 0 -0.0074425136953936294 0.013033220603853651 0 -0.0078567124215783504 0.014449045778430347 0 -0.0072523548607565198 0.013700712698081903 0 -0.0078864177367317968 0.013269962568931096 0 -0.0065337040227610348 0.01504839792215746 0 -0.0062331520448390843 0.015016905401935357 0 -0.0062678434357163193 0.013435677349428115 0 -0.008893150078206952 0.012863060991439437 0 -0.0074425136953936294 0.013033220603853651 0 -0.0074618427469646115 0.015113406504444708 0 -0.008893150078206952 0.012863060991439437 0 -0.010295201041940602 0.012054155975069201 0 -0.01022449005175596 0.012106720446487454 0 -0.010218379329669944 0.01202055730402176 0 -0.0084046743046327366 0.014131090473027295 0 -0.008416808917581866 0.014162313271364694 0 -0.0084646604279769617 0.014136332179671026 0 -0.008893150078206952 0.012863060991439437 0 -0.0088969962261357151 0.014308210169891198 0 -0.0069443938989398246 0.016193477081067442 0 -0.0074931610691479971 0.016253020274127908 0 -0.0072309871602102907 0.015981550508277927 0 -0.0074618427469646115 0.015113406504444708 0 -0.0088969962261357151 0.014308210169891198 0 -0.0074931610691479971 0.016253020274127908 0 -0.0072309871602102907 0.015981550508277927 0 -0.0075673472752979783 0.015844558517860222 0 -0.0088210717503560757 0.012490861456090546 0 -0.0088428433703286076 0.012450111810001104 0 -0.0088185944907564935 0.012426202269385289 0 -0.010273755957011068 0.011938058053186987 0 -0.010226063225260533 0.011842362501416652 0 -0.010215354078542772 0.011928313219351899 0 -0.0095878573323903947 0.012125406051872342 0 -0.00951865544593271 0.012157294259091008 0 -0.010273755957011068 0.011938058053186987 0 -0.010218379329669944 0.01202055730402176 0 -0.010215354078542772 0.011928313219351899 0 -0.008893150078206952 0.012863060991439437 0 -0.0095878573323903947 0.012125406051872342 0 -0.010295201041940602 0.012054155975069201 0 -0.010273755957011068 0.011938058053186987 0 -0.010218379329669944 0.01202055730402176 0 -0.0069457044912528982 0.013219075888941584 0 -0.0069550075492264673 0.012873795159779331 0 -0.0070482844365805392 0.013148741710447644 0 -0.0074425136953936294 0.013033220603853651 0 -0.0079173700188129789 0.012680983306148832 0 -0.0088310801679624979 0.012566693400808857 0 -0.0088210717503560757 0.012490861456090546 0 -0.0088656929633005258 0.012541016883738409 0 -0.0088210717503560757 0.012490861456090546 0 -0.0088656929633005258 0.012541016883738409 0 -0.0088694221932368346 0.012479213053942772 0 -0.0074425136953936294 0.013033220603853651 0 -0.0058091746932352343 0.01339070445413521 0 -0.0069550075492264673 0.012873795159779331 0 -0.0070921398340905162 0.012624818575464066 0 -0.0069674714658094997 0.012528992046789717 0 -0.0079173700188129789 0.012680983306148832 0 -0.0081050195466422833 0.012295182877887228 0 -0.0088210717503560757 0.012490861456090546 0 -0.0088694221932368346 0.012479213053942772 0 -0.0088428433703286076 0.012450111810001104 0 -0.0088694221932368346 0.012479213053942772 0 -0.0088428433703286076 0.012450111810001104 0 -0.0088704351753970245 0.012426251110618439 0 -0.0069550075492264673 0.012873795159779331 0 -0.0070482844365805392 0.013148741710447644 0 -0.0070921398340905162 0.012624818575464066 0 -0.0058091746932352343 0.01339070445413521 0 -0.0057370084064576965 0.01281773342251535 0 -0.0049385613835656273 0.012939844113871406 0 -0.0046103301015659875 0.013333701565841906 0 -0.004888230858153683 0.013529516622909922 0 -0.0029087156892198805 0.013433439238857705 0 -0.0057370084064576965 0.01281773342251535 0 -0.0046312220536721916 0.014115445819257673 0 -0.0046782524194833829 0.014170782929521399 0 -0.0045809967391799971 0.014223993968809637 0 -0.0049385613835656273 0.012939844113871406 0 -0.0045470762373336316 0.013195156795745918 0 -0.0046103301015659875 0.013333701565841906 0 -0.0058091746932352343 0.01339070445413521 0 -0.0032533174994692484 0.013720812372951004 0 -0.0026156032303408902 0.013807427141927299 0 -0.0032533174994692484 0.013720812372951004 0 -0.0045402521404828066 0.014132585585144398 0 -0.0046312220536721916 0.014115445819257673 0 -0.0045809967391799971 0.014223993968809637 0 -0.0010669571084136954 0.013845150880298954 0 -0.0010888008480855601 0.013847033163300994 0 -0.0010570743725233421 0.013836821398899747 0 -0.0010842915400896406 0.013850101234667074 0 -0.0010888008480855601 0.013847033163300994 0 -0.0010570743725233421 0.013836821398899747 0 -0.0017049001401998453 0.013789276850584216 0 -0.00089758267334747333 0.013748152462616434 0 -0.0011841907207299958 0.013684309263523762 0 -0.0011451902646807438 0.013707742136892727 0 -0.0011549559689947254 0.013741054650066444 0 -0.0017049001401998453 0.013789276850584216 0 -0.0010029155822176357 0.013793785371895274 0 -0.0011621166021624596 0.013667876969652822 0 -0.0011841907207299958 0.013684309263523762 0 -0.0011451902646807438 0.013707742136892727 0 -0.0030250070912120602 0.013720043061138939 0 -0.0028676270153392522 0.013826747718390443 0 -0.002722505721531712 0.013495469993670017 0 -0.0017049001401998453 0.013789276850584216 0 -0.0032533174994692484 0.013720812372951004 0 -0.0032533174994692484 0.013720812372951004 0 -0.0029087156892198805 0.013433439238857705 0 -0.0017049001401998453 0.013789276850584216 0 -0.0029087156892198805 0.013433439238857705 0 -0.0011621166021624596 0.013667876969652822 0 -0.0011451902646807438 0.013707742136892727 0 -0.0011054076846283886 0.013705269269312913 0 -0.0011841907207299958 0.013684309263523762 0 -0.0011549559689947254 0.013741054650066444 0 -0.0012134802338724861 0.013757526323195072 0 -0.0011451902646807438 0.013707742136892727 0 -0.0011549559689947254 0.013741054650066444 0 -0.0011045023531139908 0.013753569873878858 0 -0.0011549559689947254 0.013741054650066444 0 -0.0011303952282206724 0.013793620684541277 0 -0.0012134802338724861 0.013757526323195072 0 -0.0011549559689947254 0.013741054650066444 0 -0.0011303952282206724 0.013793620684541277 0 -0.0011045023531139908 0.013753569873878858 0 -0.0065364775501447316 0.012573072125086701 0 -0.0065385436954902253 0.012572588609237897 0 -0.0065477529229916393 0.012571186331700486 0 -0.0011303952282206724 0.013793620684541277 0 -0.0012134802338724861 0.013757526323195072 0 -0.0011900596764930307 0.013829710767463074 0 -0.0039577253277776137 0.013066176647884566 0 -0.0028713801698264487 0.013402002163775982 0 -0.0039577253277776137 0.013066176647884566 0 -0.007634991111310014 0.01223453316891172 0 -0.0039010389678586425 0.013044060808656961 0 -0.0040194990663396692 0.013285216641438048 0 -0.0040301049453108371 0.013130046994775969 0 -0.0029087156892198805 0.013433439238857705 0 -0.0039577253277776137 0.013066176647884566 0 -0.0065364775501447316 0.012573072125086701 0 -0.0065336158606895765 0.01257377530714535 0 -0.0065385436954902253 0.012572588609237897 0 -0.0039577253277776137 0.013066176647884566 0 -0.0057370084064576965 0.01281773342251535 0 -0.0057370084064576965 0.01281773342251535 0 -0.0081050195466422833 0.012295182877887228 0 -0.0088428433703286076 0.012450111810001104 0 -0.0088704351753970245 0.012426251110618439 0 -0.0088410432507516675 0.012399329735210704 0 -0.0081050195466422833 0.012295182877887228 0 -0.0093872320685484609 0.012042353059909014 0 -0.0095296889455992913 0.011426243557206514 0 -0.0097627461563536081 0.011580968629911486 0 -0.0095340892039876887 0.011856893260515871 0 -0.0097627461563536081 0.011580968629911486 0 -0.00978708701653596 0.011796848799182672 0 -0.0095340892039876887 0.011856893260515871 0 -0.0081050195466422833 0.012295182877887228 0 -0.007634991111310014 0.01223453316891172 0 -0.0088410432507516675 0.012399329735210704 0 -0.0088175229457028194 0.012373814361940166 0 -0.0088185944907564935 0.012426202269385289 0 -0.0097627461563536081 0.011580968629911486 0 -0.00978708701653596 0.011796848799182672 0 -0.0099211135050577392 0.011762530389541968 0 -0.00978708701653596 0.011796848799182672 0 -0.0099211135050577392 0.011762530389541968 0 -0.0099465096875365182 0.011877862907754024 0 -0.0099211135050577392 0.011762530389541968 0 -0.010011658097081343 0.0117431666167266 0 -0.010014484419844321 0.011832367709483088 0 -0.0097627461563536081 0.011580968629911486 0 -0.0099211135050577392 0.011762530389541968 0 -0.010011658097081343 0.0117431666167266 0 -0.0093872320685484609 0.012042353059909014 0 -0.0095024982712845138 0.0120890664521067 0 -0.0088428433703286076 0.012450111810001104 0 -0.0088410432507516675 0.012399329735210704 0 -0.0088185944907564935 0.012426202269385289 0 -0.010148551577808994 0.011818177530677983 0 -0.010226063225260533 0.011842362501416652 0 -0.01018753657992821 0.011827995651876215 0 -0.0095024982712845138 0.0120890664521067 0 -0.00951865544593271 0.012157294259091008 0 -0.0010522218261449071 0.013773328288828402 0 -0.0010757320978697243 0.013822432185818712 0 -0.001059556768164399 0.013805690781637668 0 -0.0010522218261449071 0.013773328288828402 0 -0.0010773009374527057 0.013796209359439478 0 -0.0010757320978697243 0.013822432185818712 0 -0.0011037472393806067 0.013834138999602171 0 -0.0010773009374527057 0.013796209359439478 0 -0.0010757320978697243 0.013822432185818712 0 -0.0011037472393806067 0.013834138999602171 0 -0.0010980996186740523 0.013871059363443043 0 -0.0010757320978697243 0.013822432185818712 0 -0.001075000040289046 0.013847042158191611 0 -0.0010570743725233421 0.013836821398899747 0 -0.001059556768164399 0.013805690781637668 0 -0.001075000040289046 0.013847042158191611 0 -0.0010757320978697243 0.013822432185818712 0 -0.001059556768164399 0.013805690781637668 0 -0.0010570743725233421 0.013836821398899747 0 -0.0010475361597359397 0.013810062851841045 0 -0.001059556768164399 0.013805690781637668 0 -0.0010194367170454051 0.01380905208884458 0 -0.0010570743725233421 0.013836821398899747 0 -0.0010475361597359397 0.013810062851841045 0 -0.0010194367170454051 0.01380905208884458 0 -0.0010475361597359397 0.013810062851841045 0 -0.001043105295870205 0.013789174374662996 0 -0.0010475361597359397 0.013810062851841045 0 -0.001043105295870205 0.013789174374662996 0 -0.001059556768164399 0.013805690781637668 0 -0.001043105295870205 0.013789174374662996 0 -0.001059556768164399 0.013805690781637668 0 -0.0010570767689598135 0.013759246382614382 0 -0.0010522218261449071 0.013773328288828402 0 -0.001059556768164399 0.013805690781637668 0 -0.0010570767689598135 0.013759246382614382 0 -0.0010570767689598135 0.013759246382614382 0 -0.0011045023531139908 0.013753569873878858 0 -0.0010672655182319502 0.013782392646183797 0 -0.0011451902646807438 0.013707742136892727 0 -0.0011054076846283886 0.013705269269312913 0 -0.0011045023531139908 0.013753569873878858 0 -0.0011054076846283886 0.013705269269312913 0 -0.0010570767689598135 0.013759246382614382 0 -0.0011045023531139908 0.013753569873878858 0 -0.0010029155822176357 0.013793785371895274 0 -0.0010854630306411622 0.013739986717031874 0 -0.0011303952282206724 0.013793620684541277 0 -0.0011045023531139908 0.013753569873878858 0 -0.0010672655182319502 0.013782392646183797 0 -0.0010672655182319502 0.013782392646183797 0 -0.0010353019311724492 0.013767774199222708 0 -0.001026919731034475 0.013819220529019927 0 -0.0010570767689598135 0.013759246382614382 0 -0.0010672655182319502 0.013782392646183797 0 -0.0010353019311724492 0.013767774199222708 0 -0.0010353019311724492 0.013767774199222708 0 -0.00095752469217165014 0.013797218077629922 0 -0.001026919731034475 0.013819220529019927 0 -0.0010522218261449071 0.013773328288828402 0 -0.0010570767689598135 0.013759246382614382 0 -0.0010353019311724492 0.013767774199222708 0 -0.0010522218261449071 0.013773328288828402 0 -0.0010353019311724492 0.013767774199222708 0 -0.0010238820825687256 0.013746675596902729 0 -0.0010966106083558668 0.013779861658757284 0 -0.0010773009374527057 0.013796209359439478 0 -0.0010238820825687256 0.013746675596902729 0 -0.0010522218261449071 0.013773328288828402 0 -0.0010773009374527057 0.013796209359439478 0 -0.0010238820825687256 0.013746675596902729 0 -0.0010353019311724492 0.013767774199222708 0 -0.0010238820825687256 0.013746675596902729 0 -0.00095752469217165014 0.013797218077629922 0 -0.00086716380983454936 0.013716550192747468 0 -0.0010238820825687256 0.013746675596902729 0 -0.00095752469217165014 0.013797218077629922 0 -0.00095752469217165014 0.013797218077629922 0 -0.00095369485172218382 0.01386876353012957 0 -0.001026919731034475 0.013819220529019927 0 -0.00095752469217165014 0.013797218077629922 0 -0.00095369485172218382 0.01386876353012957 0 -0.00086179412956578088 0.013871054446039859 0 -0.00095369485172218382 0.01386876353012957 0 -0.00086179412956578088 0.013871054446039859 0 -0.00087624046143715923 0.013922087454545677 0 -0.00095369485172218382 0.01386876353012957 0 -0.001026919731034475 0.013819220529019927 0 -0.0010205420829383274 0.013874182307995777 0 -0.0010672655182319502 0.013782392646183797 0 -0.001026919731034475 0.013819220529019927 0 -0.0010748581631229849 0.01383300577569065 0 -0.0011303952282206724 0.013793620684541277 0 -0.0010672655182319502 0.013782392646183797 0 -0.0010748581631229849 0.01383300577569065 0 -0.0011303952282206724 0.013793620684541277 0 -0.0010748581631229849 0.01383300577569065 0 -0.0011270662758573345 0.013848203462453246 0 -0.0010748581631229849 0.01383300577569065 0 -0.001075852011881149 0.013883488428369076 0 -0.0011270662758573345 0.013848203462453246 0 -0.0010748581631229849 0.01383300577569065 0 -0.0010205420829383274 0.013874182307995777 0 -0.001075852011881149 0.013883488428369076 0 -0.001026919731034475 0.013819220529019927 0 -0.0010748581631229849 0.01383300577569065 0 -0.0010205420829383274 0.013874182307995777 0 -0.0010205420829383274 0.013874182307995777 0 -0.001075852011881149 0.013883488428369076 0 -0.0010308316282265646 0.013920135335641287 0 -0.001075852011881149 0.013883488428369076 0 -0.0010308316282265646 0.013920135335641287 0 -0.0010998740692734655 0.013925677969048221 0 -0.0010308316282265646 0.013920135335641287 0 -0.0010998740692734655 0.013925677969048221 0 -0.001043721973511788 0.013951646709657978 0 -0.0010308316282265646 0.013920135335641287 0 -0.00097509722939434745 0.013956381374634957 0 -0.001043721973511788 0.013951646709657978 0 -0.0010308316282265646 0.013920135335641287 0 -0.00097509722939434745 0.013956381374634957 0 -0.00095778462980026775 0.013918365310193038 0 -0.00097509722939434745 0.013956381374634957 0 -0.00095778462980026775 0.013918365310193038 0 -0.00088547010013654702 0.013963672891762409 0 -0.00095369485172218382 0.01386876353012957 0 -0.00095778462980026775 0.013918365310193038 0 -0.00087624046143715923 0.013922087454545677 0 -0.00095778462980026775 0.013918365310193038 0 -0.00087624046143715923 0.013922087454545677 0 -0.00088547010013654702 0.013963672891762409 0 -0.00095369485172218382 0.01386876353012957 0 -0.0010205420829383274 0.013874182307995777 0 -0.00095778462980026775 0.013918365310193038 0 -0.0010205420829383274 0.013874182307995777 0 -0.0010308316282265646 0.013920135335641287 0 -0.00095778462980026775 0.013918365310193038 0 -0.0099672711980352251 0.012232423141917101 0 -0.0097744231773421817 0.012189445032509979 0 -0.0099893096855189854 0.012071017293788783 0 -0.0097744231773421817 0.012189445032509979 0 -0.0097887309037378769 0.012044592978493661 0 -0.0099893096855189854 0.012071017293788783 0 -0.0099893096855189854 0.012071017293788783 0 -0.0099937645724455862 0.011960331423641732 0 -0.0098836995435840486 0.011972223422649995 0 -0.0097887309037378769 0.012044592978493661 0 -0.0099893096855189854 0.012071017293788783 0 -0.0098836995435840486 0.011972223422649995 0 -0.0099937645724455862 0.011960331423641732 0 -0.0099465096875365182 0.011877862907754024 0 -0.0098836995435840486 0.011972223422649995 0 -0.0099937645724455862 0.011960331423641732 0 -0.0099465096875365182 0.011877862907754024 0 -0.010058815856648199 0.011897886056010254 0 -0.0099465096875365182 0.011877862907754024 0 -0.010014484419844321 0.011832367709483088 0 -0.010058815856648199 0.011897886056010254 0 -0.0099211135050577392 0.011762530389541968 0 -0.0099465096875365182 0.011877862907754024 0 -0.010014484419844321 0.011832367709483088 0 -0.00978708701653596 0.011796848799182672 0 -0.0098836995435840486 0.011972223422649995 0 -0.0097218527488202155 0.011937500848591151 0 -0.00978708701653596 0.011796848799182672 0 -0.0099465096875365182 0.011877862907754024 0 -0.0098836995435840486 0.011972223422649995 0 -0.0097887309037378769 0.012044592978493661 0 -0.0098836995435840486 0.011972223422649995 0 -0.0097218527488202155 0.011937500848591151 0 -0.0097887309037378769 0.012044592978493661 0 -0.0097218527488202155 0.011937500848591151 0 -0.0096137363565570837 0.012011904208124405 0 -0.00978708701653596 0.011796848799182672 0 -0.0097218527488202155 0.011937500848591151 0 -0.0095340892039876887 0.011856893260515871 0 -0.0097218527488202155 0.011937500848591151 0 -0.0095340892039876887 0.011856893260515871 0 -0.0096137363565570837 0.012011904208124405 0 -0.007634991111310014 0.01223453316891172 0 -0.0091860033391414873 0.012254414689110598 0 -0.007634991111310014 0.01223453316891172 0 -0.0071516587103457978 0.012691835101994568 0 -0.009539276686220486 0.011863047128875374 0 -0.0096137363565570837 0.012011904208124405 0 -0.0095289286305796448 0.012265826911279408 0 -0.0097744231773421817 0.012189445032509979 0 -0.0096137363565570837 0.012011904208124405 0 -0.0095289286305796448 0.012265826911279408 0 -0.0097744231773421817 0.012189445032509979 0 -0.0097887309037378769 0.012044592978493661 0 -0.0096137363565570837 0.012011904208124405 0 -0.0028713801698264487 0.013402002163775982 0 -0.0029934948637500122 0.013504007835960487 0 -0.0049026812273726735 0.012799454148023835 0 -0.0048129563744892185 0.01289587006300439 0 -0.0048940800458331978 0.013049611508481581 0 -0.0011900596764930307 0.013829710767463074 0 -0.0011270662758573345 0.013848203462453246 0 -0.0011634793340649162 0.013897912844098912 0 -0.0048129563744892185 0.01289587006300439 0 -0.0047831084773340641 0.013137252166471837 0 -0.0048940800458331978 0.013049611508481581 0 -0.0048320552446277538 0.0126597799572041 0 -0.0049026812273726735 0.012799454148023835 0 -0.0048129563744892185 0.01289587006300439 0 -0.0011303952282206724 0.013793620684541277 0 -0.0011900596764930307 0.013829710767463074 0 -0.0011270662758573345 0.013848203462453246 0 -0.001075852011881149 0.013883488428369076 0 -0.0011270662758573345 0.013848203462453246 0 -0.0011634793340649162 0.013897912844098912 0 -0.001075852011881149 0.013883488428369076 0 -0.0010998740692734655 0.013925677969048221 0 -0.0011634793340649162 0.013897912844098912 0 -0.0010998740692734655 0.013925677969048221 0 -0.0011634793340649162 0.013897912844098912 0 -0.0011320116530884993 0.013949262351873918 0 -0.0029934948637500122 0.013504007835960487 0 -0.0029177706844119569 0.013687318344687317 0 -0.0047831084773340641 0.013137252166471837 0 -0.0048801534260741021 0.013313408368281999 0 -0.0047448222405027454 0.013393847399734286 0 -0.0047831084773340641 0.013137252166471837 0 -0.0048940800458331978 0.013049611508481581 0 -0.0048801534260741021 0.013313408368281999 0 -0.0098183999683693138 0.01241572479947459 0 -0.0094760098326496928 0.012704645152366148 0 -0.01004542763076966 0.012727464833374178 0 -0.0097744231773421817 0.012189445032509979 0 -0.0095289286305796448 0.012265826911279408 0 -0.0098183999683693138 0.01241572479947459 0 -0.0095289286305796448 0.012265826911279408 0 -0.0098183999683693138 0.01241572479947459 0 -0.0094760098326496928 0.012704645152366148 0 -0.0071516587103457978 0.012691835101994568 0 -0.0071686685010922055 0.012960646585921096 0 -0.0098183999683693138 0.01241572479947459 0 -0.010087665554416652 0.012404886913742025 0 -0.01004542763076966 0.012727464833374178 0 -0.0099672711980352251 0.012232423141917101 0 -0.0098183999683693138 0.01241572479947459 0 -0.010087665554416652 0.012404886913742025 0 -0.0099672711980352251 0.012232423141917101 0 -0.0097744231773421817 0.012189445032509979 0 -0.0098183999683693138 0.01241572479947459 0 -0.0097677776715944329 0.013022463085354777 0 -0.0094760098326496928 0.012704645152366148 0 -0.01004542763076966 0.012727464833374178 0 -0.0097677776715944329 0.013022463085354777 0 -0.009865741299881851 0.013341306283516876 0 -0.010132143479140574 0.013158763449909501 0 -0.0097677776715944329 0.013022463085354777 0 -0.01004542763076966 0.012727464833374178 0 -0.010132143479140574 0.013158763449909501 0 -0.0097677776715944329 0.013022463085354777 0 -0.0094760098326496928 0.012704645152366148 0 -0.0094086536663601922 0.013251951640061948 0 -0.0097677776715944329 0.013022463085354777 0 -0.0094086536663601922 0.013251951640061948 0 -0.009865741299881851 0.013341306283516876 0 -0.0010998740692734655 0.013925677969048221 0 -0.0011320116530884993 0.013949262351873918 0 -0.0010758380324035867 0.013969987668619954 0 -0.0048636292835677348 0.013600304958667243 0 -0.0047448222405027454 0.013393847399734286 0 -0.0046992727916516097 0.013673199509354087 0 -0.0029177706844119569 0.013687318344687317 0 -0.0030306424569764298 0.013766593936042704 0 -0.0048801534260741021 0.013313408368281999 0 -0.0048636292835677348 0.013600304958667243 0 -0.0047448222405027454 0.013393847399734286 0 -0.0071686685010922055 0.012960646585921096 0 -0.0072607320567824579 0.013629213570125174 0 -0.0011320116530884993 0.013949262351873918 0 -0.0011043486358452369 0.013973244538440056 0 -0.0010758380324035867 0.013969987668619954 0 -0.0010903799228815382 0.013968433340726826 0 -0.0011043486358452369 0.013973244538440056 0 -0.0010758380324035867 0.013969987668619954 0 -0.0010903799228815382 0.013968433340726826 0 -0.0011043486358452369 0.013973244538440056 0 -0.001090154987968062 0.013950909193435029 0 -0.0030306424569764298 0.013766593936042704 0 -0.0019477755205071885 0.014183337588100852 0 -0.0010903799228815382 0.013968433340726826 0 -0.001090154987968062 0.013950909193435029 0 -0.001108156108882102 0.013933572143879367 0 -0.0048447398687799306 0.013915929550052509 0 -0.0046992727916516097 0.013673199509354087 0 -0.0046498665240115008 0.013981584854545011 0 -0.0048636292835677348 0.013600304958667243 0 -0.0048447398687799306 0.013915929550052509 0 -0.0046992727916516097 0.013673199509354087 0 -0.0072607320567824579 0.013629213570125174 0 -0.0062333470713444809 0.01301484992933535 0 -0.0094086536663601922 0.013251951640061948 0 -0.0097996630126828896 0.013708640235073337 0 -0.009865741299881851 0.013341306283516876 0 -0.0081700092732865295 0.010972429973027432 0 -0.0088740053502254501 0.010725608345443092 0 -0.0086711104157184259 0.011259873113057898 0 -0.0094086536663601922 0.013251951640061948 0 -0.0093601373737701304 0.013851878412162975 0 -0.0097996630126828896 0.013708640235073337 0 -0.0062333470713444809 0.01301484992933535 0 -0.0098809273347130692 0.012046831033992698 0 -0.0088740053502254501 0.010725608345443092 0 -0.0095695801908852983 0.0104920074931298 0 -0.0093948637970581103 0.011111852790602509 0 -0.0098809273347130692 0.012046831033992698 0 -0.0095832722026320417 0.012141977705949955 0 -0.0088740053502254501 0.010725608345443092 0 -0.0093948637970581103 0.011111852790602509 0 -0.0086711104157184259 0.011259873113057898 0 -0.0097996630126828896 0.013708640235073337 0 -0.009865741299881851 0.013341306283516876 0 -0.010228837226326894 0.013570414849883685 0 -0.0010035999998548387 0.01397768701456888 0 -0.00091013478327970504 0.013991591884815907 0 -0.00095808196038403603 0.013998013028621787 0 -0.00097509722939434745 0.013956381374634957 0 -0.00091013478327970504 0.013991591884815907 0 -0.00088547010013654702 0.013963672891762409 0 -0.00097509722939434745 0.013956381374634957 0 -0.0010035999998548387 0.01397768701456888 0 -0.00091013478327970504 0.013991591884815907 0 -0.00097509722939434745 0.013956381374634957 0 -0.0010035999998548387 0.01397768701456888 0 -0.001043721973511788 0.013951646709657978 0 -0.0010998740692734655 0.013925677969048221 0 -0.001043721973511788 0.013951646709657978 0 -0.0010758380324035867 0.013969987668619954 0 -0.0010035999998548387 0.01397768701456888 0 -0.0010758380324035867 0.013969987668619954 0 -0.0010416243698187048 0.013979719830590083 0 -0.0010035999998548387 0.01397768701456888 0 -0.001043721973511788 0.013951646709657978 0 -0.0010758380324035867 0.013969987668619954 0 -0.0010903799228815382 0.013968433340726826 0 -0.0010758380324035867 0.013969987668619954 0 -0.0010416243698187048 0.013979719830590083 0 -0.0010903799228815382 0.013968433340726826 0 -0.001082721251246168 0.013955841181877598 0 -0.001108156108882102 0.013933572143879367 0 -0.0010903799228815382 0.013968433340726826 0 -0.0010416243698187048 0.013979719830590083 0 -0.001082721251246168 0.013955841181877598 0 -0.0010416243698187048 0.013979719830590083 0 -0.0010019921799806462 0.013988651556016798 0 -0.0010511466250068529 0.013969608535914734 0 -0.0010416243698187048 0.013979719830590083 0 -0.0010511466250068529 0.013969608535914734 0 -0.001082721251246168 0.013955841181877598 0 -0.0010035999998548387 0.01397768701456888 0 -0.0010416243698187048 0.013979719830590083 0 -0.00095808196038403603 0.013998013028621787 0 -0.0010416243698187048 0.013979719830590083 0 -0.0010019921799806462 0.013988651556016798 0 -0.00095808196038403603 0.013998013028621787 0 -0.0010019921799806462 0.013988651556016798 0 -0.00095808196038403603 0.013998013028621787 0 -0.00095015900079182278 0.014004919314393172 0 0.00093539241427225881 0.011483502041732548 0 0.0010480628031752793 0.011480474165782146 0 0.0010571860262882165 0.011334176791304242 0 -1.1415929848921536e-05 0.012746681506787696 0 0.00014292274962581566 0.012654456932973637 0 0.0011344158698474312 0.011446843560038318 0 0.0010480628031752793 0.011480474165782146 0 0.0010571860262882165 0.011334176791304242 0 0.0011344158698474312 0.011446843560038318 0 0.0010480628031752793 0.011480474165782146 0 0.0010519568637841086 0.011542694603841335 0 0.0011344158698474312 0.011446843560038318 0 0.0010571860262882165 0.011334176791304242 0 0.0012734397873261122 0.011253393379017904 0 -0.00095808196038403603 0.013998013028621787 0 -0.00095015900079182278 0.014004919314393172 0 -0.0008532368993517201 0.014025589071347655 0 -0.00091013478327970504 0.013991591884815907 0 -0.00095808196038403603 0.013998013028621787 0 -0.0008532368993517201 0.014025589071347655 0 -0.0008532368993517201 0.014025589071347655 0 -0.00080921377925711135 0.014000642713006082 0 -0.00072982527965835238 0.014026352148345071 0 -0.00091013478327970504 0.013991591884815907 0 -0.0008532368993517201 0.014025589071347655 0 -0.00080921377925711135 0.014000642713006082 0 0.00014292274962581566 0.012654456932973637 0 5.8053263746832562e-05 0.012658526267220194 0 -0.00080921377925711135 0.014000642713006082 0 -0.00072982527965835238 0.014026352148345071 0 -0.00069702578157607978 0.013997649977206685 0 -0.00091013478327970504 0.013991591884815907 0 -0.00080921377925711135 0.014000642713006082 0 -0.00088547010013654702 0.013963672891762409 0 0.0038530147884715351 0.0099374969303871342 0 0.0055778770430697268 0.0091771585174765993 0 0.0038530147884715351 0.0099374969303871342 0 0.0032652418228488497 0.01045018171617559 0 0.0057354308195892573 0.0091860513083122583 0 0.0056616827049316828 0.0090900328741235926 0 0.0055762131520747729 0.0092770667496500196 0 0.0014295613367781553 0.011023314114153179 0 0.0012317910530564675 0.011152186840194407 0 0.0014392034674522529 0.010958483968159556 0 0.0057354308195892573 0.0091860513083122583 0 0.0056616827049316828 0.0090900328741235926 0 0.0058454943598144939 0.0090905844904137639 0 -0.00072982527965835238 0.014026352148345071 0 -0.00069702578157607978 0.013997649977206685 0 -0.00060088746365323596 0.014004368612321334 0 5.8053263746832562e-05 0.012658526267220194 0 0.0015147476649797792 0.012367636913243059 0 0.0010571860262882165 0.011334176791304242 0 0.0012317910530564675 0.011152186840194407 0 0.0012734397873261122 0.011253393379017904 0 0.0014295613367781553 0.011023314114153179 0 0.0012317910530564675 0.011152186840194407 0 0.0012734397873261122 0.011253393379017904 0 0.0053869838582825185 0.0092272253378164783 0 0.0052719229823599478 0.0094377817163194318 0 0.0053876723218798522 0.0093870703648967387 0 0.0052719229823599478 0.0094377817163194318 0 0.0053876723218798522 0.0093870703648967387 0 0.0054492823858831724 0.0096353141586830067 0 0.0057354308195892573 0.0091860513083122583 0 0.0055762131520747729 0.0092770667496500196 0 0.0057411733251039937 0.0092739463332548126 0 0.0055762131520747729 0.0092770667496500196 0 0.0057856967876931857 0.0094215949698958201 0 0.0057411733251039937 0.0092739463332548126 0 0.0055778770430697268 0.0091771585174765993 0 0.0054399670305573288 0.0096853231023518761 0 0.0055762131520747729 0.0092770667496500196 0 0.0054492823858831724 0.0096353141586830067 0 0.0057856967876931857 0.0094215949698958201 0 0.0054492823858831724 0.0096353141586830067 0 0.0056196539852539917 0.0097720824649963275 0 0.0057856967876931857 0.0094215949698958201 0 0.0025590866382441775 0.010315517472854445 0 0.0032652418228488497 0.01045018171617559 0 0.0050163881586873845 0.0098563016657082642 0 0.0052719229823599478 0.0094377817163194318 0 0.0054492823858831724 0.0096353141586830067 0 0.0050163881586873845 0.0098563016657082642 0 0.0054492823858831724 0.0096353141586830067 0 0.0053328114338649993 0.009911813062558221 0 0.0054492823858831724 0.0096353141586830067 0 0.0053328114338649993 0.009911813062558221 0 0.0056196539852539917 0.0097720824649963275 0 0.0053328114338649993 0.009911813062558221 0 0.0056196539852539917 0.0097720824649963275 0 0.0056007081098631327 0.0099929874075753104 0 0.0058447551966855377 0.0097767777505193831 0 0.0061651475745105756 0.010000341751930491 0 0.0058124308522274357 0.010059687940252903 0 0.0056007081098631327 0.0099929874075753104 0 0.0058447551966855377 0.0097767777505193831 0 0.0058124308522274357 0.010059687940252903 0 0.0056196539852539917 0.0097720824649963275 0 0.0056007081098631327 0.0099929874075753104 0 0.0058447551966855377 0.0097767777505193831 0 0.0067821204952387302 0.0094666916252928637 0 0.0072137341214807537 0.0090498439618867544 0 0.0058447551966855377 0.0097767777505193831 0 0.0061651475745105756 0.010000341751930491 0 0.0061151467248060339 0.009403744089910699 0 0.0061651475745105756 0.010000341751930491 0 0.0061151467248060339 0.009403744089910699 0 0.0068182821115907758 0.0094776795674143821 0 0.0058447551966855377 0.0097767777505193831 0 0.0061151467248060339 0.009403744089910699 0 0.0057856967876931857 0.0094215949698958201 0 0.0056196539852539917 0.0097720824649963275 0 0.0058447551966855377 0.0097767777505193831 0 0.0057856967876931857 0.0094215949698958201 0 0.0080544532142757946 0.0087502887896893818 0 0.0077289321917955109 0.0087932439659745582 0 0.0077703655667906756 0.0089887200836956775 0 0.0073927506763771227 0.008946717962571963 0 0.0077289321917955109 0.0087932439659745582 0 0.0075967560877667466 0.0086765461263053796 0 0.0073927506763771227 0.008946717962571963 0 0.0077289321917955109 0.0087932439659745582 0 0.0077703655667906756 0.0089887200836956775 0 0.0061151467248060339 0.009403744089910699 0 0.0068182821115907758 0.0094776795674143821 0 0.0067601267577683064 0.0085401082377650553 0 0.0077289321917955109 0.0087932439659745582 0 0.0075967560877667466 0.0086765461263053796 0 0.0077822410311325658 0.0086426355570496972 0 0.0075967560877667466 0.0086765461263053796 0 0.0077822410311325658 0.0086426355570496972 0 0.0076677896157278736 0.0084518439743225763 0 0.0080544532142757946 0.0087502887896893818 0 0.0077289321917955109 0.0087932439659745582 0 0.0077822410311325658 0.0086426355570496972 0 0.0079356234693783185 0.0085612452028541366 0 0.0077822410311325658 0.0086426355570496972 0 0.0076677896157278736 0.0084518439743225763 0 0.0072137341214807537 0.0090498439618867544 0 0.0076443832361221369 0.0084924836314865856 0 0.0068182821115907758 0.0094776795674143821 0 0.0076677896157278736 0.0084518439743225763 0 0.0067601267577683064 0.0085401082377650553 0 0.0061132135067276279 0.0092439748791735901 0 0.0060836901173487194 0.0091198746716148055 0 0.0061823180544165659 0.0091176501916291064 0 0.0076677896157278736 0.0084518439743225763 0 0.0067601267577683064 0.0085401082377650553 0 0.0074502876417991753 0.0079431011880661175 0 0.0064081169428875043 0.0089597203807952087 0 0.0069451803534142783 0.0083379227162206637 0 0.0080155375483970271 0.0083020812687859043 0 0.0076677896157278736 0.0084518439743225763 0 0.0078281554553416878 0.0080290690349069174 0 0.0076677896157278736 0.0084518439743225763 0 0.0074502876417991753 0.0079431011880661175 0 0.0078281554553416878 0.0080290690349069174 0 0.0057856967876931857 0.0094215949698958201 0 0.0058658030449463836 0.0092214591196363507 0 0.0057411733251039937 0.0092739463332548126 0 0.0057856967876931857 0.0094215949698958201 0 0.0058658030449463836 0.0092214591196363507 0 0.006017484772227466 0.0092780049216748244 0 0.0057354308195892573 0.0091860513083122583 0 0.0058658030449463836 0.0092214591196363507 0 0.0057411733251039937 0.0092739463332548126 0 0.0061151467248060339 0.009403744089910699 0 0.0061132135067276279 0.0092439748791735901 0 0.006017484772227466 0.0092780049216748244 0 0.0061428512126428872 0.0093364058786944495 0 0.0064081169428875043 0.0089597203807952087 0 0.0061151467248060339 0.009403744089910699 0 0.0057856967876931857 0.0094215949698958201 0 0.006017484772227466 0.0092780049216748244 0 0.0061132135067276279 0.0092439748791735901 0 0.006017484772227466 0.0092780049216748244 0 0.0060016782449434855 0.0091665154637404402 0 0.0058658030449463836 0.0092214591196363507 0 0.006017484772227466 0.0092780049216748244 0 0.0060016782449434855 0.0091665154637404402 0 0.0061132135067276279 0.0092439748791735901 0 0.0060836901173487194 0.0091198746716148055 0 0.0060016782449434855 0.0091665154637404402 0 0.0060016782449434855 0.0091665154637404402 0 0.0058454943598144939 0.0090905844904137639 0 0.0059953653293030647 0.0090510997592283138 0 0.0060836901173487194 0.0091198746716148055 0 0.0060016782449434855 0.0091665154637404402 0 0.0059953653293030647 0.0090510997592283138 0 0.0058658030449463836 0.0092214591196363507 0 0.0060016782449434855 0.0091665154637404402 0 0.0058454943598144939 0.0090905844904137639 0 0.0057354308195892573 0.0091860513083122583 0 0.0058658030449463836 0.0092214591196363507 0 0.0058454943598144939 0.0090905844904137639 0 0.0058454943598144939 0.0090905844904137639 0 0.0058898829517207932 0.0089870558212587562 0 0.0057571809566318299 0.0089752473602614739 0 0.0058454943598144939 0.0090905844904137639 0 0.0058898829517207932 0.0089870558212587562 0 0.0059953653293030647 0.0090510997592283138 0 0.0058898829517207932 0.0089870558212587562 0 0.0059953653293030647 0.0090510997592283138 0 0.0059966306288419388 0.0089288557261724671 0 0.0059953653293030647 0.0090510997592283138 0 0.0059966306288419388 0.0089288557261724671 0 0.0061187187889458232 0.009022325346672206 0 0.0058898829517207932 0.0089870558212587562 0 0.0059966306288419388 0.0089288557261724671 0 0.005850117693324542 0.0088991028061471411 0 0.0059966306288419388 0.0089288557261724671 0 0.005850117693324542 0.0088991028061471411 0 0.0059279295128164431 0.0088244129987477046 0 0.0037470451721824554 0.011037370296517038 0 0.0036879786068256346 0.011453031283937253 0 0.0040836946927456244 0.01062558996491786 0 0.0017121192543249788 0.012580245849414102 0 0.0015898499485342257 0.012668375468014489 0 0.0018165844989970145 0.012136839442075366 0 0.0015898499485342257 0.012668375468014489 0 0.0015398736645838569 0.012704266595357536 0 0.0018165844989970145 0.012136839442075366 0 0.0050113082297757244 0.009737589344869832 0 0.0046214730529449957 0.011191952142336568 0 0.0022366617545663313 0.012724512324597497 0 0.0037754271966285347 0.010581330148201748 0 0.0058898829517207932 0.0089870558212587562 0 0.005850117693324542 0.0088991028061471411 0 0.0057571809566318299 0.0089752473602614739 0 0.0050113082297757244 0.009737589344869832 0 0.0037754271966285347 0.010581330148201748 0 0.0061823180544165659 0.0091176501916291064 0 0.0062697732133386785 0.0090062392525441428 0 0.0061187187889458232 0.009022325346672206 0 0.0069451803534142783 0.0083379227162206637 0 0.0064650074387544087 0.0094337549536435399 0 0.0074502876417991753 0.0079431011880661175 0 0.0078281554553416878 0.0080290690349069174 0 0.0078110938047198557 0.0075992307820693271 0 0.0062697732133386785 0.0090062392525441428 0 0.0061187187889458232 0.009022325346672206 0 0.0061635163563747188 0.0089078709956139056 0 0.0060836901173487194 0.0091198746716148055 0 0.0059953653293030647 0.0090510997592283138 0 0.0061187187889458232 0.009022325346672206 0 0.0060836901173487194 0.0091198746716148055 0 0.0061823180544165659 0.0091176501916291064 0 0.0061187187889458232 0.009022325346672206 0 0.0059966306288419388 0.0089288557261724671 0 0.0061635163563747188 0.0089078709956139056 0 0.006049004442985193 0.008811725375017395 0 0.0059966306288419388 0.0089288557261724671 0 0.0061187187889458232 0.009022325346672206 0 0.0061635163563747188 0.0089078709956139056 0 0.0051129193282057834 0.011095852078895454 0 0.0046035314143444053 0.011099296269084107 0 0.0048669110398850612 0.011679537909347207 0 0.0046360330920529359 0.010598921217095179 0 0.0051129193282057834 0.011095852078895454 0 0.0046035314143444053 0.011099296269084107 0 0.0064650074387544087 0.0094337549536435399 0 0.0055529017747922458 0.0099226577113525113 0 0.0044437372230541582 0.011448300887320585 0 0.0046035314143444053 0.011099296269084107 0 0.0048669110398850612 0.011679537909347207 0 0.0044551513823604142 0.011790476239468172 0 0.0046382224302664058 0.011775972356605812 0 0.0046757893572988611 0.01187979454492913 0 0.0051129193282057834 0.011095852078895454 0 0.0048669110398850612 0.011679537909347207 0 0.0055899663002872023 0.011574157425247237 0 0.0045825824002601965 0.011779695240909169 0 0.0053562338212504836 0.010917823559786674 0 0.0055529017747922458 0.0099226577113525113 0 0.0053562338212504836 0.010917823559786674 0 0.0027990098669321423 0.014588350631010714 0 0.0027601118670865688 0.014489565573870678 0 0.0030785762646595733 0.014238046184277023 0 0.0030003140768788037 0.014390559695394 0 0.0030684018702927108 0.013634951031753708 0 0.0031742743728629549 0.01422209815067961 0 0.002902117805139754 0.013927797276698836 0 0.0036853082859208798 0.013841908760530187 0 0.0039387187650504795 0.012666255587029926 0 0.0030684018702927108 0.013634951031753708 0 0.0010854277251847867 0.014934777446428463 0 0.0011028439289110154 0.014952963634607954 0 0.0010954124403889445 0.014911144898096524 0 0.0017456039951240225 0.014988273311207953 0 0.0030684018702927108 0.013634951031753708 0 0.0044551513823604142 0.011790476239468172 0 0.004405205502216002 0.011926837387846601 0 0.0046757893572988611 0.01187979454492913 0 0.0031742743728629549 0.01422209815067961 0 0.0028350853903557007 0.014267856999979027 0 0.002902117805139754 0.013927797276698836 0 -5.7343862591193999e-05 0.013943137177576911 0 0.00014285690401190452 0.013864216538732948 0 -0.00025158757873050157 0.013944632768278505 0 -5.7343862591193999e-05 0.013943137177576911 0 -1.8070985014779023e-05 0.014008125969383197 0 0.00014285690401190452 0.013864216538732948 0 0.0022366617545663313 0.012724512324597497 0 0.00088220797213268509 0.014125802387161801 0 -1.8070985014779023e-05 0.014008125969383197 0 5.881672473428049e-05 0.014059679933838569 0 0.00014285690401190452 0.013864216538732948 0 -5.7343862591193999e-05 0.013943137177576911 0 -1.8070985014779023e-05 0.014008125969383197 0 -0.00023001495593542409 0.013971113848942568 0 0.0017121192543249788 0.012580245849414102 0 0.0015862063949042065 0.012669063829608938 0 0.0019445759075752665 0.012621930206720073 0 0.0014550366118752304 0.013039324472345851 0 0.00029664718178429631 0.013538031699657954 0 -1.8070985014779023e-05 0.014008125969383197 0 2.3364904004860619e-05 0.014085145872792134 0 -0.00023554981273755436 0.014121370338124406 0 0.0016824072139993392 0.012792533668574886 0 0.0014550366118752304 0.013039324472345851 0 0.0022366617545663313 0.012724512324597497 0 0.0046214730529449957 0.011191952142336568 0 0.0037470451721824554 0.011037370296517038 0 0.0036879786068256346 0.011453031283937253 0 0.0034121087152710837 0.011448866198332958 0 -1.8070985014779023e-05 0.014008125969383197 0 2.3364904004860619e-05 0.014085145872792134 0 5.881672473428049e-05 0.014059679933838569 0 0.0014550366118752304 0.013039324472345851 0 0.0022366617545663313 0.012724512324597497 0 0.0020723713655704233 0.013529612209981433 0 0.0021268841447467106 0.013431382961123613 0 0.0022566960390993144 0.013423400944385362 0 0.003557794076178717 0.012540250602725561 0 0.0033362232567773703 0.012540643959786775 0 0.0030349430661557137 0.012916535987227839 0 0.0059966306288419388 0.0089288557261724671 0 0.006049004442985193 0.008811725375017395 0 0.0059279295128164431 0.0088244129987477046 0 0.0022366617545663313 0.012724512324597497 0 0.0030684018702927108 0.013634951031753708 0 0.0053562338212504836 0.010917823559786674 0 0.0046214730529449957 0.011191952142336568 0 0.0046382224302664058 0.011775972356605812 0 0.0047721336970354576 0.011755526482127519 0 0.0046757893572988611 0.01187979454492913 0 0.0046214730529449957 0.011191952142336568 0 0.0030684018702927108 0.013634951031753708 0 0.0010854277251847867 0.014934777446428463 0 0.0011141576997376554 0.014902077619905939 0 0.0010954124403889445 0.014911144898096524 0 0.00045601791291085604 0.014197957083060455 0 0.00053748915456999595 0.014034623896667061 0 0.00041910399125883949 0.013930875889025016 0 0.00076358201409194566 0.014627875025358289 0 0.00088220797213268509 0.014125802387161801 0 0.00088220797213268509 0.014125802387161801 0 0.0030684018702927108 0.013634951031753708 0 0.00053748915456999595 0.014034623896667061 0 0.00041910399125883949 0.013930875889025016 0 -0.00025158757873050157 0.013944632768278505 0 0.00051740992104001848 0.014205015187110539 0 0.00041910399125883949 0.013930875889025016 0 0.0008225396378440282 0.014083463820024657 0 0.00088220797213268509 0.014125802387161801 0 -0.00042150032346997921 0.013927033378666961 0 0.0006128101702863191 0.013936238843431772 0 -0.00034824102821432308 0.013886977679768552 0 0.00041910399125883949 0.013930875889025016 0 -0.00033890194396206109 0.013517573422048599 0 -0.00025158757873050157 0.013944632768278505 0 -0.00033890194396206109 0.013517573422048599 0 -0.00025158757873050157 0.013944632768278505 0 -0.00062351055252046381 0.013886159481828673 0 -5.7343862591193999e-05 0.013943137177576911 0 -0.00023001495593542409 0.013971113848942568 0 -0.00025158757873050157 0.013944632768278505 0 -0.00025158757873050157 0.013944632768278505 0 -0.0004197859015572755 0.013981829608845869 0 -0.00062351055252046381 0.013886159481828673 0 -0.00023001495593542409 0.013971113848942568 0 -0.00025158757873050157 0.013944632768278505 0 -0.0004197859015572755 0.013981829608845869 0 -0.00023001495593542409 0.013971113848942568 0 -0.0004197859015572755 0.013981829608845869 0 -0.00034428006995132883 0.014044642977790456 0 -0.0004197859015572755 0.013981829608845869 0 -0.00048621908190244227 0.014015512429437077 0 -0.00034428006995132883 0.014044642977790456 0 -0.00029574751294262854 0.013733146689489212 0 0.00029664718178429631 0.013538031699657954 0 -1.8070985014779023e-05 0.014008125969383197 0 -0.00023001495593542409 0.013971113848942568 0 -0.00023554981273755436 0.014121370338124406 0 -1.2847016550203605e-05 0.014026524812806895 0 0.00029664718178429631 0.013538031699657954 0 -0.0006085662860055008 0.013964174478471363 0 -0.00073082886274707061 0.013893675586140375 0 -0.00068391237007122579 0.013972473394128259 0 -0.0004197859015572755 0.013981829608845869 0 -0.00048621908190244227 0.014015512429437077 0 -0.0006085662860055008 0.013964174478471363 0 -0.00048621908190244227 0.014015512429437077 0 -0.0006085662860055008 0.013964174478471363 0 -0.0005948318568278245 0.013990462938700972 0 -0.0004197859015572755 0.013981829608845869 0 -0.0006085662860055008 0.013964174478471363 0 -0.00062351055252046381 0.013886159481828673 0 -0.0006085662860055008 0.013964174478471363 0 -0.00062351055252046381 0.013886159481828673 0 -0.00073082886274707061 0.013893675586140375 0 -0.00070889496269798172 0.013725804600319167 0 -0.00055473539102265858 0.013769540694731663 0 -0.00065467136916167866 0.013800570238819906 0 -0.00034824102821432308 0.013886977679768552 0 -0.00059419112651285021 0.013814109979735189 0 -0.00062351055252046381 0.013886159481828673 0 -0.00065467136916167866 0.013800570238819906 0 -0.00073082886274707061 0.013893675586140375 0 -0.00055473539102265858 0.013769540694731663 0 -0.00062351055252046381 0.013886159481828673 0 -0.00065467136916167866 0.013800570238819906 0 -0.00070889496269798172 0.013725804600319167 0 -0.00065467136916167866 0.013800570238819906 0 -0.00079522312512857911 0.013803343568921668 0 -0.00079522312512857911 0.013803343568921668 0 -0.00086179412956578088 0.013871054446039859 0 -0.00073082886274707061 0.013893675586140375 0 -0.00065467136916167866 0.013800570238819906 0 -0.00079522312512857911 0.013803343568921668 0 -0.00073082886274707061 0.013893675586140375 0 -0.00095752469217165014 0.013797218077629922 0 -0.00079522312512857911 0.013803343568921668 0 -0.00086179412956578088 0.013871054446039859 0 -0.00086179412956578088 0.013871054446039859 0 -0.00079211081677732389 0.013927588945782141 0 -0.00087624046143715923 0.013922087454545677 0 -0.00073082886274707061 0.013893675586140375 0 -0.00079211081677732389 0.013927588945782141 0 -0.00068391237007122579 0.013972473394128259 0 -0.00086179412956578088 0.013871054446039859 0 -0.00073082886274707061 0.013893675586140375 0 -0.00079211081677732389 0.013927588945782141 0 -0.00078883401576260235 0.013967537892452676 0 -0.00069702578157607978 0.013997649977206685 0 -0.00068391237007122579 0.013972473394128259 0 -0.00079211081677732389 0.013927588945782141 0 -0.00078883401576260235 0.013967537892452676 0 -0.00068391237007122579 0.013972473394128259 0 -0.00078883401576260235 0.013967537892452676 0 -0.00087624046143715923 0.013922087454545677 0 -0.00088547010013654702 0.013963672891762409 0 -0.00079211081677732389 0.013927588945782141 0 -0.00078883401576260235 0.013967537892452676 0 -0.00087624046143715923 0.013922087454545677 0 -0.00080921377925711135 0.014000642713006082 0 -0.00078883401576260235 0.013967537892452676 0 -0.00088547010013654702 0.013963672891762409 0 -0.00080921377925711135 0.014000642713006082 0 -0.00078883401576260235 0.013967537892452676 0 -0.00069702578157607978 0.013997649977206685 0 -0.00069702578157607978 0.013997649977206685 0 -0.00060088746365323596 0.014004368612321334 0 -0.0005907085209257355 0.013996077740236356 0 0.0056616827049316828 0.0090900328741235926 0 0.0058454943598144939 0.0090905844904137639 0 0.0057571809566318299 0.0089752473602614739 0 0.0038530147884715351 0.0099374969303871342 0 0.0037754271966285347 0.010581330148201748 0 0.0032482161166473259 0.010944907660438185 0 0.0032536930850288913 0.0109445898050443 0 0.0032703480218188542 0.01094333908774286 0 0.0038530147884715351 0.0099374969303871342 0 0.0015147476649797792 0.012367636913243059 0 0.0015147476649797792 0.012367636913243059 0 0.0037754271966285347 0.010581330148201748 0 -0.00049533825449794269 0.013997984797184159 0 -0.00060088746365323596 0.014004368612321334 0 -0.0005907085209257355 0.013996077740236356 0 0.0019445759075752665 0.012621930206720073 0 0.0019962400375796011 0.011922624877856251 0 0.0018165844989970145 0.012136839442075366 0 0.00029664718178429631 0.013538031699657954 0 0.0015147476649797792 0.012367636913243059 0 0.0017121192543249788 0.012580245849414102 0 0.0019445759075752665 0.012621930206720073 0 0.0018165844989970145 0.012136839442075366 0 -0.00048621908190244227 0.014015512429437077 0 -0.00049533825449794269 0.013997984797184159 0 -0.0005907085209257355 0.013996077740236356 0 -0.0005948318568278245 0.013990462938700972 0 -0.00068391237007122579 0.013972473394128259 0 -0.0005907085209257355 0.013996077740236356 0 -0.00069702578157607978 0.013997649977206685 0 -0.00068391237007122579 0.013972473394128259 0 -0.0005907085209257355 0.013996077740236356 0 -0.00048621908190244227 0.014015512429437077 0 -0.0005948318568278245 0.013990462938700972 0 -0.0005907085209257355 0.013996077740236356 0 -0.0006085662860055008 0.013964174478471363 0 -0.0005948318568278245 0.013990462938700972 0 -0.00068391237007122579 0.013972473394128259 0 -0.015502523198574878 0.0114974115501798 0 -0.015630404163707375 0.011698503472460519 0 -0.015416516003846466 0.01209231847386273 0 -0.014999916730739197 0.01199793416257462 0 -0.015502523198574878 0.0114974115501798 0 -0.015416516003846466 0.01209231847386273 0 -0.014999916730739197 0.01199793416257462 0 -0.015502523198574878 0.0114974115501798 0 -0.014999865575836347 0.01110352457810714 0 -0.015502523198574878 0.0114974115501798 0 -0.015630404163707375 0.011698503472460519 0 -0.015588419689323703 0.011473648427591574 0 -0.015805295586763034 0.011588286163547522 0 -0.01569773672659466 0.011520955832275491 0 -0.015588419689323703 0.011473648427591574 0 -0.015630404163707375 0.011698503472460519 0 -0.015805295586763034 0.011588286163547522 0 -0.015588419689323703 0.011473648427591574 0 -0.015767291539966193 0.011933745561009158 0 -0.015630404163707375 0.011698503472460519 0 -0.015805295586763034 0.011588286163547522 0 -0.015767291539966193 0.011933745561009158 0 -0.015630404163707375 0.011698503472460519 0 -0.015607416215454428 0.012129354492711179 0 -0.015630404163707375 0.011698503472460519 0 -0.015607416215454428 0.012129354492711179 0 -0.015416516003846466 0.01209231847386273 0 -0.015607416215454428 0.012129354492711179 0 -0.015787819650151833 0.01220161144630005 0 -0.015660854408972944 0.01234696752230534 0 -0.015607416215454428 0.012129354492711179 0 -0.015540020487959676 0.012414299453038739 0 -0.015499358149855378 0.012293590389546034 0 -0.015607416215454428 0.012129354492711179 0 -0.015540020487959676 0.012414299453038739 0 -0.015660854408972944 0.01234696752230534 0 -0.015767291539966193 0.011933745561009158 0 -0.015787819650151833 0.01220161144630005 0 -0.016095948830243664 0.012116592527640862 0 -0.015767291539966193 0.011933745561009158 0 -0.015607416215454428 0.012129354492711179 0 -0.015787819650151833 0.01220161144630005 0 -0.01575815839024609 0.012430144137111871 0 -0.015894096702410793 0.012505601086467021 0 -0.015646136399094117 0.012490107270355304 0 -0.015267948374127361 0.013351840213274891 0 -0.015113159919766542 0.013453792599050822 0 -0.015787819650151833 0.01220161144630005 0 -0.01575815839024609 0.012430144137111871 0 -0.015954973505775242 0.012363984628260931 0 -0.015787819650151833 0.01220161144630005 0 -0.01575815839024609 0.012430144137111871 0 -0.015660854408972944 0.01234696752230534 0 -0.015701761487783742 0.012681586302120873 0 -0.015267948374127361 0.013351840213274891 0 -0.01575815839024609 0.012430144137111871 0 -0.015928222494735939 0.012517327653394167 0 -0.015954973505775242 0.012363984628260931 0 -0.015113159919766542 0.013453792599050822 0 -0.015246926449788228 0.013204469342442163 0 -0.015540020487959676 0.012414299453038739 0 -0.015646136399094117 0.012490107270355304 0 -0.015419906087364437 0.012546257960585823 0 -0.015540020487959676 0.012414299453038739 0 -0.015660854408972944 0.01234696752230534 0 -0.015646136399094117 0.012490107270355304 0 -0.01575815839024609 0.012430144137111871 0 -0.015660854408972944 0.01234696752230534 0 -0.015646136399094117 0.012490107270355304 0 -0.015246926449788228 0.013204469342442163 0 -0.01524240641887219 0.012681405880665787 0 -0.015540020487959676 0.012414299453038739 0 -0.015419906087364437 0.012546257960585823 0 -0.015405237794117635 0.012532868240987566 0 -0.015540020487959676 0.012414299453038739 0 -0.015405237794117635 0.012532868240987566 0 -0.015499358149855378 0.012293590389546034 0 -0.015405237794117635 0.012532868240987566 0 -0.015416516003846466 0.01209231847386273 0 -0.015499358149855378 0.012293590389546034 0 -0.015607416215454428 0.012129354492711179 0 -0.015416516003846466 0.01209231847386273 0 -0.015499358149855378 0.012293590389546034 0 -0.014999916730739197 0.01199793416257462 0 -0.015416516003846466 0.01209231847386273 0 -0.014999895348593069 0.012891678847042997 0 -0.015405237794117635 0.012532868240987566 0 -0.015416516003846466 0.01209231847386273 0 -0.014999895348593069 0.012891678847042997 0 -0.015442146796739277 0.012685271267727704 0 -0.015405237794117635 0.012532868240987566 0 -0.014999895348593069 0.012891678847042997 0 -0.015650554671775639 0.012981585200801959 0 -0.014999990756661485 0.012892428808805497 0 -0.015354243822792815 0.013202828342705886 0 -0.015246926449788228 0.013204469342442163 0 -0.015000401670621123 0.012892236575609724 0 -0.014999990756661485 0.012892428808805497 0 -0.014999990100453522 0.0134946693531713 0 -0.015354243822792815 0.013202828342705886 0 -0.014999990100453522 0.0134946693531713 0 -0.015354243822792815 0.013202828342705886 0 -0.015760247365357929 0.01343985707693591 0 -0.015000884643527824 0.013494294761653442 0 -0.014886585626793193 0.014615893647135836 0 -0.015246926449788228 0.013204469342442163 0 -0.014886585626793193 0.014615893647135836 0 -0.015650554671775639 0.012981585200801959 0 -0.015354243822792815 0.013202828342705886 0 -0.015760247365357929 0.01343985707693591 0 -0.014655329652179038 0.014382363558030107 0 -0.014916941965082026 0.014401362548319323 0 -0.014864522627995721 0.014201184398531009 0 -0.014886585626793193 0.014615893647135836 0 -0.014305342501903257 0.015217093428918291 0 -0.015100395512016791 0.013982857176833747 0 -0.014969900026700348 0.014250384743415653 0 -0.01473872145089181 0.014563022832345927 0 -0.014999392161118822 0.013496864087401663 0 -0.015100395512016791 0.013982857176833747 0 -0.014969900026700348 0.014250384743415653 0 -0.014998872207478423 0.014999344105199187 0 -0.013819974213983597 0.014999176010221138 0 -0.01473872145089181 0.014563022832345927 0 -0.014969900026700348 0.014250384743415653 0 -0.014998872207478423 0.014999344105199187 0 -0.01473872145089181 0.014563022832345927 0 -0.014999392161118822 0.013496864087401663 0 -0.014969900026700348 0.014250384743415653 0 -0.014998872207478423 0.014999344105199187 0 -0.013817046192315149 0.014999978209728438 0 -0.013380980839947185 0.015493393780599317 0 -0.012913260815598567 0.014999985756104603 0 -0.013817260422612183 0.014999660604341623 0 -0.014305342501903257 0.015217093428918291 0 -0.013817046192315149 0.014999978209728438 0 -0.013976715489285569 0.015728080624727518 0 -0.013380980839947185 0.015493393780599317 0 -0.013976715489285569 0.015728080624727518 0 -0.013380980839947185 0.015493393780599317 0 -0.013437306180071594 0.016508181056074395 0 -0.013380980839947185 0.015493393780599317 0 -0.013437306180071594 0.016508181056074395 0 -0.012883730178550212 0.015973022388710865 0 -0.014158178358195411 0.016443175352542808 0 -0.013976715489285569 0.015728080624727518 0 -0.013437306180071594 0.016508181056074395 0 -0.014655329652179038 0.014382363558030107 0 -0.014864522627995721 0.014201184398531009 0 -0.014524081798866276 0.014228898739001003 0 -0.014886585626793193 0.014615893647135836 0 -0.013866416703031239 0.015489710252720572 0 -0.014384914760183026 0.014363426060064575 0 -0.014655329652179038 0.014382363558030107 0 -0.014524081798866276 0.014228898739001003 0 -0.012709796444642006 0.01656558743378321 0 -0.012562405476686538 0.016489977732780089 0 -0.012883730178550212 0.015973022388710865 0 -0.01491832718915455 0.014022172058618899 0 -0.014259848014139712 0.013681782914912273 0 -0.014164118317061904 0.013950082189670429 0 -0.013437306180071594 0.016508181056074395 0 -0.012709796444642006 0.01656558743378321 0 -0.012883730178550212 0.015973022388710865 0 -0.014384914760183026 0.014363426060064575 0 -0.014524081798866276 0.014228898739001003 0 -0.014170379186743387 0.014258860587097895 0 -0.015267948374127361 0.013351840213274891 0 -0.013573346151384211 0.015050251960467146 0 -0.013866416703031239 0.015489710252720572 0 -0.013573346151384211 0.015050251960467146 0 -0.012587772610508776 0.016543972052954863 0 -0.012556196708819347 0.016451715932000271 0 -0.012070603523505915 0.016588509838635305 0 -0.013114109036670658 0.015837247392423835 0 -0.01189452346780084 0.016200576733977762 0 -0.014880112875282223 0.012728457854223434 0 -0.014865266803729694 0.012302997007170077 0 -0.014325566082204791 0.013725853462544105 0 -0.014274674574611082 0.01357684862735067 0 -0.013877390657740948 0.013678793489014209 0 -0.013578320672137186 0.014969788111299107 0 -0.012767384622336684 0.015089484530742079 0 -0.014274674574611082 0.01357684862735067 0 -0.013877390657740948 0.013678793489014209 0 -0.01385209204786866 0.01360409491407779 0 -0.014880112875282223 0.012728457854223434 0 -0.013578320672137186 0.014969788111299107 0 -0.013573346151384211 0.015050251960467146 0 -0.013578320672137186 0.014969788111299107 0 -0.01344872221506623 0.015459778900290932 0 -0.01321274652708661 0.015477119934792873 0 -0.013157267360174356 0.015306305310934701 0 -0.014259848014139712 0.013681782914912273 0 -0.014164118317061904 0.013950082189670429 0 -0.014079490103879429 0.013695567087271251 0 -0.013573346151384211 0.015050251960467146 0 -0.013114109036670658 0.015837247392423835 0 -0.013578320672137186 0.014969788111299107 0 -0.013114109036670658 0.015837247392423835 0 -0.013114109036670658 0.015837247392423835 0 -0.012192207389993638 0.015859366935886587 0 -0.012562405476686538 0.016489977732780089 0 -0.012883730178550212 0.015973022388710865 0 -0.012295832788400598 0.015754923004393222 0 -0.012459120871648206 0.016459961940440145 0 -0.012220926233544697 0.015736934715230178 0 -0.011949564892373195 0.016196126522608163 0 -0.013380980839947185 0.015493393780599317 0 -0.012883730178550212 0.015973022388710865 0 -0.012913260815598567 0.014999985756104603 0 -0.012883730178550212 0.015973022388710865 0 -0.012295832788400598 0.015754923004393222 0 -0.012913260815598567 0.014999985756104603 0 -0.012295832788400598 0.015754923004393222 0 -0.012913260815598567 0.014999985756104603 0 -0.012009408689510465 0.014999983788175778 0 -0.012009261569621319 0.014999977728519298 0 -0.01174284809489484 0.015485576514255786 0 -0.011153271248216551 0.014999974819989152 0 -0.01174284809489484 0.015485576514255786 0 -0.011252995944073862 0.015538447582768043 0 -0.011153271248216551 0.014999974819989152 0 -0.012220926233544697 0.015736934715230178 0 -0.012009261569621319 0.014999977728519298 0 -0.01174284809489484 0.015485576514255786 0 -0.012192207389993638 0.015859366935886587 0 -0.012009401666040387 0.014999961619057808 0 -0.012220926233544697 0.015736934715230178 0 -0.01174284809489484 0.015485576514255786 0 -0.011949564892373195 0.016196126522608163 0 -0.01174284809489484 0.015485576514255786 0 -0.011429277813831523 0.015923214629259736 0 -0.011252995944073862 0.015538447582768043 0 -0.011429277813831523 0.015923214629259736 0 -0.011597311805004442 0.016250144155679987 0 -0.011985913297342974 0.016175502004615788 0 -0.011429277813831523 0.015923214629259736 0 -0.011597311805004442 0.016250144155679987 0 -0.01104663074085503 0.016034064276462315 0 -0.011498829851911854 0.015947909903935961 0 -0.01189452346780084 0.016200576733977762 0 -0.01174284809489484 0.015485576514255786 0 -0.011429277813831523 0.015923214629259736 0 -0.011949564892373195 0.016196126522608163 0 -0.012767384622336684 0.015089484530742079 0 -0.013443113362323057 0.013613739118401583 0 -0.013877390657740948 0.013678793489014209 0 -0.01385209204786866 0.01360409491407779 0 -0.013435325097244794 0.013623664496247904 0 -0.012556196708819347 0.016451715932000271 0 -0.011985913297342974 0.016175502004615788 0 -0.012070603523505915 0.016588509838635305 0 -0.014865266803729694 0.012302997007170077 0 -0.013443113362323057 0.013613739118401583 0 -0.011597311805004442 0.016250144155679987 0 -0.012070603523505915 0.016588509838635305 0 -0.01157065045993879 0.016624803840129231 0 -0.011597311805004442 0.016250144155679987 0 -0.011985913297342974 0.016175502004615788 0 -0.012070603523505915 0.016588509838635305 0 -0.013443113362323057 0.013613739118401583 0 -0.011841591399639223 0.015047099853340257 0 -0.011597311805004442 0.016250144155679987 0 -0.01157065045993879 0.016624803840129231 0 -0.010987220392378663 0.016566927200007919 0 -0.015327222993818309 0.010860062170647961 0 -0.015442126269003343 0.011064806921715414 0 -0.015197293660938241 0.011088423635212329 0 -0.015473129445973939 0.011276799653873832 0 -0.015242762582359869 0.011432847756483273 0 -0.015197293660938241 0.011088423635212329 0 -0.015473129445973939 0.011276799653873832 0 -0.015442126269003343 0.011064806921715414 0 -0.015197293660938241 0.011088423635212329 0 -0.015473129445973939 0.011276799653873832 0 -0.015628878791183999 0.011167341492088262 0 -0.015660800120828173 0.011484414748296066 0 -0.015473129445973939 0.011276799653873832 0 -0.015442126269003343 0.011064806921715414 0 -0.015628878791183999 0.011167341492088262 0 -0.015549454471364906 0.010926578498759188 0 -0.015327222993818309 0.010860062170647961 0 -0.015442126269003343 0.011064806921715414 0 -0.015549454471364906 0.010926578498759188 0 -0.015442126269003343 0.011064806921715414 0 -0.015628878791183999 0.011167341492088262 0 -0.015750957050777871 0.010974885036148484 0 -0.015817144634575411 0.011279771096067393 0 -0.015628878791183999 0.011167341492088262 0 -0.015750957050777871 0.010974885036148484 0 -0.015549454471364906 0.010926578498759188 0 -0.015628878791183999 0.011167341492088262 0 -0.01621637843504983 0.012551068083091019 0 -0.015954973505775242 0.012363984628260931 0 -0.016095948830243664 0.012116592527640862 0 -0.015928222494735939 0.012517327653394167 0 -0.01621637843504983 0.012551068083091019 0 -0.015954973505775242 0.012363984628260931 0 -0.015267948374127361 0.013351840213274891 0 -0.014880112875282223 0.012728457854223434 0 -0.014880112875282223 0.012728457854223434 0 -0.016049119183544656 0.011521606783458076 0 -0.015787819650151833 0.01220161144630005 0 -0.015954973505775242 0.012363984628260931 0 -0.016095948830243664 0.012116592527640862 0 -0.015817144634575411 0.011279771096067393 0 -0.015628878791183999 0.011167341492088262 0 -0.015660800120828173 0.011484414748296066 0 -0.015767291539966193 0.011933745561009158 0 -0.016095948830243664 0.012116592527640862 0 -0.015805295586763034 0.011588286163547522 0 -0.016049119183544656 0.011521606783458076 0 -0.01581503753368526 0.011656008185263867 0 -0.015817144634575411 0.011279771096067393 0 -0.015660800120828173 0.011484414748296066 0 -0.015805295586763034 0.011588286163547522 0 -0.015660800120828173 0.011484414748296066 0 -0.015805295586763034 0.011588286163547522 0 -0.01569773672659466 0.011520955832275491 0 -0.015660800120828173 0.011484414748296066 0 -0.015673590182241987 0.011517168405768566 0 -0.01569773672659466 0.011520955832275491 0 -0.015660800120828173 0.011484414748296066 0 -0.015552834508071727 0.011587536172558819 0 -0.015517138247847175 0.011446075582868679 0 -0.015660800120828173 0.011484414748296066 0 -0.015552834508071727 0.011587536172558819 0 -0.015673590182241987 0.011517168405768566 0 -0.015552834508071727 0.011587536172558819 0 -0.015242762582359869 0.011432847756483273 0 -0.015259710530264668 0.011683853969208253 0 -0.015552834508071727 0.011587536172558819 0 -0.015517138247847175 0.011446075582868679 0 -0.015242762582359869 0.011432847756483273 0 -0.015473129445973939 0.011276799653873832 0 -0.015517138247847175 0.011446075582868679 0 -0.015242762582359869 0.011432847756483273 0 -0.015473129445973939 0.011276799653873832 0 -0.015660800120828173 0.011484414748296066 0 -0.015517138247847175 0.011446075582868679 0 -0.01483325551420054 0.011466822128890553 0 -0.014618514968940169 0.01128236655003516 0 -0.014979600605354046 0.011261922878137223 0 -0.01483325551420054 0.011466822128890553 0 -0.015242762582359869 0.011432847756483273 0 -0.014979600605354046 0.011261922878137223 0 -0.015242762582359869 0.011432847756483273 0 -0.015259710530264668 0.011683853969208253 0 -0.014918063683218798 0.01174930589507891 0 -0.01483325551420054 0.011466822128890553 0 -0.015242762582359869 0.011432847756483273 0 -0.014918063683218798 0.01174930589507891 0 -0.01479942455338994 0.011793656013241479 0 -0.014497287015203876 0.01153291375138104 0 -0.01483325551420054 0.011466822128890553 0 -0.014918063683218798 0.01174930589507891 0 -0.014461102164855487 0.01153151268616041 0 -0.014804515756917935 0.011783301085773471 0 -0.014432442206445607 0.011768695966681147 0 -0.014461102164855487 0.01153151268616041 0 -0.014432442206445607 0.011768695966681147 0 -0.01424509708971284 0.011645204302996931 0 -0.014461102164855487 0.01153151268616041 0 -0.01424509708971284 0.011645204302996931 0 -0.013948556196100451 0.011659614424679766 0 -0.01413832244768792 0.011877188788410363 0 -0.014432442206445607 0.011768695966681147 0 -0.01424509708971284 0.011645204302996931 0 -0.01413832244768792 0.011877188788410363 0 -0.01424509708971284 0.011645204302996931 0 -0.014225345850255196 0.011327856922431143 0 -0.013948556196100451 0.011659614424679766 0 -0.014054140559287458 0.011482472527253637 0 -0.013966671675463694 0.011626696478191713 0 -0.01424509708971284 0.011645204302996931 0 -0.014225345850255196 0.011327856922431143 0 -0.014461102164855487 0.01153151268616041 0 -0.01483325551420054 0.011466822128890553 0 -0.014618514968940169 0.01128236655003516 0 -0.014461102164855487 0.01153151268616041 0 -0.014225345850255196 0.011327856922431143 0 -0.014618514968940169 0.01128236655003516 0 -0.014461102164855487 0.01153151268616041 0 -0.014225345850255196 0.011327856922431143 0 -0.014618514968940169 0.01128236655003516 0 -0.014470391690335786 0.011059109181974898 0 -0.014618514968940169 0.01128236655003516 0 -0.014470391690335786 0.011059109181974898 0 -0.014780467939224835 0.011047097266274489 0 -0.013953320532278929 0.011516190784539171 0 -0.013987168067317526 0.011406435522515157 0 -0.013901822606081821 0.011399459636917849 0 -0.014054140559287458 0.011482472527253637 0 -0.014382308751446776 0.011010450592696099 0 -0.013987168067317526 0.011406435522515157 0 -0.013901822606081821 0.011399459636917849 0 -0.013933524541676703 0.011324055770088238 0 -0.013987168067317526 0.011406435522515157 0 -0.013933524541676703 0.011324055770088238 0 -0.01402622392520904 0.011328937993211875 0 -0.014382308751446776 0.011010450592696099 0 -0.013461014159100117 0.01213119229658194 0 -0.014470391690335786 0.011059109181974898 0 -0.014780467939224835 0.011047097266274489 0 -0.01466710843124411 0.010816295937315961 0 -0.014780467939224835 0.011047097266274489 0 -0.015010948604699871 0.010825014638315859 0 -0.01466710843124411 0.010816295937315961 0 -0.014618514968940169 0.01128236655003516 0 -0.014780467939224835 0.011047097266274489 0 -0.014979600605354046 0.011261922878137223 0 -0.015242762582359869 0.011432847756483273 0 -0.014979600605354046 0.011261922878137223 0 -0.015197293660938241 0.011088423635212329 0 -0.014780467939224835 0.011047097266274489 0 -0.014979600605354046 0.011261922878137223 0 -0.015197293660938241 0.011088423635212329 0 -0.015327222993818309 0.010860062170647961 0 -0.015197293660938241 0.011088423635212329 0 -0.015010948604699871 0.010825014638315859 0 -0.014780467939224835 0.011047097266274489 0 -0.015197293660938241 0.011088423635212329 0 -0.015010948604699871 0.010825014638315859 0 -0.013443113362323057 0.013613739118401583 0 -0.014198070577763174 0.012051472286130637 0 -0.013320613470585423 0.013488986293371715 0 -0.012954730868108246 0.013492823134337157 0 -0.012990815463920103 0.013437160605455759 0 -0.012954730868108246 0.013492823134337157 0 -0.012670990806358418 0.013395520706986399 0 -0.012601489039312437 0.013503067545029255 0 -0.010408596851030395 0.01650027188990642 0 -0.010584817654483842 0.016236653882268939 0 -0.010116828074522339 0.016148513171827784 0 -0.014198070577763174 0.012051472286130637 0 -0.013461014159100117 0.01213119229658194 0 -0.011841591399639223 0.015047099853340257 0 -0.011472088148466862 0.014972174202999022 0 -0.010987220392378663 0.016566927200007919 0 -0.010420514894483545 0.016500747206920463 0 -0.010584817654483842 0.016236653882268939 0 -0.012954730868108246 0.013492823134337157 0 -0.012990815463920103 0.013437160605455759 0 -0.012670990806358418 0.013395520706986399 0 -0.011472088148466862 0.014972174202999022 0 -0.01041081753941687 0.016555242746219813 0 -0.010728779132534593 0.015923839833061712 0 -0.010584817654483842 0.016236653882268939 0 -0.010244831100755402 0.015778077755378494 0 -0.010728779132534593 0.015923839833061712 0 -0.010584817654483842 0.016236653882268939 0 -0.01104663074085503 0.016034064276462315 0 -0.011597311805004442 0.016250144155679987 0 -0.010987220392378663 0.016566927200007919 0 -0.01104663074085503 0.016034064276462315 0 -0.010987220392378663 0.016566927200007919 0 -0.010584817654483842 0.016236653882268939 0 -0.01104663074085503 0.016034064276462315 0 -0.011429277813831523 0.015923214629259736 0 -0.01104663074085503 0.016034064276462315 0 -0.011252995944073862 0.015538447582768043 0 -0.010728779132534593 0.015923839833061712 0 -0.01104663074085503 0.016034064276462315 0 -0.010791419817921267 0.015588679107639959 0 -0.01104663074085503 0.016034064276462315 0 -0.011252995944073862 0.015538447582768043 0 -0.010791419817921267 0.015588679107639959 0 -0.010728779132534593 0.015923839833061712 0 -0.010791419817921267 0.015588679107639959 0 -0.010244831100755402 0.015778077755378494 0 -0.010791419817921267 0.015588679107639959 0 -0.01029709847099145 0.014999959594869999 0 -0.010244831100755402 0.015778077755378494 0 -0.010791419817921267 0.015588679107639959 0 -0.011153271248216551 0.014999974819989152 0 -0.01029709847099145 0.014999959594869999 0 -0.011252995944073862 0.015538447582768043 0 -0.010791419817921267 0.015588679107639959 0 -0.011153271248216551 0.014999974819989152 0 -0.0098271760292666654 0.015384340537833639 0 -0.0094450622591979085 0.015426453421674698 0 -0.0094411925635444951 0.015000013101190429 0 -0.0098271760292666654 0.015384340537833639 0 -0.0094411925635444951 0.015000013101190429 0 -0.01029709847099145 0.014999959594869999 0 -0.0098271760292666654 0.015384340537833639 0 -0.01029709847099145 0.014999959594869999 0 -0.010244831100755402 0.015778077755378494 0 -0.0098271760292666654 0.015384340537833639 0 -0.010244831100755402 0.015778077755378494 0 -0.009721852343793037 0.015743989787625857 0 -0.0094450622591979085 0.015426453421674698 0 -0.009721852343793037 0.015743989787625857 0 -0.0091802418908130366 0.015799379392482528 0 -0.0098271760292666654 0.015384340537833639 0 -0.0094450622591979085 0.015426453421674698 0 -0.009721852343793037 0.015743989787625857 0 -0.009721852343793037 0.015743989787625857 0 -0.0095654346689464497 0.016076979236642936 0 -0.0091802418908130366 0.015799379392482528 0 -0.0095654346689464497 0.016076979236642936 0 -0.010116828074522339 0.016148513171827784 0 -0.0097908486753406198 0.016418506625161696 0 -0.009721852343793037 0.015743989787625857 0 -0.0095654346689464497 0.016076979236642936 0 -0.010116828074522339 0.016148513171827784 0 -0.010584817654483842 0.016236653882268939 0 -0.010244831100755402 0.015778077755378494 0 -0.010116828074522339 0.016148513171827784 0 -0.010244831100755402 0.015778077755378494 0 -0.009721852343793037 0.015743989787625857 0 -0.010116828074522339 0.016148513171827784 0 -0.011472088148466862 0.014972174202999022 0 -0.010796889495186507 0.01489272523572773 0 -0.012245566647827739 0.013426091155126827 0 -0.012172606687620952 0.013539740277614466 0 -0.011881008603854902 0.013380480826393331 0 -0.012781295057135445 0.012459395246295279 0 -0.013461014159100117 0.01213119229658194 0 -0.011823689569167751 0.013555704240131567 0 -0.012172606687620952 0.013539740277614466 0 -0.011881008603854902 0.013380480826393331 0 -0.010408596851030395 0.01650027188990642 0 -0.010116828074522339 0.016148513171827784 0 -0.0097908486753406198 0.016418506625161696 0 -0.011472088148466862 0.014972174202999022 0 -0.013461014159100117 0.01213119229658194 0 -0.0095654346689464497 0.016076979236642936 0 -0.0097908486753406198 0.016418506625161696 0 -0.0092037947297511167 0.016324966537958743 0 -0.011823689569167751 0.013555704240131567 0 -0.011881008603854902 0.013380480826393331 0 -0.011518292237895444 0.013339060815437667 0 -0.010796889495186507 0.01489272523572773 0 -0.010426593844166377 0.014875358392516353 0 -0.011823689569167751 0.013555704240131567 0 -0.011518292237895444 0.013339060815437667 0 -0.011479300589878455 0.01356976482264694 0 -0.011518292237895444 0.013339060815437667 0 -0.011300602206172924 0.01345955117432167 0 -0.011479300589878455 0.01356976482264694 0 -0.011168436908532168 0.013303480924587153 0 -0.011300602206172924 0.01345955117432167 0 -0.011147741939063276 0.013581464684321077 0 -0.011300602206172924 0.01345955117432167 0 -0.011147741939063276 0.013581464684321077 0 -0.011479300589878455 0.01356976482264694 0 -0.010426593844166377 0.014875358392516353 0 -0.009660358665692332 0.014218771464840739 0 -0.011518292237895444 0.013339060815437667 0 -0.011168436908532168 0.013303480924587153 0 -0.011300602206172924 0.01345955117432167 0 -0.0086492405988001213 0.016245773376104014 0 -0.0091802418908130366 0.015799379392482528 0 -0.0087111833770025481 0.015553480949517164 0 -0.009660358665692332 0.014218771464840739 0 -0.0085750351788434157 0.015620202302540073 0 -0.0092037947297511167 0.016324966537958743 0 -0.0086492405988001213 0.016245773376104014 0 -0.0091802418908130366 0.015799379392482528 0 -0.0095654346689464497 0.016076979236642936 0 -0.0092037947297511167 0.016324966537958743 0 -0.0091802418908130366 0.015799379392482528 0 -0.0094450622591979085 0.015426453421674698 0 -0.0091802418908130366 0.015799379392482528 0 -0.0090913412672348811 0.015287294735060724 0 -0.0091802418908130366 0.015799379392482528 0 -0.0087111833770025481 0.015553480949517164 0 -0.0090913412672348811 0.015287294735060724 0 -0.0085750351788434157 0.015620202302540073 0 -0.0085971880719118536 0.015000125779250237 0 -0.0085750351788434157 0.015620202302540073 0 -0.0090483925779414158 0.015286537092962417 0 -0.0085351668487844406 0.015608955183865039 0 -0.0085972186343345764 0.01499999940420616 0 -0.0089870763372624403 0.015304677580459827 0 -0.0094409963607352231 0.014999998640244589 0 -0.0085972186343345764 0.01499999940420616 0 -0.0089870763372624403 0.015304677580459827 0 -0.0094408929960283789 0.015000086430537834 0 -0.0090483925779414158 0.015286537092962417 0 -0.0094450622591979085 0.015426453421674698 0 -0.0094411925635444951 0.015000013101190429 0 -0.0090913412672348811 0.015287294735060724 0 -0.007331705824322677 0.014999991145918642 0 -0.0079644613733975151 0.014999991668913696 0 -0.0077916130060629663 0.015490708658486072 0 -0.0085223899033585512 0.015593278869398226 0 -0.0079644613733975151 0.014999991668913696 0 -0.0077916130060629663 0.015490708658486072 0 -0.0085223899033585512 0.015593278869398226 0 -0.0085971814999974451 0.014999991569721415 0 -0.0079644613733975151 0.014999991668913696 0 -0.0086700028150404687 0.015146308024059064 0 -0.0088796421802285249 0.014801826898228707 0 -0.0090400439578600528 0.01489031218783086 0 -0.0085750351788434157 0.015620202302540073 0 -0.0084024723255779789 0.015525783348258194 0 -0.0085223899033585512 0.015593278869398226 0 -0.0077916130060629663 0.015490708658486072 0 -0.008001460532217208 0.015927591533539152 0 -0.0077916130060629663 0.015490708658486072 0 -0.0075673472752979783 0.015844558517860222 0 -0.008001460532217208 0.015927591533539152 0 -0.0073217168327882479 0.015563769469756447 0 -0.0077916130060629663 0.015490708658486072 0 -0.0075673472752979783 0.015844558517860222 0 -0.0088969962261357151 0.014308210169891198 0 -0.0084024723255779789 0.015525783348258194 0 -0.0074931610691479971 0.016253020274127908 0 -0.0075673472752979783 0.015844558517860222 0 -0.008001460532217208 0.015927591533539152 0 -0.009398267701684582 0.014636715150181608 0 -0.0090705687666270823 0.01460503691434264 0 -0.0090400439578600528 0.01489031218783086 0 -0.0088969962261357151 0.014308210169891198 0 -0.0096847858375928835 0.013398549948874405 0 -0.0087356016036533122 0.014568194041764579 0 -0.0086700028150404687 0.015146308024059064 0 -0.0088796421802285249 0.014801826898228707 0 -0.0087356016036533122 0.014568194041764579 0 -0.0090705687666270823 0.01460503691434264 0 -0.0088796421802285249 0.014801826898228707 0 -0.009660358665692332 0.014218771464840739 0 -0.0096847858375928835 0.013398549948874405 0 -0.0090705687666270823 0.01460503691434264 0 -0.0088796421802285249 0.014801826898228707 0 -0.0090400439578600528 0.01489031218783086 0 -0.010085466941226194 0.012099061860330069 0 -0.010161439487883128 0.012097962019961829 0 -0.010132513738051512 0.012051607212678306 0 -0.009660358665692332 0.014218771464840739 0 -0.011754895812691664 0.011921420839337707 0 -0.010085466941226194 0.012099061860330069 0 -0.010132513738051512 0.012051607212678306 0 -0.010104092770101063 0.011993523346039573 0 -0.010161439487883128 0.012097962019961829 0 -0.010132513738051512 0.012051607212678306 0 -0.010168628307201673 0.012028968939429488 0 -0.010133630284200813 0.012016533670627322 0 -0.010168628307201673 0.012028968939429488 0 -0.010157383791820272 0.011990478648973298 0 -0.010132513738051512 0.012051607212678306 0 -0.010133630284200813 0.012016533670627322 0 -0.010168628307201673 0.012028968939429488 0 -0.010132513738051512 0.012051607212678306 0 -0.010133630284200813 0.012016533670627322 0 -0.010104092770101063 0.011993523346039573 0 -0.01022449005175596 0.012106720446487454 0 -0.010161439487883128 0.012097962019961829 0 -0.010218379329669944 0.01202055730402176 0 -0.010168628307201673 0.012028968939429488 0 -0.010218379329669944 0.01202055730402176 0 -0.010186875442005984 0.01198292428205968 0 -0.010161439487883128 0.012097962019961829 0 -0.010168628307201673 0.012028968939429488 0 -0.010218379329669944 0.01202055730402176 0 -0.010218379329669944 0.01202055730402176 0 -0.010186875442005984 0.01198292428205968 0 -0.010215354078542772 0.011928313219351899 0 -0.010168628307201673 0.012028968939429488 0 -0.010186875442005984 0.01198292428205968 0 -0.010157383791820272 0.011990478648973298 0 -0.010186875442005984 0.01198292428205968 0 -0.010172516604012742 0.011949385229785456 0 -0.010157383791820272 0.011990478648973298 0 -0.010186875442005984 0.01198292428205968 0 -0.010172516604012742 0.011949385229785456 0 -0.010215354078542772 0.011928313219351899 0 -0.010172516604012742 0.011949385229785456 0 -0.010215354078542772 0.011928313219351899 0 -0.010188369131197949 0.011915910429458281 0 -0.010172516604012742 0.011949385229785456 0 -0.010188369131197949 0.011915910429458281 0 -0.010169070163120535 0.011907899471627622 0 -0.010226063225260533 0.011842362501416652 0 -0.010215354078542772 0.011928313219351899 0 -0.010194548120449849 0.011867512591394782 0 -0.010215354078542772 0.011928313219351899 0 -0.010188369131197949 0.011915910429458281 0 -0.010194548120449849 0.011867512591394782 0 -0.010188369131197949 0.011915910429458281 0 -0.010194548120449849 0.011867512591394782 0 -0.010169070163120535 0.011907899471627622 0 -0.010134570405254312 0.011895793738984526 0 -0.010184716813384261 0.011847430479244234 0 -0.010196249586689939 0.011809620704244843 0 -0.011240778356239987 0.011613132366225862 0 -0.010314367346937471 0.011697628298417511 0 -0.010177059598829726 0.011868483496105401 0 -0.010134570405254312 0.011895793738984526 0 -0.010184716813384261 0.011847430479244234 0 -0.010194548120449849 0.011867512591394782 0 -0.010177059598829726 0.011868483496105401 0 -0.010190804945248311 0.011841681471365294 0 -0.010177059598829726 0.011868483496105401 0 -0.010190804945248311 0.011841681471365294 0 -0.010184716813384261 0.011847430479244234 0 -0.010194548120449849 0.011867512591394782 0 -0.010177059598829726 0.011868483496105401 0 -0.010169070163120535 0.011907899471627622 0 -0.010169070163120535 0.011907899471627622 0 -0.010133982967231244 0.01190754819820628 0 -0.01015072143460357 0.011941618943522631 0 -0.010157113443329516 0.011894766659724098 0 -0.010169070163120535 0.011907899471627622 0 -0.010133982967231244 0.01190754819820628 0 -0.010177059598829726 0.011868483496105401 0 -0.010157113443329516 0.011894766659724098 0 -0.010169070163120535 0.011907899471627622 0 -0.010177059598829726 0.011868483496105401 0 -0.010157113443329516 0.011894766659724098 0 -0.010134570405254312 0.011895793738984526 0 -0.010157113443329516 0.011894766659724098 0 -0.010133982967231244 0.01190754819820628 0 -0.010134570405254312 0.011895793738984526 0 -0.01117723687296494 0.01162325622924042 0 -0.011240778356239987 0.011613132366225862 0 -0.010133982967231244 0.01190754819820628 0 -0.010130299526934693 0.011971243967796329 0 -0.01010544969738727 0.011991586583503758 0 -0.011240778356239987 0.011613132366225862 0 -0.011754895812691664 0.011921420839337707 0 -0.010133982967231244 0.01190754819820628 0 -0.01015072143460357 0.011941618943522631 0 -0.010130299526934693 0.011971243967796329 0 -0.010133982967231244 0.01190754819820628 0 -0.010132749776562852 0.011894927269711404 0 -0.01010544969738727 0.011991586583503758 0 -0.010172516604012742 0.011949385229785456 0 -0.010169070163120535 0.011907899471627622 0 -0.01015072143460357 0.011941618943522631 0 -0.01015072143460357 0.011941618943522631 0 -0.010148790413283872 0.011967196404000725 0 -0.010130299526934693 0.011971243967796329 0 -0.010172516604012742 0.011949385229785456 0 -0.01015072143460357 0.011941618943522631 0 -0.010148790413283872 0.011967196404000725 0 -0.010172516604012742 0.011949385229785456 0 -0.010148790413283872 0.011967196404000725 0 -0.010157383791820272 0.011990478648973298 0 -0.010137390899784339 0.011987250442222918 0 -0.010148790413283872 0.011967196404000725 0 -0.010130299526934693 0.011971243967796329 0 -0.010137390899784339 0.011987250442222918 0 -0.010148790413283872 0.011967196404000725 0 -0.010157383791820272 0.011990478648973298 0 -0.010133630284200813 0.012016533670627322 0 -0.010137390899784339 0.011987250442222918 0 -0.010157383791820272 0.011990478648973298 0 -0.010130299526934693 0.011971243967796329 0 -0.010116025445367143 0.01199136503802809 0 -0.01010544969738727 0.011991586583503758 0 -0.010137390899784339 0.011987250442222918 0 -0.010130299526934693 0.011971243967796329 0 -0.010116025445367143 0.01199136503802809 0 -0.010133630284200813 0.012016533670627322 0 -0.010137390899784339 0.011987250442222918 0 -0.010116025445367143 0.01199136503802809 0 -0.010133630284200813 0.012016533670627322 0 -0.010116025445367143 0.01199136503802809 0 -0.010104092770101063 0.011993523346039573 0 -0.011467953899418942 0.011939430250750878 0 -0.011754895812691664 0.011921420839337707 0 -0.013729885271264768 0.011376319863256695 0 -0.013806146499358091 0.011312280905498611 0 -0.013812267124309744 0.011446975540074907 0 -0.013639264506839058 0.01143151292775327 0 -0.01365017303649888 0.0113119024684052 0 -0.013729885271264768 0.011376319863256695 0 -0.011754895812691664 0.011921420839337707 0 -0.01277695075638713 0.012462339583935585 0 -0.01365017303649888 0.0113119024684052 0 -0.013729885271264768 0.011376319863256695 0 -0.013806146499358091 0.011312280905498611 0 -0.012781295057135445 0.012459395246295279 0 -0.01277695075638713 0.012462339583935585 0 -0.013901822606081821 0.011399459636917849 0 -0.013933524541676703 0.011324055770088238 0 -0.013806146499358091 0.011312280905498611 0 -0.013901822606081821 0.011399459636917849 0 -0.013806146499358091 0.011312280905498611 0 -0.013812267124309744 0.011446975540074907 0 -0.013953320532278929 0.011516190784539171 0 -0.013901822606081821 0.011399459636917849 0 -0.013812267124309744 0.011446975540074907 0 -0.013639264506839058 0.01143151292775327 0 -0.013729885271264768 0.011376319863256695 0 -0.013812267124309744 0.011446975540074907 0 -0.013639264506839058 0.01143151292775327 0 -0.013812267124309744 0.011446975540074907 0 -0.013688149794724691 0.011583588321564142 0 -0.013812267124309744 0.011446975540074907 0 -0.013688149794724691 0.011583588321564142 0 -0.013871102804813481 0.011541759841652217 0 -0.011240778356239987 0.011613132366225862 0 -0.012161773709621378 0.011555340633370379 0 -0.013688149794724691 0.011583588321564142 0 -0.013871102804813481 0.011541759841652217 0 -0.013948556196100451 0.011659614424679766 0 -0.013953320532278929 0.011516190784539171 0 -0.013871102804813481 0.011541759841652217 0 -0.013948556196100451 0.011659614424679766 0 -0.013953320532278929 0.011516190784539171 0 -0.013812267124309744 0.011446975540074907 0 -0.013871102804813481 0.011541759841652217 0 -0.013688149794724691 0.011583588321564142 0 -0.013948556196100451 0.011659614424679766 0 -0.013746881169807053 0.011850799715390299 0 -0.010489492659259589 0.01154379420297429 0 -0.010470771968259887 0.011627487112363803 0 -0.010529051598351085 0.011647969491859542 0 -0.012161773709621378 0.011555340633370379 0 -0.012182604535309569 0.011745618469761878 0 -0.010196785648370038 0.011829320603193184 0 -0.010189723920195955 0.011824201835187908 0 -0.010212264885476073 0.011823180509526299 0 -0.010377425591147132 0.011631835514470942 0 -0.010314367346937471 0.011697628298417511 0 -0.010470771968259887 0.011627487112363803 0 -0.010403761946426697 0.011620450640554631 0 -0.010455503120244607 0.011629365847200816 0 -0.010313392013844448 0.01171881572552352 0 -0.010239431706966283 0.011800615849995474 0 -0.010489492659259589 0.01154379420297429 0 -0.010470771968259887 0.011627487112363803 0 -0.010403761946426697 0.011620450640554631 0 -0.010403761946426697 0.011620450640554631 0 -0.010461022823519002 0.011592995003492004 0 -0.010212264885476073 0.011823180509526299 0 -0.010403761946426697 0.011620450640554631 0 -0.010461022823519002 0.011592995003492004 0 -0.010455503120244607 0.011629365847200816 0 -0.010196785648370038 0.011829320603193184 0 -0.010146398617220369 0.01183062056870747 0 -0.010125804775200855 0.011902383554581319 0 -0.010196785648370038 0.011829320603193184 0 -0.010146398617220369 0.01183062056870747 0 -0.010169198507512148 0.011822713494651835 0 -0.010146398617220369 0.01183062056870747 0 -0.010157919395534711 0.01182098616797006 0 -0.010169198507512148 0.011822713494651835 0 -0.010148551577808994 0.011818177530677983 0 -0.010108769211195955 0.011818954357965122 0 -0.010157919395534711 0.01182098616797006 0 -0.010146398617220369 0.01183062056870747 0 -0.010108769211195955 0.011818954357965122 0 -0.010157919395534711 0.01182098616797006 0 -0.010011658097081343 0.0117431666167266 0 -0.010014484419844321 0.011832367709483088 0 -0.010108769211195955 0.011818954357965122 0 -0.0095024982712845138 0.0120890664521067 0 -0.0097420406490650955 0.01210035887746749 0 -0.010148551577808994 0.011818177530677983 0 -0.010157919395534711 0.01182098616797006 0 -0.01018753657992821 0.011827995651876215 0 -0.010157919395534711 0.01182098616797006 0 -0.010181195723689092 0.011823607088449621 0 -0.01018753657992821 0.011827995651876215 0 -0.010196785648370038 0.011829320603193184 0 -0.010169198507512148 0.011822713494651835 0 -0.010189723920195955 0.011824201835187908 0 -0.010157919395534711 0.01182098616797006 0 -0.010169198507512148 0.011822713494651835 0 -0.010181195723689092 0.011823607088449621 0 -0.010169198507512148 0.011822713494651835 0 -0.010189723920195955 0.011824201835187908 0 -0.010181195723689092 0.011823607088449621 0 -0.010189723920195955 0.011824201835187908 0 -0.010190037918026884 0.011838294085655898 0 -0.010195029875154464 0.011830386955958651 0 -0.010226063225260533 0.011842362501416652 0 -0.010194548120449849 0.011867512591394782 0 -0.01018753657992821 0.011827995651876215 0 -0.010189723920195955 0.011824201835187908 0 -0.010181195723689092 0.011823607088449621 0 -0.010190037918026884 0.011838294085655898 0 -0.010181195723689092 0.011823607088449621 0 -0.01018753657992821 0.011827995651876215 0 -0.010190037918026884 0.011838294085655898 0 -0.010194548120449849 0.011867512591394782 0 -0.01018753657992821 0.011827995651876215 0 -0.010190037918026884 0.011838294085655898 0 -0.010194548120449849 0.011867512591394782 0 -0.010190037918026884 0.011838294085655898 0 -0.010190804945248311 0.011841681471365294 0 -0.010403761946426697 0.011620450640554631 0 -0.010212264885476073 0.011823180509526299 0 -0.010196249586689939 0.011809620704244843 0 -0.010489492659259589 0.01154379420297429 0 -0.010403761946426697 0.011620450640554631 0 -0.010443057803693399 0.011519355172007107 0 -0.010464790778041308 0.011432206308577502 0 -0.010489492659259589 0.01154379420297429 0 -0.010443057803693399 0.011519355172007107 0 -0.010190804945248311 0.011841681471365294 0 -0.010195029875154464 0.011830386955958651 0 -0.010212264885476073 0.011823180509526299 0 -0.010190037918026884 0.011838294085655898 0 -0.010190804945248311 0.011841681471365294 0 -0.010195029875154464 0.011830386955958651 0 -0.010190804945248311 0.011841681471365294 0 -0.010212264885476073 0.011823180509526299 0 -0.010184716813384261 0.011847430479244234 0 -0.010212264885476073 0.011823180509526299 0 -0.010184716813384261 0.011847430479244234 0 -0.010196249586689939 0.011809620704244843 0 -0.010189723920195955 0.011824201835187908 0 -0.010195029875154464 0.011830386955958651 0 -0.010212264885476073 0.011823180509526299 0 -0.010528926044612408 0.011766523163806778 0 -0.010361373055155887 0.01173682029704373 0 -0.010473829650355568 0.01165714931856518 0 -0.010528926044612408 0.011766523163806778 0 -0.010473829650355568 0.01165714931856518 0 -0.010796916666516002 0.0117083482390872 0 -0.010528926044612408 0.011766523163806778 0 -0.01057859445357435 0.011946889557504243 0 -0.010796916666516002 0.0117083482390872 0 -0.010528926044612408 0.011766523163806778 0 -0.01057859445357435 0.011946889557504243 0 -0.010361373055155887 0.01173682029704373 0 -0.0099672711980352251 0.012232423141917101 0 -0.010162034791596117 0.012082671100969599 0 -0.010087665554416652 0.012404886913742025 0 -0.0099893096855189854 0.012071017293788783 0 -0.010162034791596117 0.012082671100969599 0 -0.010082999426303333 0.0119767693371527 0 -0.0099672711980352251 0.012232423141917101 0 -0.0099893096855189854 0.012071017293788783 0 -0.010162034791596117 0.012082671100969599 0 -0.010313392013844448 0.01171881572552352 0 -0.010260526109508918 0.011917113348721272 0 -0.010162034791596117 0.012082671100969599 0 -0.010082999426303333 0.0119767693371527 0 -0.010125804775200855 0.011902383554581319 0 -0.010196785648370038 0.011829320603193184 0 -0.010162034791596117 0.012082671100969599 0 -0.010125804775200855 0.011902383554581319 0 -0.0099893096855189854 0.012071017293788783 0 -0.0099937645724455862 0.011960331423641732 0 -0.010082999426303333 0.0119767693371527 0 -0.0099937645724455862 0.011960331423641732 0 -0.010082999426303333 0.0119767693371527 0 -0.010058815856648199 0.011897886056010254 0 -0.010082999426303333 0.0119767693371527 0 -0.010058815856648199 0.011897886056010254 0 -0.010125804775200855 0.011902383554581319 0 -0.010108769211195955 0.011818954357965122 0 -0.010058815856648199 0.011897886056010254 0 -0.010125804775200855 0.011902383554581319 0 -0.010146398617220369 0.01183062056870747 0 -0.010108769211195955 0.011818954357965122 0 -0.010125804775200855 0.011902383554581319 0 -0.010014484419844321 0.011832367709483088 0 -0.010108769211195955 0.011818954357965122 0 -0.010058815856648199 0.011897886056010254 0 -0.010461022823519002 0.011592995003492004 0 -0.010473829650355568 0.01165714931856518 0 -0.010455503120244607 0.011629365847200816 0 -0.010461022823519002 0.011592995003492004 0 -0.010361373055155887 0.01173682029704373 0 -0.010473829650355568 0.01165714931856518 0 -0.010549127254313282 0.011680073421611904 0 -0.010538410881800665 0.011641410632128283 0 -0.010473829650355568 0.01165714931856518 0 -0.010485221772292707 0.011656617928751795 0 -0.0105038634922401 0.011703999500092085 0 -0.010470771968259887 0.011627487112363803 0 -0.010455503120244607 0.011629365847200816 0 -0.010485221772292707 0.011656617928751795 0 -0.010473829650355568 0.01165714931856518 0 -0.010455503120244607 0.011629365847200816 0 -0.010485221772292707 0.011656617928751795 0 -0.012182604535309569 0.011745618469761878 0 -0.011686393123530094 0.012078356574196912 0 -0.010470771968259887 0.011627487112363803 0 -0.010485221772292707 0.011656617928751795 0 -0.010529051598351085 0.011647969491859542 0 -0.010485221772292707 0.011656617928751795 0 -0.010529051598351085 0.011647969491859542 0 -0.0105038634922401 0.011703999500092085 0 -0.013746881169807053 0.011850799715390299 0 -0.013941392418318722 0.011971577920743206 0 -0.01384060587849689 0.012189093341231251 0 -0.013948556196100451 0.011659614424679766 0 -0.013746881169807053 0.011850799715390299 0 -0.013941392418318722 0.011971577920743206 0 -0.013948556196100451 0.011659614424679766 0 -0.013941392418318722 0.011971577920743206 0 -0.01413832244768792 0.011877188788410363 0 -0.013941392418318722 0.011971577920743206 0 -0.01384060587849689 0.012189093341231251 0 -0.01415477040385698 0.012129157602412097 0 -0.01057859445357435 0.011946889557504243 0 -0.010796916666516002 0.0117083482390872 0 -0.010918563539960579 0.012046928864033753 0 -0.011130646542567421 0.011844650160244082 0 -0.010796916666516002 0.0117083482390872 0 -0.010918563539960579 0.012046928864033753 0 -0.010529051598351085 0.011647969491859542 0 -0.010576398656301262 0.011741387993931535 0 -0.0105038634922401 0.011703999500092085 0 -0.011686393123530094 0.012078356574196912 0 -0.010538410881800665 0.011641410632128283 0 -0.010918563539960579 0.012046928864033753 0 -0.011089081474910095 0.012369391435622636 0 -0.010690553350356843 0.012331399622966225 0 -0.011130646542567421 0.011844650160244082 0 -0.010918563539960579 0.012046928864033753 0 -0.011245802062796663 0.012108850915947392 0 -0.010918563539960579 0.012046928864033753 0 -0.011245802062796663 0.012108850915947392 0 -0.011089081474910095 0.012369391435622636 0 -0.011686393123530094 0.012078356574196912 0 -0.013816562220107957 0.01196315662728435 0 -0.011158255322800407 0.011810045076741682 0 -0.011245802062796663 0.012108850915947392 0 -0.011747368608050507 0.012121110702308749 0 -0.011686393123530094 0.012078356574196912 0 -0.011277670913716495 0.011950000299718056 0 -0.011245802062796663 0.012108850915947392 0 -0.011487584607996339 0.01239209267851028 0 -0.011089081474910095 0.012369391435622636 0 -0.011487584607996339 0.01239209267851028 0 -0.011089081474910095 0.012369391435622636 0 -0.011253435534076628 0.012671133283555198 0 -0.011089081474910095 0.012369391435622636 0 -0.010950075913310186 0.012614715418101857 0 -0.010690553350356843 0.012331399622966225 0 -0.010950075913310186 0.012614715418101857 0 -0.010690553350356843 0.012331399622966225 0 -0.010666383003736998 0.012785919678494455 0 -0.011089081474910095 0.012369391435622636 0 -0.010950075913310186 0.012614715418101857 0 -0.011253435534076628 0.012671133283555198 0 -0.010690553350356843 0.012331399622966225 0 -0.010409658824870164 0.012574759007716341 0 -0.010666383003736998 0.012785919678494455 0 -0.010690553350356843 0.012331399622966225 0 -0.010409658824870164 0.012574759007716341 0 -0.010202496656313504 0.012193128912516126 0 -0.01057859445357435 0.011946889557504243 0 -0.010918563539960579 0.012046928864033753 0 -0.010690553350356843 0.012331399622966225 0 -0.01057859445357435 0.011946889557504243 0 -0.010690553350356843 0.012331399622966225 0 -0.010202496656313504 0.012193128912516126 0 -0.01057859445357435 0.011946889557504243 0 -0.010361373055155887 0.01173682029704373 0 -0.010202496656313504 0.012193128912516126 0 -0.010260526109508918 0.011917113348721272 0 -0.010145644883420481 0.012308749877008616 0 -0.010145644883420481 0.012308749877008616 0 -0.010050513325102949 0.012700494421354855 0 -0.010409658824870164 0.012574759007716341 0 -0.010202496656313504 0.012193128912516126 0 -0.01004542763076966 0.012727464833374178 0 -0.010409658824870164 0.012574759007716341 0 -0.01004542763076966 0.012727464833374178 0 -0.010387563801085516 0.01294938689690563 0 -0.01004542763076966 0.012727464833374178 0 -0.010387563801085516 0.01294938689690563 0 -0.010132143479140574 0.013158763449909501 0 -0.010387563801085516 0.01294938689690563 0 -0.010666383003736998 0.012785919678494455 0 -0.010649190831032418 0.013117403087166668 0 -0.010664743047892352 0.01273081438973497 0 -0.010729145248695483 0.013420662274431096 0 -0.010409658824870164 0.012574759007716341 0 -0.010387563801085516 0.01294938689690563 0 -0.010666383003736998 0.012785919678494455 0 -0.010649190831032418 0.013117403087166668 0 -0.01041633174687283 0.013255583410857211 0 -0.010660108563765855 0.013424170338556134 0 -0.010729145248695483 0.013420662274431096 0 -0.011533566471243878 0.011441103523858104 0 -0.010387563801085516 0.01294938689690563 0 -0.010649190831032418 0.013117403087166668 0 -0.01041633174687283 0.013255583410857211 0 -0.010387563801085516 0.01294938689690563 0 -0.01041633174687283 0.013255583410857211 0 -0.010132143479140574 0.013158763449909501 0 -0.009865741299881851 0.013341306283516876 0 -0.010132143479140574 0.013158763449909501 0 -0.010228837226326894 0.013570414849883685 0 -0.01041633174687283 0.013255583410857211 0 -0.010132143479140574 0.013158763449909501 0 -0.010228837226326894 0.013570414849883685 0 -0.01041633174687283 0.013255583410857211 0 -0.010228837226326894 0.013570414849883685 0 -0.010660108563765855 0.013424170338556134 0 -0.0095832722026320417 0.012141977705949955 0 -0.011533566471243878 0.011441103523858104 0 -0.011533566471243878 0.011441103523858104 0 -0.012427967215018092 0.01076270305792394 0 -0.0095695801908852983 0.0104920074931298 0 -0.010258487308559419 0.010262203437938199 0 -0.010295388512927097 0.011031140530722782 0 -0.0095695801908852983 0.0104920074931298 0 -0.010295388512927097 0.011031140530722782 0 -0.0093948637970581103 0.011111852790602509 0 -0.015359365616748603 0.010309592076907289 0 -0.014862149333885688 0.010070858824283437 0 -0.01542829692577565 0.010847496019513984 0 -0.015593832196407835 0.010357140551655774 0 -0.015359365616748603 0.010309592076907289 0 -0.01542829692577565 0.010847496019513984 0 -0.014937227354725139 0.010383379578107758 0 -0.015418618081809849 0.010143943930788603 0 -0.014791070383311114 0.010635059971817627 0 -0.014862149333885688 0.010070858824283437 0 -0.015374925963048526 0.010919120371931544 0 -0.014367160422207278 0.0099976113021513647 0 -0.014409597414113556 0.010857642480424871 0 -0.014791070383311114 0.010635059971817627 0 -0.011533566471243878 0.011441103523858104 0 -0.013479720047943207 0.011498873902978542 0 -0.014367160422207278 0.0099976113021513647 0 -0.014862149333885688 0.010070858824283437 0 -0.015388433841518999 0.0097023836354766819 0 -0.014367160422207278 0.0099976113021513647 0 -0.014791070383311114 0.010635059971817627 0 -0.014862149333885688 0.010070858824283437 0 -0.015359365616748603 0.010309592076907289 0 -0.014862149333885688 0.010070858824283437 0 -0.015527629010820446 0.010019770759096913 0 -0.014862149333885688 0.010070858824283437 0 -0.015527629010820446 0.010019770759096913 0 -0.015388433841518999 0.0097023836354766819 0 -0.015527629010820446 0.010019770759096913 0 -0.015388433841518999 0.0097023836354766819 0 -0.015887473084795278 0.0098620011044271236 0 -0.015593832196407835 0.010357140551655774 0 -0.015359365616748603 0.010309592076907289 0 -0.015527629010820446 0.010019770759096913 0 -0.011339536564803666 0.013270724674481694 0 -0.011050930013280301 0.012920397012136254 0 -0.011535930242287459 0.012852483299513724 0 -0.010717541121243996 0.013126049588198099 0 -0.011339536564803666 0.013270724674481694 0 -0.011050930013280301 0.012920397012136254 0 -0.010717541121243996 0.013126049588198099 0 -0.010749250384333123 0.013460786152930998 0 -0.011339536564803666 0.013270724674481694 0 -0.010950075913310186 0.012614715418101857 0 -0.010666383003736998 0.012785919678494455 0 -0.011050930013280301 0.012920397012136254 0 -0.010666383003736998 0.012785919678494455 0 -0.010717541121243996 0.013126049588198099 0 -0.011050930013280301 0.012920397012136254 0 -0.010950075913310186 0.012614715418101857 0 -0.011050930013280301 0.012920397012136254 0 -0.011253435534076628 0.012671133283555198 0 -0.011487584607996339 0.01239209267851028 0 -0.011253435534076628 0.012671133283555198 0 -0.011535930242287459 0.012852483299513724 0 -0.011050930013280301 0.012920397012136254 0 -0.011253435534076628 0.012671133283555198 0 -0.011535930242287459 0.012852483299513724 0 -0.011535930242287459 0.012852483299513724 0 -0.011948974020118599 0.013062928480718666 0 -0.011840063177900728 0.012595188973364937 0 -0.014741759843018015 0.01160480953905879 0 -0.014666705473651542 0.011738568153522781 0 -0.014796595086820154 0.0116938737768173 0 -0.014741759843018015 0.01160480953905879 0 -0.014666705473651542 0.011738568153522781 0 -0.014629938187048892 0.011578099344676214 0 -0.014426359776832112 0.011491004890247177 0 -0.013123398138574494 0.012181787510082148 0 -0.016097271615664835 0.0096908063090744897 0 -0.016113445686112889 0.0097621716954523954 0 -0.016355321275594099 0.0096048242821064403 0 -0.016538996848504527 0.0097486940400191863 0 -0.01594683529552449 0.010557806450723911 0 -0.016113445686112889 0.0097621716954523954 0 -0.016176095551687916 0.0099456229095438407 0 -0.016355321275594099 0.0096048242821064403 0 -0.014426359776832112 0.011491004890247177 0 -0.01594683529552449 0.010557806450723911 0 -0.014426359776832112 0.011491004890247177 0 -0.01466870872083645 0.010610831131725434 0 -0.016113445686112889 0.0097621716954523954 0 -0.016096832230003334 0.0099278101431737823 0 -0.016176095551687916 0.0099456229095438407 0 -0.016108764295531246 0.0096503793033545018 0 -0.016113445686112889 0.0097621716954523954 0 -0.015887473084795278 0.0098620011044271236 0 -0.011339536564803666 0.013270724674481694 0 -0.011535930242287459 0.012852483299513724 0 -0.011948974020118599 0.013062928480718666 0 -0.015388433841518999 0.0097023836354766819 0 -0.016108764295531246 0.0096503793033545018 0 -0.015887473084795278 0.0098620011044271236 0 -0.013479720047943207 0.011498873902978542 0 -0.014426359776832112 0.011491004890247177 0 -0.016113445686112889 0.0097621716954523954 0 -0.015887473084795278 0.0098620011044271236 0 -0.016096832230003334 0.0099278101431737823 0 -0.015527629010820446 0.010019770759096913 0 -0.015854576618527003 0.01010632111999398 0 -0.015887473084795278 0.0098620011044271236 0 -0.015593832196407835 0.010357140551655774 0 -0.015527629010820446 0.010019770759096913 0 -0.015854576618527003 0.01010632111999398 0 -0.015854576618527003 0.01010632111999398 0 -0.016026363663634947 0.0099833959766915878 0 -0.01623091202090891 0.010025579738552009 0 -0.015854576618527003 0.01010632111999398 0 -0.016026363663634947 0.0099833959766915878 0 -0.015887473084795278 0.0098620011044271236 0 -0.016026363663634947 0.0099833959766915878 0 -0.015887473084795278 0.0098620011044271236 0 -0.016096832230003334 0.0099278101431737823 0 -0.016538996848504527 0.0097486940400191863 0 -0.01656282013921364 0.0097658768467067739 0 -0.016096832230003334 0.0099278101431737823 0 -0.016176095551687916 0.0099456229095438407 0 -0.01623091202090891 0.010025579738552009 0 -0.016176095551687916 0.0099456229095438407 0 -0.01623091202090891 0.010025579738552009 0 -0.016316675448328353 0.01001261642279218 0 -0.016725239219519083 0.0098286845790832612 0 -0.016676654415672953 0.00960240678039735 0 -0.016832593995065401 0.0094796210181468492 0 -0.016725239219519083 0.0098286845790832612 0 -0.016676654415672953 0.00960240678039735 0 -0.01659722048306007 0.0097348596121876862 0 -0.016026363663634947 0.0099833959766915878 0 -0.016096832230003334 0.0099278101431737823 0 -0.01623091202090891 0.010025579738552009 0 -0.016676654415672953 0.00960240678039735 0 -0.016655480918354924 0.0094022343232414759 0 -0.016539526748721931 0.0095760455478410313 0 -0.016676654415672953 0.00960240678039735 0 -0.016832593995065401 0.0094796210181468492 0 -0.016655480918354924 0.0094022343232414759 0 -0.016832593995065401 0.0094796210181468492 0 -0.016655480918354924 0.0094022343232414759 0 -0.016765406682158632 0.0092864614380087241 0 -0.01656282013921364 0.0097658768467067739 0 -0.016837853590909335 0.0092883603892720008 0 -0.016316675448328353 0.01001261642279218 0 -0.016733463472654784 0.0099449823934352668 0 -0.01687106023073744 0.009243419947448251 0 -0.015593832196407835 0.010357140551655774 0 -0.015819995143574371 0.010500115330124942 0 -0.01542829692577565 0.010847496019513984 0 -0.016332643736033884 0.010096879155652059 0 -0.015418618081809849 0.010143943930788603 0 -0.015593832196407835 0.010357140551655774 0 -0.015854576618527003 0.01010632111999398 0 -0.015819995143574371 0.010500115330124942 0 -0.016249579702409412 0.010095014604949118 0 -0.016332643736033884 0.010096879155652059 0 -0.015854576618527003 0.01010632111999398 0 -0.01623091202090891 0.010025579738552009 0 -0.015819995143574371 0.010500115330124942 0 -0.01623091202090891 0.010025579738552009 0 -0.016316675448328353 0.01001261642279218 0 -0.016733463472654784 0.0099449823934352668 0 -0.016310207723308639 0.0095989927744658168 0 -0.016119377926188169 0.0097206342421424768 0 -0.016065791383093705 0.0094673431155713837 0 -0.016246549055417187 0.0093469098831418986 0 -0.016310207723308639 0.0095989927744658168 0 -0.016452999951321465 0.0092930042117492975 0 -0.016246549055417187 0.0093469098831418986 0 -0.016310207723308639 0.0095989927744658168 0 -0.016065791383093705 0.0094673431155713837 0 -0.016655480918354924 0.0094022343232414759 0 -0.016539526748721931 0.0095760455478410313 0 -0.016452999951321465 0.0092930042117492975 0 -0.016310207723308639 0.0095989927744658168 0 -0.016539526748721931 0.0095760455478410313 0 -0.016452999951321465 0.0092930042117492975 0 -0.016310207723308639 0.0095989927744658168 0 -0.016539526748721931 0.0095760455478410313 0 -0.016460211783319207 0.0097840565006772802 0 -0.016539526748721931 0.0095760455478410313 0 -0.01659722048306007 0.0097348596121876862 0 -0.016460211783319207 0.0097840565006772802 0 -0.016676654415672953 0.00960240678039735 0 -0.016539526748721931 0.0095760455478410313 0 -0.01659722048306007 0.0097348596121876862 0 -0.016725239219519083 0.0098286845790832612 0 -0.01659722048306007 0.0097348596121876862 0 -0.016558944417986436 0.0098966592777466403 0 -0.01659722048306007 0.0097348596121876862 0 -0.016460211783319207 0.0097840565006772802 0 -0.016558944417986436 0.0098966592777466403 0 -0.016310207723308639 0.0095989927744658168 0 -0.016460211783319207 0.0097840565006772802 0 -0.016267481949415807 0.0099029003588827647 0 -0.016310207723308639 0.0095989927744658168 0 -0.016267481949415807 0.0099029003588827647 0 -0.016119377926188169 0.0097206342421424768 0 -0.016267481949415807 0.0099029003588827647 0 -0.01632259527464756 0.010085059917856602 0 -0.016156897382018236 0.010093159252445747 0 -0.016267481949415807 0.0099029003588827647 0 -0.01632259527464756 0.010085059917856602 0 -0.016441229616821641 0.0099780369127912896 0 -0.016725239219519083 0.0098286845790832612 0 -0.016558944417986436 0.0098966592777466403 0 -0.016573416675397721 0.010151711816274316 0 -0.01632259527464756 0.010085059917856602 0 -0.016441229616821641 0.0099780369127912896 0 -0.016573416675397721 0.010151711816274316 0 -0.016460211783319207 0.0097840565006772802 0 -0.016558944417986436 0.0098966592777466403 0 -0.016441229616821641 0.0099780369127912896 0 -0.016460211783319207 0.0097840565006772802 0 -0.016267481949415807 0.0099029003588827647 0 -0.016441229616821641 0.0099780369127912896 0 -0.016558944417986436 0.0098966592777466403 0 -0.016441229616821641 0.0099780369127912896 0 -0.016573416675397721 0.010151711816274316 0 -0.01594683529552449 0.010557806450723911 0 -0.015372788219588112 0.011578098239251634 0 -0.014741759843018015 0.01160480953905879 0 -0.014796595086820154 0.0116938737768173 0 -0.014871268459131058 0.011551917387903442 0 -0.015905647477653662 0.010879052824804615 0 -0.015856459377106238 0.010898641934648902 0 -0.015886420367208741 0.010918856865964178 0 -0.01594683529552449 0.010557806450723911 0 -0.016255639811015077 0.010664933225929487 0 -0.016255639811015077 0.010664933225929487 0 -0.015372788219588112 0.011578098239251634 0 -0.01632259527464756 0.010085059917856602 0 -0.016573416675397721 0.010151711816274316 0 -0.016185687645769355 0.010298384910501597 0 -0.01632259527464756 0.010085059917856602 0 -0.016185687645769355 0.010298384910501597 0 -0.016156897382018236 0.010093159252445747 0 -0.016234364871265571 0.010783779375365845 0 -0.016464265270532043 0.010917851065448698 0 -0.016167259706641682 0.01098678382132353 0 -0.01631755313871543 0.011232918561568449 0 -0.016464265270532043 0.010917851065448698 0 -0.016167259706641682 0.01098678382132353 0 -0.015686752469776969 0.011833409810603265 0 -0.015372788219588112 0.011578098239251634 0 -0.014994798175742128 0.012358297261696976 0 -0.014780945205935099 0.012466066489033223 0 -0.014909025196649118 0.012105480042970683 0 -0.014994798175742128 0.012358297261696976 0 -0.014780945205935099 0.012466066489033223 0 -0.014821810043887202 0.012692507729534553 0 -0.014780945205935099 0.012466066489033223 0 -0.014558662553533443 0.012558578846753233 0 -0.014656052385611027 0.012191104187917598 0 -0.014741759843018015 0.01160480953905879 0 -0.014871268459131058 0.011551917387903442 0 -0.014731904085843512 0.011482988150923027 0 -0.014780945205935099 0.012466066489033223 0 -0.014821810043887202 0.012692507729534553 0 -0.014558662553533443 0.012558578846753233 0 -0.015372788219588112 0.011578098239251634 0 -0.014690877500527938 0.012060056524121445 0 -0.014731904085843512 0.011482988150923027 0 -0.014629938187048892 0.011578099344676214 0 -0.014590704197327263 0.011415289820835933 0 -0.014741759843018015 0.01160480953905879 0 -0.014731904085843512 0.011482988150923027 0 -0.014629938187048892 0.011578099344676214 0 -0.013123398138574494 0.012181787510082148 0 -0.013816562220107957 0.01196315662728435 0 -0.011487584607996339 0.01239209267851028 0 -0.011535930242287459 0.012852483299513724 0 -0.011840063177900728 0.012595188973364937 0 -0.011487584607996339 0.01239209267851028 0 -0.011840063177900728 0.012595188973364937 0 -0.011747368608050507 0.012121110702308749 0 -0.013816562220107957 0.01196315662728435 0 -0.01421286318741723 0.012224792802135705 0 -0.011245802062796663 0.012108850915947392 0 -0.011487584607996339 0.01239209267851028 0 -0.011747368608050507 0.012121110702308749 0 -0.014690877500527938 0.012060056524121445 0 -0.013816562220107957 0.01196315662728435 0 -0.014558662553533443 0.012558578846753233 0 -0.014430463535698075 0.012255441214550597 0 -0.014656052385611027 0.012191104187917598 0 -0.014558662553533443 0.012558578846753233 0 -0.014292669064094125 0.012421713344521244 0 -0.014430463535698075 0.012255441214550597 0 -0.014430463535698075 0.012255441214550597 0 -0.014459902581104727 0.012004909670685442 0 -0.014656052385611027 0.012191104187917598 0 -0.014430463535698075 0.012255441214550597 0 -0.014228239083295747 0.012154500076239482 0 -0.014459902581104727 0.012004909670685442 0 -0.01384060587849689 0.012189093341231251 0 -0.014194855535022739 0.012378568082027508 0 -0.01415477040385698 0.012129157602412097 0 -0.014292669064094125 0.012421713344521244 0 -0.014430463535698075 0.012255441214550597 0 -0.014228239083295747 0.012154500076239482 0 -0.013941392418318722 0.011971577920743206 0 -0.01415477040385698 0.012129157602412097 0 -0.01413832244768792 0.011877188788410363 0 -0.014228239083295747 0.012154500076239482 0 -0.01413832244768792 0.011877188788410363 0 -0.014459902581104727 0.012004909670685442 0 -0.01421286318741723 0.012224792802135705 0 -0.014137413259070072 0.011868742853142353 0 -0.014432442206445607 0.011768695966681147 0 -0.01413832244768792 0.011877188788410363 0 -0.014459902581104727 0.012004909670685442 0 -0.014804515756917935 0.011783301085773471 0 -0.014432442206445607 0.011768695966681147 0 -0.014459902581104727 0.012004909670685442 0 -0.014804515756917935 0.011783301085773471 0 -0.014459902581104727 0.012004909670685442 0 -0.014656052385611027 0.012191104187917598 0 -0.014804515756917935 0.011783301085773471 0 -0.014909025196649118 0.012105480042970683 0 -0.014656052385611027 0.012191104187917598 0 -0.015259710530264668 0.011683853969208253 0 -0.014918063683218798 0.01174930589507891 0 -0.015348904868427896 0.012012129003855589 0 -0.014804515756917935 0.011783301085773471 0 -0.014909025196649118 0.012105480042970683 0 -0.015169939991295239 0.012019668899652265 0 -0.01479942455338994 0.011793656013241479 0 -0.015587806959932655 0.011742566050830053 0 -0.015686752469776969 0.011833409810603265 0 -0.015587806959932655 0.011742566050830053 0 -0.014994798175742128 0.012358297261696976 0 -0.014909025196649118 0.012105480042970683 0 -0.015169939991295239 0.012019668899652265 0 -0.014780945205935099 0.012466066489033223 0 -0.014909025196649118 0.012105480042970683 0 -0.014656052385611027 0.012191104187917598 0 -0.015697337542277569 0.011443153348765231 0 -0.015697446624701423 0.011432684051393653 0 -0.015652705222746012 0.011501596343663637 0 -0.015697337542277569 0.011443153348765231 0 -0.015697446624701423 0.011432684051393653 0 -0.015748267384230925 0.01131704767359973 0 -0.015840032302329391 0.011455938158620376 0 -0.015733714816846101 0.011335385332855712 0 -0.01631755313871543 0.011232918561568449 0 -0.016121181932790638 0.011339537874988577 0 -0.016156883714911408 0.011569157050805074 0 -0.015697337542277569 0.011443153348765231 0 -0.015709223531678182 0.011491124258454591 0 -0.015652705222746012 0.011501596343663637 0 -0.015840032302329391 0.011455938158620376 0 -0.015587806959932655 0.011742566050830053 0 -0.015959805656751227 0.011442938563482863 0 -0.016121181932790638 0.011339537874988577 0 -0.016156883714911408 0.011569157050805074 0 -0.015552834508071727 0.011587536172558819 0 -0.015259710530264668 0.011683853969208253 0 -0.015348904868427896 0.012012129003855589 0 -0.015550181120179666 0.011606583326411936 0 -0.015587806959932655 0.011742566050830053 0 -0.015552834508071727 0.011587536172558819 0 -0.015709223531678182 0.011491124258454591 0 -0.015652705222746012 0.011501596343663637 0 -0.015552834508071727 0.011587536172558819 0 -0.015652705222746012 0.011501596343663637 0 -0.015673590182241987 0.011517168405768566 0 -0.015697446624701423 0.011432684051393653 0 -0.015652705222746012 0.011501596343663637 0 -0.015673590182241987 0.011517168405768566 0 -0.015673590182241987 0.011517168405768566 0 -0.01569773672659466 0.011520955832275491 0 -0.015588462603393383 0.011388390869900497 0 -0.015588462603393383 0.011388390869900497 0 -0.015634684899687567 0.011333297479664153 0 -0.015486083278245903 0.011228494226759247 0 -0.015697446624701423 0.011432684051393653 0 -0.015673590182241987 0.011517168405768566 0 -0.015634684899687567 0.011333297479664153 0 -0.015673590182241987 0.011517168405768566 0 -0.015588462603393383 0.011388390869900497 0 -0.015634684899687567 0.011333297479664153 0 -0.015697446624701423 0.011432684051393653 0 -0.015634684899687567 0.011333297479664153 0 -0.015748267384230925 0.01131704767359973 0 -0.015634684899687567 0.011333297479664153 0 -0.015683505440496022 0.011112758595653296 0 -0.015748267384230925 0.01131704767359973 0 -0.015634684899687567 0.011333297479664153 0 -0.015683505440496022 0.011112758595653296 0 -0.015506414495436452 0.011079295137846782 0 -0.015683505440496022 0.011112758595653296 0 -0.015838868184624579 0.011093464189787704 0 -0.015748267384230925 0.01131704767359973 0 -0.015634684899687567 0.011333297479664153 0 -0.015486083278245903 0.011228494226759247 0 -0.015506414495436452 0.011079295137846782 0 -0.015486083278245903 0.011228494226759247 0 -0.015506414495436452 0.011079295137846782 0 -0.015408873821559225 0.011098908984075834 0 -0.015506414495436452 0.011079295137846782 0 -0.015377357511218132 0.010911369251625598 0 -0.015561588233808595 0.010801825335108213 0 -0.015506414495436452 0.011079295137846782 0 -0.015377357511218132 0.010911369251625598 0 -0.015408873821559225 0.011098908984075834 0 -0.015683505440496022 0.011112758595653296 0 -0.015561588233808595 0.010801825335108213 0 -0.015797904892739835 0.010892950950738611 0 -0.015683505440496022 0.011112758595653296 0 -0.015506414495436452 0.011079295137846782 0 -0.015561588233808595 0.010801825335108213 0 -0.015683505440496022 0.011112758595653296 0 -0.015797904892739835 0.010892950950738611 0 -0.015838868184624579 0.011093464189787704 0 -0.015797904892739835 0.010892950950738611 0 -0.015947426544189069 0.010986554015163139 0 -0.016013699089822152 0.010854537283676653 0 -0.015823610829031946 0.010888250905357402 0 -0.01611037695884756 0.010793905166508584 0 -0.015797904892739835 0.010892950950738611 0 -0.015947426544189069 0.010986554015163139 0 -0.015838868184624579 0.011093464189787704 0 -0.015838868184624579 0.011093464189787704 0 -0.015748267384230925 0.01131704767359973 0 -0.016024619081758354 0.011153156068951087 0 -0.015959805656751227 0.011442938563482863 0 -0.015748267384230925 0.01131704767359973 0 -0.016024619081758354 0.011153156068951087 0 -0.015947426544189069 0.010986554015163139 0 -0.015838868184624579 0.011093464189787704 0 -0.016024619081758354 0.011153156068951087 0 -0.01631755313871543 0.011232918561568449 0 -0.016121181932790638 0.011339537874988577 0 -0.016024619081758354 0.011153156068951087 0 -0.01631755313871543 0.011232918561568449 0 -0.016024619081758354 0.011153156068951087 0 -0.016167259706641682 0.01098678382132353 0 -0.015959805656751227 0.011442938563482863 0 -0.016121181932790638 0.011339537874988577 0 -0.016024619081758354 0.011153156068951087 0 -0.016234364871265571 0.010783779375365845 0 -0.016167259706641682 0.01098678382132353 0 -0.016013699089822152 0.010854537283676653 0 -0.015947426544189069 0.010986554015163139 0 -0.016167259706641682 0.01098678382132353 0 -0.016013699089822152 0.010854537283676653 0 -0.015947426544189069 0.010986554015163139 0 -0.016024619081758354 0.011153156068951087 0 -0.016167259706641682 0.01098678382132353 0 -0.016579196945790374 0.010604244191105654 0 -0.016178437238789846 0.010747791567335366 0 -0.016243509194549012 0.010414693727630514 0 -0.016255639811015077 0.010664933225929487 0 -0.01611037695884756 0.010793905166508584 0 -0.016255639811015077 0.010664933225929487 0 -0.016111653314976184 0.010320482087840449 0 -0.016185687645769355 0.010298384910501597 0 -0.016007321138248251 0.010209334725917441 0 -0.016156897382018236 0.010093159252445747 0 -0.015797904892739835 0.010892950950738611 0 -0.016178437238789846 0.010747791567335366 0 -0.015841572752293438 0.010563835865807622 0 -0.016243509194549012 0.010414693727630514 0 -0.015841572752293438 0.010563835865807622 0 -0.015858927592792241 0.010195189166401662 0 -0.016178437238789846 0.010747791567335366 0 -0.016243509194549012 0.010414693727630514 0 -0.015841572752293438 0.010563835865807622 0 -0.015858927592792241 0.010195189166401662 0 -0.016014799267327878 0.00996119963838135 0 -0.015719617558345521 0.0098791584030742362 0 -0.016007321138248251 0.010209334725917441 0 -0.015858927592792241 0.010195189166401662 0 -0.016014799267327878 0.00996119963838135 0 -0.016111653314976184 0.010320482087840449 0 -0.015893942209986581 0.010203917296013342 0 -0.016267481949415807 0.0099029003588827647 0 -0.016014799267327878 0.00996119963838135 0 -0.016156897382018236 0.010093159252445747 0 -0.016007321138248251 0.010209334725917441 0 -0.016014799267327878 0.00996119963838135 0 -0.016156897382018236 0.010093159252445747 0 -0.016014799267327878 0.00996119963838135 0 -0.016119377926188169 0.0097206342421424768 0 -0.015891813792079965 0.009605708862962966 0 -0.016267481949415807 0.0099029003588827647 0 -0.016014799267327878 0.00996119963838135 0 -0.016119377926188169 0.0097206342421424768 0 -0.016014799267327878 0.00996119963838135 0 -0.015719617558345521 0.0098791584030742362 0 -0.015891813792079965 0.009605708862962966 0 -0.015891813792079965 0.009605708862962966 0 -0.015515632743099422 0.0093366506654019941 0 -0.015886903582843115 0.009216484256001219 0 -0.015719617558345521 0.0098791584030742362 0 -0.015891813792079965 0.009605708862962966 0 -0.015515632743099422 0.0093366506654019941 0 -0.015891813792079965 0.009605708862962966 0 -0.016065791383093705 0.0094673431155713837 0 -0.015886903582843115 0.009216484256001219 0 -0.016119377926188169 0.0097206342421424768 0 -0.015891813792079965 0.009605708862962966 0 -0.016065791383093705 0.0094673431155713837 0 -0.016008229789086885 0.0085595832369723488 0 -0.016162049611774774 0.0088188258027807574 0 -0.01614289254300269 0.0084989689601523838 0 -0.016008229789086885 0.0085595832369723488 0 -0.016162049611774774 0.0088188258027807574 0 -0.01583352540184077 0.0086781922661399013 0 -0.015759787911037045 0.0093594807095291385 0 -0.015828497818238679 0.0089210910963089477 0 -0.015719617558345521 0.0098791584030742362 0 -0.015357091336351597 0.0098936848429021108 0 -0.015515632743099422 0.0093366506654019941 0 -0.015357091336351597 0.0098936848429021108 0 -0.015591676510627362 0.010306741757695635 0 -0.015236053659503385 0.010548212572709799 0 -0.015759787911037045 0.0093594807095291385 0 -0.015695033997464018 0.009898554219896865 0 -0.015719617558345521 0.0098791584030742362 0 -0.015357091336351597 0.0098936848429021108 0 -0.015591676510627362 0.010306741757695635 0 -0.015858927592792241 0.010195189166401662 0 -0.015719617558345521 0.0098791584030742362 0 -0.015591676510627362 0.010306741757695635 0 -0.015561588233808595 0.010801825335108213 0 -0.015841572752293438 0.010563835865807622 0 -0.015591676510627362 0.010306741757695635 0 -0.015561588233808595 0.010801825335108213 0 -0.015797904892739835 0.010892950950738611 0 -0.015841572752293438 0.010563835865807622 0 -0.015841572752293438 0.010563835865807622 0 -0.015858927592792241 0.010195189166401662 0 -0.015591676510627362 0.010306741757695635 0 -0.015561588233808595 0.010801825335108213 0 -0.015591676510627362 0.010306741757695635 0 -0.015236053659503385 0.010548212572709799 0 -0.015377357511218132 0.010911369251625598 0 -0.015561588233808595 0.010801825335108213 0 -0.015236053659503385 0.010548212572709799 0 -0.016135157834969927 0.0092437963043866152 0 -0.015866460522673546 0.0090550801140115156 0 -0.01596531264526703 0.0095579561701711682 0 -0.016073154517374341 0.0088735792612882076 0 -0.016111212414308511 0.0095014905736757072 0 -0.01594286545883572 0.0087835207611853452 0 -0.016279228297624817 0.0087049579302944467 0 -0.016224526365057536 0.0094073932055651708 0 -0.015925318598113532 0.008809820122000692 0 -0.015717615064490473 0.0092791062222450042 0 -0.016164020750519162 0.0095243467919604082 0 -0.015940612187744323 0.0087890162557080816 0 -0.016111212414308511 0.0095014905736757072 0 -0.01594286545883572 0.0087835207611853452 0 -0.016129360064094798 0.0085615027523354807 0 -0.015640054300992839 0.0081089755960167854 0 -0.01594286545883572 0.0087835207611853452 0 -0.016279228297624817 0.0087049579302944467 0 -0.016129360064094798 0.0085615027523354807 0 -0.016162049611774774 0.0088188258027807574 0 -0.016135157834969927 0.0092437963043866152 0 -0.015866460522673546 0.0090550801140115156 0 -0.016162049611774774 0.0088188258027807574 0 -0.015866460522673546 0.0090550801140115156 0 -0.01583352540184077 0.0086781922661399013 0 -0.016279228297624817 0.0087049579302944467 0 -0.016129360064094798 0.0085615027523354807 0 -0.016304466031247609 0.0080941289519115157 0 -0.016120833887920363 0.0085286245865614056 0 -0.015897260729943775 0.0078354049393552384 0 -0.016129360064094798 0.0085615027523354807 0 -0.016304466031247609 0.0080941289519115157 0 -0.015906333726114497 0.0079355100609360598 0 -0.016073154517374341 0.0088735792612882076 0 -0.016072598533989815 0.0083840324107234184 0 -0.016304466031247609 0.0080941289519115157 0 -0.015906333726114497 0.0079355100609360598 0 -0.016036372540351413 0.0075941661922247347 0 -0.016008229789086885 0.0085595832369723488 0 -0.01583352540184077 0.0086781922661399013 0 -0.015847510399973171 0.0084014307290224185 0 -0.016072598533989815 0.0083840324107234184 0 -0.016091028886809671 0.0079712253407496301 0 -0.014999998142828116 0.0075254806724929773 0 -0.015636727685952416 0.0080773045659369887 0 -0.015324574799779583 0.0073499020256013285 0 -0.015636016007963906 0.0080924776696724796 0 -0.015321032985682246 0.0073640505975025557 0 -0.015891452451394096 0.0077375531311817082 0 -0.015640054300992839 0.0081089755960167854 0 -0.015316899328723488 0.0073772769916737937 0 -0.016129360064094798 0.0085615027523354807 0 -0.015891452451394096 0.0077375531311817082 0 -0.015640054300992839 0.0081089755960167854 0 -0.015940612187744323 0.0087890162557080816 0 -0.015636016007963906 0.0080924776696724796 0 -0.015636727685952416 0.0080773045659369887 0 -0.014999971712187444 0.0084199870435926593 0 -0.01540444732865243 0.008829766524281947 0 -0.014999998142828116 0.0075254806724929773 0 -0.015636727685952416 0.0080773045659369887 0 -0.014999971712187444 0.0084199870435926593 0 -0.014999971712187444 0.0084199870435926593 0 -0.01540444732865243 0.008829766524281947 0 -0.014999971353754915 0.0093144741516752363 0 -0.015925318598113532 0.008809820122000692 0 -0.015636727685952416 0.0080773045659369887 0 -0.01540444732865243 0.008829766524281947 0 -0.015925318598113532 0.008809820122000692 0 -0.01540444732865243 0.008829766524281947 0 -0.015717615064490473 0.0092791062222450042 0 -0.01540444732865243 0.008829766524281947 0 -0.015717615064490473 0.0092791062222450042 0 -0.014999971353754915 0.0093144741516752363 0 -0.014999971353754915 0.0093144741516752363 0 -0.014999946917673092 0.010208894904136291 0 -0.01547448702512798 0.009721371625728864 0 -0.015717615064490473 0.0092791062222450042 0 -0.014999971353754915 0.0093144741516752363 0 -0.01547448702512798 0.009721371625728864 0 -0.014999946917673092 0.010208894904136291 0 -0.015711387322519432 0.010136000825639261 0 -0.01547448702512798 0.009721371625728864 0 -0.015711387322519432 0.010136000825639261 0 -0.01547448702512798 0.009721371625728864 0 -0.015839638279590375 0.0097097109033940643 0 -0.015717615064490473 0.0092791062222450042 0 -0.01547448702512798 0.009721371625728864 0 -0.015839638279590375 0.0097097109033940643 0 -0.015717615064490473 0.0092791062222450042 0 -0.016164020750519162 0.0095243467919604082 0 -0.015839638279590375 0.0097097109033940643 0 -0.016164020750519162 0.0095243467919604082 0 -0.015839638279590375 0.0097097109033940643 0 -0.016068066671485182 0.0098805718619268904 0 -0.016033246341888175 0.0095723087789607187 0 -0.016123130582529815 0.0097489438735636966 0 -0.016068066671485182 0.0098805718619268904 0 -0.016111212414308511 0.0095014905736757072 0 -0.016076628670648446 0.009819426090146249 0 -0.016111212414308511 0.0095014905736757072 0 -0.016124810597278477 0.0096649632759157108 0 -0.016123130582529815 0.0097489438735636966 0 -0.016174575773062364 0.0098075833674530558 0 -0.016068066671485182 0.0098805718619268904 0 -0.016135157834969927 0.0092437963043866152 0 -0.01596531264526703 0.0095579561701711682 0 -0.016123130582529815 0.0097489438735636966 0 -0.016135157834969927 0.0092437963043866152 0 -0.016123130582529815 0.0097489438735636966 0 -0.016174575773062364 0.0098075833674530558 0 -0.015377357511218132 0.010911369251625598 0 -0.015236053659503385 0.010548212572709799 0 -0.015302382143325813 0.01109926840508545 0 -0.015695033997464018 0.009898554219896865 0 -0.015734990555559984 0.010448314079575239 0 -0.015377357511218132 0.010911369251625598 0 -0.015302382143325813 0.01109926840508545 0 -0.015408873821559225 0.011098908984075834 0 -0.015302382143325813 0.01109926840508545 0 -0.015408932011601898 0.011186289158178524 0 -0.01545608149402772 0.011305366964463884 0 -0.015486083278245903 0.011228494226759247 0 -0.015408873821559225 0.011098908984075834 0 -0.015408932011601898 0.011186289158178524 0 -0.015302382143325813 0.01109926840508545 0 -0.015408873821559225 0.011098908984075834 0 -0.015408932011601898 0.011186289158178524 0 -0.015486083278245903 0.011228494226759247 0 -0.015408932011601898 0.011186289158178524 0 -0.01545608149402772 0.011305366964463884 0 -0.016174575773062364 0.0098075833674530558 0 -0.016068066671485182 0.0098805718619268904 0 -0.015985301814002907 0.010593078209692077 0 -0.015302382143325813 0.01109926840508545 0 -0.015452293779375228 0.011370654933042665 0 -0.01545608149402772 0.011305366964463884 0 -0.015711387322519432 0.010136000825639261 0 -0.015839638279590375 0.0097097109033940643 0 -0.016068066671485182 0.0098805718619268904 0 -0.015711387322519432 0.010136000825639261 0 -0.016068066671485182 0.0098805718619268904 0 -0.015985301814002907 0.010593078209692077 0 -0.015734990555559984 0.010448314079575239 0 -0.015706179180381356 0.010978936309432896 0 -0.015452293779375228 0.011370654933042665 0 -0.01545608149402772 0.011305366964463884 0 -0.015588419689323703 0.011473648427591574 0 -0.015588462603393383 0.011388390869900497 0 -0.01545608149402772 0.011305366964463884 0 -0.015588419689323703 0.011473648427591574 0 -0.015588462603393383 0.011388390869900497 0 -0.015486083278245903 0.011228494226759247 0 -0.01545608149402772 0.011305366964463884 0 -0.01569773672659466 0.011520955832275491 0 -0.015588462603393383 0.011388390869900497 0 -0.015588419689323703 0.011473648427591574 0 -0.015502523198574878 0.0114974115501798 0 -0.015452293779375228 0.011370654933042665 0 -0.015588419689323703 0.011473648427591574 0 -0.01551571137202035 0.011467148495283208 0 -0.015706179180381356 0.010978936309432896 0 -0.015502523198574878 0.0114974115501798 0 -0.015985301814002907 0.010593078209692077 0 -0.015375769312070135 0.01067751351968875 0 -0.015502523198574878 0.0114974115501798 0 -0.014999865575836347 0.01110352457810714 0 -0.015375769312070135 0.01067751351968875 0 -0.014999946917673092 0.010208894904136291 0 -0.014999865575836347 0.01110352457810714 0 -0.015375769312070135 0.01067751351968875 0 -0.014999946917673092 0.010208894904136291 0 -0.015711387322519432 0.010136000825639261 0 -0.015375769312070135 0.01067751351968875 0 -0.015711387322519432 0.010136000825639261 0 -0.015985301814002907 0.010593078209692077 0 -0.015375769312070135 0.01067751351968875 0 -0.015780402134156213 0.0042428469872136942 0 -0.016140938909885882 0.0047221801653122243 0 -0.015530692204930382 0.0048575146041302175 0 -0.015780402134156213 0.0042428469872136942 0 -0.014999991975673635 0.0043498112890077156 0 -0.015530692204930382 0.0048575146041302175 0 -0.014999991975673635 0.0043498112890077156 0 -0.015629600032279544 0.0036206189375859775 0 -0.014999993243011442 0.0035543476328212752 0 -0.015780402134156213 0.0042428469872136942 0 -0.016324565854276087 0.0040680723393823216 0 -0.015629600032279544 0.0036206189375859775 0 -0.015780402134156213 0.0042428469872136942 0 -0.014999991975673635 0.0043498112890077156 0 -0.015629600032279544 0.0036206189375859775 0 -0.015779997217930823 0.003307729522592786 0 -0.015946443712051523 0.0046930189507677425 0 -0.016324565854276087 0.0040680723393823216 0 -0.016723140639231627 0.0037707995970019982 0 -0.016676954937968402 0.0044255379035888281 0 -0.016324565854276087 0.0040680723393823216 0 -0.016676954937968402 0.0044255379035888281 0 -0.016140938909885882 0.0047221801653122243 0 -0.015780402134156213 0.0042428469872136942 0 -0.016324565854276087 0.0040680723393823216 0 -0.016140938909885882 0.0047221801653122243 0 -0.016140938909885882 0.0047221801653122243 0 -0.016627948047969795 0.0050811815885233071 0 -0.016243294054282147 0.0052805906798973172 0 -0.016140938909885882 0.0047221801653122243 0 -0.016243294054282147 0.0052805906798973172 0 -0.01583126198687114 0.0052435989759773869 0 -0.015946443712051523 0.0046930189507677425 0 -0.015893907520855382 0.0050944844262297987 0 -0.016676954937968402 0.0044255379035888281 0 -0.016140938909885882 0.0047221801653122243 0 -0.016627948047969795 0.0050811815885233071 0 -0.015200256674408621 0.0046882896928003483 0 -0.015151667806524775 0.0053603289555540171 0 -0.015733513738259083 0.0050682244442673023 0 -0.016627948047969795 0.0050811815885233071 0 -0.016243294054282147 0.0052805906798973172 0 -0.016577503123539894 0.0057394387006731674 0 -0.015893907520855382 0.0050944844262297987 0 -0.015865764580971355 0.0063964776783036531 0 -0.015151667806524775 0.0053603289555540171 0 -0.015105812459588544 0.0060278939231643361 0 -0.015683108321928103 0.005736908758142473 0 -0.016243294054282147 0.0052805906798973172 0 -0.016041555093138433 0.0056192479052629149 0 -0.016577503123539894 0.0057394387006731674 0 -0.016243294054282147 0.0052805906798973172 0 -0.016041555093138433 0.0056192479052629149 0 -0.01583126198687114 0.0052435989759773869 0 -0.01583126198687114 0.0052435989759773869 0 -0.015530692204930382 0.0048575146041302175 0 -0.015434050308765929 0.0054408962149005095 0 -0.016041555093138433 0.0056192479052629149 0 -0.01583126198687114 0.0052435989759773869 0 -0.015720305107036321 0.0057006562220868534 0 -0.01583126198687114 0.0052435989759773869 0 -0.015434050308765929 0.0054408962149005095 0 -0.015720305107036321 0.0057006562220868534 0 -0.016140938909885882 0.0047221801653122243 0 -0.01583126198687114 0.0052435989759773869 0 -0.015530692204930382 0.0048575146041302175 0 -0.014999991975673635 0.0043498112890077156 0 -0.015530692204930382 0.0048575146041302175 0 -0.014999991089717708 0.0051452773417877424 0 -0.015530692204930382 0.0048575146041302175 0 -0.014999991089717708 0.0051452773417877424 0 -0.015434050308765929 0.0054408962149005095 0 -0.014999991089717708 0.0051452773417877424 0 -0.015434050308765929 0.0054408962149005095 0 -0.015268757095634364 0.0058381954247815815 0 -0.014999991089717708 0.0051452773417877424 0 -0.015268757095634364 0.0058381954247815815 0 -0.014999994750057595 0.0059407293123658854 0 -0.015434050308765929 0.0054408962149005095 0 -0.015268757095634364 0.0058381954247815815 0 -0.015496504401811923 0.0057861844141290928 0 -0.015268757095634364 0.0058381954247815815 0 -0.015330704342676665 0.006020052785269109 0 -0.015496504401811923 0.0057861844141290928 0 -0.015275608444327049 0.0059769818784912304 0 -0.015342397198891864 0.0062313979215305902 0 -0.015342397198891864 0.0062313979215305902 0 -0.015000102577605917 0.0059408602326490043 0 -0.015268757095634364 0.0058381954247815815 0 -0.015330160060573965 0.0060194393088968557 0 -0.014999994750057595 0.0059407293123658854 0 -0.015330704342676665 0.006020052785269109 0 -0.015727936919739439 0.0059296733216757432 0 -0.015928514451474779 0.0061571511473401891 0 -0.016041555093138433 0.0056192479052629149 0 -0.015870503453578263 0.0058202732325562919 0 -0.015720305107036321 0.0057006562220868534 0 -0.015870503453578263 0.0058202732325562919 0 -0.015720305107036321 0.0057006562220868534 0 -0.015727936919739439 0.0059296733216757432 0 -0.015720305107036321 0.0057006562220868534 0 -0.015496504401811923 0.0057861844141290928 0 -0.015727936919739439 0.0059296733216757432 0 -0.015434050308765929 0.0054408962149005095 0 -0.015720305107036321 0.0057006562220868534 0 -0.015496504401811923 0.0057861844141290928 0 -0.015330704342676665 0.006020052785269109 0 -0.015496504401811923 0.0057861844141290928 0 -0.015727936919739439 0.0059296733216757432 0 -0.015727936919739439 0.0059296733216757432 0 -0.015928514451474779 0.0061571511473401891 0 -0.015995162425017275 0.0060292661213540988 0 -0.015870503453578263 0.0058202732325562919 0 -0.015727936919739439 0.0059296733216757432 0 -0.015995162425017275 0.0060292661213540988 0 -0.015342397198891864 0.0062313979215305902 0 -0.015665270436380045 0.0071170430395346004 0 -0.0154689256809645 0.0066764644195416011 0 -0.015687737940296702 0.0073125328497170277 0 -0.01593269225463121 0.0067925521452311946 0 -0.015342397198891864 0.0062313979215305902 0 -0.015958719172501062 0.0064325055362130382 0 -0.015336247130540737 0.0060219818639977041 0 -0.01500001497819901 0.0059407171610639771 0 -0.014999971023549476 0.0066310300916768298 0 -0.015336247130540737 0.0060219818639977041 0 -0.014999971023549476 0.0066310300916768298 0 -0.015620518379189128 0.0068700846320331544 0 -0.014999971023549476 0.0066310300916768298 0 -0.015620518379189128 0.0068700846320331544 0 -0.015316899328723488 0.0073772769916737937 0 -0.015000060165872058 0.0066311331745921324 0 -0.015321032985682246 0.0073640505975025557 0 -0.015687737940296702 0.0073125328497170277 0 -0.016066372651751339 0.0071766606448916623 0 -0.01593269225463121 0.0067925521452311946 0 -0.015891452451394096 0.0077375531311817082 0 -0.015620518379189128 0.0068700846320331544 0 -0.015316899328723488 0.0073772769916737937 0 -0.015906333726114497 0.0079355100609360598 0 -0.015687737940296702 0.0073125328497170277 0 -0.016036372540351413 0.0075941661922247347 0 -0.015897260729943775 0.0078354049393552384 0 -0.015665270436380045 0.0071170430395346004 0 -0.014999998142828116 0.0075254806724929773 0 -0.014999998742981762 0.0066309900750005316 0 -0.015324574799779583 0.0073499020256013285 0 -0.016008229789086885 0.0085595832369723488 0 -0.015847510399973171 0.0084014307290224185 0 -0.016009305683753323 0.0083974813403938694 0 -0.016304466031247609 0.0080941289519115157 0 -0.016343345204513676 0.0075049610096787475 0 -0.016036372540351413 0.0075941661922247347 0 -0.016343345204513676 0.0075049610096787475 0 -0.016036372540351413 0.0075941661922247347 0 -0.016066372651751339 0.0071766606448916623 0 -0.016343345204513676 0.0075049610096787475 0 -0.016066372651751339 0.0071766606448916623 0 -0.016389428879946665 0.0069099086429959197 0 -0.015687737940296702 0.0073125328497170277 0 -0.016036372540351413 0.0075941661922247347 0 -0.016066372651751339 0.0071766606448916623 0 -0.015847510399973171 0.0084014307290224185 0 -0.015859358700290975 0.0082076045508592231 0 -0.016009305683753323 0.0083974813403938694 0 -0.016091028886809671 0.0079712253407496301 0 -0.016156187315773823 0.0074811276073741082 0 -0.016156187315773823 0.0074811276073741082 0 -0.015958719172501062 0.0064325055362130382 0 -0.016066372651751339 0.0071766606448916623 0 -0.016389428879946665 0.0069099086429959197 0 -0.01593269225463121 0.0067925521452311946 0 -0.016402286552996283 0.006272408920622018 0 -0.015928514451474779 0.0061571511473401891 0 -0.015995162425017275 0.0060292661213540988 0 -0.016402286552996283 0.006272408920622018 0 -0.015995162425017275 0.0060292661213540988 0 -0.016431234077033924 0.005828590272510605 0 -0.016041555093138433 0.0056192479052629149 0 -0.015995162425017275 0.0060292661213540988 0 -0.016577503123539894 0.0057394387006731674 0 -0.016310241586649558 0.0058354378569713313 0 -0.015865764580971355 0.0063964776783036531 0 -0.016041555093138433 0.0056192479052629149 0 -0.015870503453578263 0.0058202732325562919 0 -0.015995162425017275 0.0060292661213540988 0 -0.015892163843030219 0.0082212199472929248 0 -0.015899802545915481 0.0081396215264226603 0 -0.015957382555405211 0.0081787748266067099 0 -0.016156187315773823 0.0074811276073741082 0 -0.015865764580971355 0.0063964776783036531 0 -0.015899802545915481 0.0081396215264226603 0 -0.015957382555405211 0.0081787748266067099 0 -0.015962054281160959 0.0081146312546377039 0 -0.015957382555405211 0.0081787748266067099 0 -0.016016750170992397 0.008176063553902161 0 -0.015962054281160959 0.0081146312546377039 0 -0.016016750170992397 0.008176063553902161 0 -0.015994053426638864 0.0082556511546335587 0 -0.016103178092916975 0.0082802798324221553 0 -0.015892163843030219 0.0082212199472929248 0 -0.015957382555405211 0.0081787748266067099 0 -0.015994053426638864 0.0082556511546335587 0 -0.015957382555405211 0.0081787748266067099 0 -0.016016750170992397 0.008176063553902161 0 -0.015994053426638864 0.0082556511546335587 0 -0.016156187315773823 0.0074811276073741082 0 -0.015918989862000691 0.0083569616466868321 0 -0.015859358700290975 0.0082076045508592231 0 -0.015994053426638864 0.0082556511546335587 0 -0.016009305683753323 0.0083974813403938694 0 -0.015994053426638864 0.0082556511546335587 0 -0.016009305683753323 0.0083974813403938694 0 -0.016103178092916975 0.0082802798324221553 0 -0.01614289254300269 0.0084989689601523838 0 -0.016009305683753323 0.0083974813403938694 0 -0.016103178092916975 0.0082802798324221553 0 -0.016008229789086885 0.0085595832369723488 0 -0.01614289254300269 0.0084989689601523838 0 -0.016009305683753323 0.0083974813403938694 0 -0.015886903582843115 0.009216484256001219 0 -0.016079043148301216 0.0087965396608986005 0 -0.016137837078780387 0.0091336704709861459 0 -0.016065791383093705 0.0094673431155713837 0 -0.015886903582843115 0.009216484256001219 0 -0.016137837078780387 0.0091336704709861459 0 -0.015515632743099422 0.0093366506654019941 0 -0.015886903582843115 0.009216484256001219 0 -0.015685256422432032 0.0087878986179292327 0 -0.015828497818238679 0.0089210910963089477 0 -0.015897149826555757 0.0085362914781135293 0 -0.015886903582843115 0.009216484256001219 0 -0.015685256422432032 0.0087878986179292327 0 -0.016079043148301216 0.0087965396608986005 0 -0.015685256422432032 0.0087878986179292327 0 -0.016079043148301216 0.0087965396608986005 0 -0.016001883332246704 0.0082031228308104397 0 -0.016079043148301216 0.0087965396608986005 0 -0.016001883332246704 0.0082031228308104397 0 -0.016228138791594942 0.0084714397648011277 0 -0.016016750170992397 0.008176063553902161 0 -0.016103178092916975 0.0082802798324221553 0 -0.016001883332246704 0.0082031228308104397 0 -0.015897149826555757 0.0085362914781135293 0 -0.015997282334144661 0.008226952613952114 0 -0.016016750170992397 0.008176063553902161 0 -0.016001883332246704 0.0082031228308104397 0 -0.01604991962809281 0.0081006468508743636 0 -0.016178873984255899 0.0080362085298021149 0 -0.01604991962809281 0.0081006468508743636 0 -0.016131767883615603 0.0080346972456361229 0 -0.016001883332246704 0.0082031228308104397 0 -0.01604991962809281 0.0081006468508743636 0 -0.016131767883615603 0.0080346972456361229 0 -0.016178873984255899 0.0080362085298021149 0 -0.016082825516090256 0.0079894629069404803 0 -0.01604991962809281 0.0081006468508743636 0 -0.01625508951369466 0.0059860976335522334 0 -0.016333626678422815 0.0053581981197865867 0 -0.016178873984255899 0.0080362085298021149 0 -0.016299557012965281 0.0081057193234190372 0 -0.016204510631963993 0.0083041464415946776 0 -0.016586022743336901 0.00794094037829878 0 -0.01625508951369466 0.0059860976335522334 0 -0.016836138952772573 0.0051584461943216453 0 -0.016260589796279798 0.0054457061776174561 0 -0.01631270487586714 0.0047774203098808589 0 -0.01625508951369466 0.0059860976335522334 0 -0.016113985609534941 0.0034468299908064102 0 -0.016082825516090256 0.0079894629069404803 0 -0.01604991962809281 0.0081006468508743636 0 -0.016005237709456076 0.0080719185007214322 0 -0.01625508951369466 0.0059860976335522334 0 -0.016160440495763408 0.0067874288963681289 0 -0.016016750170992397 0.008176063553902161 0 -0.01604991962809281 0.0081006468508743636 0 -0.016005237709456076 0.0080719185007214322 0 -0.016016750170992397 0.008176063553902161 0 -0.016005237709456076 0.0080719185007214322 0 -0.015962054281160959 0.0081146312546377039 0 -0.016160440495763408 0.0067874288963681289 0 -0.015722701205207204 0.0070041516142732956 0 -0.015865764580971355 0.0063964776783036531 0 -0.015722701205207204 0.0070041516142732956 0 -0.015151667806524775 0.0053603289555540171 0 -0.015683108321928103 0.005736908758142473 0 -0.015733513738259083 0.0050682244442673023 0 -0.016260589796279798 0.0054457061776174561 0 -0.015733513738259083 0.0050682244442673023 0 -0.01631270487586714 0.0047774203098808589 0 -0.016260589796279798 0.0054457061776174561 0 -0.015683108321928103 0.005736908758142473 0 -0.015733513738259083 0.0050682244442673023 0 -0.016113985609534941 0.0034468299908064102 0 -0.015814117572402323 0.0033904115244232078 0 -0.015733513738259083 0.0050682244442673023 0 -0.01631270487586714 0.0047774203098808589 0 -0.015786858977437805 0.0043944985070880392 0 -0.015200256674408621 0.0046882896928003483 0 -0.015733513738259083 0.0050682244442673023 0 -0.015786858977437805 0.0043944985070880392 0 -0.015254063313678491 0.0040105304049722762 0 -0.015200256674408621 0.0046882896928003483 0 -0.015786858977437805 0.0043944985070880392 0 -0.015779997217930823 0.003307729522592786 0 -0.015814117572402323 0.0033904115244232078 0 -0.015904911376872111 0.0024037558067571936 0 -0.015960859901311301 0.0021904722362483084 0 -0.015823184826194853 0.0022495365286085331 0 -0.01571887190250593 0.0022845405063959081 0 -0.015904911376872111 0.0024037558067571936 0 -0.015823184826194853 0.0022495365286085331 0 -0.015904911376872111 0.0024037558067571936 0 -0.016086152640615973 0.0023187769855982951 0 -0.015960859901311301 0.0021904722362483084 0 -0.016071986123115473 0.0025215455662868664 0 -0.015904911376872111 0.0024037558067571936 0 -0.016086152640615973 0.0023187769855982951 0 -0.016071986123115473 0.0025215455662868664 0 -0.016086152640615973 0.0023187769855982951 0 -0.016265761532009995 0.002420723613651905 0 -0.016086152640615973 0.0023187769855982951 0 -0.016265761532009995 0.002420723613651905 0 -0.016367026750694548 0.0022189278160956089 0 -0.016265761532009995 0.002420723613651905 0 -0.016409559242473309 0.002364040784183096 0 -0.016367026750694548 0.0022189278160956089 0 -0.01623598296190806 0.0026512959994929287 0 -0.016265761532009995 0.002420723613651905 0 -0.016434592382007448 0.0025291326280877818 0 -0.01623598296190806 0.0026512959994929287 0 -0.016071986123115473 0.0025215455662868664 0 -0.016265761532009995 0.002420723613651905 0 -0.015655830382739103 0.0088494160713829886 0 -0.016204510631963993 0.0083041464415946776 0 -0.015906329943063149 0.0082141546183077743 0 -0.016130352366697367 0.0056118572594497079 0 -0.016333626678422815 0.0053581981197865867 0 -0.016660234864831449 0.0023711746327338347 0 -0.016434592382007448 0.0025291326280877818 0 -0.016574646107807685 0.0022977681134270086 0 -0.015655830382739103 0.0088494160713829886 0 -0.015288025611939749 0.0082037567185762033 0 -0.015906329943063149 0.0082141546183077743 0 -0.016265761532009995 0.002420723613651905 0 -0.016434592382007448 0.0025291326280877818 0 -0.016409559242473309 0.002364040784183096 0 -0.016434592382007448 0.0025291326280877818 0 -0.016409559242473309 0.002364040784183096 0 -0.016574646107807685 0.0022977681134270086 0 -0.016565224732410372 0.0022894770774510797 0 -0.016329112290966601 0.0021411234770523221 0 -0.016409559242473309 0.002364040784183096 0 -0.016574646107807685 0.0022977681134270086 0 -0.016367026750694548 0.0022189278160956089 0 -0.016660234864831449 0.0023711746327338347 0 -0.016574646107807685 0.0022977681134270086 0 -0.016655406362674905 0.0022916120601539124 0 -0.016574646107807685 0.0022977681134270086 0 -0.016655406362674905 0.0022916120601539124 0 -0.016615091253386765 0.0021767926603094429 0 -0.016130352366697367 0.0056118572594497079 0 -0.015594263654699401 0.0058498737766206378 0 -0.016660234864831449 0.0023711746327338347 0 -0.016655406362674905 0.0022916120601539124 0 -0.016686862386616916 0.0023032549520142242 0 -0.016660234864831449 0.0023711746327338347 0 -0.016686862386616916 0.0023032549520142242 0 -0.01655487476972281 0.0022481752906086095 0 -0.016655406362674905 0.0022916120601539124 0 -0.016665423874706022 0.0022344783242498989 0 -0.016615091253386765 0.0021767926603094429 0 -0.015655830382739103 0.0088494160713829886 0 -0.014726287223090676 0.0093919563742905984 0 -0.014770974023248095 0.0086705448048647119 0 -0.016655406362674905 0.0022916120601539124 0 -0.016665423874706022 0.0022344783242498989 0 -0.016686862386616916 0.0023032549520142242 0 -0.015594263654699401 0.0058498737766206378 0 -0.014627537409279242 0.006256527496253524 0 -0.014726287223090676 0.0093919563742905984 0 -0.014770974023248095 0.0086705448048647119 0 -0.01375832213679417 0.0088152124126945428 0 -0.014770974023248095 0.0086705448048647119 0 -0.014314103718637845 0.0080845195569097406 0 -0.01375832213679417 0.0088152124126945428 0 -0.015655830382739103 0.0088494160713829886 0 -0.014770974023248095 0.0086705448048647119 0 -0.015288025611939749 0.0082037567185762033 0 -0.014770974023248095 0.0086705448048647119 0 -0.015288025611939749 0.0082037567185762033 0 -0.014314103718637845 0.0080845195569097406 0 -0.015288025611939749 0.0082037567185762033 0 -0.014314103718637845 0.0080845195569097406 0 -0.014796790098264338 0.0074742863786990974 0 -0.014314103718637845 0.0080845195569097406 0 -0.014796790098264338 0.0074742863786990974 0 -0.013722430462054262 0.0075172895666390941 0 -0.014796790098264338 0.0074742863786990974 0 -0.014082020214249815 0.0067706812528432114 0 -0.013722430462054262 0.0075172895666390941 0 -0.014796790098264338 0.0074742863786990974 0 -0.016094317038543537 0.0077836724578113307 0 -0.015335816470857588 0.0064142568450884178 0 -0.015288025611939749 0.0082037567185762033 0 -0.014796790098264338 0.0074742863786990974 0 -0.016094317038543537 0.0077836724578113307 0 -0.016094317038543537 0.0077836724578113307 0 -0.016131767883615603 0.0080346972456361229 0 -0.016292305524645091 0.0081900085919301719 0 -0.015288025611939749 0.0082037567185762033 0 -0.016094317038543537 0.0077836724578113307 0 -0.015906329943063149 0.0082141546183077743 0 -0.016094317038543537 0.0077836724578113307 0 -0.015906329943063149 0.0082141546183077743 0 -0.016130734419722192 0.0080400261392956016 0 -0.016178873984255899 0.0080362085298021149 0 -0.016204510631963993 0.0083041464415946776 0 -0.016130734419722192 0.0080400261392956016 0 -0.016204510631963993 0.0083041464415946776 0 -0.015906329943063149 0.0082141546183077743 0 -0.016130734419722192 0.0080400261392956016 0 -0.016178873984255899 0.0080362085298021149 0 -0.016130734419722192 0.0080400261392956016 0 -0.016131767883615603 0.0080346972456361229 0 -0.016094317038543537 0.0077836724578113307 0 -0.016130734419722192 0.0080400261392956016 0 -0.016131767883615603 0.0080346972456361229 0 -0.016131767883615603 0.0080346972456361229 0 -0.016292305524645091 0.0081900085919301719 0 -0.016228138791594942 0.0084714397648011277 0 -0.016001883332246704 0.0082031228308104397 0 -0.016131767883615603 0.0080346972456361229 0 -0.016228138791594942 0.0084714397648011277 0 -0.016094317038543537 0.0077836724578113307 0 -0.016292305524645091 0.0081900085919301719 0 -0.016739075074113159 0.0083360653998952802 0 -0.01614459482965502 0.0075460124842548909 0 -0.015800194632682542 0.007978156382694248 0 -0.016292305524645091 0.0081900085919301719 0 -0.016450325279802318 0.0085349773528768155 0 -0.016660012714799739 0.0083664797233020081 0 -0.016292305524645091 0.0081900085919301719 0 -0.016450325279802318 0.0085349773528768155 0 -0.016228138791594942 0.0084714397648011277 0 -0.016450325279802318 0.0085349773528768155 0 -0.016228138791594942 0.0084714397648011277 0 -0.016421303416449911 0.0087904341807717359 0 -0.016450325279802318 0.0085349773528768155 0 -0.016421303416449911 0.0087904341807717359 0 -0.016617758637655997 0.008794141931036387 0 -0.016079043148301216 0.0087965396608986005 0 -0.016228138791594942 0.0084714397648011277 0 -0.016421303416449911 0.0087904341807717359 0 -0.016079043148301216 0.0087965396608986005 0 -0.016421303416449911 0.0087904341807717359 0 -0.016329092152069444 0.0090298972989425932 0 -0.016079043148301216 0.0087965396608986005 0 -0.016137837078780387 0.0091336704709861459 0 -0.016329092152069444 0.0090298972989425932 0 -0.016421303416449911 0.0087904341807717359 0 -0.016627208412051103 0.0089809736974554005 0 -0.016617758637655997 0.008794141931036387 0 -0.016421303416449911 0.0087904341807717359 0 -0.016496632465133235 0.0090620408857460793 0 -0.016627208412051103 0.0089809736974554005 0 -0.016421303416449911 0.0087904341807717359 0 -0.016496632465133235 0.0090620408857460793 0 -0.016329092152069444 0.0090298972989425932 0 -0.016496632465133235 0.0090620408857460793 0 -0.016452999951321465 0.0092930042117492975 0 -0.016329092152069444 0.0090298972989425932 0 -0.016496632465133235 0.0090620408857460793 0 -0.016643174966736708 0.0091948783877902878 0 -0.016627208412051103 0.0089809736974554005 0 -0.016496632465133235 0.0090620408857460793 0 -0.016452999951321465 0.0092930042117492975 0 -0.016643174966736708 0.0091948783877902878 0 -0.016655480918354924 0.0094022343232414759 0 -0.016452999951321465 0.0092930042117492975 0 -0.016643174966736708 0.0091948783877902878 0 -0.016246549055417187 0.0093469098831418986 0 -0.016065791383093705 0.0094673431155713837 0 -0.016137837078780387 0.0091336704709861459 0 -0.016246549055417187 0.0093469098831418986 0 -0.016137837078780387 0.0091336704709861459 0 -0.016329092152069444 0.0090298972989425932 0 -0.016246549055417187 0.0093469098831418986 0 -0.016452999951321465 0.0092930042117492975 0 -0.016329092152069444 0.0090298972989425932 0 -0.01687106023073744 0.009243419947448251 0 -0.016912205238859456 0.0089951244189056291 0 -0.017240798346349173 0.0094838038095572987 0 -0.016832593995065401 0.0094796210181468492 0 -0.01687106023073744 0.009243419947448251 0 -0.016765406682158632 0.0092864614380087241 0 -0.016733463472654784 0.0099449823934352668 0 -0.01687106023073744 0.009243419947448251 0 -0.017240798346349173 0.0094838038095572987 0 -0.01687106023073744 0.009243419947448251 0 -0.016765406682158632 0.0092864614380087241 0 -0.016763341547585804 0.0091071438931327325 0 -0.01687106023073744 0.009243419947448251 0 -0.016763341547585804 0.0091071438931327325 0 -0.016912205238859456 0.0089951244189056291 0 -0.016655480918354924 0.0094022343232414759 0 -0.016765406682158632 0.0092864614380087241 0 -0.016643174966736708 0.0091948783877902878 0 -0.016643174966736708 0.0091948783877902878 0 -0.016763341547585804 0.0091071438931327325 0 -0.016627208412051103 0.0089809736974554005 0 -0.016765406682158632 0.0092864614380087241 0 -0.016643174966736708 0.0091948783877902878 0 -0.016763341547585804 0.0091071438931327325 0 -0.016763341547585804 0.0091071438931327325 0 -0.01674686256086377 0.0089251773892000466 0 -0.016627208412051103 0.0089809736974554005 0 -0.01674686256086377 0.0089251773892000466 0 -0.016627208412051103 0.0089809736974554005 0 -0.016617758637655997 0.008794141931036387 0 -0.01674686256086377 0.0089251773892000466 0 -0.016617758637655997 0.008794141931036387 0 -0.016787089358414036 0.0087570968325413404 0 -0.01674686256086377 0.0089251773892000466 0 -0.016912205238859456 0.0089951244189056291 0 -0.016787089358414036 0.0087570968325413404 0 -0.015971821043075159 0.0094534774049087542 0 -0.015933855361737942 0.0093373849666588526 0 -0.016763341547585804 0.0091071438931327325 0 -0.01674686256086377 0.0089251773892000466 0 -0.016912205238859456 0.0089951244189056291 0 -0.014913949983024734 0.0088342288429791912 0 -0.015384310582708666 0.0082150205675094734 0 -0.01409831849206346 0.0088071164373350851 0 -0.014961767928623962 0.0099448639492888818 0 -0.015415874307877392 0.010637869788230274 0 -0.014464777556860771 0.011083943224850993 0 -0.015933855361737942 0.0093373849666588526 0 -0.014341152327111828 0.0098708443700965195 0 -0.014913949983024734 0.0088342288429791912 0 -0.015384310582708666 0.0082150205675094734 0 -0.015832970745191403 0.0089058062464927902 0 -0.016450325279802318 0.0085349773528768155 0 -0.016617758637655997 0.008794141931036387 0 -0.016675314208252905 0.0085348579138555519 0 -0.016617758637655997 0.008794141931036387 0 -0.016926172857921744 0.0086424452521526238 0 -0.016675314208252905 0.0085348579138555519 0 -0.016934086071704695 0.0086803219705238084 0 -0.015933855361737942 0.0093373849666588526 0 -0.016926172857921744 0.0086424452521526238 0 -0.016675314208252905 0.0085348579138555519 0 -0.016732707867318161 0.0083424892240624628 0 -0.015933855361737942 0.0093373849666588526 0 -0.015800194632682542 0.007978156382694248 0 -0.016450325279802318 0.0085349773528768155 0 -0.016675314208252905 0.0085348579138555519 0 -0.016660012714799739 0.0083664797233020081 0 -0.016675314208252905 0.0085348579138555519 0 -0.016660012714799739 0.0083664797233020081 0 -0.016732707867318161 0.0083424892240624628 0 -0.016292305524645091 0.0081900085919301719 0 -0.016660012714799739 0.0083664797233020081 0 -0.016739075074113159 0.0083360653998952802 0 -0.016038728491071741 0.0079631170639298289 0 -0.015800194632682542 0.007978156382694248 0 -0.015800194632682542 0.007978156382694248 0 -0.014196844888634558 0.0080573576655449345 0 -0.014913949983024734 0.0088342288429791912 0 -0.015832970745191403 0.0089058062464927902 0 -0.014338508635667923 0.0094087571807529267 0 -0.014796790098264338 0.0074742863786990974 0 -0.015335816470857588 0.0064142568450884178 0 -0.014082020214249815 0.0067706812528432114 0 -0.014338508635667923 0.0094087571807529267 0 -0.012800297183605943 0.0094059207068956582 0 -0.01409831849206346 0.0088071164373350851 0 -0.014196844888634558 0.0080573576655449345 0 -0.01271690281371921 0.0084441559692342866 0 -0.014913949983024734 0.0088342288429791912 0 -0.014338508635667923 0.0094087571807529267 0 -0.01409831849206346 0.0088071164373350851 0 -0.012411885855291838 0.011096084816224022 0 -0.012098002166370511 0.011591067523633791 0 -0.014338508635667923 0.0094087571807529267 0 -0.012800297183605943 0.0094059207068956582 0 -0.012827385056632596 0.0099123065089717407 0 -0.013504967725033672 0.01152918342422889 0 -0.013473738860950832 0.010842524365131362 0 -0.014464777556860771 0.011083943224850993 0 -0.012411885855291838 0.011096084816224022 0 -0.014341152327111828 0.0098708443700965195 0 -0.012411885855291838 0.011096084816224022 0 -0.01271690281371921 0.0084441559692342866 0 -0.013473738860950832 0.010842524365131362 0 -0.014464777556860771 0.011083943224850993 0 -0.014085709942311595 0.010368277269790973 0 -0.012098002166370511 0.011591067523633791 0 -0.012281858033310923 0.011365616304715453 0 -0.014961767928623962 0.0099448639492888818 0 -0.014464777556860771 0.011083943224850993 0 -0.014085709942311595 0.010368277269790973 0 -0.014961767928623962 0.0099448639492888818 0 -0.014085709942311595 0.010368277269790973 0 -0.013979376796581393 0.0097033995225167397 0 -0.013473738860950832 0.010842524365131362 0 -0.014085709942311595 0.010368277269790973 0 -0.013440651871766695 0.0101593465615059 0 -0.014085709942311595 0.010368277269790973 0 -0.013440651871766695 0.0101593465615059 0 -0.013979376796581393 0.0097033995225167397 0 -0.012281858033310923 0.011365616304715453 0 -0.014592110176021968 0.010375658297311781 0 -0.014409597414113556 0.010857642480424871 0 -0.014791070383311114 0.010635059971817627 0 -0.014913310882762178 0.011311413161762703 0 -0.014409597414113556 0.010857642480424871 0 -0.014436696779767701 0.011703809260533266 0 -0.014913310882762178 0.011311413161762703 0 -0.014961767928623962 0.0099448639492888818 0 -0.013979376796581393 0.0097033995225167397 0 -0.014512468335595198 0.0092544716101675816 0 -0.014592110176021968 0.010375658297311781 0 -0.015418618081809849 0.010143943930788603 0 -0.015971821043075159 0.0094534774049087542 0 -0.015418618081809849 0.010143943930788603 0 -0.014791070383311114 0.010635059971817627 0 -0.014913310882762178 0.011311413161762703 0 -0.015374925963048526 0.010919120371931544 0 -0.0093948637970581103 0.011111852790602509 0 -0.0097402814280134822 0.011618879112021811 0 -0.0090201624421151049 0.011665650608951092 0 -0.010295388512927097 0.011031140530722782 0 -0.0093948637970581103 0.011111852790602509 0 -0.0097402814280134822 0.011618879112021811 0 -0.010295388512927097 0.011031140530722782 0 -0.010333974846009227 0.011802222387313831 0 -0.0097402814280134822 0.011618879112021811 0 -0.012427967215018092 0.01076270305792394 0 -0.012281858033310923 0.011365616304715453 0 -0.010333974846009227 0.011802222387313831 0 -0.0097402814280134822 0.011618879112021811 0 -0.0098318422991092291 0.012217652188338412 0 -0.012281858033310923 0.011365616304715453 0 -0.0096605156766570409 0.012290938133653341 0 -0.0097402814280134822 0.011618879112021811 0 -0.0093494709191310615 0.012072126423302104 0 -0.0098318422991092291 0.012217652188338412 0 -0.0097402814280134822 0.011618879112021811 0 -0.0093494709191310615 0.012072126423302104 0 -0.0090201624421151049 0.011665650608951092 0 -0.010002329180791881 0.012015350197532868 0 -0.010040367587236251 0.012718253942447183 0 -0.0093615594648838434 0.012611373841245528 0 -0.0093494709191310615 0.012072126423302104 0 -0.0098318422991092291 0.012217652188338412 0 -0.0093615594648838434 0.012611373841245528 0 -0.0096605156766570409 0.012290938133653341 0 -0.009499626723150854 0.012491373132168079 0 -0.010697872763339868 0.012176336788495707 0 -0.010002329180791881 0.012015350197532868 0 -0.010040367587236251 0.012718253942447183 0 -0.010697872763339868 0.012176336788495707 0 -0.010670846005670392 0.011443839301517307 0 -0.010002329180791881 0.012015350197532868 0 -0.010724462312179122 0.012890172401897004 0 -0.010040367587236251 0.012718253942447183 0 -0.009730761743986972 0.013308778380447084 0 -0.010724462312179122 0.012890172401897004 0 -0.010697872763339868 0.012176336788495707 0 -0.010040367587236251 0.012718253942447183 0 -0.012411885855291838 0.011096084816224022 0 -0.010142380396313379 0.011758248956750948 0 -0.0093615594648838434 0.012611373841245528 0 -0.009730761743986972 0.013308778380447084 0 -0.0091574820182752318 0.013113361095611743 0 -0.010040367587236251 0.012718253942447183 0 -0.0093615594648838434 0.012611373841245528 0 -0.009730761743986972 0.013308778380447084 0 -0.010954746241986857 0.01052264822837338 0 -0.010933641375114791 0.010139296861040146 0 -0.0094673867769952506 0.010793519095008381 0 -0.01175588569080973 0.007366255262465482 0 -0.011281082722180681 0.0081988894711213442 0 -0.011983839723508815 0.0083231488403669382 0 -0.01175588569080973 0.007366255262465482 0 -0.012880707642536097 0.0077899136673343769 0 -0.011983839723508815 0.0083231488403669382 0 -0.012880707642536097 0.0077899136673343769 0 -0.012813292007015529 0.0084480111230290731 0 -0.011983839723508815 0.0083231488403669382 0 -0.01175588569080973 0.007366255262465482 0 -0.01283203875291584 0.0070171298994656586 0 -0.012880707642536097 0.0077899136673343769 0 -0.011245942479504278 0.0089974724824068101 0 -0.01271690281371921 0.0084441559692342866 0 -0.012361924416503845 0.0094889767251026165 0 -0.010933641375114791 0.010139296861040146 0 -0.012392837641293074 0.010045999278271066 0 -0.010954746241986857 0.01052264822837338 0 -0.010933641375114791 0.010139296861040146 0 -0.012392837641293074 0.010045999278271066 0 -0.012878890499320828 0.0071026378680132821 0 -0.013722430462054262 0.0075172895666390941 0 -0.012880707642536097 0.0077899136673343769 0 -0.01271690281371921 0.0084441559692342866 0 -0.01285279033968943 0.0072635726886737927 0 -0.014082020214249815 0.0067706812528432114 0 -0.012878890499320828 0.0071026378680132821 0 -0.013722430462054262 0.0075172895666390941 0 -0.014314103718637845 0.0080845195569097406 0 -0.013722430462054262 0.0075172895666390941 0 -0.01351466262522083 0.0081128495125505212 0 -0.01351466262522083 0.0081128495125505212 0 -0.012880707642536097 0.0077899136673343769 0 -0.012813292007015529 0.0084480111230290731 0 -0.013722430462054262 0.0075172895666390941 0 -0.01351466262522083 0.0081128495125505212 0 -0.012880707642536097 0.0077899136673343769 0 -0.012813292007015529 0.0084480111230290731 0 -0.01375832213679417 0.0088152124126945428 0 -0.012379079411111616 0.0092203441815170654 0 -0.01351466262522083 0.0081128495125505212 0 -0.012813292007015529 0.0084480111230290731 0 -0.01375832213679417 0.0088152124126945428 0 -0.014314103718637845 0.0080845195569097406 0 -0.01351466262522083 0.0081128495125505212 0 -0.01375832213679417 0.0088152124126945428 0 -0.014726287223090676 0.0093919563742905984 0 -0.01375832213679417 0.0088152124126945428 0 -0.013702871460264096 0.0098780847294791824 0 -0.01375832213679417 0.0088152124126945428 0 -0.012379079411111616 0.0092203441815170654 0 -0.013702871460264096 0.0098780847294791824 0 -0.012379079411111616 0.0092203441815170654 0 -0.011606124941801183 0.0094514778095213317 0 -0.011958864288792927 0.0096884015617938069 0 -0.01131358810852499 0.0089536833754350672 0 -0.011606124941801183 0.0094514778095213317 0 -0.011135369146588331 0.009531632338097288 0 -0.012379079411111616 0.0092203441815170654 0 -0.01131358810852499 0.0089536833754350672 0 -0.011606124941801183 0.0094514778095213317 0 -0.012379079411111616 0.0092203441815170654 0 -0.01131358810852499 0.0089536833754350672 0 -0.011983839723508815 0.0083231488403669382 0 -0.011281082722180681 0.0081988894711213442 0 -0.01131358810852499 0.0089536833754350672 0 -0.011983839723508815 0.0083231488403669382 0 -0.012813292007015529 0.0084480111230290731 0 -0.012379079411111616 0.0092203441815170654 0 -0.011983839723508815 0.0083231488403669382 0 -0.012468864675537962 0.010053662806976654 0 -0.011354842873012649 0.010574793822962846 0 -0.011958864288792927 0.0096884015617938069 0 -0.012943533932802761 0.0075278256561664677 0 -0.011182597440874629 0.0096189232408774774 0 -0.011968461694894223 0.0074629339346860401 0 -0.012072204932158782 0.0072695824140760514 0 -0.01213208530691472 0.0076947269545773354 0 -0.011968461694894223 0.0074629339346860401 0 -0.012072204932158782 0.0072695824140760514 0 -0.011576715872574403 0.0074986702609085385 0 -0.011354842873012649 0.010574793822962846 0 -0.011245218173850971 0.0098403082259319926 0 -0.011958864288792927 0.0096884015617938069 0 -0.011182597440874629 0.0096189232408774774 0 -0.01125884912020244 0.010166794561109404 0 -0.011144347765078883 0.010315957078308451 0 -0.011245218173850971 0.0098403082259319926 0 -0.011090780788441402 0.0099489700167581761 0 -0.011606124941801183 0.0094514778095213317 0 -0.011245218173850971 0.0098403082259319926 0 -0.011135369146588331 0.009531632338097288 0 -0.011606124941801183 0.0094514778095213317 0 -0.011245218173850971 0.0098403082259319926 0 -0.011958864288792927 0.0096884015617938069 0 -0.012413762834032404 0.010338160883773179 0 -0.012943533932802761 0.0075278256561664677 0 -0.012379079411111616 0.0092203441815170654 0 -0.012468864675537962 0.010053662806976654 0 -0.011958864288792927 0.0096884015617938069 0 -0.012379079411111616 0.0092203441815170654 0 -0.012631995014549821 0.010373739090770027 0 -0.013702871460264096 0.0098780847294791824 0 -0.014115766675829009 0.0034363050508447982 0 -0.015318701698238192 0.0028272511323027016 0 -0.014735845315950886 0.0038309360514581382 0 -0.012943533932802761 0.0075278256561664677 0 -0.014627537409279242 0.006256527496253524 0 -0.015318701698238192 0.0028272511323027016 0 -0.015323611076102946 0.0040812026437854676 0 -0.014735845315950886 0.0038309360514581382 0 -0.015318701698238192 0.0028272511323027016 0 -0.015323611076102946 0.0040812026437854676 0 -0.016470612814521925 0.0035166966251757512 0 -0.014115766675829009 0.0034363050508447982 0 -0.014735845315950886 0.0038309360514581382 0 -0.014606749931910317 0.0045535341204511279 0 -0.012943533932802761 0.0075278256561664677 0 -0.01262536013880676 0.0052273857660110144 0 -0.015323611076102946 0.0040812026437854676 0 -0.014735845315950886 0.0038309360514581382 0 -0.014606749931910317 0.0045535341204511279 0 -0.014115766675829009 0.0034363050508447982 0 -0.014606749931910317 0.0045535341204511279 0 -0.014439721202299619 0.0050251433654887306 0 -0.015323611076102946 0.0040812026437854676 0 -0.014606749931910317 0.0045535341204511279 0 -0.014719019525545926 0.0049881001749822636 0 -0.014729317977655015 0.0046581685271140658 0 -0.014697530935183627 0.0041992658092370183 0 -0.014606749931910317 0.0045535341204511279 0 -0.014712337993227359 0.0049827137160504287 0 -0.014439721202299619 0.0050251433654887306 0 -0.014697530935183627 0.0041992658092370183 0 -0.01262536013880676 0.0052273857660110144 0 -0.015323611076102946 0.0040812026437854676 0 -0.014719019525545926 0.0049881001749822636 0 -0.016106507070245357 0.0047730097136514825 0 -0.014697530935183627 0.0041992658092370183 0 -0.016312451346763235 0.0026866375678679349 0 -0.01585519667761822 0.0027648613804354301 0 -0.015703109303425687 0.002572926797707379 0 -0.015643008363428381 0.0027905884607088813 0 -0.01585519667761822 0.0027648613804354301 0 -0.015803325115889676 0.0025257027783584622 0 -0.015703109303425687 0.002572926797707379 0 -0.014697530935183627 0.0041992658092370183 0 -0.015646872267845349 0.0019199099578567798 0 -0.011140002251022624 0.0048528954919704829 0 -0.011209356490590924 0.0046973648851874545 0 -0.011092875682941856 0.0046109277729043038 0 -0.013861160489668076 0.0046384416288553412 0 -0.014280069531434503 0.004577657751382737 0 -0.01332591219893178 0.0024833091834044019 0 -0.01262536013880676 0.0052273857660110144 0 -0.012754111200200728 0.0025794073896618142 0 -0.011140002251022624 0.0048528954919704829 0 -0.0113398461770669 0.0048363802538798585 0 -0.011209356490590924 0.0046973648851874545 0 -0.0113398461770669 0.0048363802538798585 0 -0.011310435597515789 0.0047216837371440584 0 -0.011209356490590924 0.0046973648851874545 0 -0.01262536013880676 0.0052273857660110144 0 -0.011240650429103455 0.0075333884573418157 0 -0.01207142709511849 0.0075394804695646739 0 -0.011240650429103455 0.0075333884573418157 0 -0.011968461694894223 0.0074629339346860401 0 -0.01213208530691472 0.0076947269545773354 0 -0.011767069445152128 0.0077409373977229421 0 -0.010583175260961922 0.010329123022800779 0 -0.010635188038153481 0.010646322729123883 0 -0.010475973667194938 0.010509760702876125 0 -0.011182597440874629 0.0096189232408774774 0 -0.010544167822818131 0.0089357860841044259 0 -0.011576715872574403 0.0074986702609085385 0 -0.011604108456917957 0.0079039035385480797 0 -0.011686228380743501 0.0078896256928687042 0 -0.011968461694894223 0.0074629339346860401 0 -0.011576715872574403 0.0074986702609085385 0 -0.011686228380743501 0.0078896256928687042 0 -0.010117951003346556 0.010657602321376141 0 -0.010120695603491213 0.010651472040779951 0 -0.010134761517003743 0.010661342591808617 0 -0.010544167822818131 0.0089357860841044259 0 -0.0099658563899239164 0.0075570707619162089 0 -0.010179757349715908 0.0079250046241285139 0 -0.010366851024093262 0.0078971546258374686 0 -0.010198200664395141 0.0081322864127234065 0 -0.010544167822818131 0.0089357860841044259 0 -0.011240650429103455 0.0075333884573418157 0 -0.011240650429103455 0.0075333884573418157 0 -0.0099658563899239164 0.0075570707619162089 0 -0.0113398461770669 0.0048363802538798585 0 -0.011310435597515789 0.0047216837371440584 0 -0.011368331117386108 0.0047950952290954718 0 -0.0099658563899239164 0.0075570707619162089 0 -0.0091904789592133947 0.0087115842033608313 0 -0.011310435597515789 0.0047216837371440584 0 -0.011263464057471395 0.0046172544571469422 0 -0.011334085882172022 0.004488363173585053 0 -0.0081484359992129527 0.0069054091958393113 0 -0.0080675762781378391 0.006235552374542026 0 -0.0085235419403970163 0.0063310923714338333 0 -0.011310435597515789 0.0047216837371440584 0 -0.011368331117386108 0.0047950952290954718 0 -0.011340883374105585 0.0046366509379617447 0 -0.011310435597515789 0.0047216837371440584 0 -0.011340883374105585 0.0046366509379617447 0 -0.011273614237629273 0.0044798966933501244 0 -0.0099658563899239164 0.0075570707619162089 0 -0.0096825865377161754 0.0052879725417160151 0 -0.011443819776227599 0.0050739579884696937 0 -0.010590877184494267 0.0035650556728159108 0 -0.0080675762781378391 0.006235552374542026 0 -0.0084098889015814665 0.0058417963843042158 0 -0.0085235419403970163 0.0063310923714338333 0 -0.011209356490590924 0.0046973648851874545 0 -0.011263464057471395 0.0046172544571469422 0 -0.011205793185229232 0.0045562072847912943 0 -0.011310435597515789 0.0047216837371440584 0 -0.011209356490590924 0.0046973648851874545 0 -0.011263464057471395 0.0046172544571469422 0 -0.011232095811682778 0.0018864362473240432 0 -0.01139408190731858 0.0015317195493004484 0 -0.01117916514522206 0.0013821174762897669 0 -0.01108182453083725 0.0032853462698315319 0 -0.010590877184494267 0.0035650556728159108 0 -0.011263464057471395 0.0046172544571469422 0 -0.011205793185229232 0.0045562072847912943 0 -0.011334085882172022 0.004488363173585053 0 -0.011232095811682778 0.0018864362473240432 0 -0.011572229835429859 0.0017265636245316878 0 -0.01139408190731858 0.0015317195493004484 0 -0.0080675762781378391 0.006235552374542026 0 -0.007997974398190168 0.0055729302651307414 0 -0.0084098889015814665 0.0058417963843042158 0 -0.0096825865377161754 0.0052879725417160151 0 -0.0088657054165410965 0.0043024004789889861 0 -0.011340883374105585 0.0046366509379617447 0 -0.011273614237629273 0.0044798966933501244 0 -0.011291390941880534 0.0044703617755031287 0 -0.0093467138030126108 0.0043567173389565256 0 -0.0096439313715665307 0.0042195217390919052 0 -0.0094640031068253215 0.0024689793753350257 0 -0.010590877184494267 0.0035650556728159108 0 -0.0088657054165410965 0.0043024004789889861 0 -0.007997974398190168 0.0055729302651307414 0 -0.0084098889015814665 0.0058417963843042158 0 -0.0085598827563898132 0.0053121219973478288 0 -0.0088657054165410965 0.0043024004789889861 0 -0.0067992751209601486 0.003945722975382494 0 -0.0063446856784190016 0.0031072104031719234 0 -0.0060926027092690956 0.0034443464703255555 0 -0.005969156371389772 0.0032751997910661556 0 -0.0063446856784190016 0.0031072104031719234 0 -0.0060926027092690956 0.0034443464703255555 0 -0.0063614869509325336 0.0034000838720179955 0 -0.0060926027092690956 0.0034443464703255555 0 -0.0063614869509325336 0.0034000838720179955 0 -0.0063118252370211077 0.0039170860029928804 0 -0.011572229835429859 0.0017265636245316878 0 -0.011592478193816905 0.0014178830424401484 0 -0.01139408190731858 0.0015317195493004484 0 -0.010590877184494267 0.0035650556728159108 0 -0.0090739265808450036 0.0025433830087164574 0 -0.0088657054165410965 0.0043024004789889861 0 -0.0090739265808450036 0.0025433830087164574 0 -0.01139408190731858 0.0015317195493004484 0 -0.01117916514522206 0.0013821174762897669 0 -0.011395476295595199 0.0012427549756030784 0 -0.011592478193816905 0.0014178830424401484 0 -0.01139408190731858 0.0015317195493004484 0 -0.011395476295595199 0.0012427549756030784 0 -0.01117916514522206 0.0013821174762897669 0 -0.011395476295595199 0.0012427549756030784 0 -0.011261498226867931 0.0011421108989951808 0 -0.01117916514522206 0.0013821174762897669 0 -0.011261498226867931 0.0011421108989951808 0 -0.011086931903531489 0.001097797755647729 0 -0.011395476295595199 0.0012427549756030784 0 -0.011382800320608536 0.0010686307929175223 0 -0.011536632102846183 0.00090697687346104848 0 -0.011395476295595199 0.0012427549756030784 0 -0.011382800320608536 0.0010686307929175223 0 -0.011261498226867931 0.0011421108989951808 0 -0.011382800320608536 0.0010686307929175223 0 -0.011261498226867931 0.0011421108989951808 0 -0.011336189191301365 0.00098299647680166898 0 -0.011261498226867931 0.0011421108989951808 0 -0.011336189191301365 0.00098299647680166898 0 -0.011086931903531489 0.001097797755647729 0 -0.011336189191301365 0.00098299647680166898 0 -0.011354670425677893 0.00090613608934544552 0 -0.011086931903531489 0.001097797755647729 0 -0.011382800320608536 0.0010686307929175223 0 -0.011336189191301365 0.00098299647680166898 0 -0.011536632102846183 0.00090697687346104848 0 -0.011336189191301365 0.00098299647680166898 0 -0.011351244586998309 0.00090873765602162142 0 -0.011536632102846183 0.00090697687346104848 0 -0.01104473428951324 0.00090012379458116341 0 -0.0092386511495243673 0.001355120333036733 0 -0.011077575439606949 0.00090384968482369284 0 -0.01104473428951324 0.00090012379458116341 0 -0.0086086945110788304 0.0026320366372684302 0 -0.008473607675958823 0.0013556653019642486 0 -0.0086833797203745341 0.0013535402314154531 0 -0.011592478193816905 0.0014178830424401484 0 -0.011395476295595199 0.0012427549756030784 0 -0.011536632102846183 0.00090697687346104848 0 -0.0090739265808450036 0.0025433830087164574 0 -0.0092386511495243673 0.001355120333036733 0 -0.0090739265808450036 0.0025433830087164574 0 -0.0070168842298892831 0.001928452610370103 0 -0.0092386511495243673 0.001355120333036733 0 -0.0070168842298892831 0.001928452610370103 0 -0.01670420620858484 0.00082752247031898278 0 -0.01673604317157841 0.00081678991851817477 0 -0.016687034913440334 0.00097374749202537017 0 -0.01670420620858484 0.00082752247031898278 0 -0.01673604317157841 0.00081678991851817477 0 -0.01667814983613947 0.00076377110582850492 0 -0.01104473428951324 0.00090012379458116341 0 -0.011038418693428453 0.00087766686284702043 0 -0.010644332597290911 0.0008930977315679999 0 -0.010878764985860049 0.00087667291473608451 0 -0.010772771802257193 0.0014906323283384335 0 -0.010878764985860049 0.00087667291473608451 0 -0.011086931903531489 0.001097797755647729 0 -0.010772771802257193 0.0014906323283384335 0 -0.011354670425677893 0.00090613608934544552 0 -0.010878764985860049 0.00087667291473608451 0 -0.011086931903531489 0.001097797755647729 0 -0.01117916514522206 0.0013821174762897669 0 -0.011086931903531489 0.001097797755647729 0 -0.010772771802257193 0.0014906323283384335 0 -0.013680960839316209 0.00088482591881050142 0 -0.013816946629973514 0.0010526809525106659 0 -0.01670420620858484 0.00082752247031898278 0 -0.016853111066601211 0.0010145171164073672 0 -0.016732047131586464 0.00093138987085713979 0 -0.016691557172994368 0.00088699355846465027 0 -0.016847797062440717 0.00090619259739000021 0 -0.01670420620858484 0.00082752247031898278 0 -0.016687034913440334 0.00097374749202537017 0 -0.016632120068717622 0.00099577440079375262 0 -0.016853111066601211 0.0010145171164073672 0 -0.016756570354260897 0.0010205991253214208 0 -0.016732047131586464 0.00093138987085713979 0 -0.016687034913440334 0.00097374749202537017 0 -0.016632120068717622 0.00099577440079375262 0 -0.016686366018779618 0.0012175252029297538 0 -0.016853111066601211 0.0010145171164073672 0 -0.016793492799266344 0.0010848094628353709 0 -0.016756570354260897 0.0010205991253214208 0 -0.016632120068717622 0.00099577440079375262 0 -0.016686366018779618 0.0012175252029297538 0 -0.016629461371538801 0.0012452661487259039 0 -0.016847797062440717 0.00090619259739000021 0 -0.015646872267845349 0.0019199099578567798 0 -0.016853111066601211 0.0010145171164073672 0 -0.016860774129043379 0.0011099157803255253 0 -0.016917374758263645 0.0013155706190824373 0 -0.016853111066601211 0.0010145171164073672 0 -0.016793492799266344 0.0010848094628353709 0 -0.016860774129043379 0.0011099157803255253 0 -0.016793492799266344 0.0010848094628353709 0 -0.016860774129043379 0.0011099157803255253 0 -0.016783546461874049 0.0011746389037585485 0 -0.013816946629973514 0.0010526809525106659 0 -0.012754111200200728 0.0025794073896618142 0 -0.011232095811682778 0.0018864362473240432 0 -0.010772771802257193 0.0014906323283384335 0 -0.010893425228486216 0.0020486172529001795 0 -0.011232095811682778 0.0018864362473240432 0 -0.01117916514522206 0.0013821174762897669 0 -0.010772771802257193 0.0014906323283384335 0 -0.014280069531434503 0.004577657751382737 0 -0.013825888585372197 0.0022526895554732403 0 -0.01332591219893178 0.0024833091834044019 0 -0.011209356490590924 0.0046973648851874545 0 -0.011205793185229232 0.0045562072847912943 0 -0.011092875682941856 0.0046109277729043038 0 -0.01108182453083725 0.0032853462698315319 0 -0.012754111200200728 0.0025794073896618142 0 -0.012754111200200728 0.0025794073896618142 0 -0.015646872267845349 0.0019199099578567798 0 -0.016860774129043379 0.0011099157803255253 0 -0.016830899261544432 0.0012913443990605837 0 -0.016783546461874049 0.0011746389037585485 0 -0.016860774129043379 0.0011099157803255253 0 -0.016917374758263645 0.0013155706190824373 0 -0.016767796268992739 0.0013857428466231853 0 -0.016919879003866808 0.0010075916467190179 0 -0.016535881940690823 0.0016147382779866199 0 -0.015646872267845349 0.0019199099578567798 0 -0.016535881940690823 0.0016147382779866199 0 -0.016830899261544432 0.0012913443990605837 0 -0.016742997908901432 0.001255962277469922 0 -0.016707703113455024 0.0013886106236358545 0 -0.016742997908901432 0.001255962277469922 0 -0.016618884652739089 0.0012485017785666826 0 -0.016703431753896648 0.0011682021512807797 0 -0.016830899261544432 0.0012913443990605837 0 -0.016742997908901432 0.001255962277469922 0 -0.016783546461874049 0.0011746389037585485 0 -0.016742997908901432 0.001255962277469922 0 -0.016783546461874049 0.0011746389037585485 0 -0.016703431753896648 0.0011682021512807797 0 -0.016742997908901432 0.001255962277469922 0 -0.016618884652739089 0.0012485017785666826 0 -0.016707703113455024 0.0013886106236358545 0 -0.016618884652739089 0.0012485017785666826 0 -0.016628944208781738 0.0010733990538845542 0 -0.016703431753896648 0.0011682021512807797 0 -0.016628944208781738 0.0010733990538845542 0 -0.01652979951415446 0.00095854207433044214 0 -0.016527874144351872 0.0011335582690348016 0 -0.016618884652739089 0.0012485017785666826 0 -0.016628944208781738 0.0010733990538845542 0 -0.016527874144351872 0.0011335582690348016 0 -0.016783546461874049 0.0011746389037585485 0 -0.016703431753896648 0.0011682021512807797 0 -0.016728102892152187 0.0010870314439828845 0 -0.016793492799266344 0.0010848094628353709 0 -0.016783546461874049 0.0011746389037585485 0 -0.016728102892152187 0.0010870314439828845 0 -0.016628944208781738 0.0010733990538845542 0 -0.016703431753896648 0.0011682021512807797 0 -0.016728102892152187 0.0010870314439828845 0 -0.016628944208781738 0.0010733990538845542 0 -0.016728102892152187 0.0010870314439828845 0 -0.016690312738240846 0.00099238805154576383 0 -0.016793492799266344 0.0010848094628353709 0 -0.016728102892152187 0.0010870314439828845 0 -0.016756570354260897 0.0010205991253214208 0 -0.016728102892152187 0.0010870314439828845 0 -0.016756570354260897 0.0010205991253214208 0 -0.016690312738240846 0.00099238805154576383 0 -0.016756570354260897 0.0010205991253214208 0 -0.016732047131586464 0.00093138987085713979 0 -0.016690312738240846 0.00099238805154576383 0 -0.016732047131586464 0.00093138987085713979 0 -0.016665111301702479 0.00090097082715903556 0 -0.016696138314712575 0.00087354307819016111 0 -0.016665111301702479 0.00090097082715903556 0 -0.016690312738240846 0.00099238805154576383 0 -0.01662078583895539 0.00094840088138815459 0 -0.016732047131586464 0.00093138987085713979 0 -0.016665111301702479 0.00090097082715903556 0 -0.016690312738240846 0.00099238805154576383 0 -0.016628944208781738 0.0010733990538845542 0 -0.016690312738240846 0.00099238805154576383 0 -0.01662078583895539 0.00094840088138815459 0 -0.016628944208781738 0.0010733990538845542 0 -0.01662078583895539 0.00094840088138815459 0 -0.01652979951415446 0.00095854207433044214 0 -0.01662078583895539 0.00094840088138815459 0 -0.016581967419084874 0.00083521018513251465 0 -0.01652979951415446 0.00095854207433044214 0 -0.016665111301702479 0.00090097082715903556 0 -0.01662078583895539 0.00094840088138815459 0 -0.016581967419084874 0.00083521018513251465 0 -0.016581967419084874 0.00083521018513251465 0 -0.016468799109250157 0.00074659780855873027 0 -0.016556007941913187 0.00070499912392411109 0 -0.016581967419084874 0.00083521018513251465 0 -0.016668602259543433 0.00083705649486492202 0 -0.016623283447962517 0.00072795991912441495 0 -0.01670420620858484 0.00082752247031898278 0 -0.016668602259543433 0.00083705649486492202 0 -0.01667814983613947 0.00076377110582850492 0 -0.01670420620858484 0.00082752247031898278 0 -0.016696138314712575 0.00087354307819016111 0 -0.016668602259543433 0.00083705649486492202 0 -0.01670420620858484 0.00082752247031898278 0 -0.016732047131586464 0.00093138987085713979 0 -0.016696138314712575 0.00087354307819016111 0 -0.016665111301702479 0.00090097082715903556 0 -0.016581967419084874 0.00083521018513251465 0 -0.016668602259543433 0.00083705649486492202 0 -0.016665111301702479 0.00090097082715903556 0 -0.016696138314712575 0.00087354307819016111 0 -0.016668602259543433 0.00083705649486492202 0 -0.016384944928189996 0.00079039940073356927 0 -0.016464375105610139 0.00085056699740985488 0 -0.016372762324433177 0.00091604684285780189 0 -0.016384944928189996 0.00079039940073356927 0 -0.016372762324433177 0.00091604684285780189 0 -0.016280358200104428 0.00078137331199587274 0 -0.016384944928189996 0.00079039940073356927 0 -0.016280358200104428 0.00078137331199587274 0 -0.01635768928563959 0.00067153817488768502 0 -0.016384944928189996 0.00079039940073356927 0 -0.016464375105610139 0.00085056699740985488 0 -0.016468799109250157 0.00074659780855873027 0 -0.016581967419084874 0.00083521018513251465 0 -0.016464375105610139 0.00085056699740985488 0 -0.016468799109250157 0.00074659780855873027 0 -0.016581967419084874 0.00083521018513251465 0 -0.016464375105610139 0.00085056699740985488 0 -0.01652979951415446 0.00095854207433044214 0 -0.01652979951415446 0.00095854207433044214 0 -0.016372762324433177 0.00091604684285780189 0 -0.016454944850773034 0.0010423681893433356 0 -0.016464375105610139 0.00085056699740985488 0 -0.01652979951415446 0.00095854207433044214 0 -0.016372762324433177 0.00091604684285780189 0 -0.016372762324433177 0.00091604684285780189 0 -0.016309296465592232 0.0010321620019430114 0 -0.016454944850773034 0.0010423681893433356 0 -0.016309296465592232 0.0010321620019430114 0 -0.016416648364754594 0.0011501206292967219 0 -0.016454944850773034 0.0010423681893433356 0 -0.016309296465592232 0.0010321620019430114 0 -0.016416648364754594 0.0011501206292967219 0 -0.016299685034929793 0.0011756431029841406 0 -0.01652979951415446 0.00095854207433044214 0 -0.016454944850773034 0.0010423681893433356 0 -0.016527874144351872 0.0011335582690348016 0 -0.016416648364754594 0.0011501206292967219 0 -0.016454944850773034 0.0010423681893433356 0 -0.016527874144351872 0.0011335582690348016 0 -0.016618884652739089 0.0012485017785666826 0 -0.016527874144351872 0.0011335582690348016 0 -0.016444254231590003 0.001287985212992841 0 -0.016618884652739089 0.0012485017785666826 0 -0.016444254231590003 0.001287985212992841 0 -0.016552838458828607 0.0014327488974005746 0 -0.016416648364754594 0.0011501206292967219 0 -0.016527874144351872 0.0011335582690348016 0 -0.016444254231590003 0.001287985212992841 0 -0.016444254231590003 0.001287985212992841 0 -0.016266859261872265 0.0013347259759057149 0 -0.016299685034929793 0.0011756431029841406 0 -0.016416648364754594 0.0011501206292967219 0 -0.016444254231590003 0.001287985212992841 0 -0.016299685034929793 0.0011756431029841406 0 -0.016444254231590003 0.001287985212992841 0 -0.016359287364125397 0.0014860884353861009 0 -0.016266859261872265 0.0013347259759057149 0 -0.016359287364125397 0.0014860884353861009 0 -0.016461948696795774 0.0016687820593524084 0 -0.016251521314577667 0.0017292055329063962 0 -0.016461948696795774 0.0016687820593524084 0 -0.016704614908466066 0.0016923671622224505 0 -0.016598863958353839 0.0018177041273806181 0 -0.016416546524864063 0.0016821390727289286 0 -0.016800594943932497 0.0015604273167573264 0 -0.016461948696795774 0.0016687820593524084 0 -0.016552838458828607 0.0014327488974005746 0 -0.016634953718754286 0.0015831826879660978 0 -0.016359287364125397 0.0014860884353861009 0 -0.016461948696795774 0.0016687820593524084 0 -0.016552838458828607 0.0014327488974005746 0 -0.016444254231590003 0.001287985212992841 0 -0.016359287364125397 0.0014860884353861009 0 -0.016552838458828607 0.0014327488974005746 0 -0.016618884652739089 0.0012485017785666826 0 -0.016552838458828607 0.0014327488974005746 0 -0.016707703113455024 0.0013886106236358545 0 -0.016552838458828607 0.0014327488974005746 0 -0.016707703113455024 0.0013886106236358545 0 -0.016634953718754286 0.0015831826879660978 0 -0.016869189213527664 0.0013198633908680887 0 -0.016707703113455024 0.0013886106236358545 0 -0.016809467880429432 0.0015481275093595533 0 -0.016535881940690823 0.0016147382779866199 0 -0.016312451346763235 0.0026866375678679349 0 -0.016535881940690823 0.0016147382779866199 0 -0.016848782491552427 0.0013062381557494823 0 -0.016707703113455024 0.0013886106236358545 0 -0.016809467880429432 0.0015481275093595533 0 -0.016634953718754286 0.0015831826879660978 0 -0.016312451346763235 0.0026866375678679349 0 -0.016800594943932497 0.0015604273167573264 0 -0.016955329693381278 0.0016715715205243107 0 -0.016704614908466066 0.0016923671622224505 0 -0.016875950670340222 0.0019555706515296031 0 -0.016704614908466066 0.0016923671622224505 0 -0.016875950670340222 0.0019555706515296031 0 -0.016598863958353839 0.0018177041273806181 0 -0.016875950670340222 0.0019555706515296031 0 -0.016613885787763297 0.0020282441924236254 0 -0.016598863958353839 0.0018177041273806181 0 -0.015323611076102946 0.0040812026437854676 0 -0.016106507070245357 0.0047730097136514825 0 -0.016470612814521925 0.0035166966251757512 0 -0.016312451346763235 0.0026866375678679349 0 -0.016663534682304918 0.0028354491252730093 0 -0.016686862386616916 0.0023032549520142242 0 -0.01655487476972281 0.0022481752906086095 0 -0.016470612814521925 0.0035166966251757512 0 -0.01655487476972281 0.0022481752906086095 0 -0.015318701698238192 0.0028272511323027016 0 -0.016470612814521925 0.0035166966251757512 0 -0.016708583304183365 0.0022999934576791044 0 -0.016663534682304918 0.0028354491252730093 0 -0.016686862386616916 0.0023032549520142242 0 -0.016875950670340222 0.0019555706515296031 0 -0.016684978658391473 0.0021548700369302936 0 -0.016875950670340222 0.0019555706515296031 0 -0.016684978658391473 0.0021548700369302936 0 -0.016613885787763297 0.0020282441924236254 0 -0.016665423874706022 0.0022344783242498989 0 -0.016686862386616916 0.0023032549520142242 0 -0.016684978658391473 0.0021548700369302936 0 -0.016684978658391473 0.0021548700369302936 0 -0.016615091253386765 0.0021767926603094429 0 -0.016613885787763297 0.0020282441924236254 0 -0.016665423874706022 0.0022344783242498989 0 -0.016684978658391473 0.0021548700369302936 0 -0.016615091253386765 0.0021767926603094429 0 -0.016574646107807685 0.0022977681134270086 0 -0.016615091253386765 0.0021767926603094429 0 -0.016443987258700818 0.0020041674893903558 0 -0.016615091253386765 0.0021767926603094429 0 -0.016613885787763297 0.0020282441924236254 0 -0.016443987258700818 0.0020041674893903558 0 -0.016574646107807685 0.0022977681134270086 0 -0.016443987258700818 0.0020041674893903558 0 -0.016273193225448429 0.0020595002090968077 0 -0.016443987258700818 0.0020041674893903558 0 -0.016251521314577667 0.0017292055329063962 0 -0.016273193225448429 0.0020595002090968077 0 -0.016461948696795774 0.0016687820593524084 0 -0.016443987258700818 0.0020041674893903558 0 -0.016251521314577667 0.0017292055329063962 0 -0.016461948696795774 0.0016687820593524084 0 -0.016443987258700818 0.0020041674893903558 0 -0.016598863958353839 0.0018177041273806181 0 -0.016613885787763297 0.0020282441924236254 0 -0.016443987258700818 0.0020041674893903558 0 -0.016598863958353839 0.0018177041273806181 0 -0.016057796156860975 0.0018403463677062499 0 -0.016251521314577667 0.0017292055329063962 0 -0.016071366963097133 0.0016342522444717882 0 -0.016057796156860975 0.0018403463677062499 0 -0.016251521314577667 0.0017292055329063962 0 -0.016273193225448429 0.0020595002090968077 0 -0.016108032805165616 0.001967912483978501 0 -0.016329112290966601 0.0021411234770523221 0 -0.016086152640615973 0.0023187769855982951 0 -0.016156207177783478 0.0020922562257255626 0 -0.016367026750694548 0.0022189278160956089 0 -0.016086152640615973 0.0023187769855982951 0 -0.016156207177783478 0.0020922562257255626 0 -0.015960859901311301 0.0021904722362483084 0 -0.015823184826194853 0.0022495365286085331 0 -0.015806183486763985 0.0021193682410061998 0 -0.015720098969881042 0.0022423730591538283 0 -0.015960859901311301 0.0021904722362483084 0 -0.015823184826194853 0.0022495365286085331 0 -0.015806183486763985 0.0021193682410061998 0 -0.015960859901311301 0.0021904722362483084 0 -0.015806183486763985 0.0021193682410061998 0 -0.015934704099695239 0.0019315355519242739 0 -0.015806183486763985 0.0021193682410061998 0 -0.015934704099695239 0.0019315355519242739 0 -0.015687598270863749 0.0019679016752649245 0 -0.016108032805165616 0.001967912483978501 0 -0.015901706329267865 0.0018086627285191907 0 -0.016057796156860975 0.0018403463677062499 0 -0.01587086991766716 0.0016845517978544113 0 -0.016071366963097133 0.0016342522444717882 0 -0.016156207177783478 0.0020922562257255626 0 -0.015960859901311301 0.0021904722362483084 0 -0.015934704099695239 0.0019315355519242739 0 -0.01587086991766716 0.0016845517978544113 0 -0.016001717215364097 0.00145938773121558 0 -0.016071366963097133 0.0016342522444717882 0 -0.01587086991766716 0.0016845517978544113 0 -0.015851076934531499 0.0014010900061625412 0 -0.016001717215364097 0.00145938773121558 0 -0.015901706329267865 0.0018086627285191907 0 -0.015647792187039506 0.0016449138578512174 0 -0.015934704099695239 0.0019315355519242739 0 -0.015668954028692287 0.001723514518344249 0 -0.015687598270863749 0.0019679016752649245 0 -0.01587086991766716 0.0016845517978544113 0 -0.015851076934531499 0.0014010900061625412 0 -0.015648327776695919 0.0015720910512178102 0 -0.016001717215364097 0.00145938773121558 0 -0.016101096511509119 0.0013299292648382153 0 -0.016000510106652505 0.0012037685911710121 0 -0.015851076934531499 0.0014010900061625412 0 -0.016001717215364097 0.00145938773121558 0 -0.016000510106652505 0.0012037685911710121 0 -0.016001717215364097 0.00145938773121558 0 -0.016101096511509119 0.0013299292648382153 0 -0.016169990760390586 0.0014846616507857302 0 -0.016001717215364097 0.00145938773121558 0 -0.016071366963097133 0.0016342522444717882 0 -0.016169990760390586 0.0014846616507857302 0 -0.016359287364125397 0.0014860884353861009 0 -0.016251521314577667 0.0017292055329063962 0 -0.016169990760390586 0.0014846616507857302 0 -0.016251521314577667 0.0017292055329063962 0 -0.016071366963097133 0.0016342522444717882 0 -0.016169990760390586 0.0014846616507857302 0 -0.016101096511509119 0.0013299292648382153 0 -0.016266859261872265 0.0013347259759057149 0 -0.016169990760390586 0.0014846616507857302 0 -0.016359287364125397 0.0014860884353861009 0 -0.016266859261872265 0.0013347259759057149 0 -0.016169990760390586 0.0014846616507857302 0 -0.016101096511509119 0.0013299292648382153 0 -0.016266859261872265 0.0013347259759057149 0 -0.016162345181657937 0.0011834544574282652 0 -0.016266859261872265 0.0013347259759057149 0 -0.016299685034929793 0.0011756431029841406 0 -0.016162345181657937 0.0011834544574282652 0 -0.016101096511509119 0.0013299292648382153 0 -0.016162345181657937 0.0011834544574282652 0 -0.016000510106652505 0.0012037685911710121 0 -0.016162345181657937 0.0011834544574282652 0 -0.016105979751419336 0.00097819545894809986 0 -0.016000510106652505 0.0012037685911710121 0 -0.016162345181657937 0.0011834544574282652 0 -0.016105979751419336 0.00097819545894809986 0 -0.016219058885246589 0.0010530941532268328 0 -0.016299685034929793 0.0011756431029841406 0 -0.016162345181657937 0.0011834544574282652 0 -0.016219058885246589 0.0010530941532268328 0 -0.016309296465592232 0.0010321620019430114 0 -0.016299685034929793 0.0011756431029841406 0 -0.016219058885246589 0.0010530941532268328 0 -0.016372762324433177 0.00091604684285780189 0 -0.016218318275055165 0.00090830820336295346 0 -0.016280358200104428 0.00078137331199587274 0 -0.016372762324433177 0.00091604684285780189 0 -0.016309296465592232 0.0010321620019430114 0 -0.016218318275055165 0.00090830820336295346 0 -0.016309296465592232 0.0010321620019430114 0 -0.016219058885246589 0.0010530941532268328 0 -0.016218318275055165 0.00090830820336295346 0 -0.016105979751419336 0.00097819545894809986 0 -0.016218318275055165 0.00090830820336295346 0 -0.016124349704871286 0.00076859328902008936 0 -0.016105979751419336 0.00097819545894809986 0 -0.016124349704871286 0.00076859328902008936 0 -0.016038050375824123 0.00082867181911956071 0 -0.016105979751419336 0.00097819545894809986 0 -0.016219058885246589 0.0010530941532268328 0 -0.016218318275055165 0.00090830820336295346 0 -0.016218318275055165 0.00090830820336295346 0 -0.016124349704871286 0.00076859328902008936 0 -0.016280358200104428 0.00078137331199587274 0 -0.016124349704871286 0.00076859328902008936 0 -0.016280358200104428 0.00078137331199587274 0 -0.016218054915420357 0.00064374075474535374 0 -0.016004563151219248 0.00069605661274427222 0 -0.016038050375824123 0.00082867181911956071 0 -0.015948537536924469 0.00072680850268920722 0 -0.015960603408858451 0.00064375755253015901 0 -0.016004563151219248 0.00069605661274427222 0 -0.015949079773560221 0.00064111577529550937 0 -0.015960603408858451 0.00064375755253015901 0 -0.016004563151219248 0.00069605661274427222 0 -0.015948537536924469 0.00072680850268920722 0 -0.016124349704871286 0.00076859328902008936 0 -0.016004563151219248 0.00069605661274427222 0 -0.016038050375824123 0.00082867181911956071 0 -0.016124349704871286 0.00076859328902008936 0 -0.016004563151219248 0.00069605661274427222 0 -0.016061457259977815 0.00063152279875355866 0 -0.016105979751419336 0.00097819545894809986 0 -0.016038050375824123 0.00082867181911956071 0 -0.015968512726611522 0.00096568873871785363 0 -0.016038050375824123 0.00082867181911956071 0 -0.015948537536924469 0.00072680850268920722 0 -0.015968512726611522 0.00096568873871785363 0 -0.015948537536924469 0.00072680850268920722 0 -0.015847784641816024 0.00094740541784008817 0 -0.015968512726611522 0.00096568873871785363 0 -0.015968512726611522 0.00096568873871785363 0 -0.016000510106652505 0.0012037685911710121 0 -0.015853348193017681 0.0011412824245788948 0 -0.015847784641816024 0.00094740541784008817 0 -0.015968512726611522 0.00096568873871785363 0 -0.015853348193017681 0.0011412824245788948 0 -0.016105979751419336 0.00097819545894809986 0 -0.015968512726611522 0.00096568873871785363 0 -0.016000510106652505 0.0012037685911710121 0 -0.015851076934531499 0.0014010900061625412 0 -0.015853348193017681 0.0011412824245788948 0 -0.015706769386712865 0.0012903989393234984 0 -0.015851076934531499 0.0014010900061625412 0 -0.016000510106652505 0.0012037685911710121 0 -0.015853348193017681 0.0011412824245788948 0 -0.015706769386712865 0.0012903989393234984 0 -0.015396479153892384 0.0012173222944872107 0 -0.015610067673403121 0.0009850400016708893 0 -0.015706769386712865 0.0012903989393234984 0 -0.015396479153892384 0.0012173222944872107 0 -0.015527746925532493 0.0013700462586387044 0 -0.015396479153892384 0.0012173222944872107 0 -0.015338212650369425 0.0014802518813476361 0 -0.015527746925532493 0.0013700462586387044 0 -0.01559968479191434 0.001351785073529448 0 -0.015801733601616658 0.00097947426104760078 0 -0.01582855985791759 0.0014645437687769646 0 -0.016003241773852074 0.00094825208321585642 0 -0.01569994812674658 0.00096860323760420992 0 -0.015847784641816024 0.00094740541784008817 0 -0.015853348193017681 0.0011412824245788948 0 -0.015610067673403121 0.0009850400016708893 0 -0.015853348193017681 0.0011412824245788948 0 -0.015706769386712865 0.0012903989393234984 0 -0.015610067673403121 0.0009850400016708893 0 -0.015934250729996647 0.00075878148668588141 0 -0.015801733601616658 0.00097947426104760078 0 -0.015948537536924469 0.00072680850268920722 0 -0.015847784641816024 0.00094740541784008817 0 -0.015610067673403121 0.0009850400016708893 0 -0.015948537536924469 0.00072680850268920722 0 -0.016003241773852074 0.00094825208321585642 0 -0.015895240943659038 0.00071285813607532432 0 -0.016003241773852074 0.00094825208321585642 0 -0.015895240943659038 0.00071285813607532432 0 -0.01569994812674658 0.00096860323760420992 0 -0.015895240943659038 0.00071285813607532432 0 -0.015611622817048278 0.00058583218484585813 0 -0.01569994812674658 0.00096860323760420992 0 -0.015895240943659038 0.00071285813607532432 0 -0.015981975903343295 0.00055369148570451245 0 -0.015786222992205799 0.0002396265665576188 0 -0.015895240943659038 0.00071285813607532432 0 -0.015611622817048278 0.00058583218484585813 0 -0.015786222992205799 0.0002396265665576188 0 -0.015948537536924469 0.00072680850268920722 0 -0.015895240943659038 0.00071285813607532432 0 -0.015981975903343295 0.00055369148570451245 0 -0.015960603408858451 0.00064375755253015901 0 -0.015981975903343295 0.00055369148570451245 0 -0.015949079773560221 0.00064111577529550937 0 -0.015960603408858451 0.00064375755253015901 0 -0.015948537536924469 0.00072680850268920722 0 -0.015981975903343295 0.00055369148570451245 0 -0.014999942866499789 0.00041797599556886781 0 -0.015376083497801167 0.00020647921710242268 0 -0.014999986043094365 -0.00029013146738897773 0 -0.014999942866499789 0.00041797599556886781 0 -0.015376083497801167 0.00020647921710242268 0 -0.015326808783054428 0.00079742146426694442 0 -0.015376083497801167 0.00020647921710242268 0 -0.015611622817048278 0.00058583218484585813 0 -0.015786222992205799 0.0002396265665576188 0 -0.015376083497801167 0.00020647921710242268 0 -0.015611622817048278 0.00058583218484585813 0 -0.015326808783054428 0.00079742146426694442 0 -0.015611622817048278 0.00058583218484585813 0 -0.015326808783054428 0.00079742146426694442 0 -0.01569994812674658 0.00096860323760420992 0 -0.014999942866499789 0.00041797599556886781 0 -0.015326808783054428 0.00079742146426694442 0 -0.014999956780050798 0.0011265387583917026 0 -0.015326808783054428 0.00079742146426694442 0 -0.014999956780050798 0.0011265387583917026 0 -0.015382663705428307 0.0013819069042174375 0 -0.015326808783054428 0.00079742146426694442 0 -0.01569994812674658 0.00096860323760420992 0 -0.015382663705428307 0.0013819069042174375 0 -0.01582855985791759 0.0014645437687769646 0 -0.01569994812674658 0.00096860323760420992 0 -0.015382663705428307 0.0013819069042174375 0 -0.01582855985791759 0.0014645437687769646 0 -0.015382663705428307 0.0013819069042174375 0 -0.015510263585378032 0.0020470901138830797 0 -0.01559968479191434 0.001351785073529448 0 -0.01533240522137887 0.00174779424628543 0 -0.015382663705428307 0.0013819069042174375 0 -0.014999942293469527 0.0018350839513885239 0 -0.015510263585378032 0.0020470901138830797 0 -0.014999956780050798 0.0011265387583917026 0 -0.015382663705428307 0.0013819069042174375 0 -0.014999942293469527 0.0018350839513885239 0 -0.014999942293469527 0.0018350839513885239 0 -0.014999993506194654 0.0025437209852917932 0 -0.015510263585378032 0.0020470901138830797 0 -0.014999992729198821 0.0027588984134620594 0 -0.015113925757677135 0.0026266201427943298 0 -0.015650786279539745 0.0030093208007916251 0 -0.014917199373432765 0.0017725383791978376 0 -0.01522127982252496 0.0017207749216342487 0 -0.015158713838455988 0.0014843316092749278 0 -0.015047211431117695 0.0023427330984133504 0 -0.01533240522137887 0.00174779424628543 0 -0.014999993506194654 0.0025437209852917932 0 -0.015110629039827466 0.0026188395139201365 0 -0.015510263585378032 0.0020470901138830797 0 -0.014999999881243434 0.0025437803928285113 0 -0.014999999500820779 0.0027588857333330991 0 -0.015115764382250211 0.0026244669749246035 0 -0.014999880250863554 0.0027584852416080181 0 -0.015047211431117695 0.0023427330984133504 0 -0.015000203447659947 0.0025434649435906141 0 -0.015047211431117695 0.0023427330984133504 0 -0.01522127982252496 0.0017207749216342487 0 -0.015470319837015386 0.0018834652140550861 0 -0.015209750006534054 0.0019696236528480493 0 -0.01522127982252496 0.0017207749216342487 0 -0.015338212650369425 0.0014802518813476361 0 -0.015470319837015386 0.0018834652140550861 0 -0.014917199373432765 0.0017725383791978376 0 -0.01522127982252496 0.0017207749216342487 0 -0.015209750006534054 0.0019696236528480493 0 -0.015396479153892384 0.0012173222944872107 0 -0.015158713838455988 0.0014843316092749278 0 -0.015338212650369425 0.0014802518813476361 0 -0.01522127982252496 0.0017207749216342487 0 -0.015158713838455988 0.0014843316092749278 0 -0.015338212650369425 0.0014802518813476361 0 -0.015338212650369425 0.0014802518813476361 0 -0.015527746925532493 0.0013700462586387044 0 -0.015648327776695919 0.0015720910512178102 0 -0.015351425934425596 0.0014860413604860781 0 -0.015647792187039506 0.0016449138578512174 0 -0.015706769386712865 0.0012903989393234984 0 -0.015527746925532493 0.0013700462586387044 0 -0.015648327776695919 0.0015720910512178102 0 -0.015851076934531499 0.0014010900061625412 0 -0.015706769386712865 0.0012903989393234984 0 -0.015648327776695919 0.0015720910512178102 0 -0.015668954028692287 0.001723514518344249 0 -0.015470319837015386 0.0018834652140550861 0 -0.015687598270863749 0.0019679016752649245 0 -0.015338212650369425 0.0014802518813476361 0 -0.015668954028692287 0.001723514518344249 0 -0.015470319837015386 0.0018834652140550861 0 -0.015470319837015386 0.0018834652140550861 0 -0.015481022105591154 0.0021450696836574231 0 -0.015209750006534054 0.0019696236528480493 0 -0.015470319837015386 0.0018834652140550861 0 -0.015556910784140659 0.0020126769215932198 0 -0.015481022105591154 0.0021450696836574231 0 -0.015470319837015386 0.0018834652140550861 0 -0.015556910784140659 0.0020126769215932198 0 -0.015687598270863749 0.0019679016752649245 0 -0.015556910784140659 0.0020126769215932198 0 -0.015687598270863749 0.0019679016752649245 0 -0.015631026022238752 0.0021317316282661236 0 -0.015806183486763985 0.0021193682410061998 0 -0.015687598270863749 0.0019679016752649245 0 -0.015631026022238752 0.0021317316282661236 0 -0.015779997217930823 0.003307729522592786 0 -0.015890398275054333 0.0027638105910786316 0 -0.015717273402817158 0.0022938574416861658 0 -0.015631026022238752 0.0021317316282661236 0 -0.015481022105591154 0.0021450696836574231 0 -0.016324565854276087 0.0040680723393823216 0 -0.016723140639231627 0.0037707995970019982 0 -0.016186257918076385 0.0033908368600808303 0 -0.015806183486763985 0.0021193682410061998 0 -0.015631026022238752 0.0021317316282661236 0 -0.015720098969881042 0.0022423730591538283 0 -0.01571887190250593 0.0022845405063959081 0 -0.015823184826194853 0.0022495365286085331 0 -0.015720098969881042 0.0022423730591538283 0 -0.015717273402817158 0.0022938574416861658 0 -0.015631026022238752 0.0021317316282661236 0 -0.015720098969881042 0.0022423730591538283 0 -0.015779997217930823 0.003307729522592786 0 -0.015796034979755461 0.0028347432497308127 0 -0.016324565854276087 0.0040680723393823216 0 -0.016186257918076385 0.0033908368600808303 0 -0.015629600032279544 0.0036206189375859775 0 -0.015556910784140659 0.0020126769215932198 0 -0.015631026022238752 0.0021317316282661236 0 -0.015481022105591154 0.0021450696836574231 0 -0.016186257918076385 0.0033908368600808303 0 -0.015629600032279544 0.0036206189375859775 0 -0.015650786279539745 0.0030093208007916251 0 -0.015629600032279544 0.0036206189375859775 0 -0.014999993243011442 0.0035543476328212752 0 -0.015650786279539745 0.0030093208007916251 0 -0.014999992729198821 0.0027588984134620594 0 -0.014999993243011442 0.0035543476328212752 0 -0.015650786279539745 0.0030093208007916251 0 -0.015047211431117695 0.0023427330984133504 0 -0.015407204417627279 0.0024671198983339596 0 -0.015890398275054333 0.0027638105910786316 0 -0.015407204417627279 0.0024671198983339596 0 0.0052859430289172631 0.0074910007477268009 0 0.0056326276163752133 0.0065875172788103595 0 0.0049064803479051903 0.0069643435988863047 0 0.0075227331575594249 0.0077038370654160804 0 0.0073420906923590771 0.0076376093178843881 0 0.0073617559046531495 0.0079021980316824302 0 0.0052859430289172631 0.0074910007477268009 0 0.0048347451802997288 0.0079779657890945727 0 0.0049064803479051903 0.0069643435988863047 0 0.0062100224136071424 0.007971422113853429 0 0.0061908418143490056 0.0074262586288293946 0 0.0075382139361128992 0.0081079210629055043 0 0.0075227331575594249 0.0077038370654160804 0 0.0073617559046531495 0.0079021980316824302 0 0.0075382139361128992 0.0081079210629055043 0 0.0073617559046531495 0.0079021980316824302 0 0.007379456495003882 0.0080821593764396418 0 0.0075382139361128992 0.0081079210629055043 0 0.007379456495003882 0.0080821593764396418 0 0.0073384156260839139 0.0082467695752942889 0 0.0052859430289172631 0.0074910007477268009 0 0.0057783428311465801 0.0077936993137521678 0 0.0052869141549822954 0.0084239966661504226 0 0.001950970204353574 0.0082601867936920714 0 0.0020257039982871402 0.008121071141340053 0 0.0018072306520964293 0.008400736699755447 0 0.0052859430289172631 0.0074910007477268009 0 0.0048347451802997288 0.0079779657890945727 0 0.0052869141549822954 0.0084239966661504226 0 0.0035311352306231238 0.0079949498317422926 0 0.0033972859441462689 0.0084549119831009469 0 0.001950970204353574 0.0082601867936920714 0 0.0021058408555359003 0.0082176053902392465 0 0.0020150416476237493 0.008137107350213663 0 0.0024358606889090615 0.0085227331080148915 0 0.0035311352306231238 0.0079949498317422926 0 0.0021058408555359003 0.0082176053902392465 0 0.0020150416476237493 0.008137107350213663 0 0.0021908667569774869 0.0081135574448138407 0 0.0021058408555359003 0.0082176053902392465 0 0.0021908667569774869 0.0081135574448138407 0 0.0021932540133622141 0.0082768700751666303 0 0.0023507386933130929 0.0081559633166424679 0 0.0021908667569774869 0.0081135574448138407 0 0.0021932540133622141 0.0082768700751666303 0 0.0023507386933130929 0.0081559633166424679 0 0.0022236877662949331 0.0078600322906356105 0 0.0024073756240426286 0.007844858762617226 0 0.0023507386933130929 0.0081559633166424679 0 0.0021908667569774869 0.0081135574448138407 0 0.0022236877662949331 0.0078600322906356105 0 0.0052859430289172631 0.0074910007477268009 0 0.0061688512245453974 0.0070544918539479197 0 0.0056326276163752133 0.0065875172788103595 0 0.0052859430289172631 0.0074910007477268009 0 0.0057783428311465801 0.0077936993137521678 0 0.0061688512245453974 0.0070544918539479197 0 0.0035311352306231238 0.0079949498317422926 0 0.0055376821265478689 0.0068187087040002684 0 0.0035311352306231238 0.0079949498317422926 0 0.0035443239639166573 0.0073181438019436018 0 0.0020150416476237493 0.008137107350213663 0 0.0021908667569774869 0.0081135574448138407 0 0.0022236877662949331 0.0078600322906356105 0 0.0038685184465544727 0.008199130831158561 0 0.0050718586959879438 0.0066516859822529101 0 0.0046262829560187336 0.0067447557633940275 0 0.0061688512245453974 0.0070544918539479197 0 0.0065568839997614554 0.0063083316076421262 0 0.0056326276163752133 0.0065875172788103595 0 0.0050718586959879438 0.0066516859822529101 0 0.0053774218670330819 0.0053158403682238287 0 0.0062154297729293409 0.0051310874865015061 0 0.0050718586959879438 0.0066516859822529101 0 0.0046262829560187336 0.0067447557633940275 0 0.0053774218670330819 0.0053158403682238287 0 0.0055376821265478689 0.0068187087040002684 0 0.005914340935700012 0.0058980662115288313 0 0.0035443239639166573 0.0073181438019436018 0 0.0043053205424599056 0.0063849442489627203 0 0.005914340935700012 0.0058980662115288313 0 0.0066934198362737559 0.0045103023290097343 0 0.0065568839997614554 0.0063083316076421262 0 0.0069412169764024711 0.0055563499632093113 0 0.0059566199263305711 0.0057522610865730463 0 0.0065568839997614554 0.0063083316076421262 0 0.0056326276163752133 0.0065875172788103595 0 0.0059566199263305711 0.0057522610865730463 0 0.0056326276163752133 0.0065875172788103595 0 0.0049846056954461065 0.0059445410882501435 0 0.0059566199263305711 0.0057522610865730463 0 0.0063933141863319071 0.0063603023249263688 0 0.0060935220544042741 0.0046626141896178716 0 0.0056326276163752133 0.0065875172788103595 0 0.0049064803479051903 0.0069643435988863047 0 0.0049846056954461065 0.0059445410882501435 0 0.0075227331575594249 0.0077038370654160804 0 0.007505102763975079 0.0074435205406928242 0 0.0073420906923590771 0.0076376093178843881 0 0.0061908418143490056 0.0074262586288293946 0 0.0063933141863319071 0.0063603023249263688 0 0.0074697655686977284 0.0075074577787385141 0 0.007320066290562856 0.0075504860737633283 0 0.0074053572750721356 0.007408606601215951 0 0.0063933141863319071 0.0063603023249263688 0 0.00751423611212139 0.0075647153826830498 0 0.007505102763975079 0.0074435205406928242 0 0.0073234762642988872 0.0074987003380262759 0 0.0073420906923590771 0.0076376093178843881 0 0.007320066290562856 0.0075504860737633283 0 0.0072343714593118402 0.0075756414387828453 0 0.0072423413105575816 0.0075199314332149167 0 0.0073234762642988872 0.0074987003380262759 0 0.0072343714593118402 0.0075756414387828453 0 0.0072032838400859587 0.0076027874091829815 0 0.00751423611212139 0.0075647153826830498 0 0.0071751237659061929 0.0075690906172496348 0 0.0072343714593118402 0.0075756414387828453 0 0.0072032838400859587 0.0076027874091829815 0 0.0072758800647638004 0.0075783691356243856 0 0.0073234762642988872 0.0074987003380262759 0 0.0072032838400859587 0.0076027874091829815 0 0.0073420906923590771 0.0076376093178843881 0 0.0078799128242275172 0.0071906438779345506 0 0.0084484701171200285 0.0073729766613905559 0 0.0082582762295079423 0.0067983537263170265 0 0.007556525576890627 0.0076250940276190692 0 0.0078799128242275172 0.0071906438779345506 0 0.0084484701171200285 0.0073729766613905559 0 0.0075989471729801753 0.0076177761618671609 0 0.0078339571560803838 0.0074902257745572366 0 0.0078339571560803838 0.0074902257745572366 0 0.0084299835050655435 0.0073500509106109715 0 0.0084484701171200285 0.0073729766613905559 0 0.0088377798230970667 0.0070709468570254591 0 0.0092135578591467284 0.006998435315008108 0 0.0072343714593118402 0.0075756414387828453 0 0.007298722773344906 0.007639558007020349 0 0.0072758800647638004 0.0075783691356243856 0 0.0072343714593118402 0.0075756414387828453 0 0.007298722773344906 0.007639558007020349 0 0.0072423413105575816 0.0075199314332149167 0 0.0072032838400859587 0.0076027874091829815 0 0.0072758800647638004 0.0075783691356243856 0 0.007267951346224876 0.0074852572363139297 0 0.007556525576890627 0.0076250940276190692 0 0.007298722773344906 0.007639558007020349 0 0.0073729827914674048 0.007562061987467894 0 0.007298722773344906 0.007639558007020349 0 0.0072758800647638004 0.0075783691356243856 0 0.0073729827914674048 0.007562061987467894 0 0.0072758800647638004 0.0075783691356243856 0 0.0073729827914674048 0.007562061987467894 0 0.0073465138764999159 0.0074920038676949486 0 0.0074557270130965999 0.0074331925124931095 0 0.0073465138764999159 0.0074920038676949486 0 0.0073612320299004498 0.007395291974667771 0 0.0074421325561516045 0.0075055336160160021 0 0.0074557270130965999 0.0074331925124931095 0 0.0073465138764999159 0.0074920038676949486 0 0.0074421325561516045 0.0075055336160160021 0 0.0073729827914674048 0.007562061987467894 0 0.0073465138764999159 0.0074920038676949486 0 0.0073465138764999159 0.0074920038676949486 0 0.007267951346224876 0.0074852572363139297 0 0.0073612320299004498 0.007395291974667771 0 0.0072758800647638004 0.0075783691356243856 0 0.0073465138764999159 0.0074920038676949486 0 0.007267951346224876 0.0074852572363139297 0 0.007267951346224876 0.0074852572363139297 0 0.0072512717636604041 0.0074033698844528026 0 0.0073612320299004498 0.007395291974667771 0 0.0072512717636604041 0.0074033698844528026 0 0.0073612320299004498 0.007395291974667771 0 0.0072925644446278593 0.0073323570289982225 0 0.0073420906923590771 0.0076376093178843881 0 0.0073617559046531495 0.0079021980316824302 0 0.0071519464577250872 0.0078951973205074397 0 0.007202677063329139 0.0076630053111791992 0 0.0071404557869182116 0.0075624485720863803 0 0.0072032838400859587 0.0076027874091829815 0 0.0073420906923590771 0.0076376093178843881 0 0.0071519464577250872 0.0078951973205074397 0 0.0072032838400859587 0.0076027874091829815 0 0.007267951346224876 0.0074852572363139297 0 0.00717683421066848 0.007458770318920508 0 0.0071404557869182116 0.0075624485720863803 0 0.0073200315474897864 0.0083723722534614544 0 0.0072512717636604041 0.0074033698844528026 0 0.00717683421066848 0.007458770318920508 0 0.0071603227485707464 0.0073497540426049916 0 0.007267951346224876 0.0074852572363139297 0 0.0072512717636604041 0.0074033698844528026 0 0.00717683421066848 0.007458770318920508 0 0.0072535517140548096 0.0080459790609153283 0 0.007269729762707529 0.0081820707597121678 0 0.0071407578487601171 0.0082695775265987405 0 0.0073617559046531495 0.0079021980316824302 0 0.0071519464577250872 0.0078951973205074397 0 0.0072535517140548096 0.0080459790609153283 0 0.0071519464577250872 0.0078951973205074397 0 0.0072535517140548096 0.0080459790609153283 0 0.0071407578487601171 0.0082695775265987405 0 0.0073617559046531495 0.0079021980316824302 0 0.0072535517140548096 0.0080459790609153283 0 0.007379456495003882 0.0080821593764396418 0 0.0072535517140548096 0.0080459790609153283 0 0.007379456495003882 0.0080821593764396418 0 0.007269729762707529 0.0081820707597121678 0 0.007379456495003882 0.0080821593764396418 0 0.0073384156260839139 0.0082467695752942889 0 0.007269729762707529 0.0081820707597121678 0 0.0072453708356235314 0.0082807053719770284 0 0.0073736903790767045 0.0086113855759198214 0 0.007112101508654209 0.0088226698724472516 0 0.0072453708356235314 0.0082807053719770284 0 0.0070162528656000098 0.0082948457528287754 0 0.007112101508654209 0.0088226698724472516 0 0.0073200315474897864 0.0083723722534614544 0 0.0072101374666137755 0.0092636518357541893 0 0.0073384156260839139 0.0082467695752942889 0 0.007269729762707529 0.0081820707597121678 0 0.0072453708356235314 0.0082807053719770284 0 0.0073384156260839139 0.0082467695752942889 0 0.0072453708356235314 0.0082807053719770284 0 0.0073736903790767045 0.0086113855759198214 0 0.0072118071657841978 0.0083404474590995994 0 0.0073200315474897864 0.0083723722534614544 0 0.007269729762707529 0.0081820707597121678 0 0.0072453708356235314 0.0082807053719770284 0 0.0071407578487601171 0.0082695775265987405 0 0.0072891984693637243 0.0097491429639869238 0 0.0074341376744307113 0.0095679612549764322 0 0.0072482888872144116 0.0095125844345952167 0 0.0072512717636604041 0.0074033698844528026 0 0.0071603227485707464 0.0073497540426049916 0 0.0072925644446278593 0.0073323570289982225 0 0.0072891984693637243 0.0097491429639869238 0 0.0074341376744307113 0.0095679612549764322 0 0.0076376589899694383 0.0097574707105454166 0 0.0073200315474897864 0.0083723722534614544 0 0.0074479153403779821 0.0085645749607470671 0 0.0074341376744307113 0.0095679612549764322 0 0.0075950285805842181 0.0094593186994658598 0 0.0074035050957129327 0.0093644218598815492 0 0.0074341376744307113 0.0095679612549764322 0 0.0072482888872144116 0.0095125844345952167 0 0.0074035050957129327 0.0093644218598815492 0 0.0072482888872144116 0.0095125844345952167 0 0.0072416952991405754 0.0092140354678009045 0 0.0074035050957129327 0.0093644218598815492 0 0.0072101374666137755 0.0092636518357541893 0 0.0072169292138366363 0.0091784267156699312 0 0.007340036100114202 0.009003636238773146 0 0.007112101508654209 0.0088226698724472516 0 0.0072416952991405754 0.0092140354678009045 0 0.007340036100114202 0.009003636238773146 0 0.007112101508654209 0.0088226698724472516 0 0.0074307817520209794 0.0088829645500744271 0 0.0073736903790767045 0.0086113855759198214 0 0.007112101508654209 0.0088226698724472516 0 0.0074307817520209794 0.0088829645500744271 0 0.007720140690620568 0.0085434205181708755 0 0.0074479153403779821 0.0085645749607470671 0 0.0080100475905082007 0.0097874425028019844 0 0.0076376589899694383 0.0097574707105454166 0 0.0078576858352450013 0.009467942794930212 0 0.0074236712544474099 0.0073029475302328652 0 0.0073612320299004498 0.007395291974667771 0 0.0072925644446278593 0.0073323570289982225 0 0.0076376589899694383 0.0097574707105454166 0 0.0075950285805842181 0.0094593186994658598 0 0.0078576858352450013 0.009467942794930212 0 0.0074341376744307113 0.0095679612549764322 0 0.0076376589899694383 0.0097574707105454166 0 0.0075950285805842181 0.0094593186994658598 0 0.0081813858588476659 0.009266777723018 0 0.0078576858352450013 0.009467942794930212 0 0.0078904656211992719 0.0091957757351338824 0 0.0078576858352450013 0.009467942794930212 0 0.0075666415017739495 0.0092352032151047734 0 0.0078904656211992719 0.0091957757351338824 0 0.0075950285805842181 0.0094593186994658598 0 0.0078576858352450013 0.009467942794930212 0 0.0075666415017739495 0.0092352032151047734 0 0.0075950285805842181 0.0094593186994658598 0 0.0075666415017739495 0.0092352032151047734 0 0.0074035050957129327 0.0093644218598815492 0 0.0073927506763771227 0.008946717962571963 0 0.0075666415017739495 0.0092352032151047734 0 0.0077703655667906756 0.0089887200836956775 0 0.0081046746387769628 0.0090235905292527074 0 0.0077703655667906756 0.0089887200836956775 0 0.0078904656211992719 0.0091957757351338824 0 0.0075666415017739495 0.0092352032151047734 0 0.0077703655667906756 0.0089887200836956775 0 0.0078904656211992719 0.0091957757351338824 0 0.007340036100114202 0.009003636238773146 0 0.0072416952991405754 0.0092140354678009045 0 0.0075806478000602058 0.0089898703578131928 0 0.0066279074989772178 0.0098339109084795966 0 0.0057287698343296382 0.0091914443134225483 0 0.0072307714982947618 0.0092697900758368194 0 0.0072416952991405754 0.0092140354678009045 0 0.0075806478000602058 0.0089898703578131928 0 0.0072307714982947618 0.0092697900758368194 0 0.0072416952991405754 0.0092140354678009045 0 0.0073500722368966265 0.0092276097666404346 0 0.0072416952991405754 0.0092140354678009045 0 0.0074035050957129327 0.0093644218598815492 0 0.0073500722368966265 0.0092276097666404346 0 0.0075666415017739495 0.0092352032151047734 0 0.0074035050957129327 0.0093644218598815492 0 0.0073500722368966265 0.0092276097666404346 0 0.0073927506763771227 0.008946717962571963 0 0.0072307714982947618 0.0092697900758368194 0 0.0073500722368966265 0.0092276097666404346 0 0.0073927506763771227 0.008946717962571963 0 0.0075666415017739495 0.0092352032151047734 0 0.0073500722368966265 0.0092276097666404346 0 0.0067821204952387302 0.0094666916252928637 0 0.0066279074989772178 0.0098339109084795966 0 0.0061651475745105756 0.010000341751930491 0 0.0058192981046140081 0.010301599474880184 0 0.0058124308522274357 0.010059687940252903 0 0.0058192981046140081 0.010301599474880184 0 0.0058124308522274357 0.010059687940252903 0 0.005641023207379363 0.010162175979866461 0 0.0056007081098631327 0.0099929874075753104 0 0.0058124308522274357 0.010059687940252903 0 0.005641023207379363 0.010162175979866461 0 0.0056007081098631327 0.0099929874075753104 0 0.0054752753043236201 0.010131543840038681 0 0.005641023207379363 0.010162175979866461 0 0.0053328114338649993 0.009911813062558221 0 0.0056007081098631327 0.0099929874075753104 0 0.0054752753043236201 0.010131543840038681 0 0.0054752753043236201 0.010131543840038681 0 0.0052621873344094227 0.010269028746082001 0 0.0055392493176568292 0.01031703144171215 0 0.0058192981046140081 0.010301599474880184 0 0.005641023207379363 0.010162175979866461 0 0.0055392493176568292 0.01031703144171215 0 0.0054752753043236201 0.010131543840038681 0 0.005641023207379363 0.010162175979866461 0 0.0055392493176568292 0.01031703144171215 0 0.0053328114338649993 0.009911813062558221 0 0.0054752753043236201 0.010131543840038681 0 0.0052621873344094227 0.010269028746082001 0 0.001997260051558761 0.0094168816448460205 0 0.0018044756567848173 0.0090775058493511793 0 0.0019331100597818564 0.0091514481264692027 0 0.0025590866382441775 0.010315517472854445 0 0.0034509746379826666 0.0096189654245874053 0 0.0050163881586873845 0.0098563016657082642 0 0.0053328114338649993 0.009911813062558221 0 0.0052621873344094227 0.010269028746082001 0 0.0018044756567848173 0.0090775058493511793 0 0.0018556726571702287 0.0088202023992615432 0 0.0016031461324648841 0.0086851695419116921 0 0.0018044756567848173 0.0090775058493511793 0 0.0019331100597818564 0.0091514481264692027 0 0.0019676562040151055 0.0089369585775427585 0 0.0018044756567848173 0.0090775058493511793 0 0.0018556726571702287 0.0088202023992615432 0 0.0019676562040151055 0.0089369585775427585 0 0.0018556726571702287 0.0088202023992615432 0 0.0019965262161214629 0.0087929683315488127 0 0.0019676562040151055 0.0089369585775427585 0 0.0034509746379826666 0.0096189654245874053 0 0.0050519498028906481 0.0091528364936303078 0 0.0052621873344094227 0.010269028746082001 0 0.0055340458740366846 0.010625199000461522 0 0.0055083453764978299 0.01065625001318455 0 0.0052621873344094227 0.010269028746082001 0 0.0055392493176568292 0.01031703144171215 0 0.0055340458740366846 0.010625199000461522 0 0.0058192981046140081 0.010301599474880184 0 0.0055392493176568292 0.01031703144171215 0 0.0055340458740366846 0.010625199000461522 0 0.0050519498028906481 0.0091528364936303078 0 0.0033972859441462689 0.0084549119831009469 0 0.007340036100114202 0.009003636238773146 0 0.0075806478000602058 0.0089898703578131928 0 0.0074307817520209794 0.0088829645500744271 0 0.0047685931945329217 0.0089734366062759075 0 0.0048106851728307925 0.0090462042180699323 0 0.0052869141549822954 0.0084239966661504226 0 0.0075806478000602058 0.0089898703578131928 0 0.0074307817520209794 0.0088829645500744271 0 0.0076159465277628041 0.0088710651585739968 0 0.0057287698343296382 0.0091914443134225483 0 0.0059660442706319467 0.0090071919132949738 0 0.0073736903790767045 0.0086113855759198214 0 0.0074307817520209794 0.0088829645500744271 0 0.0076159465277628041 0.0088710651585739968 0 0.0059660442706319467 0.0090071919132949738 0 0.0050519498028906481 0.0091528364936303078 0 0.0059415284227474123 0.0094317102051060218 0 0.005981072522216537 0.0088711965913044009 0 0.006150755607937119 0.0091625621538580625 0 0.0057287698343296382 0.0091914443134225483 0 0.0050519498028906481 0.0091528364936303078 0 0.0018556726571702287 0.0088202023992615432 0 0.0016031461324648841 0.0086851695419116921 0 0.0019031215211195893 0.0086114792119302078 0 0.0016031461324648841 0.0086851695419116921 0 0.0019031215211195893 0.0086114792119302078 0 0.0018072306520964293 0.008400736699755447 0 0.0018556726571702287 0.0088202023992615432 0 0.0019031215211195893 0.0086114792119302078 0 0.0019965262161214629 0.0087929683315488127 0 0.0019031215211195893 0.0086114792119302078 0 0.0018072306520964293 0.008400736699755447 0 0.0019490326499414926 0.0084165240617214369 0 0.001950970204353574 0.0082601867936920714 0 0.0018072306520964293 0.008400736699755447 0 0.0019490326499414926 0.0084165240617214369 0 0.0062100224136071424 0.007971422113853429 0 0.0059660442706319467 0.0090071919132949738 0 0.0076634750633171756 0.0083447224902280376 0 0.0059660442706319467 0.0090071919132949738 0 0.0073384156260839139 0.0082467695752942889 0 0.0073736903790767045 0.0086113855759198214 0 0.0076159465277628041 0.0088710651585739968 0 0.0075382139361128992 0.0081079210629055043 0 0.0073384156260839139 0.0082467695752942889 0 0.0074949248197558934 0.0085563022828905443 0 0.0048347451802997288 0.0079779657890945727 0 0.0047685931945329217 0.0089734366062759075 0 0.0052869141549822954 0.0084239966661504226 0 0.0023507386933130929 0.0081559633166424679 0 0.0022819468328042227 0.0083852833107253485 0 0.0024225617263413067 0.0084081444410623422 0 0.0022819468328042227 0.0083852833107253485 0 0.0021534899065158023 0.0084454994630583941 0 0.0022484493531977068 0.0085558274777799304 0 0.0022819468328042227 0.0083852833107253485 0 0.0022484493531977068 0.0085558274777799304 0 0.0024225617263413067 0.0084081444410623422 0 0.0023507386933130929 0.0081559633166424679 0 0.0022819468328042227 0.0083852833107253485 0 0.0021932540133622141 0.0082768700751666303 0 0.0022819468328042227 0.0083852833107253485 0 0.0021932540133622141 0.0082768700751666303 0 0.0021534899065158023 0.0084454994630583941 0 0.0021932540133622141 0.0082768700751666303 0 0.0020625106449208013 0.00834784071334254 0 0.0021534899065158023 0.0084454994630583941 0 0.0021058408555359003 0.0082176053902392465 0 0.0021932540133622141 0.0082768700751666303 0 0.0020625106449208013 0.00834784071334254 0 0.001950970204353574 0.0082601867936920714 0 0.0021058408555359003 0.0082176053902392465 0 0.0020625106449208013 0.00834784071334254 0 0.001950970204353574 0.0082601867936920714 0 0.0020625106449208013 0.00834784071334254 0 0.0019490326499414926 0.0084165240617214369 0 0.0019031215211195893 0.0086114792119302078 0 0.002029901559677061 0.0085000319254859638 0 0.0019490326499414926 0.0084165240617214369 0 0.0020625106449208013 0.00834784071334254 0 0.002029901559677061 0.0085000319254859638 0 0.0019490326499414926 0.0084165240617214369 0 0.0020625106449208013 0.00834784071334254 0 0.002029901559677061 0.0085000319254859638 0 0.0021534899065158023 0.0084454994630583941 0 0.0021006109563321352 0.0086198097780445081 0 0.0022812099420772528 0.0088290968428493908 0 0.0019965262161214629 0.0087929683315488127 0 0.002029901559677061 0.0085000319254859638 0 0.0021534899065158023 0.0084454994630583941 0 0.0021006109563321352 0.0086198097780445081 0 0.0021534899065158023 0.0084454994630583941 0 0.0021006109563321352 0.0086198097780445081 0 0.0022484493531977068 0.0085558274777799304 0 0.0019031215211195893 0.0086114792119302078 0 0.002029901559677061 0.0085000319254859638 0 0.0021006109563321352 0.0086198097780445081 0 0.0019031215211195893 0.0086114792119302078 0 0.0021006109563321352 0.0086198097780445081 0 0.0019965262161214629 0.0087929683315488127 0 0.0022484493531977068 0.0085558274777799304 0 0.0022812099420772528 0.0088290968428493908 0 0.0024225617263413067 0.0084081444410623422 0 0.0021006109563321352 0.0086198097780445081 0 0.0022484493531977068 0.0085558274777799304 0 0.0022812099420772528 0.0088290968428493908 0 0.0016161794684037205 0.009822549539892405 0 0.0019478887030919033 0.0088248398128818184 0 0.0016161794684037205 0.009822549539892405 0 0.0014582708698596535 0.010512858905106174 0 0.00098925857671934504 0.011614897822123625 0 0.0010519568637841086 0.011542694603841335 0 0.00096281918722390257 0.011555034051134895 0 0.0019331100597818564 0.0091514481264692027 0 0.002161423408076674 0.00901903997448723 0 0.0020781017959420381 0.009171089281077285 0 0.0022812099420772528 0.0088290968428493908 0 0.0019965262161214629 0.0087929683315488127 0 0.0019676562040151055 0.0089369585775427585 0 0.0022390451082453114 0.0087984292191861518 0 0.0016161794684037205 0.009822549539892405 0 0.0019331100597818564 0.0091514481264692027 0 0.0022812099420772528 0.0088290968428493908 0 0.0019676562040151055 0.0089369585775427585 0 0.0025590866382441775 0.010315517472854445 0 0.0014582708698596535 0.010512858905106174 0 0.001997260051558761 0.0094168816448460205 0 0.0019331100597818564 0.0091514481264692027 0 0.0020781017959420381 0.009171089281077285 0 0.00093539241427225881 0.011483502041732548 0 0.0010480628031752793 0.011480474165782146 0 0.00096281918722390257 0.011555034051134895 0 0.0010480628031752793 0.011480474165782146 0 0.0010519568637841086 0.011542694603841335 0 0.00096281918722390257 0.011555034051134895 0 -1.1415929848921536e-05 0.012746681506787696 0 -7.8749002400691029e-05 0.012781961085098726 0 0.00093539241427225881 0.011483502041732548 0 0.00096281918722390257 0.011555034051134895 0 0.0008558085211803903 0.011592219792917314 0 -0.0010019921799806462 0.013988651556016798 0 -0.00095015900079182278 0.014004919314393172 0 -0.0010225331085076236 0.013975928149004571 0 0.00098925857671934504 0.011614897822123625 0 0.0008558085211803903 0.011592219792917314 0 0.00089087649503339695 0.011667910954739914 0 0.00098925857671934504 0.011614897822123625 0 0.00096281918722390257 0.011555034051134895 0 0.0008558085211803903 0.011592219792917314 0 -7.8749002400691029e-05 0.012781961085098726 0 -0.0001415614957705146 0.012797807850628812 0 -0.0010019921799806462 0.013988651556016798 0 -0.0010225331085076236 0.013975928149004571 0 -0.0010511466250068529 0.013969608535914734 0 -0.0010511466250068529 0.013969608535914734 0 -0.001082721251246168 0.013955841181877598 0 -0.0010818925474646367 0.013956076153053162 0 -0.0010225331085076236 0.013975928149004571 0 -0.0010511466250068529 0.013969608535914734 0 -0.0010818925474646367 0.013956076153053162 0 -0.001082721251246168 0.013955841181877598 0 -0.0011128377249802204 0.013941685480225417 0 -0.0010818925474646367 0.013956076153053162 0 -0.001082721251246168 0.013955841181877598 0 -0.0011128377249802204 0.013941685480225417 0 -0.001108156108882102 0.013933572143879367 0 -0.0011128377249802204 0.013941685480225417 0 -0.0010818925474646367 0.013956076153053162 0 -0.001133160255369154 0.013951071121129343 0 -0.0010818925474646367 0.013956076153053162 0 -0.0010846451777230706 0.013958133964914458 0 -0.001133160255369154 0.013951071121129343 0 -0.0010225331085076236 0.013975928149004571 0 -0.0010818925474646367 0.013956076153053162 0 -0.0010846451777230706 0.013958133964914458 0 -0.0010846451777230706 0.013958133964914458 0 -0.001133160255369154 0.013951071121129343 0 -0.0011405470011736538 0.013936928319546679 0 -0.0001415614957705146 0.012797807850628812 0 -0.00012514372790416769 0.012874086516888861 0 0.00080735095849021816 0.011663071017032189 0 0.00079670657982510123 0.011683168338432895 0 0.00082592535332059276 0.011684751344192893 0 0.001480131710783289 0.010420027550607799 0 0.0010999039246876602 0.010825341251396347 0 0.00080735095849021816 0.011663071017032189 0 0.00082592535332059276 0.011684751344192893 0 0.00089087649503339695 0.011667910954739914 0 0.0020865244196599337 0.0092482801082525625 0 0.0014179382108065572 0.0094131351822669008 0 0.0016010978241907162 0.0096276587129264686 0 0.0016161794684037205 0.009822549539892405 0 0.0010999039246876602 0.010825341251396347 0 0.0011430178615712393 0.0099932915758216903 0 0.0014179382108065572 0.0094131351822669008 0 0.0016010978241907162 0.0096276587129264686 0 0.0008558085211803903 0.011592219792917314 0 0.00080735095849021816 0.011663071017032189 0 0.00089087649503339695 0.011667910954739914 0 -0.0093494709191310615 0.012072126423302104 0 -0.0090201624421151049 0.011665650608951092 0 -0.0087802103669302363 0.012232804777103614 0 -0.0093948637970581103 0.011111852790602509 0 -0.0090201624421151049 0.011665650608951092 0 -0.0086711104157184259 0.011259873113057898 0 -0.0090201624421151049 0.011665650608951092 0 -0.0086711104157184259 0.011259873113057898 0 -0.0081503340122437568 0.011710065925616485 0 -0.0081700092732865295 0.010972429973027432 0 -0.0086711104157184259 0.011259873113057898 0 -0.0081503340122437568 0.011710065925616485 0 -0.0090201624421151049 0.011665650608951092 0 -0.0081503340122437568 0.011710065925616485 0 -0.0087802103669302363 0.012232804777103614 0 -0.001264930202257144 0.013930877051563774 0 -0.0011909758216072965 0.013931911598041505 0 -0.0011867533863320081 0.013958835002522478 0 -0.001264930202257144 0.013930877051563774 0 -0.0012312884343125216 0.013883744607066626 0 -0.0011909758216072965 0.013931911598041505 0 -0.0062333470713444809 0.01301484992933535 0 -0.0045872754794574668 0.01270836100109525 0 -0.0062333470713444809 0.01301484992933535 0 -0.0019477755205071885 0.014183337588100852 0 -0.001332944260397974 0.013791359993054177 0 -0.0012312884343125216 0.013883744607066626 0 -0.0011890462980777504 0.013834645647125615 0 -0.001332944260397974 0.013791359993054177 0 -0.001264930202257144 0.013930877051563774 0 -0.0012312884343125216 0.013883744607066626 0 -0.0012312884343125216 0.013883744607066626 0 -0.0011784897484958584 0.013897777697232267 0 -0.0011909758216072965 0.013931911598041505 0 -0.0012312884343125216 0.013883744607066626 0 -0.0011784897484958584 0.013897777697232267 0 -0.0011890462980777504 0.013834645647125615 0 -0.0011784897484958584 0.013897777697232267 0 -0.0011442164988536821 0.013928992167759125 0 -0.0011909758216072965 0.013931911598041505 0 -0.0011784897484958584 0.013897777697232267 0 -0.0011823986805316474 0.013868117453359544 0 -0.001108156108882102 0.013933572143879367 0 -0.0016742431800509082 0.013958508332606074 0 -0.0019477755205071885 0.014183337588100852 0 -0.0019477755205071885 0.014183337588100852 0 -0.00099773136946924184 0.014070195054763163 0 -0.0011784897484958584 0.013897777697232267 0 -0.0011442164988536821 0.013928992167759125 0 -0.001108156108882102 0.013933572143879367 0 -0.0011128377249802204 0.013941685480225417 0 -0.0011442164988536821 0.013928992167759125 0 -0.001108156108882102 0.013933572143879367 0 -0.0011128377249802204 0.013941685480225417 0 -0.0011442164988536821 0.013928992167759125 0 -0.0011508991351107949 0.013942683364730878 0 -0.001133160255369154 0.013951071121129343 0 -0.0011508991351107949 0.013942683364730878 0 -0.0011867533863320081 0.013958835002522478 0 -0.0011128377249802204 0.013941685480225417 0 -0.001133160255369154 0.013951071121129343 0 -0.0011508991351107949 0.013942683364730878 0 -0.0011442164988536821 0.013928992167759125 0 -0.0011508991351107949 0.013942683364730878 0 -0.0011909758216072965 0.013931911598041505 0 -0.0011508991351107949 0.013942683364730878 0 -0.0011909758216072965 0.013931911598041505 0 -0.0011867533863320081 0.013958835002522478 0 -0.001133160255369154 0.013951071121129343 0 -0.0011867533863320081 0.013958835002522478 0 -0.0011764275287076405 0.01394268751355539 0 -0.0011867533863320081 0.013958835002522478 0 -0.0011764275287076405 0.01394268751355539 0 -0.0012046810976528402 0.013944234333855944 0 -0.0011405470011736538 0.013936928319546679 0 -0.0011764275287076405 0.01394268751355539 0 -0.0011907539676029647 0.013921845588042334 0 -0.001133160255369154 0.013951071121129343 0 -0.0011405470011736538 0.013936928319546679 0 -0.0011764275287076405 0.01394268751355539 0 -0.0011405470011736538 0.013936928319546679 0 -0.0011907539676029647 0.013921845588042334 0 -0.0011798463849348035 0.013928844470698925 0 -0.0011764275287076405 0.01394268751355539 0 -0.0011907539676029647 0.013921845588042334 0 -0.0012046810976528402 0.013944234333855944 0 -0.0011907539676029647 0.013921845588042334 0 -0.0012046810976528402 0.013944234333855944 0 -0.0012256985054469958 0.013880424487967825 0 -0.0012256985054469958 0.013880424487967825 0 -0.0012054983666268135 0.013985876951680245 0 -0.0012054781879681721 0.013748469666991186 0 -0.004691219625820797 0.013143631479477436 0 -0.0044430270421905735 0.013942805576506765 0 -0.0011907539676029647 0.013921845588042334 0 -0.0012256985054469958 0.013880424487967825 0 -0.0011798463849348035 0.013928844470698925 0 -0.0012046810976528402 0.013944234333855944 0 -0.0012256985054469958 0.013880424487967825 0 -0.0012054983666268135 0.013985876951680245 0 -0.0045872754794574668 0.01270836100109525 0 -0.004691219625820797 0.013143631479477436 0 -0.001264930202257144 0.013930877051563774 0 -0.0011867533863320081 0.013958835002522478 0 -0.0012054983666268135 0.013985876951680245 0 -0.0011867533863320081 0.013958835002522478 0 -0.0012046810976528402 0.013944234333855944 0 -0.0012054983666268135 0.013985876951680245 0 -0.0081503340122437568 0.011710065925616485 0 -0.0081174603144800964 0.012451875987735469 0 -0.0087802103669302363 0.012232804777103614 0 -0.0081174603144800964 0.012451875987735469 0 -0.0086991936942799469 0.012882825513518509 0 -0.0087802103669302363 0.012232804777103614 0 -0.0081174603144800964 0.012451875987735469 0 -0.0086991936942799469 0.012882825513518509 0 -0.0080813146179877088 0.013221892867181244 0 -0.0093615594648838434 0.012611373841245528 0 -0.0086991936942799469 0.012882825513518509 0 -0.0087802103669302363 0.012232804777103614 0 -0.0093615594648838434 0.012611373841245528 0 -0.0086991936942799469 0.012882825513518509 0 -0.0091574820182752318 0.013113361095611743 0 -0.0093494709191310615 0.012072126423302104 0 -0.0093615594648838434 0.012611373841245528 0 -0.0087802103669302363 0.012232804777103614 0 -0.01175588569080973 0.007366255262465482 0 -0.011281082722180681 0.0081988894711213442 0 -0.010764427759947334 0.0077180922161015804 0 -0.011281082722180681 0.0081988894711213442 0 -0.010764427759947334 0.0077180922161015804 0 -0.010661977901308439 0.008556837603588054 0 -0.011245942479504278 0.0089974724824068101 0 -0.010534853284044819 0.0091197671089658094 0 -0.010142380396313379 0.011758248956750948 0 -0.009317470514378607 0.012337682859186166 0 -0.009730761743986972 0.013308778380447084 0 -0.0091574820182752318 0.013113361095611743 0 -0.0088621285527767622 0.013648032624121035 0 -0.010954746241986857 0.01052264822837338 0 -0.0094776837857361972 0.011007279878909077 0 -0.0094673867769952506 0.010793519095008381 0 -0.0086991936942799469 0.012882825513518509 0 -0.0091574820182752318 0.013113361095611743 0 -0.0088621285527767622 0.013648032624121035 0 -0.0088621285527767622 0.013648032624121035 0 -0.0080594424966259938 0.013986725210280668 0 -0.0080813146179877088 0.013221892867181244 0 -0.0086991936942799469 0.012882825513518509 0 -0.0088621285527767622 0.013648032624121035 0 -0.0080813146179877088 0.013221892867181244 0 -0.009317470514378607 0.012337682859186166 0 -0.0070710053018555007 0.011412948557450764 0 -0.010764427759947334 0.0077180922161015804 0 -0.0098070388491864266 0.0080423175109822324 0 -0.010227061622537897 0.0083151167568071057 0 -0.010764427759947334 0.0077180922161015804 0 -0.010227061622537897 0.0083151167568071057 0 -0.010661977901308439 0.008556837603588054 0 -0.010534853284044819 0.0091197671089658094 0 -0.0070710053018555007 0.011412948557450764 0 -0.0094776837857361972 0.011007279878909077 0 -0.0094673867769952506 0.010793519095008381 0 -0.0078567495071871791 0.011483737676220391 0 -0.0055539464485327324 0.010416324010104075 0 -0.0054595171334574592 0.010462650826431103 0 -0.0054757003360753559 0.0099173316473920112 0 -0.0012954529565541238 0.013224819408675799 0 -0.0012489773523840933 0.01324840423603503 0 -0.001371705102725647 0.013309041667705308 0 -0.0049846509951259861 0.011428134303897141 0 -0.0070710053018555007 0.011412948557450764 0 -0.0024739173077861832 0.01008722319976395 0 -0.00055896547822191023 0.012375857300546788 0 -0.0049846509951259861 0.011428134303897141 0 -0.0024739173077861832 0.01008722319976395 0 -0.001416326488983497 0.013162347365344645 0 -0.001371705102725647 0.013309041667705308 0 -0.0015696670283891951 0.013379049934775081 0 -0.0024739173077861832 0.01008722319976395 0 -4.1289346653028037e-05 0.0083529896146407913 0 -0.0012954529565541238 0.013224819408675799 0 -0.001416326488983497 0.013162347365344645 0 -0.001371705102725647 0.013309041667705308 0 -0.001371705102725647 0.013309041667705308 0 -0.0013363385410464586 0.013528106228525153 0 -0.0015696670283891951 0.013379049934775081 0 -0.0012489773523840933 0.01324840423603503 0 -0.001371705102725647 0.013309041667705308 0 -0.0013363385410464586 0.013528106228525153 0 -0.0012489773523840933 0.01324840423603503 0 -0.0012054781879681721 0.013748469666991186 0 -0.0013363385410464586 0.013528106228525153 0 -0.0070710053018555007 0.011412948557450764 0 -0.0044430270421905735 0.013942805576506765 0 -0.0012256985054469958 0.013880424487967825 0 -0.0012054781879681721 0.013748469666991186 0 -0.0013363385410464586 0.013528106228525153 0 -0.0014131870362992978 0.014346050950675149 0 -0.00055896547822191023 0.012375857300546788 0 -0.0012256985054469958 0.013880424487967825 0 -0.0013363385410464586 0.013528106228525153 0 -0.0015696670283891951 0.013379049934775081 0 -0.0012256985054469958 0.013880424487967825 0 -0.0011798463849348035 0.013928844470698925 0 -0.0011770275392482996 0.013962618537703577 0 -0.0011405470011736538 0.013936928319546679 0 -0.0011798463849348035 0.013928844470698925 0 -0.0011770275392482996 0.013962618537703577 0 -0.00012514372790416769 0.012874086516888861 0 -0.00055896547822191023 0.012375857300546788 0 0.00080628312625463596 0.011656092417761785 0 0.00080507873134634479 0.011641943546137231 0 0.00080081753319657467 0.011671345676476118 0 -0.00037375187917206969 0.010011535999813847 0 -0.00052715461355299677 0.010204277685668594 0 -0.0004928503059152574 0.0099519724816509291 0 -0.00055896547822191023 0.012375857300546788 0 0.0010420982434385234 0.0090667156849905846 0 -0.00052715461355299677 0.010204277685668594 0 -0.0006033717438600248 0.010043068484245245 0 -0.0004928503059152574 0.0099519724816509291 0 0.0010420982434385234 0.0090667156849905846 0 -4.1289346653028037e-05 0.0083529896146407913 0 0.001732623054938975 0.0062228413861193125 0 0.0016003512588951213 0.006319479377843812 0 0.0020043425521733401 0.0066850447469157387 0 0.0010420982434385234 0.0090667156849905846 0 0.0024520062706484234 0.0070980150125555756 0 0.0016003512588951213 0.006319479377843812 0 0.0016254366084031103 0.0066663321554290842 0 0.0020043425521733401 0.0066850447469157387 0 0.0016254366084031103 0.0066663321554290842 0 0.0020043425521733401 0.0066850447469157387 0 0.0018482272621091009 0.0071264231335881221 0 0.0016254366084031103 0.0066663321554290842 0 0.0012617366349886236 0.0071296658213075839 0 0.0018482272621091009 0.0071264231335881221 0 0.0016254366084031103 0.0066663321554290842 0 0.0012518617746845317 0.0065682325808753758 0 0.0012617366349886236 0.0071296658213075839 0 -0.0041168452483626213 0.0074277697186414552 0 -0.004168281153111594 0.0082299553211369492 0 -0.0041168452483626213 0.0074277697186414552 0 -0.0066092582093695727 0.0088241645385956358 0 0.0016003512588951213 0.006319479377843812 0 0.0016254366084031103 0.0066663321554290842 0 0.0012518617746845317 0.0065682325808753758 0 -0.0027723686791593575 0.0079892967146531196 0 -0.0021174747485553638 0.0082906584390020823 0 -0.0036429418337456136 0.0089870684972975443 0 -4.1289346653028037e-05 0.0083529896146407913 0 -0.0041168452483626213 0.0074277697186414552 0 -0.0021174747485553638 0.0082906584390020823 0 -0.0036335479078001211 0.0094518446131575101 0 -0.0036429418337456136 0.0089870684972975443 0 -0.0055539464485327324 0.010416324010104075 0 -0.0057884143611576563 0.010302990704125055 0 -0.0054757003360753559 0.0099173316473920112 0 -0.0098070388491864266 0.0080423175109822324 0 -0.0098062022600352312 0.0085661221167294965 0 -0.010227061622537897 0.0083151167568071057 0 -0.0070710053018555007 0.011412948557450764 0 -0.0066092582093695727 0.0088241645385956358 0 -0.0024739173077861832 0.01008722319976395 0 -0.0066092582093695727 0.0088241645385956358 0 -0.0098062022600352312 0.0085661221167294965 0 -0.010556176930799585 0.0093480343641428824 0 -0.010661977901308439 0.008556837603588054 0 -0.0098062022600352312 0.0085661221167294965 0 -0.010227061622537897 0.0083151167568071057 0 -0.010661977901308439 0.008556837603588054 0 -0.009567509900892248 0.0083407893893212848 0 -0.010349102732240901 0.0090280847516350255 0 -0.0096154091543853501 0.0094021691846836904 0 -0.0066092582093695727 0.0088241645385956358 0 -0.010941738247822437 0.0092803422095282303 0 -0.009567509900892248 0.0083407893893212848 0 -0.0095663254100754221 0.0081535775738460752 0 -0.010349102732240901 0.0090280847516350255 0 -0.01131358810852499 0.0089536833754350672 0 -0.010556176930799585 0.0093480343641428824 0 -0.011135369146588331 0.009531632338097288 0 -0.01131358810852499 0.0089536833754350672 0 -0.010556176930799585 0.0093480343641428824 0 -0.010661977901308439 0.008556837603588054 0 -0.011281082722180681 0.0081988894711213442 0 -0.01131358810852499 0.0089536833754350672 0 -0.010661977901308439 0.008556837603588054 0 0.0020951159258201643 0.0084459230870000609 0 0.0022666166194127532 0.0079720814052414851 0 0.0017132694199214042 0.0088052713606823017 0 0.0021667060900698674 0.0086595216446780175 0 0.0020298939848196807 0.0081942548771680376 0 0.0024073756240426286 0.007844858762617226 0 0.0024999228695465965 0.00803714278576078 0 0.002500892028705431 0.0077446806371109988 0 0.0023507386933130929 0.0081559633166424679 0 0.0024073756240426286 0.007844858762617226 0 0.0024999228695465965 0.00803714278576078 0 0.0023507386933130929 0.0081559633166424679 0 0.0024225617263413067 0.0084081444410623422 0 0.0024999228695465965 0.00803714278576078 0 0.0019478887030919033 0.0088248398128818184 0 0.0020951159258201643 0.0084459230870000609 0 0.0020865244196599337 0.0092482801082525625 0 0.0017132694199214042 0.0088052713606823017 0 0.0021667060900698674 0.0086595216446780175 0 0.0020865244196599337 0.0092482801082525625 0 0.0014179382108065572 0.0094131351822669008 0 0.0017132694199214042 0.0088052713606823017 0 0.0020865244196599337 0.0092482801082525625 0 0.0025748693780825896 0.0088548939571849658 0 0.0021667060900698674 0.0086595216446780175 0 0.001480131710783289 0.010420027550607799 0 0.0017852195272682009 0.010373089734123077 0 0.00079670657982510123 0.011683168338432895 0 0.00082592535332059276 0.011684751344192893 0 0.00080081753319657467 0.011671345676476118 0 0.00079670657982510123 0.011683168338432895 0 0.00080628312625463596 0.011656092417761785 0 0.00080081753319657467 0.011671345676476118 0 0.0010420982434385234 0.0090667156849905846 0 0.0017852195272682009 0.010373089734123077 0 0.003043056474706029 0.0084661461433126542 0 0.0025748693780825896 0.0088548939571849658 0 0.0025104824163351691 0.0083574398322635631 0 0.0025748693780825896 0.0088548939571849658 0 0.0021667060900698674 0.0086595216446780175 0 0.0025104824163351691 0.0083574398322635631 0 0.0021667060900698674 0.0086595216446780175 0 0.0025104824163351691 0.0083574398322635631 0 0.0020298939848196807 0.0081942548771680376 0 0.0024215398140183158 0.0080172463442300078 0 0.0025104824163351691 0.0083574398322635631 0 0.0020298939848196807 0.0081942548771680376 0 0.0024215398140183158 0.0080172463442300078 0 0.0025104824163351691 0.0083574398322635631 0 0.0028074643171942977 0.0079775778234091148 0 0.003043056474706029 0.0084661461433126542 0 0.0025104824163351691 0.0083574398322635631 0 0.0028074643171942977 0.0079775778234091148 0 0.0020043425521733401 0.0066850447469157387 0 0.0022675906248096822 0.0071820148370444021 0 0.0018482272621091009 0.0071264231335881221 0 0.0024215398140183158 0.0080172463442300078 0 0.0028074643171942977 0.0079775778234091148 0 0.0025412544839726403 0.0077950198891506457 0 0.0028074643171942977 0.0079775778234091148 0 0.0025412544839726403 0.0077950198891506457 0 0.0025474049857903266 0.0075855911373954015 0 0.0024520062706484234 0.0070980150125555756 0 0.0024086674376973208 0.0074354241449748823 0 0.0024215398140183158 0.0080172463442300078 0 0.0025412544839726403 0.0077950198891506457 0 0.0024060571393237818 0.007630531114214638 0 0.0024215398140183158 0.0080172463442300078 0 0.0020298939848196807 0.0081942548771680376 0 0.0024060571393237818 0.007630531114214638 0 0.0022666166194127532 0.0079720814052414851 0 0.0023956061736407001 0.0076597147141528417 0 0.0024368641049700916 0.0076567255962121843 0 0.002500892028705431 0.0077446806371109988 0 0.0023756024557526133 0.0076696912814381559 0 0.0024368641049700916 0.0076567255962121843 0 0.002500892028705431 0.0077446806371109988 0 0.0024060571393237818 0.007630531114214638 0 0.0024368641049700916 0.0076567255962121843 0 0.0023756024557526133 0.0076696912814381559 0 0.0024053067462368291 0.0075758112762816876 0 0.0022236877662949331 0.0078600322906356105 0 0.0024073756240426286 0.007844858762617226 0 0.0023756024557526133 0.0076696912814381559 0 0.0024073756240426286 0.007844858762617226 0 0.002500892028705431 0.0077446806371109988 0 0.0023756024557526133 0.0076696912814381559 0 0.0043053205424599056 0.0063849442489627203 0 0.0046906846325887154 0.0057249929203572877 0 0.0053774218670330819 0.0053158403682238287 0 0.0062154297729293409 0.0051310874865015061 0 0.0060745033137170586 0.0040568748675942215 0 0.0062154297729293409 0.0051310874865015061 0 0.006696660081894781 0.0039500822334612787 0 0.0070199903267576611 0.0038313002847597225 0 0.0062154297729293409 0.0051310874865015061 0 0.0060745033137170586 0.0040568748675942215 0 0.006696660081894781 0.0039500822334612787 0 0.0067033618710437368 0.0037806234823433631 0 0.0067141807734611503 0.0037246042392591111 0 0.0066219615808729964 0.0036681939129732844 0 0.0066934198362737559 0.0045103023290097343 0 0.0066039930030016162 0.0041577827840859416 0 0.006696660081894781 0.0039500822334612787 0 0.0067141807734611503 0.0037246042392591111 0 0.0068409697203486546 0.00373313573411534 0 0.0065590677516673664 0.003950031394714993 0 0.006696660081894781 0.0039500822334612787 0 0.0067141807734611503 0.0037246042392591111 0 0.0066934198362737559 0.0045103023290097343 0 0.0068285510421961168 0.0037450894350014867 0 0.0067141807734611503 0.0037246042392591111 0 0.0069122588532522242 0.0035611803946110515 0 0.0066847903648046764 0.0035059742398867973 0 0.0067141807734611503 0.0037246042392591111 0 0.0069122588532522242 0.0035611803946110515 0 0.0068409697203486546 0.00373313573411534 0 0.0069122588532522242 0.0035611803946110515 0 0.0070199903267576611 0.0038313002847597225 0 0.0070446254284822199 0.0035062505586255246 0 0.0046906846325887154 0.0057249929203572877 0 0.0047056112601639452 0.0054915572718842098 0 0.0069122588532522242 0.0035611803946110515 0 0.0068409697203486546 0.00373313573411534 0 0.0070199903267576611 0.0038313002847597225 0 0.0024368641049700916 0.0076567255962121843 0 0.0024053067462368291 0.0075758112762816876 0 0.002403649517642967 0.0075835517229570493 0 0.006696660081894781 0.0039500822334612787 0 0.0068409697203486546 0.00373313573411534 0 0.0070199903267576611 0.0038313002847597225 0 0.0024060571393237818 0.007630531114214638 0 0.0024221481231989166 0.0075684792705223445 0 0.002403649517642967 0.0075835517229570493 0 0.0024368641049700916 0.0076567255962121843 0 0.0024060571393237818 0.007630531114214638 0 0.002403649517642967 0.0075835517229570493 0 0.0024053067462368291 0.0075758112762816876 0 0.002403649517642967 0.0075835517229570493 0 0.0023493213095663506 0.0074918802031284813 0 0.0024086674376973208 0.0074354241449748823 0 0.0023650895545156156 0.0074637577462096476 0 0.0024221481231989166 0.0075684792705223445 0 0.0025474049857903266 0.0075855911373954015 0 0.0023493213095663506 0.0074918802031284813 0 0.0024221481231989166 0.0075684792705223445 0 0.002403649517642967 0.0075835517229570493 0 0.0023493213095663506 0.0074918802031284813 0 0.0025412544839726403 0.0077950198891506457 0 0.0024060571393237818 0.007630531114214638 0 0.0025474049857903266 0.0075855911373954015 0 0.0024060571393237818 0.007630531114214638 0 0.0024221481231989166 0.0075684792705223445 0 0.0025474049857903266 0.0075855911373954015 0 0.0022675906248096822 0.0071820148370444021 0 0.002087928691429492 0.0072975027788297593 0 0.0018482272621091009 0.0071264231335881221 0 0.0022675906248096822 0.0071820148370444021 0 0.002087928691429492 0.0072975027788297593 0 0.0021918259593748982 0.0074343752971548971 0 0.0022675906248096822 0.0071820148370444021 0 0.0021918259593748982 0.0074343752971548971 0 0.0023493213095663506 0.0074918802031284813 0 0.002087928691429492 0.0072975027788297593 0 0.0021918259593748982 0.0074343752971548971 0 0.0020782307255367621 0.0075134365873086462 0 0.0021918259593748982 0.0074343752971548971 0 0.0023493213095663506 0.0074918802031284813 0 0.0021880358055736526 0.0074969664816972627 0 0.0021918259593748982 0.0074343752971548971 0 0.0021880358055736526 0.0074969664816972627 0 0.0020782307255367621 0.0075134365873086462 0 0.0024053067462368291 0.0075758112762816876 0 0.0023400833912879219 0.0074930209264954294 0 0.0023493213095663506 0.0074918802031284813 0 0.0023400833912879219 0.0074930209264954294 0 0.0023493213095663506 0.0074918802031284813 0 0.0021880358055736526 0.0074969664816972627 0 0.0070446254284822199 0.0035062505586255246 0 0.0071083355817309199 0.0032947578846795962 0 0.0069750442217539491 0.0033303564347891045 0 0.0047056112601639452 0.0054915572718842098 0 0.0045852393869960963 0.0053840380288864729 0 0.0021880358055736526 0.0074969664816972627 0 0.0021654182701760913 0.0074393765383703736 0 0.0022295348751861215 0.007400493853330835 0 0.0023400833912879219 0.0074930209264954294 0 0.0021880358055736526 0.0074969664816972627 0 0.0021654182701760913 0.0074393765383703736 0 0.0071083355817309199 0.0032947578846795962 0 0.0069750442217539491 0.0033303564347891045 0 0.0069925993493653218 0.003154565022410862 0 0.0068731129514696537 0.0032217329671470627 0 0.0069750442217539491 0.0033303564347891045 0 0.0069925993493653218 0.003154565022410862 0 0.0068731129514696537 0.0032217329671470627 0 0.0069750442217539491 0.0033303564347891045 0 0.0068383478229420199 0.0033797180039129644 0 0.0068731129514696537 0.0032217329671470627 0 0.0067367225234570734 0.003102275033174473 0 0.0066991259449051405 0.0033114872594883337 0 0.0068731129514696537 0.0032217329671470627 0 0.0068383478229420199 0.0033797180039129644 0 0.0066991259449051405 0.0033114872594883337 0 0.0068383478229420199 0.0033797180039129644 0 0.0066991259449051405 0.0033114872594883337 0 0.0066847903648046764 0.0035059742398867973 0 0.0069122588532522242 0.0035611803946110515 0 0.0068383478229420199 0.0033797180039129644 0 0.0066847903648046764 0.0035059742398867973 0 0.0069122588532522242 0.0035611803946110515 0 0.0070446254284822199 0.0035062505586255246 0 0.0069750442217539491 0.0033303564347891045 0 0.0069122588532522242 0.0035611803946110515 0 0.0069750442217539491 0.0033303564347891045 0 0.0068383478229420199 0.0033797180039129644 0 -0.011144347765078883 0.010315957078308451 0 -0.010687450399074249 0.010163348476507392 0 -0.010343741280516702 0.01050050703242732 0 -0.010687450399074249 0.010163348476507392 0 -0.010243544053770407 0.010015783241917856 0 -0.010343741280516702 0.01050050703242732 0 -0.011144347765078883 0.010315957078308451 0 -0.010687450399074249 0.010163348476507392 0 -0.011090780788441402 0.0099489700167581761 0 -0.010687450399074249 0.010163348476507392 0 -0.01058589094235172 0.0099277931321072026 0 -0.010243544053770407 0.010015783241917856 0 -0.010687450399074249 0.010163348476507392 0 -0.01058589094235172 0.0099277931321072026 0 -0.011090780788441402 0.0099489700167581761 0 -0.010556176930799585 0.0093480343641428824 0 -0.011090780788441402 0.0099489700167581761 0 -0.011135369146588331 0.009531632338097288 0 -0.010349102732240901 0.0090280847516350255 0 -0.011090780788441402 0.0099489700167581761 0 -0.01035015254034966 0.009602598285407252 0 -0.01058589094235172 0.0099277931321072026 0 -0.011090780788441402 0.0099489700167581761 0 -0.01035015254034966 0.009602598285407252 0 -0.011245218173850971 0.0098403082259319926 0 -0.011090780788441402 0.0099489700167581761 0 -0.011135369146588331 0.009531632338097288 0 -0.010941738247822437 0.0092803422095282303 0 -0.010894753124119886 0.009829295252902704 0 -0.010349102732240901 0.0090280847516350255 0 -0.01035015254034966 0.009602598285407252 0 -0.0096154091543853501 0.0094021691846836904 0 -0.01035015254034966 0.009602598285407252 0 -0.010243544053770407 0.010015783241917856 0 -0.0096154091543853501 0.0094021691846836904 0 -0.010243544053770407 0.010015783241917856 0 -0.009762889886471969 0.010262654081573872 0 -0.0096154091543853501 0.0094021691846836904 0 -0.010243544053770407 0.010015783241917856 0 -0.009762889886471969 0.010262654081573872 0 -0.010343741280516702 0.01050050703242732 0 -0.01058589094235172 0.0099277931321072026 0 -0.01035015254034966 0.009602598285407252 0 -0.010243544053770407 0.010015783241917856 0 0.0012017993593097637 0.0078286001869574458 0 0.0015569214460750169 0.0074351367447436289 0 0.001642656890771663 0.00810947242565924 0 -0.004501849269893071 0.0092175786809711516 0 -0.004168281153111594 0.0082299553211369492 0 0.0012017993593097637 0.0078286001869574458 0 0.0015569214460750169 0.0074351367447436289 0 0.0012617366349886236 0.0071296658213075839 0 0.0015569214460750169 0.0074351367447436289 0 0.0012617366349886236 0.0071296658213075839 0 0.0018482272621091009 0.0071264231335881221 0 0.002087928691429492 0.0072975027788297593 0 0.0018482272621091009 0.0071264231335881221 0 0.0020782307255367621 0.0075134365873086462 0 0.0015569214460750169 0.0074351367447436289 0 0.0018482272621091009 0.0071264231335881221 0 0.0020782307255367621 0.0075134365873086462 0 0.0015569214460750169 0.0074351367447436289 0 0.0020782307255367621 0.0075134365873086462 0 0.001642656890771663 0.00810947242565924 0 0.0021880358055736526 0.0074969664816972627 0 0.0020782307255367621 0.0075134365873086462 0 0.0022263987931580506 0.0074876999888016573 0 0.001934218346789719 0.0077095321267247156 0 0.0023925770928724319 0.0073930627508141146 0 0.0021880358055736526 0.0074969664816972627 0 0.0022263987931580506 0.0074876999888016573 0 0.0022295348751861215 0.007400493853330835 0 0.0021654182701760913 0.0074393765383703736 0 0.0022295348751861215 0.007400493853330835 0 0.0022163106052161216 0.0071924828376936289 0 0.0045852393869960963 0.0053840380288864729 0 0.0050438711333895478 0.0051522335115880688 0 0.0022263987931580506 0.0074876999888016573 0 0.0022295348751861215 0.007400493853330835 0 0.0023609949767535651 0.0073986594710099777 0 0.0022295348751861215 0.007400493853330835 0 0.0023609949767535651 0.0073986594710099777 0 0.0023960889303059224 0.0071749415186134619 0 -0.004501849269893071 0.0092175786809711516 0 -0.0020802084730411159 0.0087991150558611522 0 0.0023925770928724319 0.0073930627508141146 0 -0.0020802084730411159 0.0087991150558611522 0 0.0012017993593097637 0.0078286001869574458 0 0.001642656890771663 0.00810947242565924 0 0.0011624563771243639 0.0086914772172009963 0 -0.009762889886471969 0.010262654081573872 0 -0.0099095909903878579 0.010677674447518449 0 -0.01004337730701014 0.01055123073115256 0 -0.009762889886471969 0.010262654081573872 0 -0.01004337730701014 0.01055123073115256 0 -0.010343741280516702 0.01050050703242732 0 -0.01004337730701014 0.01055123073115256 0 -0.010170409588174124 0.010679334376984932 0 -0.010343741280516702 0.01050050703242732 0 -0.0099095909903878579 0.010677674447518449 0 -0.01004337730701014 0.01055123073115256 0 -0.010170409588174124 0.010679334376984932 0 -0.0099095909903878579 0.010677674447518449 0 -0.010170409588174124 0.010679334376984932 0 -0.010092000137991499 0.010701400870831258 0 -0.0020802084730411159 0.0087991150558611522 0 -0.0065384539150302777 0.0095671621614433332 0 -0.010170409588174124 0.010679334376984932 0 -0.010129133104034536 0.010673748327249879 0 -0.010092000137991499 0.010701400870831258 0 -0.010117951003346556 0.010657602321376141 0 -0.010170409588174124 0.010679334376984932 0 -0.010134761517003743 0.010661342591808617 0 -0.010544167822818131 0.0089357860841044259 0 -0.010066873966267464 0.011041101297443534 0 -0.010635188038153481 0.010646322729123883 0 -0.010170409588174124 0.010679334376984932 0 -0.010475973667194938 0.010509760702876125 0 -0.010170409588174124 0.010679334376984932 0 -0.010134761517003743 0.010661342591808617 0 -0.010129133104034536 0.010673748327249879 0 -0.010120695603491213 0.010651472040779951 0 -0.010134761517003743 0.010661342591808617 0 -0.010122797030676063 0.01065627125560467 0 -0.011182597440874629 0.0096189232408774774 0 -0.010227733157996315 0.010645475434015131 0 -0.010583175260961922 0.010329123022800779 0 -0.010475973667194938 0.010509760702876125 0 -0.010343741280516702 0.01050050703242732 0 -0.010170409588174124 0.010679334376984932 0 -0.010475973667194938 0.010509760702876125 0 -0.010343741280516702 0.01050050703242732 0 -0.0088971406786191049 0.0057617811691027419 0 -0.0084098889015814665 0.0058417963843042158 0 -0.0085598827563898132 0.0053121219973478288 0 -0.0057460549141880365 0.0030434038733087431 0 -0.0059151491558757261 0.0033070400746126713 0 -0.0059503876692022055 0.0032920901733388408 0 -0.0068655021135277322 0.0063334381729292146 0 -0.0067992751209601486 0.003945722975382494 0 -0.010099811194022179 0.010640691052173653 0 -0.010122797030676063 0.01065627125560467 0 -0.010129133104034536 0.010673748327249879 0 -0.0088971406786191049 0.0057617811691027419 0 -0.0084098889015814665 0.0058417963843042158 0 -0.0085235419403970163 0.0063310923714338333 0 -0.010134761517003743 0.010661342591808617 0 -0.010122797030676063 0.01065627125560467 0 -0.010129133104034536 0.010673748327249879 0 -0.0068655021135277322 0.0063334381729292146 0 -0.0091904789592133947 0.0087115842033608313 0 -0.010099811194022179 0.010640691052173653 0 -0.010129133104034536 0.010673748327249879 0 -0.010092000137991499 0.010701400870831258 0 -0.0068655021135277322 0.0063334381729292146 0 -0.0065384539150302777 0.0095671621614433332 0 -0.0014482554002185034 0.0064115987932912323 0 -0.0020635335492395347 0.0072874385887413207 0 -0.0019374750332637263 0.0065049371558697994 0 -0.0020635335492395347 0.0072874385887413207 0 -0.0023438235170804818 0.0063986595913546962 0 -0.0027318715527192183 0.0070011396697724137 0 -0.0020635335492395347 0.0072874385887413207 0 -0.0023438235170804818 0.0063986595913546962 0 -0.0019374750332637263 0.0065049371558697994 0 -0.0014482554002185034 0.0064115987932912323 0 -0.0019253887369010667 0.0059747181527912167 0 -0.002206850559909062 0.0052445183395454596 0 -0.0023438235170804818 0.0063986595913546962 0 -0.0019374750332637263 0.0065049371558697994 0 -0.0019253887369010667 0.0059747181527912167 0 -0.0014482554002185034 0.0064115987932912323 0 -0.0019374750332637263 0.0065049371558697994 0 -0.0019253887369010667 0.0059747181527912167 0 -0.0023438235170804818 0.0063986595913546962 0 -0.0019253887369010667 0.0059747181527912167 0 -0.0027258545690174328 0.0058021505511908558 0 -0.0033029971862216915 0.0054456143465190831 0 0.0024030775918679995 0.0043987002990013126 0 0.0050438711333895478 0.0051522335115880688 0 0.0024030775918679995 0.0043987002990013126 0 0.0023960889303059224 0.0071749415186134619 0 0.0022163106052161216 0.0071924828376936289 0 0.0023952432187093107 0.0068564926838489909 0 -0.00023396848394877849 0.0072759479732811463 0 0.0024030775918679995 0.0043987002990013126 0 -0.0023438235170804818 0.0063986595913546962 0 -0.0027318715527192183 0.0070011396697724137 0 -0.0027258545690174328 0.0058021505511908558 0 -0.0020802084730411159 0.0087991150558611522 0 -0.00023396848394877849 0.0072759479732811463 0 -0.0027127508825622918 0.0081691877597004862 0 -0.0020635335492395347 0.0072874385887413207 0 -0.0027318715527192183 0.0070011396697724137 0 0.0022295348751861215 0.007400493853330835 0 0.0023960889303059224 0.0071749415186134619 0 0.0022163106052161216 0.0071924828376936289 0 0.0071471257874412024 0.0031400924386875005 0 0.0071214328423526508 0.0030149625623088028 0 0.0071376009384893175 0.0030646852260659122 0 0.007967032561899054 0.0026608754043546483 0 0.0024030775918679995 0.0043987002990013126 0 0.0070224455141297323 0.0024171254798084282 0 0.0069365576895567852 0.0024729521830145628 0 0.0067985674236628463 0.002359228735530385 0 0.0070224455141297323 0.0024171254798084282 0 0.0069365576895567852 0.0024729521830145628 0 0.0070438818419007445 0.0024713662023093832 0 0.0069748098753228578 0.0025506552313079422 0 0.0069365576895567852 0.0024729521830145628 0 0.0068173314789516199 0.002569085407307656 0 0.0069748098753228578 0.0025506552313079422 0 0.0069365576895567852 0.0024729521830145628 0 0.0070438818419007445 0.0024713662023093832 0 0.0076631987499488049 0.0024785732160151762 0 0.0037004285692355272 0.0019899732009606387 0 0.00043806807723792695 0.0036885229678725148 0 0.00020759185940672235 0.0032133925244452609 0 0.00040705436627522967 0.002478941950335357 0 0.00020759185940672235 0.0032133925244452609 0 0.00040705436627522967 0.002478941950335357 0 1.0771222633420635e-05 0.0029340548146424279 0 0.0037004285692355272 0.0019899732009606387 0 0.0024030775918679995 0.0043987002990013126 0 0.0069365576895567852 0.0024729521830145628 0 0.0068173314789516199 0.002569085407307656 0 0.0067985674236628463 0.002359228735530385 0 0.0024030775918679995 0.0043987002990013126 0 -0.001812622003546985 0.003859200285842153 0 -0.0068655021135277322 0.0063334381729292146 0 -0.001812622003546985 0.003859200285842153 0 -0.0057460549141880365 0.0030434038733087431 0 -0.0053644344726518 0.0035254985443964569 0 -0.0059151491558757261 0.0033070400746126713 0 -0.0019253887369010667 0.0059747181527912167 0 -0.0026475680074786517 0.0057955409876661321 0 -0.002206850559909062 0.0052445183395454596 0 -0.00078488619594126912 0.003731563399804327 0 -0.001812622003546985 0.003859200285842153 0 -0.0053644344726518 0.0035254985443964569 0 -0.0056890105499595757 0.0039291869548241142 0 -0.0058005798268661382 0.0036104889135337905 0 0.00043806807723792695 0.0036885229678725148 0 0.00020759185940672235 0.0032133925244452609 0 -0.00063732436746414536 0.0036841421485696592 0 -0.001812622003546985 0.003859200285842153 0 -0.003578438976628533 0.0023049228936592768 0 0.00020759185940672235 0.0032133925244452609 0 -1.221894218638823e-05 0.0029106300008475252 0 -0.00063732436746414536 0.0036841421485696592 0 0.0037004285692355272 0.0019899732009606387 0 -0.003578438976628533 0.0023049228936592768 0 -0.0060926027092690956 0.0034443464703255555 0 -0.0063118252370211077 0.0039170860029928804 0 -0.0058005798268661382 0.0036104889135337905 0 -0.0050782379600405056 0.00085537126211215919 0 -0.0052574662589819771 0.00085055958074716192 0 -0.0052398602935080796 0.00082367546862864062 0 -0.0070168842298892831 0.001928452610370103 0 -0.003578438976628533 0.0023049228936592768 0 -0.0063118252370211077 0.0039170860029928804 0 -0.0056890105499595757 0.0039291869548241142 0 -0.0058005798268661382 0.0036104889135337905 0 -0.003578438976628533 0.0023049228936592768 0 -0.0034839113695676383 0.00064811007364600046 0 -0.0060926027092690956 0.0034443464703255555 0 -0.0058005798268661382 0.0036104889135337905 0 -0.0059151491558757261 0.0033070400746126713 0 -0.0053644344726518 0.0035254985443964569 0 -0.0058005798268661382 0.0036104889135337905 0 -0.0059151491558757261 0.0033070400746126713 0 -0.0067386041799462164 0.0039447300684612207 0 -0.0067992751209601486 0.003945722975382494 0 -0.0060926027092690956 0.0034443464703255555 0 -0.0059151491558757261 0.0033070400746126713 0 -0.0059532537532039857 0.0032893312750695383 0 -0.006146077599263635 0.0033083537947397657 0 -0.0067992751209601486 0.003945722975382494 0 0.0069212504393613566 0.0030059933878066923 0 0.0067646158235437504 0.0029160082768705776 0 0.0067367225234570734 0.003102275033174473 0 0.0068731129514696537 0.0032217329671470627 0 0.0069212504393613566 0.0030059933878066923 0 0.0067367225234570734 0.003102275033174473 0 0.0068731129514696537 0.0032217329671470627 0 0.0069212504393613566 0.0030059933878066923 0 0.0069925993493653218 0.003154565022410862 0 0.0071083355817309199 0.0032947578846795962 0 0.0069925993493653218 0.003154565022410862 0 0.0070719466350523171 0.0030555069511842888 0 0.0071083355817309199 0.0032947578846795962 0 0.0071471257874412024 0.0031400924386875005 0 0.0070719466350523171 0.0030555069511842888 0 0.0071471257874412024 0.0031400924386875005 0 0.0071214328423526508 0.0030149625623088028 0 0.0070719466350523171 0.0030555069511842888 0 0.0069212504393613566 0.0030059933878066923 0 0.0070719466350523171 0.0030555069511842888 0 0.007035469012013895 0.002917417296512027 0 0.0069212504393613566 0.0030059933878066923 0 0.0069925993493653218 0.003154565022410862 0 0.0070719466350523171 0.0030555069511842888 0 0.0071214328423526508 0.0030149625623088028 0 0.0070719466350523171 0.0030555069511842888 0 0.007035469012013895 0.002917417296512027 0 0.0070224455141297323 0.0024171254798084282 0 0.0070508056522600188 0.0025213923315698405 0 0.0070438818419007445 0.0024713662023093832 0 0.007967032561899054 0.0026608754043546483 0 0.0068447101818897502 0.0027006036774104279 0 0.0076631987499488049 0.0024785732160151762 0 0.0069183409374061052 0.0024691119408800618 0 0.0070508056522600188 0.0025213923315698405 0 0.0070973731919405647 0.0024629577582220394 0 0.0070438818419007445 0.0024713662023093832 0 0.0069748098753228578 0.0025506552313079422 0 0.0070973731919405647 0.0024629577582220394 0 0.0070438818419007445 0.0024713662023093832 0 0.0070508056522600188 0.0025213923315698405 0 0.0070131257044472638 0.0024680329859347407 0 0.0068926535067619192 0.0025863329890078923 0 0.0070508056522600188 0.0025213923315698405 0 0.0070973731919405647 0.0024629577582220394 0 0.0070131257044472638 0.0024680329859347407 0 0.0070131257044472638 0.0024680329859347407 0 0.0068926535067619192 0.0025863329890078923 0 0.0068804636240074575 0.0024314338847591247 0 0.0068447101818897502 0.0027006036774104279 0 0.0069219797110818783 0.0026958587101999555 0 0.0069212504393613566 0.0030059933878066923 0 0.007035469012013895 0.002917417296512027 0 0.0068971043373509495 0.0028006207632633546 0 0.0067646158235437504 0.0029160082768705776 0 0.0068971043373509495 0.0028006207632633546 0 0.0067050322464038015 0.0026499216806034277 0 0.0069212504393613566 0.0030059933878066923 0 0.0067646158235437504 0.0029160082768705776 0 0.0068971043373509495 0.0028006207632633546 0 0.0069219797110818783 0.0026958587101999555 0 0.0066907437744942802 0.002648811199043262 0 0.0068926535067619192 0.0025863329890078923 0 0.0067050322464038015 0.0026499216806034277 0 0.0068804636240074575 0.0024314338847591247 0 0.0067050322464038015 0.0026499216806034277 0 0.0065485501148983332 0.0026002636011974371 0 0.0066248981063766841 0.0028095083989225678 0 0.0067050322464038015 0.0026499216806034277 0 0.0065485501148983332 0.0026002636011974371 0 0.0066794167305487158 0.0023390532928114385 0 0.0065485501148983332 0.0026002636011974371 0 0.0066248981063766841 0.0028095083989225678 0 0.0065320473048512502 0.0027748388887325168 0 0.0067646158235437504 0.0029160082768705776 0 0.0067050322464038015 0.0026499216806034277 0 0.0066248981063766841 0.0028095083989225678 0 0.0065485501148983332 0.0026002636011974371 0 0.0064630666419784053 0.0026262724415557111 0 0.0064648718322346758 0.00240917886545135 0 0.0065485501148983332 0.0026002636011974371 0 0.0064630666419784053 0.0026262724415557111 0 0.0065320473048512502 0.0027748388887325168 0 0.0064630666419784053 0.0026262724415557111 0 0.0065320473048512502 0.0027748388887325168 0 0.0064739856575901028 0.0028848732162075935 0 0.0064630666419784053 0.0026262724415557111 0 0.0064739856575901028 0.0028848732162075935 0 0.0064798835342959674 0.0028457575733098909 0 0.0064739856575901028 0.0028848732162075935 0 0.006454766961292018 0.0030253573128347349 0 0.0064462919872373993 0.0029821380084032517 0 0.0064739856575901028 0.0028848732162075935 0 0.0064462919872373993 0.0029821380084032517 0 0.0064798835342959674 0.0028457575733098909 0 0.0065320473048512502 0.0027748388887325168 0 0.0064739856575901028 0.0028848732162075935 0 0.006570371239491446 0.0029847973749837623 0 0.0064739856575901028 0.0028848732162075935 0 0.006454766961292018 0.0030253573128347349 0 0.006570371239491446 0.0029847973749837623 0 0.006454766961292018 0.0030253573128347349 0 0.006570371239491446 0.0029847973749837623 0 0.0064941784500419696 0.0031849847481515295 0 0.006454766961292018 0.0030253573128347349 0 0.0064462919872373993 0.0029821380084032517 0 0.0064676088901692011 0.0030593379044013373 0 0.0064652689893000053 0.0030349827571638432 0 0.0062034785445717923 0.0031141185795111781 0 0.0067646158235437504 0.0029160082768705776 0 0.006570371239491446 0.0029847973749837623 0 0.0067367225234570734 0.003102275033174473 0 0.0067646158235437504 0.0029160082768705776 0 0.0066248981063766841 0.0028095083989225678 0 0.006570371239491446 0.0029847973749837623 0 0.0066248981063766841 0.0028095083989225678 0 0.0065320473048512502 0.0027748388887325168 0 0.006570371239491446 0.0029847973749837623 0 0.006570371239491446 0.0029847973749837623 0 0.0065911825328576245 0.0032245917584745472 0 0.0064941784500419696 0.0031849847481515295 0 0.006570371239491446 0.0029847973749837623 0 0.0067367225234570734 0.003102275033174473 0 0.0065911825328576245 0.0032245917584745472 0 0.0067367225234570734 0.003102275033174473 0 0.0066991259449051405 0.0033114872594883337 0 0.0065911825328576245 0.0032245917584745472 0 0.0066991259449051405 0.0033114872594883337 0 0.0065951409679589311 0.0033890048794259372 0 0.0065911825328576245 0.0032245917584745472 0 0.0066847903648046764 0.0035059742398867973 0 0.0065951409679589311 0.0033890048794259372 0 0.0065319555476286454 0.0035214208927280884 0 0.0066991259449051405 0.0033114872594883337 0 0.0066847903648046764 0.0035059742398867973 0 0.0065951409679589311 0.0033890048794259372 0 0.0065951409679589311 0.0033890048794259372 0 0.0064789154937898398 0.0033784043389192423 0 0.0065319555476286454 0.0035214208927280884 0 0.0064789154937898398 0.0033784043389192423 0 0.0065911825328576245 0.0032245917584745472 0 0.0064941784500419696 0.0031849847481515295 0 0.0065951409679589311 0.0033890048794259372 0 0.0064789154937898398 0.0033784043389192423 0 0.0065911825328576245 0.0032245917584745472 0 0.0064789154937898398 0.0033784043389192423 0 0.0064941784500419696 0.0031849847481515295 0 0.0063809248813361547 0.0033246093227026481 0 0.006454766961292018 0.0030253573128347349 0 0.0064941784500419696 0.0031849847481515295 0 0.0063809248813361547 0.0033246093227026481 0 0.006454766961292018 0.0030253573128347349 0 0.0063809248813361547 0.0033246093227026481 0 0.0062117357033018572 0.0032551832040887156 0 0.0063809248813361547 0.0033246093227026481 0 0.0062117357033018572 0.0032551832040887156 0 0.0062194940988409284 0.0035539051606129778 0 0.0063809248813361547 0.0033246093227026481 0 0.0062194940988409284 0.0035539051606129778 0 0.006417751229151834 0.0037194415848051969 0 0.0062117357033018572 0.0032551832040887156 0 0.0062194940988409284 0.0035539051606129778 0 0.0059121290498423806 0.0036274587236240592 0 0.0062034785445717923 0.0031141185795111781 0 0.0080184899465587621 0.0045509549789991598 0 0.0062194940988409284 0.0035539051606129778 0 0.006417751229151834 0.0037194415848051969 0 0.00615999365264996 0.0038901351218743993 0 0.0062194940988409284 0.0035539051606129778 0 0.00615999365264996 0.0038901351218743993 0 0.0059121290498423806 0.0036274587236240592 0 0.0063849254601498007 0.003406138138760441 0 0.0064030653234667251 0.0034644178594190212 0 0.0064789154937898398 0.0033784043389192423 0 0.0063598249625089164 0.0034661226588329473 0 0.0065319555476286454 0.0035214208927280884 0 0.0064789154937898398 0.0033784043389192423 0 0.0063809248813361547 0.0033246093227026481 0 0.0063598249625089164 0.0034661226588329473 0 0.0063598249625089164 0.0034661226588329473 0 0.0063528752356407344 0.0035865227140972596 0 0.0065319555476286454 0.0035214208927280884 0 0.0067687015151059416 0.0046511482981320745 0 0.0063711483536874778 0.0032398775357655681 0 0.0061875424358019925 0.0036778843962523866 0 0.0064316846171834363 0.0037102105541114206 0 0.0065319555476286454 0.0035214208927280884 0 0.0064030653234667251 0.0034644178594190212 0 0.0067687015151059416 0.0046511482981320745 0 0.00615999365264996 0.0038901351218743993 0 0.0061310132121132361 0.004252281671091632 0 0.0059121290498423806 0.0036274587236240592 0 0.006417751229151834 0.0037194415848051969 0 0.0062455181228611824 0.004053480833907672 0 0.0064084763216301398 0.0041322891951684525 0 0.006417751229151834 0.0037194415848051969 0 0.00615999365264996 0.0038901351218743993 0 0.0062455181228611824 0.004053480833907672 0 0.0062455181228611824 0.004053480833907672 0 0.0064084763216301398 0.0041322891951684525 0 0.0061310132121132361 0.004252281671091632 0 0.00615999365264996 0.0038901351218743993 0 0.0062455181228611824 0.004053480833907672 0 0.0061310132121132361 0.004252281671091632 0 0.007320066290562856 0.0075504860737633283 0 0.0073926783035384632 0.0073765973978422395 0 0.0074053572750721356 0.007408606601215951 0 0.0063933141863319071 0.0063603023249263688 0 0.0067687015151059416 0.0046511482981320745 0 0.0074697655686977284 0.0075074577787385141 0 0.0074914826030967061 0.0073038587967411105 0 0.0074053572750721356 0.007408606601215951 0 0.007513930305651932 0.0061360552262778242 0 0.0076465012480780841 0.0068433299937675626 0 0.0074914826030967061 0.0073038587967411105 0 0.0073852657661790597 0.0073554743044813228 0 0.0074053572750721356 0.007408606601215951 0 0.0067687015151059416 0.0046511482981320745 0 0.007513930305651932 0.0061360552262778242 0 0.0061718006449163936 0.0039590489765144775 0 0.0061875424358019925 0.0036778843962523866 0 0.0063087310392932272 0.0038070337453198965 0 0.0061875424358019925 0.0036778843962523866 0 0.0063087310392932272 0.0038070337453198965 0 0.0064316846171834363 0.0037102105541114206 0 0.0061718006449163936 0.0039590489765144775 0 0.0063087310392932272 0.0038070337453198965 0 0.0064827156275686021 0.0038581082888975082 0 0.0064316846171834363 0.0037102105541114206 0 0.0064827156275686021 0.0038581082888975082 0 0.0066219615808729964 0.0036681939129732844 0 0.0063087310392932272 0.0038070337453198965 0 0.0064316846171834363 0.0037102105541114206 0 0.0064827156275686021 0.0038581082888975082 0 0.0066934198362737559 0.0045103023290097343 0 0.0060935220544042741 0.0046626141896178716 0 0.0067033618710437368 0.0037806234823433631 0 0.0064827156275686021 0.0038581082888975082 0 0.0066219615808729964 0.0036681939129732844 0 0.0067141807734611503 0.0037246042392591111 0 0.0066847903648046764 0.0035059742398867973 0 0.0066219615808729964 0.0036681939129732844 0 0.0066847903648046764 0.0035059742398867973 0 0.0066219615808729964 0.0036681939129732844 0 0.0065319555476286454 0.0035214208927280884 0 0.0064316846171834363 0.0037102105541114206 0 0.0066219615808729964 0.0036681939129732844 0 0.0065319555476286454 0.0035214208927280884 0 0.0088086097060680272 0.0064455898449482622 0 0.0084519547701826132 0.0060740001017258998 0 0.0082582762295079423 0.0067983537263170265 0 0.0088086097060680272 0.0064455898449482622 0 0.0084519547701826132 0.0060740001017258998 0 0.0090688709177047366 0.0058903330703252458 0 0.0080370676047508555 0.0063818735914857871 0 0.0084519547701826132 0.0060740001017258998 0 0.0082582762295079423 0.0067983537263170265 0 0.0077222693041880883 0.005917737420583831 0 0.0080370676047508555 0.0063818735914857871 0 0.0084519547701826132 0.0060740001017258998 0 0.0077161514592711455 0.0066993275922683079 0 0.0078799128242275172 0.0071906438779345506 0 0.0082582762295079423 0.0067983537263170265 0 0.0077161514592711455 0.0066993275922683079 0 0.0080370676047508555 0.0063818735914857871 0 0.0082582762295079423 0.0067983537263170265 0 0.0084484701171200285 0.0073729766613905559 0 0.0082582762295079423 0.0067983537263170265 0 0.0088377798230970667 0.0070709468570254591 0 0.0088086097060680272 0.0064455898449482622 0 0.0082582762295079423 0.0067983537263170265 0 0.0088377798230970667 0.0070709468570254591 0 0.0088454012075696743 0.0070114425339299295 0 0.0095272857886758988 0.0065500681960452669 0 0.0088086097060680272 0.0064455898449482622 0 0.0088377798230970667 0.0070709468570254591 0 0.00948846882419805 0.0063520692317877749 0 0.0088377798230970667 0.0070709468570254591 0 0.0092135578591467284 0.006998435315008108 0 0.0092321095978979365 0.0065308592672534667 0 0.007513930305651932 0.0061360552262778242 0 0.0084299835050655435 0.0073500509106109715 0 0.0098132373316462077 0.0066873950090763634 0 0.0092135578591467284 0.006998435315008108 0 0.0092321095978979365 0.0065308592672534667 0 0.007320066290562856 0.0075504860737633283 0 0.0073926783035384632 0.0073765973978422395 0 0.0072423413105575816 0.0075199314332149167 0 0.0098132373316462077 0.0066873950090763634 0 0.0092321095978979365 0.0065308592672534667 0 0.0095721284686305936 0.0060471284966967043 0 0.007513930305651932 0.0061360552262778242 0 0.0080184899465587621 0.0045509549789991598 0 0.0095272857886758988 0.0065500681960452669 0 0.0080184899465587621 0.0045509549789991598 0 0.0090688709177047366 0.0058903330703252458 0 0.00948846882419805 0.0063520692317877749 0 0.0094627387268317285 0.0055195826383343744 0 0.0088086097060680272 0.0064455898449482622 0 0.0090688709177047366 0.0058903330703252458 0 0.00948846882419805 0.0063520692317877749 0 0.00948846882419805 0.0063520692317877749 0 0.0094627387268317285 0.0055195826383343744 0 0.010086376144227501 0.0055673658191216172 0 0.0090688709177047366 0.0058903330703252458 0 0.0094627387268317285 0.0055195826383343744 0 0.0089214636392849871 0.005142511646573142 0 0.0094627387268317285 0.0055195826383343744 0 0.010086376144227501 0.0055673658191216172 0 0.0097439497820262753 0.0046475760803113024 0 0.0080184899465587621 0.0045509549789991598 0 0.0081198049014245821 0.0038160931782439673 0 0.0064676088901692011 0.0030593379044013373 0 0.0064327404400421036 0.0031459402146463032 0 0.0063931844569273255 0.0030470848914051886 0 0.0097439497820262753 0.0046475760803113024 0 0.0089214636392849871 0.005142511646573142 0 0.0091180534960914397 0.0044791276684241418 0 0.0094627387268317285 0.0055195826383343744 0 0.0097439497820262753 0.0046475760803113024 0 0.0089214636392849871 0.005142511646573142 0 0.0089214636392849871 0.005142511646573142 0 0.0081664850848219544 0.0053079179980185173 0 0.008406584262464642 0.0043847249678248424 0 0.0089214636392849871 0.005142511646573142 0 0.008406584262464642 0.0043847249678248424 0 0.0091180534960914397 0.0044791276684241418 0 0.0084519547701826132 0.0060740001017258998 0 0.0090688709177047366 0.0058903330703252458 0 0.0089214636392849871 0.005142511646573142 0 0.0084519547701826132 0.0060740001017258998 0 0.0089214636392849871 0.005142511646573142 0 0.0081664850848219544 0.0053079179980185173 0 0.0077222693041880883 0.005917737420583831 0 0.0084519547701826132 0.0060740001017258998 0 0.0081664850848219544 0.0053079179980185173 0 0.0071430429770663953 0.004941686656764332 0 0.0076556877961507274 0.0043886205108774126 0 0.0072473224756881447 0.004977101383759547 0 0.0081664850848219544 0.0053079179980185173 0 0.008406584262464642 0.0043847249678248424 0 0.0066685281452269849 0.0042872870377531798 0 0.0065408364842047869 0.0041780667324805452 0 0.0065591499606570585 0.003808469721613709 0 0.0069082698333600527 0.0044895991317070554 0 0.0066685281452269849 0.0042872870377531798 0 0.0065408364842047869 0.0041780667324805452 0 0.0066685281452269849 0.0042872870377531798 0 0.0066915057869891652 0.0037939736215756065 0 0.0065591499606570585 0.003808469721613709 0 0.008406584262464642 0.0043847249678248424 0 0.0091180534960914397 0.0044791276684241418 0 0.0093962229348686435 0.0037577052109150555 0 0.0066685281452269849 0.0042872870377531798 0 0.0066915057869891652 0.0037939736215756065 0 0.0069760348214675857 0.0036407872164942478 0 0.0076556877961507274 0.0043886205108774126 0 0.0075228948771549889 0.0034411008076996306 0 0.0066915057869891652 0.0037939736215756065 0 0.0066100789414172707 0.0033963077352083216 0 0.0069760348214675857 0.0036407872164942478 0 0.0066915057869891652 0.0037939736215756065 0 0.0066100789414172707 0.0033963077352083216 0 0.0065591499606570585 0.003808469721613709 0 0.0066100789414172707 0.0033963077352083216 0 0.0065591499606570585 0.003808469721613709 0 0.0064542929447211064 0.0034118137598967619 0 0.0063121647219879541 0.0035825856107306441 0 0.0065591499606570585 0.003808469721613709 0 0.0064542929447211064 0.0034118137598967619 0 0.0057190046609897523 0.0036567272818807568 0 0.0063121647219879541 0.0035825856107306441 0 0.0065408364842047869 0.0041780667324805452 0 0.0063121647219879541 0.0035825856107306441 0 0.0065408364842047869 0.0041780667324805452 0 0.0065591499606570585 0.003808469721613709 0 0.0064462919872373993 0.0029821380084032517 0 0.0064676088901692011 0.0030593379044013373 0 0.0063931844569273255 0.0030470848914051886 0 0.0064462919872373993 0.0029821380084032517 0 0.0063931844569273255 0.0030470848914051886 0 0.0063517994029028699 0.0029445905319240915 0 0.0081198049014245821 0.0038160931782439673 0 0.0075228948771549889 0.0034411008076996306 0 0.0097439497820262753 0.0046475760803113024 0 0.0091180534960914397 0.0044791276684241418 0 0.0093962229348686435 0.0037577052109150555 0 0.0066834233814197707 0.0029716673716739753 0 0.0064798835342959674 0.0028457575733098909 0 0.0067235395366657246 0.0031230450741858147 0 0.0066100789414172707 0.0033963077352083216 0 0.0069760348214675857 0.0036407872164942478 0 0.0067235395366657246 0.0031230450741858147 0 0.0075228948771549889 0.0034411008076996306 0 0.0068279441109352929 0.0030338892082863848 0 0.0064462919872373993 0.0029821380084032517 0 0.0063517994029028699 0.0029445905319240915 0 0.0064798835342959674 0.0028457575733098909 0 0.0075228948771549889 0.0034411008076996306 0 0.0061603545820433014 0.0028303779904829012 0 0.0064798835342959674 0.0028457575733098909 0 0.0065651395939133623 0.0027967965196419959 0 0.0067235395366657246 0.0031230450741858147 0 0.0064630666419784053 0.0026262724415557111 0 0.0064798835342959674 0.0028457575733098909 0 0.0065651395939133623 0.0027967965196419959 0 0.0065651395939133623 0.0027967965196419959 0 0.0067235395366657246 0.0031230450741858147 0 0.0065711016571423017 0.002882244634959424 0 0.0065711016571423017 0.002882244634959424 0 0.0063788150712648381 0.0026652776725001473 0 0.0065398227381359662 0.0024583455330136261 0 0.0065651395939133623 0.0027967965196419959 0 0.0065711016571423017 0.002882244634959424 0 0.0065398227381359662 0.0024583455330136261 0 0.0064630666419784053 0.0026262724415557111 0 0.0065651395939133623 0.0027967965196419959 0 0.0065398227381359662 0.0024583455330136261 0 0.0061565657534669999 0.0030264506463985653 0 0.0063000073052103716 0.0032635741404589348 0 0.0064670718761934151 0.0031106171279373647 0 0.0059846621064877413 0.003282125066462986 0 0.0061565657534669999 0.0030264506463985653 0 0.0063000073052103716 0.0032635741404589348 0 0.0059846621064877413 0.003282125066462986 0 0.0063121647219879541 0.0035825856107306441 0 0.0063000073052103716 0.0032635741404589348 0 0.0063121647219879541 0.0035825856107306441 0 0.0063000073052103716 0.0032635741404589348 0 0.0064542929447211064 0.0034118137598967619 0 0.0063000073052103716 0.0032635741404589348 0 0.0064542929447211064 0.0034118137598967619 0 0.0064670718761934151 0.0031106171279373647 0 0.0066100789414172707 0.0033963077352083216 0 0.0064542929447211064 0.0034118137598967619 0 0.0064670718761934151 0.0031106171279373647 0 0.0061565657534669999 0.0030264506463985653 0 0.0064670718761934151 0.0031106171279373647 0 0.0063788150712648381 0.0026652776725001473 0 0.0066100789414172707 0.0033963077352083216 0 0.0067235395366657246 0.0031230450741858147 0 0.0064670718761934151 0.0031106171279373647 0 0.0067235395366657246 0.0031230450741858147 0 0.0065711016571423017 0.002882244634959424 0 0.0064670718761934151 0.0031106171279373647 0 0.0065711016571423017 0.002882244634959424 0 0.0064670718761934151 0.0031106171279373647 0 0.0063788150712648381 0.0026652776725001473 0 0.0063788150712648381 0.0026652776725001473 0 0.0059452545311132659 0.0024571282581625745 0 0.0060063396865185376 0.0022043123101438472 0 0.0058140273452645854 0.0026418659522635043 0 0.0063788150712648381 0.0026652776725001473 0 0.0059452545311132659 0.0024571282581625745 0 0.0059708158190526018 0.0027789731197308885 0 0.0063921841390556892 0.002680981794527239 0 0.0058140273452645854 0.0026418659522635043 0 0.0059452545311132659 0.0024571282581625745 0 0.005793976959648452 0.0025068908733735331 0 0.0059452545311132659 0.0024571282581625745 0 0.005793976959648452 0.0025068908733735331 0 0.0058079155945253086 0.0022859837579784102 0 0.0058079155945253086 0.0022859837579784102 0 0.0060063396865185376 0.0022043123101438472 0 0.0057916180840011013 0.0019185183059532178 0 0.0059452545311132659 0.0024571282581625745 0 0.0058079155945253086 0.0022859837579784102 0 0.0060063396865185376 0.0022043123101438472 0 0.0060063396865185376 0.0022043123101438472 0 0.0062700655180087887 0.0015398789885133809 0 0.0063278934010372167 0.0021748856197239355 0 0.0063788150712648381 0.0026652776725001473 0 0.0060063396865185376 0.0022043123101438472 0 0.0063278934010372167 0.0021748856197239355 0 0.0060063396865185376 0.0022043123101438472 0 0.0062700655180087887 0.0015398789885133809 0 0.0057916180840011013 0.0019185183059532178 0 0.0063019632678542829 0.0015042482489479488 0 0.0063488847837532775 0.0014178948619626437 0 0.0062700655180087887 0.0015398789885133809 0 0.0067887749979175637 0.00087865353311769199 0 0.0066001999536675002 0.0012781047772868395 0 0.0062700655180087887 0.0015398789885133809 0 0.0063278934010372167 0.0021748856197239355 0 0.0066016295227830498 0.0016199236104466753 0 0.0065398227381359662 0.0024583455330136261 0 0.0062638368290544076 0.0023222007387488077 0 0.0063701008617923953 0.0024227330544699895 0 0.0065047352799050681 0.0024175091616856484 0 0.0064327610592954223 0.0019829840308308766 0 0.0063788150712648381 0.0026652776725001473 0 0.0065398227381359662 0.0024583455330136261 0 0.0063278934010372167 0.0021748856197239355 0 0.0065398227381359662 0.0024583455330136261 0 0.0063278934010372167 0.0021748856197239355 0 0.0066016295227830498 0.0016199236104466753 0 0.0062700655180087887 0.0015398789885133809 0 0.0066016295227830498 0.0016199236104466753 0 0.0063213369087274816 0.0014075867366521197 0 0.0066016295227830498 0.0016199236104466753 0 0.0063213369087274816 0.0014075867366521197 0 0.0063649869171734791 0.0013699526485254421 0 0.0063213369087274816 0.0014075867366521197 0 0.0063171141428393675 0.0013614850941313507 0 0.0062806976793081557 0.0012986774309529912 0 0.0063213369087274816 0.0014075867366521197 0 0.0063649869171734791 0.0013699526485254421 0 0.0062806976793081557 0.0012986774309529912 0 0.0063649869171734791 0.0013699526485254421 0 0.0062806976793081557 0.0012986774309529912 0 0.0061999806967714052 0.0012460001468458963 0 0.0067887749979175637 0.00087865353311769199 0 0.0066001999536675002 0.0012781047772868395 0 0.0070351955519247673 0.0013723036334686986 0 0.0062700655180087887 0.0015398789885133809 0 0.0063213369087274816 0.0014075867366521197 0 0.0063710188896803537 0.0014340429750645564 0 0.0062700655180087887 0.0015398789885133809 0 0.0066001999536675002 0.0012781047772868395 0 0.0063710188896803537 0.0014340429750645564 0 0.0063213369087274816 0.0014075867366521197 0 0.0063710188896803537 0.0014340429750645564 0 0.0063171141428393675 0.0013614850941313507 0 0.0063710188896803537 0.0014340429750645564 0 0.006301125097751159 0.0013477957777391374 0 0.0063171141428393675 0.0013614850941313507 0 0.0063631323019801593 0.0014452295282144786 0 0.0063836945681592433 0.0016189744594138173 0 0.0063710188896803537 0.0014340429750645564 0 0.0067353371859728327 0.001602838834018701 0 0.0064367764713757587 0.001850345099469756 0 0.0066001999536675002 0.0012781047772868395 0 0.0063710188896803537 0.0014340429750645564 0 0.0067353371859728327 0.001602838834018701 0 0.0066001999536675002 0.0012781047772868395 0 0.0067353371859728327 0.001602838834018701 0 0.0070351955519247673 0.0013723036334686986 0 0.006503391547774527 0.0022643364682035506 0 0.0064367764713757587 0.001850345099469756 0 0.0070532309725096195 0.0019826334855752967 0 0.0067353371859728327 0.001602838834018701 0 0.0064367764713757587 0.001850345099469756 0 0.0070532309725096195 0.0019826334855752967 0 0.0074113753825396046 0.0017568745177503745 0 0.0075972057887403865 0.0018510643778164751 0 0.0076226613507299748 0.0016659439587359201 0 0.0065229796034382932 0.0016084059639070412 0 0.0073977307100741799 0.0018334689874145412 0 0.0065229796034382932 0.0016084059639070412 0 0.006084638655962077 0.0013339814949153868 0 0.0062975605587230615 0.0013243071124877537 0 0.0062870306852352625 0.0013055889696119913 0 0.0062691312480489562 0.0013200341670647217 0 0.006301125097751159 0.0013477957777391374 0 0.0063171141428393675 0.0013614850941313507 0 0.0062870306852352625 0.0013055889696119913 0 0.0062975605587230615 0.0013243071124877537 0 0.006301125097751159 0.0013477957777391374 0 0.0062870306852352625 0.0013055889696119913 0 0.0065229796034382932 0.0016084059639070412 0 0.0063836945681592433 0.0016189744594138173 0 0.0063171141428393675 0.0013614850941313507 0 0.0062806976793081557 0.0012986774309529912 0 0.0062870306852352625 0.0013055889696119913 0 0.0062806976793081557 0.0012986774309529912 0 0.0062316529839829471 0.0012699499851520845 0 0.0062870306852352625 0.0013055889696119913 0 0.0062806976793081557 0.0012986774309529912 0 0.0061733748983334672 0.0012241706909382336 0 0.0061999806967714052 0.0012460001468458963 0 0.0062806976793081557 0.0012986774309529912 0 0.0061733748983334672 0.0012241706909382336 0 0.0062316529839829471 0.0012699499851520845 0 0.0061733748983334672 0.0012241706909382336 0 0.0061708786010568738 0.0012449236295130573 0 0.0062316529839829471 0.0012699499851520845 0 0.0061708786010568738 0.0012449236295130573 0 0.0062316529839829471 0.0012699499851520845 0 0.0062080820871130704 0.0012866523667239107 0 0.0061708786010568738 0.0012449236295130573 0 0.0062080820871130704 0.0012866523667239107 0 0.0061259149250184426 0.0012909920383147252 0 0.0062316529839829471 0.0012699499851520845 0 0.0062080820871130704 0.0012866523667239107 0 0.0062870306852352625 0.0013055889696119913 0 0.0062080820871130704 0.0012866523667239107 0 0.0062870306852352625 0.0013055889696119913 0 0.0062691312480489562 0.0013200341670647217 0 0.006084638655962077 0.0013339814949153868 0 0.0061403920066682091 0.0013367882942179853 0 0.006052564360197606 0.0013868331336350827 0 0.0061166225893519999 0.0013307841611922872 0 0.0061046309087137516 0.0013322753646573093 0 0.0062080820871130704 0.0012866523667239107 0 0.0061046309087137516 0.0013322753646573093 0 0.0061259149250184426 0.0012909920383147252 0 0.0062080820871130704 0.0012866523667239107 0 0.0062691312480489562 0.0013200341670647217 0 0.0061046309087137516 0.0013322753646573093 0 0.0042049386769496934 0.00039205422715204947 0 0.0044487597324599044 0.00025709801882885372 0 0.004236943489562146 4.555731900213555e-05 0 0.0061166225893519999 0.0013307841611922872 0 0.0060401533361712041 0.0013171039303757365 0 0.0060557216199380957 0.0012279507393653834 0 0.006052564360197606 0.0013868331336350827 0 0.0061166225893519999 0.0013307841611922872 0 0.0060401533361712041 0.0013171039303757365 0 0.0060401533361712041 0.0013171039303757365 0 0.0059465863817862964 0.0013550426636104501 0 0.0059843546922401826 0.0012513442928465291 0 0.0059465863817862964 0.0013550426636104501 0 0.0059843546922401826 0.0012513442928465291 0 0.0059217426489037335 0.0012603931068195099 0 0.0067103144768143989 0.0016872714895744413 0 0.0066964525856118414 0.0017311960593519667 0 0.0074431928060446299 0.0020024827202577184 0 0.0074817572127316044 0.0022781550951519606 0 0.0076474120054084377 0.0020657754825170981 0 0.0074113753825396046 0.0017568745177503745 0 0.0074431928060446299 0.0020024827202577184 0 0.0075972057887403865 0.0018510643778164751 0 0.0074431928060446299 0.0020024827202577184 0 0.0075972057887403865 0.0018510643778164751 0 0.0076474120054084377 0.0020657754825170981 0 0.0065229796034382932 0.0016084059639070412 0 0.0067103144768143989 0.0016872714895744413 0 0.006052564360197606 0.0013868331336350827 0 0.0060401533361712041 0.0013171039303757365 0 0.0059465863817862964 0.0013550426636104501 0 0.0059651510084852118 0.0014395736693601133 0 0.006052564360197606 0.0013868331336350827 0 0.0059465863817862964 0.0013550426636104501 0 0.0056442467837140402 0.00051469952350290181 0 0.0056665698950602037 0.0006130508478104054 0 0.005565208296833382 0.00028568278906452189 0 0.0061678395319117426 0.00084536699440456082 0 0.0062396030310965817 0.00056757765164170315 0 0.0059652110048134333 0.00079783966601436232 0 0.0059786054840247132 0.00074621099704481333 0 0.0059499492586995249 0.00081099628306686349 0 0.0061678395319117426 0.00084536699440456082 0 0.0059652110048134333 0.00079783966601436232 0 0.0061260875178447086 0.0011120090139452978 0 0.0061678395319117426 0.00084536699440456082 0 0.0062914760840634756 0.0010520785343812674 0 0.0061260875178447086 0.0011120090139452978 0 0.0062914760840634756 0.0010520785343812674 0 0.0064783928277160245 0.00075029346052332257 0 0.00649290831322982 0.0011600333189519516 0 0.0064783928277160245 0.00075029346052332257 0 0.00649290831322982 0.0011600333189519516 0 0.006668064851670809 0.001043526783590066 0 0.0061678395319117426 0.00084536699440456082 0 0.0062914760840634756 0.0010520785343812674 0 0.0064783928277160245 0.00075029346052332257 0 0.0061678395319117426 0.00084536699440456082 0 0.0062396030310965817 0.00056757765164170315 0 0.0064783928277160245 0.00075029346052332257 0 0.0062396030310965817 0.00056757765164170315 0 0.0064783928277160245 0.00075029346052332257 0 0.006347231065217708 0.00034301606983770411 0 0.0063020242697971567 -7.5099552404540812e-07 0 0.0060844586757961448 -0.00039182765103729572 0 0.0061666388948269932 -0.00021972427279743216 0 0.0067833625513312014 0.00033790789529898548 0 0.0063020242697971567 -7.5099552404540812e-07 0 0.0073755763317143461 0.00022606377799158051 0 0.0063012846559544009 -5.2244740020755019e-05 0 0.0067766715278669799 -5.4173657401691675e-05 0 0.0062396030310965817 0.00056757765164170315 0 0.006347231065217708 0.00034301606983770411 0 0.0062724019783863966 5.7299190558436382e-05 0 0.0064783928277160245 0.00075029346052332257 0 0.006347231065217708 0.00034301606983770411 0 0.0064893298229945773 0.00034589797050220482 0 0.006347231065217708 0.00034301606983770411 0 0.0064893298229945773 0.00034589797050220482 0 0.0063020242697971567 -7.5099552404540812e-07 0 0.006347231065217708 0.00034301606983770411 0 0.0062724019783863966 5.7299190558436382e-05 0 0.0063020242697971567 -7.5099552404540812e-07 0 0.0064783928277160245 0.00075029346052332257 0 0.0067833625513312014 0.00033790789529898548 0 0.0070005729895706494 0.00044805408512606519 0 0.0064783928277160245 0.00075029346052332257 0 0.0067833625513312014 0.00033790789529898548 0 0.0064893298229945773 0.00034589797050220482 0 0.0067833625513312014 0.00033790789529898548 0 0.0064893298229945773 0.00034589797050220482 0 0.0063020242697971567 -7.5099552404540812e-07 0 0.0062724019783863966 5.7299190558436382e-05 0 0.0063020242697971567 -7.5099552404540812e-07 0 0.0061666388948269932 -0.00021972427279743216 0 0.005628080735273472 0.00023749491966781067 0 0.005565208296833382 0.00028568278906452189 0 0.0055680815790985537 5.2228610132896506e-05 0 0.005565208296833382 0.00028568278906452189 0 0.0054596450887579254 0.00012036627771406631 0 0.0055680815790985537 5.2228610132896506e-05 0 0.0056665698950602037 0.0006130508478104054 0 0.005565208296833382 0.00028568278906452189 0 0.0055487997284619376 0.00036544485164501512 0 0.0056442467837140402 0.00051469952350290181 0 0.005628080735273472 0.00023749491966781067 0 0.005565208296833382 0.00028568278906452189 0 0.0062396030310965817 0.00056757765164170315 0 0.0059652110048134333 0.00079783966601436232 0 0.0062724019783863966 5.7299190558436382e-05 0 0.0059786054840247132 0.00074621099704481333 0 0.0059428893047952227 0.00015397251303836141 0 0.005565208296833382 0.00028568278906452189 0 0.0055487997284619376 0.00036544485164501512 0 0.0054596450887579254 0.00012036627771406631 0 0.0055487997284619376 0.00036544485164501512 0 0.0053834968838927062 0.00033790106552953405 0 0.0054596450887579254 0.00012036627771406631 0 0.0053834968838927062 0.00033790106552953405 0 0.0055710513139768823 0.00049713435767811118 0 0.0056186971462343395 0.00061691287703676348 0 0.0055487997284619376 0.00036544485164501512 0 0.0053834968838927062 0.00033790106552953405 0 0.0055710513139768823 0.00049713435767811118 0 0.0042049386769496934 0.00039205422715204947 0 0.004506545498529713 0.00046302809945296804 0 0.004593780254271063 0.00085294444737257389 0 0.0047678503696939835 0.00036647067392267838 0 0.004506545498529713 0.00046302809945296804 0 0.004593780254271063 0.00085294444737257389 0 0.0042049386769496934 0.00039205422715204947 0 0.0044487597324599044 0.00025709801882885372 0 0.004506545498529713 0.00046302809945296804 0 0.0047678503696939835 0.00036647067392267838 0 0.0044487597324599044 0.00025709801882885372 0 0.004506545498529713 0.00046302809945296804 0 0.0047678503696939835 0.00036647067392267838 0 0.0044487597324599044 0.00025709801882885372 0 0.0045343946187142532 -5.570758279147582e-06 0 0.0061166225893519999 0.0013307841611922872 0 0.0061046309087137516 0.0013322753646573093 0 0.0060647981466392621 0.001324785281863897 0 0.0051755409867611651 0.00088786858325676579 0 0.0053582839542036052 0.00099226909588827458 0 0.0061046309087137516 0.0013322753646573093 0 0.0060647981466392621 0.001324785281863897 0 0.0061259149250184426 0.0012909920383147252 0 0.0062649448144655234 0.00086183817962871411 0 0.0062159007055318516 0.00091317586146267269 0 0.0061274773634642258 0.0011708197358370714 0 0.0053834968838927062 0.00033790106552953405 0 0.005715806158298491 0.00079541807041119325 0 0.0056186971462343395 0.00061691287703676348 0 0.0050846233842722372 0.00030785466932145149 0 0.0053582839542036052 0.00099226909588827458 0 0.0056665698950602037 0.0006130508478104054 0 0.005715806158298491 0.00079541807041119325 0 0.0058918193665068713 0.00099201654005752829 0 0.0056665698950602037 0.0006130508478104054 0 0.005715806158298491 0.00079541807041119325 0 0.0056186971462343395 0.00061691287703676348 0 0.0056665698950602037 0.0006130508478104054 0 0.0055710513139768823 0.00049713435767811118 0 0.0056186971462343395 0.00061691287703676348 0 0.0056665698950602037 0.0006130508478104054 0 0.0055487997284619376 0.00036544485164501512 0 0.0055710513139768823 0.00049713435767811118 0 0.0062159007055318516 0.00091317586146267269 0 0.0061274773634642258 0.0011708197358370714 0 0.0060182129986218347 0.0011125750875575027 0 0.0059499492586995249 0.00081099628306686349 0 0.0059547650356835133 0.0010781082589084426 0 0.0056665698950602037 0.0006130508478104054 0 0.0058918193665068713 0.00099201654005752829 0 0.0060182129986218347 0.0011125750875575027 0 0.0059786054840247132 0.00074621099704481333 0 0.006111342144558901 0.0013193958997912384 0 0.0061274773634642258 0.0011708197358370714 0 0.0060182129986218347 0.0011125750875575027 0 0.0060930072197511028 0.001181823545129269 0 0.0061708786010568738 0.0012449236295130573 0 0.0061259149250184426 0.0012909920383147252 0 0.0060376266416510907 0.001169809862260483 0 0.0060647981466392621 0.001324785281863897 0 0.0061259149250184426 0.0012909920383147252 0 0.0060376266416510907 0.001169809862260483 0 0.0053582839542036052 0.00099226909588827458 0 0.0059335273292138906 0.0010251912547870358 0 0.005715806158298491 0.00079541807041119325 0 0.0058918193665068713 0.00099201654005752829 0 0.0060376266416510907 0.001169809862260483 0 0.0060182129986218347 0.0011125750875575027 0 0.0060376266416510907 0.001169809862260483 0 0.0060930072197511028 0.001181823545129269 0 0.0058918193665068713 0.00099201654005752829 0 0.0060182129986218347 0.0011125750875575027 0 0.0060376266416510907 0.001169809862260483 0 0.0061733748983334672 0.0012241706909382336 0 0.0061708786010568738 0.0012449236295130573 0 0.0060376266416510907 0.001169809862260483 0 0.0061733748983334672 0.0012241706909382336 0 0.0060376266416510907 0.001169809862260483 0 0.0060930072197511028 0.001181823545129269 0 0.0061274773634642258 0.0011708197358370714 0 0.0060930072197511028 0.001181823545129269 0 0.0061999806967714052 0.0012460001468458963 0 0.0061274773634642258 0.0011708197358370714 0 0.0061999806967714052 0.0012460001468458963 0 0.0063355295007211003 0.0013338991940562651 0 0.0061733748983334672 0.0012241706909382336 0 0.0060930072197511028 0.001181823545129269 0 0.0061999806967714052 0.0012460001468458963 0 0.0060311379778752597 0.0014671645188565545 0 0.0061980259674621731 0.0017221005048476754 0 0.0061217250834565461 0.0019435165059312515 0 0.006111342144558901 0.0013193958997912384 0 0.0062276020371614697 0.0016399148596735972 0 0.0060311379778752597 0.0014671645188565545 0 0.0061980259674621731 0.0017221005048476754 0 0.0062357047195606948 0.0015094414004626602 0 0.0061980259674621731 0.0017221005048476754 0 0.0062357047195606948 0.0015094414004626602 0 0.0063638169630473255 0.0017347645221781256 0 0.0062357047195606948 0.0015094414004626602 0 0.0064082003713021689 0.0015141221754530671 0 0.0063638169630473255 0.0017347645221781256 0 0.0062357047195606948 0.0015094414004626602 0 0.0063318175296615846 0.0012944928803085042 0 0.0064082003713021689 0.0015141221754530671 0 0.0059652110048134333 0.00079783966601436232 0 0.0060311379778752597 0.0014671645188565545 0 0.0061260875178447086 0.0011120090139452978 0 0.0060311379778752597 0.0014671645188565545 0 0.0062357047195606948 0.0015094414004626602 0 0.0061708435489504949 0.0012953102764407659 0 0.0060311379778752597 0.0014671645188565545 0 0.0061708435489504949 0.0012953102764407659 0 0.0061260875178447086 0.0011120090139452978 0 0.0062357047195606948 0.0015094414004626602 0 0.0061708435489504949 0.0012953102764407659 0 0.0063318175296615846 0.0012944928803085042 0 0.0062914760840634756 0.0010520785343812674 0 0.0063318175296615846 0.0012944928803085042 0 0.0062288126672286276 0.0011912569539167214 0 0.0061708435489504949 0.0012953102764407659 0 0.0063318175296615846 0.0012944928803085042 0 0.0062288126672286276 0.0011912569539167214 0 0.0062914760840634756 0.0010520785343812674 0 0.0062288126672286276 0.0011912569539167214 0 0.0061260875178447086 0.0011120090139452978 0 0.0061708435489504949 0.0012953102764407659 0 0.0062288126672286276 0.0011912569539167214 0 0.0061260875178447086 0.0011120090139452978 0 0.0063318175296615846 0.0012944928803085042 0 0.0065910066673265594 0.0013564891436970441 0 0.0064082003713021689 0.0015141221754530671 0 0.00649290831322982 0.0011600333189519516 0 0.0065910066673265594 0.0013564891436970441 0 0.006668064851670809 0.001043526783590066 0 0.0063318175296615846 0.0012944928803085042 0 0.00649290831322982 0.0011600333189519516 0 0.0065910066673265594 0.0013564891436970441 0 0.0062914760840634756 0.0010520785343812674 0 0.0063318175296615846 0.0012944928803085042 0 0.00649290831322982 0.0011600333189519516 0 0.0065910066673265594 0.0013564891436970441 0 0.0064082003713021689 0.0015141221754530671 0 0.006535544813277604 0.0016503766474618793 0 0.0064082003713021689 0.0015141221754530671 0 0.006535544813277604 0.0016503766474618793 0 0.0063638169630473255 0.0017347645221781256 0 0.0065843601418011195 0.0018463469119582303 0 0.0063638169630473255 0.0017347645221781256 0 0.0064876153422033693 0.0019999887292042142 0 0.006535544813277604 0.0016503766474618793 0 0.0065843601418011195 0.0018463469119582303 0 0.0067412615020157399 0.0017514148203212835 0 0.006535544813277604 0.0016503766474618793 0 0.0065843601418011195 0.0018463469119582303 0 0.0063638169630473255 0.0017347645221781256 0 0.0063638169630473255 0.0017347645221781256 0 0.0064876153422033693 0.0019999887292042142 0 0.0062791376082101001 0.0019267180215773734 0 0.0061980259674621731 0.0017221005048476754 0 0.0063638169630473255 0.0017347645221781256 0 0.0062791376082101001 0.0019267180215773734 0 0.0064876153422033693 0.0019999887292042142 0 0.0062791376082101001 0.0019267180215773734 0 0.0063392042578561437 0.0021951312148751016 0 0.0064876153422033693 0.0019999887292042142 0 0.0063392042578561437 0.0021951312148751016 0 0.0065244122429837324 0.0022297560563815477 0 0.0065843601418011195 0.0018463469119582303 0 0.0064876153422033693 0.0019999887292042142 0 0.0067292826769697811 0.0020477104586084489 0 0.0064876153422033693 0.0019999887292042142 0 0.0065244122429837324 0.0022297560563815477 0 0.0067292826769697811 0.0020477104586084489 0 0.0063649869171734791 0.0013699526485254421 0 0.0061999806967714052 0.0012460001468458963 0 0.0063355295007211003 0.0013338991940562651 0 0.0061980259674621731 0.0017221005048476754 0 0.0061217250834565461 0.0019435165059312515 0 0.0062791376082101001 0.0019267180215773734 0 0.0061217250834565461 0.0019435165059312515 0 0.0062791376082101001 0.0019267180215773734 0 0.0063392042578561437 0.0021951312148751016 0 0.0066016295227830498 0.0016199236104466753 0 0.0063649869171734791 0.0013699526485254421 0 0.0063355295007211003 0.0013338991940562651 0 0.0064327610592954223 0.0019829840308308766 0 0.0062276020371614697 0.0016399148596735972 0 0.0062638368290544076 0.0023222007387488077 0 0.0061217250834565461 0.0019435165059312515 0 0.0063392042578561437 0.0021951312148751016 0 0.0062638368290544076 0.0023222007387488077 0 0.0063392042578561437 0.0021951312148751016 0 0.0063701008617923953 0.0024227330544699895 0 0.0063392042578561437 0.0021951312148751016 0 0.0063701008617923953 0.0024227330544699895 0 0.0064648718322346758 0.00240917886545135 0 0.0064630666419784053 0.0026262724415557111 0 0.0063701008617923953 0.0024227330544699895 0 0.0064648718322346758 0.00240917886545135 0 0.0064630666419784053 0.0026262724415557111 0 0.0065398227381359662 0.0024583455330136261 0 0.0063701008617923953 0.0024227330544699895 0 0.0066794167305487158 0.0023390532928114385 0 0.0065244122429837324 0.0022297560563815477 0 0.0067292826769697811 0.0020477104586084489 0 0.0063392042578561437 0.0021951312148751016 0 0.0065244122429837324 0.0022297560563815477 0 0.0064648718322346758 0.00240917886545135 0 0.0066794167305487158 0.0023390532928114385 0 0.0065244122429837324 0.0022297560563815477 0 0.0064648718322346758 0.00240917886545135 0 0.0065485501148983332 0.0026002636011974371 0 0.0066794167305487158 0.0023390532928114385 0 0.0064648718322346758 0.00240917886545135 0 0.0067050322464038015 0.0026499216806034277 0 0.0066794167305487158 0.0023390532928114385 0 0.0068804636240074575 0.0024314338847591247 0 0.0066794167305487158 0.0023390532928114385 0 0.0069013315436864632 0.0021831994731149589 0 0.0067292826769697811 0.0020477104586084489 0 0.0066794167305487158 0.0023390532928114385 0 0.0069013315436864632 0.0021831994731149589 0 0.0068804636240074575 0.0024314338847591247 0 0.0069013315436864632 0.0021831994731149589 0 0.007062032118752358 0.0021790964203902579 0 0.0069995692769943031 0.002074547463011174 0 0.0070131257044472638 0.0024680329859347407 0 0.0068804636240074575 0.0024314338847591247 0 0.0070213530865746131 0.0023326344519254368 0 0.0069013315436864632 0.0021831994731149589 0 0.0068804636240074575 0.0024314338847591247 0 0.0070213530865746131 0.0023326344519254368 0 0.0070973731919405647 0.0024629577582220394 0 0.0070131257044472638 0.0024680329859347407 0 0.0070213530865746131 0.0023326344519254368 0 0.0070973731919405647 0.0024629577582220394 0 0.0070213530865746131 0.0023326344519254368 0 0.007127405623667692 0.0022768022355171215 0 0.0072640169407623316 0.0024247625689917591 0 0.0070973731919405647 0.0024629577582220394 0 0.0071977936793604569 0.0023280350928627735 0 0.0070973731919405647 0.0024629577582220394 0 0.0071977936793604569 0.0023280350928627735 0 0.007127405623667692 0.0022768022355171215 0 0.0071977936793604569 0.0023280350928627735 0 0.007127405623667692 0.0022768022355171215 0 0.007217033789578749 0.0022296257636690042 0 0.007127405623667692 0.0022768022355171215 0 0.0071677650360198698 0.0021490371949729995 0 0.007217033789578749 0.0022296257636690042 0 0.007127405623667692 0.0022768022355171215 0 0.0071677650360198698 0.0021490371949729995 0 0.007062032118752358 0.0021790964203902579 0 0.0071677650360198698 0.0021490371949729995 0 0.007217033789578749 0.0022296257636690042 0 0.007238774003950307 0.0021297310356860649 0 0.0069013315436864632 0.0021831994731149589 0 0.0070213530865746131 0.0023326344519254368 0 0.007062032118752358 0.0021790964203902579 0 0.0070213530865746131 0.0023326344519254368 0 0.007127405623667692 0.0022768022355171215 0 0.007062032118752358 0.0021790964203902579 0 0.007062032118752358 0.0021790964203902579 0 0.0069995692769943031 0.002074547463011174 0 0.0071524180828218204 0.0020299700890464936 0 0.0069995692769943031 0.002074547463011174 0 0.0071524180828218204 0.0020299700890464936 0 0.007049346857818572 0.0019269904667981402 0 0.0071524180828218204 0.0020299700890464936 0 0.0071569788511443751 0.0019269829309236919 0 0.007049346857818572 0.0019269904667981402 0 0.0072056786609769278 0.0020694638286442315 0 0.007238774003950307 0.0021297310356860649 0 0.0072603429469689498 0.0020436305574185617 0 0.0071677650360198698 0.0021490371949729995 0 0.0072056786609769278 0.0020694638286442315 0 0.007238774003950307 0.0021297310356860649 0 0.0071677650360198698 0.0021490371949729995 0 0.0072056786609769278 0.0020694638286442315 0 0.0071524180828218204 0.0020299700890464936 0 0.0071677650360198698 0.0021490371949729995 0 0.007062032118752358 0.0021790964203902579 0 0.0071524180828218204 0.0020299700890464936 0 0.0071524180828218204 0.0020299700890464936 0 0.0072043783587748883 0.0019960217119318938 0 0.0071569788511443751 0.0019269829309236919 0 0.0072056786609769278 0.0020694638286442315 0 0.0071524180828218204 0.0020299700890464936 0 0.0072043783587748883 0.0019960217119318938 0 0.0072056786609769278 0.0020694638286442315 0 0.0072043783587748883 0.0019960217119318938 0 0.0072603429469689498 0.0020436305574185617 0 0.0072043783587748883 0.0019960217119318938 0 0.0072373766709871151 0.0019050511585500594 0 0.0072603429469689498 0.0020436305574185617 0 0.0053737173494532997 -0.00029825093786860896 0 0.0062805399705699117 0.00043047972915863435 0 0.0053808450487620738 3.646791685399089e-05 0 0.0066580573986552921 0.00088912971593434415 0 0.0065979297885601206 0.00097861378931190352 0 0.0072373766709871151 0.0019050511585500594 0 0.0071569788511443751 0.0019269829309236919 0 0.0071148166420039001 0.0018260453747211086 0 0.0072043783587748883 0.0019960217119318938 0 0.0072373766709871151 0.0019050511585500594 0 0.0071569788511443751 0.0019269829309236919 0 0.0053737173494532997 -0.00029825093786860896 0 0.0050097743112611903 -0.00041199563045663423 0 0.0053808450487620738 3.646791685399089e-05 0 0.0072373766709871151 0.0019050511585500594 0 0.0071148166420039001 0.0018260453747211086 0 0.0071139274564277532 0.001604435716602315 0 0.007049346857818572 0.0019269904667981402 0 0.0071148166420039001 0.0018260453747211086 0 0.0069617838441091619 0.0017703311129583449 0 0.0071569788511443751 0.0019269829309236919 0 0.007049346857818572 0.0019269904667981402 0 0.0071148166420039001 0.0018260453747211086 0 0.0071148166420039001 0.0018260453747211086 0 0.0069617838441091619 0.0017703311129583449 0 0.0071139274564277532 0.001604435716602315 0 0.0069617838441091619 0.0017703311129583449 0 0.0067412615020157399 0.0017514148203212835 0 0.0068959075982740125 0.0019764294355038813 0 0.007049346857818572 0.0019269904667981402 0 0.0069617838441091619 0.0017703311129583449 0 0.0068959075982740125 0.0019764294355038813 0 0.0065843601418011195 0.0018463469119582303 0 0.0067412615020157399 0.0017514148203212835 0 0.0067292826769697811 0.0020477104586084489 0 0.0067412615020157399 0.0017514148203212835 0 0.0067292826769697811 0.0020477104586084489 0 0.0068959075982740125 0.0019764294355038813 0 0.0069013315436864632 0.0021831994731149589 0 0.0067292826769697811 0.0020477104586084489 0 0.0068959075982740125 0.0019764294355038813 0 0.0069013315436864632 0.0021831994731149589 0 0.0069995692769943031 0.002074547463011174 0 0.0068959075982740125 0.0019764294355038813 0 0.0069995692769943031 0.002074547463011174 0 0.007049346857818572 0.0019269904667981402 0 0.0068959075982740125 0.0019764294355038813 0 -0.0040618197523512554 -0.00091378029655527176 0 -0.0039286707111118964 -0.00077998085349817285 0 -0.0041259231165292551 -0.00075130954682164344 0 -0.0040618197523512554 -0.00091378029655527176 0 -0.0038961756303140392 -0.00099807188940306477 0 -0.0039286707111118964 -0.00077998085349817285 0 -0.0038961756303140392 -0.00099807188940306477 0 -0.0037413992309375502 -0.00088825446822126243 0 -0.0039286707111118964 -0.00077998085349817285 0 -0.0038961756303140392 -0.00099807188940306477 0 -0.0040917128950865803 -0.0011317547924530474 0 -0.0038849465883025827 -0.0011502623762522865 0 -0.0040618197523512554 -0.00091378029655527176 0 -0.0038961756303140392 -0.00099807188940306477 0 -0.0040917128950865803 -0.0011317547924530474 0 -0.0040618197523512554 -0.00091378029655527176 0 -0.0040917128950865803 -0.0011317547924530474 0 -0.0042825454897362511 -0.00089613153332234287 0 -0.0050782379600405056 0.00085537126211215919 0 -0.0051700871146934928 0.00070955118593249834 0 -0.0052398602935080796 0.00082367546862864062 0 -0.0045888961713845535 -0.00024594320963047063 0 -0.0034839113695676383 0.00064811007364600046 0 -0.0040917128950865803 -0.0011317547924530474 0 -0.0039006990087364453 -0.0013554637352469253 0 -0.0038849465883025827 -0.0011502623762522865 0 -0.0034839113695676383 0.00064811007364600046 0 -0.0021890124947871945 -7.5718740228273814e-05 0 0.00049601338993353881 0.00033488434951336506 0 -0.00092533406148641729 0.00031290930921075877 0 -0.0002492268263214818 0.0007783636714474376 0 -0.0039006990087364453 -0.0013554637352469253 0 -0.0038849465883025827 -0.0011502623762522865 0 -0.0036486599134670145 -0.0011117449035554527 0 -0.001081292827877175 0.00051059220830478654 0 -0.0002492268263214818 0.0007783636714474376 0 -0.00025997162838094435 0.0014051491277085105 0 -0.00092533406148641729 0.00031290930921075877 0 -0.001081292827877175 0.00051059220830478654 0 -0.0002492268263214818 0.0007783636714474376 0 -0.0002492268263214818 0.0007783636714474376 0 -0.00025997162838094435 0.0014051491277085105 0 0.00050685386127703833 0.0013179118613862247 0 -0.0036486599134670145 -0.0011117449035554527 0 -0.0037413992309375502 -0.00088825446822126243 0 -0.0035885602796486807 -0.00091894815824538343 0 -0.0038961756303140392 -0.00099807188940306477 0 -0.0038849465883025827 -0.0011502623762522865 0 -0.0036486599134670145 -0.0011117449035554527 0 -0.0038961756303140392 -0.00099807188940306477 0 -0.0036486599134670145 -0.0011117449035554527 0 -0.0037413992309375502 -0.00088825446822126243 0 -0.0036486599134670145 -0.0011117449035554527 0 -0.0035885602796486807 -0.00091894815824538343 0 -0.0032044265377667636 -0.00073322647571338634 0 -0.0037413992309375502 -0.00088825446822126243 0 -0.0035885602796486807 -0.00091894815824538343 0 -0.0036124205215232381 -0.0007854084706909783 0 0.0073740094798418806 0.0021135703046641849 0 0.0073353945965146314 0.0021505212892881957 0 0.0073794472145443032 0.002267304567236934 0 -0.00025997162838094435 0.0014051491277085105 0 0.00053469710087717759 0.0022674858933006466 0 0.00050685386127703833 0.0013179118613862247 0 0.001368169479945992 0.00054053979394444755 0 0.0039117667834565883 0.0019681807036388008 0 -0.0035885602796486807 -0.00091894815824538343 0 -0.0034076140261355297 -0.00078176876777098965 0 -0.0036124205215232381 -0.0007854084706909783 0 -0.0040958379396314245 -0.001685983069407361 0 0.00077879062821989984 -0.00055693813051452528 0 -0.0035885602796486807 -0.00091894815824538343 0 -0.0032044265377667636 -0.00073322647571338634 0 -0.0031994644434370986 -0.00068548907517202069 0 0.0073740094798418806 0.0021135703046641849 0 0.0073353945965146314 0.0021505212892881957 0 0.0073470463152906056 0.0020779429069987783 0 0.0073353945965146314 0.0021505212892881957 0 0.0073794472145443032 0.002267304567236934 0 0.0072831798311686477 0.0021909357604271112 0 -0.0021890124947871945 -7.5718740228273814e-05 0 0.001368169479945992 0.00054053979394444755 0 0.0037004285692355272 0.0019899732009606387 0 0.0039117667834565883 0.0019681807036388008 0 0.00049601338993353881 0.00033488434951336506 0 -0.0002492268263214818 0.0007783636714474376 0 0.00050685386127703833 0.0013179118613862247 0 0.0073717345922682566 0.0024113538991957571 0 0.0073794472145443032 0.002267304567236934 0 0.0072883503812670733 0.002308112979570444 0 0.0072640169407623316 0.0024247625689917591 0 0.0073717345922682566 0.0024113538991957571 0 0.0072883503812670733 0.002308112979570444 0 0.0072640169407623316 0.0024247625689917591 0 0.0071977936793604569 0.0023280350928627735 0 0.0072883503812670733 0.002308112979570444 0 0.0071977936793604569 0.0023280350928627735 0 0.0072883503812670733 0.002308112979570444 0 0.007217033789578749 0.0022296257636690042 0 0.0072883503812670733 0.002308112979570444 0 0.007217033789578749 0.0022296257636690042 0 0.0072831798311686477 0.0021909357604271112 0 0.0073794472145443032 0.002267304567236934 0 0.0072883503812670733 0.002308112979570444 0 0.0072831798311686477 0.0021909357604271112 0 0.0073353945965146314 0.0021505212892881957 0 0.0072831798311686477 0.0021909357604271112 0 0.00729384705600676 0.0021135042163304817 0 0.007217033789578749 0.0022296257636690042 0 0.0072831798311686477 0.0021909357604271112 0 0.007238774003950307 0.0021297310356860649 0 0.0072831798311686477 0.0021909357604271112 0 0.00729384705600676 0.0021135042163304817 0 0.007238774003950307 0.0021297310356860649 0 0.0072373766709871151 0.0019050511585500594 0 0.0072603429469689498 0.0020436305574185617 0 0.0073470463152906056 0.0020779429069987783 0 0.00729384705600676 0.0021135042163304817 0 0.0072603429469689498 0.0020436305574185617 0 0.0073470463152906056 0.0020779429069987783 0 0.0053737173494532997 -0.00029825093786860896 0 0.0050097743112611903 -0.00041199563045663423 0 0.0046331475156131145 -0.00079043518450179755 0 0.0066580573986552921 0.00088912971593434415 0 0.0042171279928062688 0.00059131201249311047 0 0.00729384705600676 0.0021135042163304817 0 0.007238774003950307 0.0021297310356860649 0 0.0072603429469689498 0.0020436305574185617 0 0.0073353945965146314 0.0021505212892881957 0 0.00729384705600676 0.0021135042163304817 0 0.0073470463152906056 0.0020779429069987783 0 0.004765390608224257 -0.00068135382229042281 0 0.0042171279928062688 0.00059131201249311047 0 0.004765390608224257 -0.00068135382229042281 0 0.005371610614979626 2.5165735928322738e-05 0 0.004755823546833484 -0.00066356736377638358 0 0.0047035951426807115 -0.00013114408990646943 0 0.0053808450487620738 3.646791685399089e-05 0 0.004755823546833484 -0.00066356736377638358 0 0.0047035951426807115 -0.00013114408990646943 0 0.0039945632994499601 -0.00032364365793581133 0 0.0047035951426807115 -0.00013114408990646943 0 0.0039945632994499601 -0.00032364365793581133 0 0.0047066064793920186 0.00042251475178180941 0 0.004755823546833484 -0.00066356736377638358 0 0.0039945632994499601 -0.00032364365793581133 0 0.0041543589433086468 -0.0013107971527432124 0 -0.003406654906855162 -0.00038448599179083062 0 -0.0034076140261355297 -0.00078176876777098965 0 -0.0036093758374693813 -0.00060898944820741833 0 0.0039945632994499601 -0.00032364365793581133 0 0.0041543589433086468 -0.0013107971527432124 0 0.0039444307880897658 -0.0014619291359826252 0 0.00022548348302873987 -0.00055117044662713504 0 0.00077879062821989984 -0.00055693813051452528 0 0.0042171279928062688 0.00059131201249311047 0 0.00077879062821989984 -0.00055693813051452528 0 0.001368169479945992 0.00054053979394444755 0 0.0042171279928062688 0.00059131201249311047 0 0.001726829118508236 -0.00096233666824301067 0 0.0033273162585888724 0.00085211750948294292 0 0.0017441015611347407 -0.00033898285180587046 0 0.001368169479945992 0.00054053979394444755 0 0.00077879062821989984 -0.00055693813051452528 0 -0.0034076140261355297 -0.00078176876777098965 0 -0.0036124205215232381 -0.0007854084706909783 0 -0.0036093758374693813 -0.00060898944820741833 0 -0.0037413992309375502 -0.00088825446822126243 0 -0.0036124205215232381 -0.0007854084706909783 0 -0.0037390562044257525 -0.00073138272922062847 0 -0.0036124205215232381 -0.0007854084706909783 0 -0.0037390562044257525 -0.00073138272922062847 0 -0.0036093758374693813 -0.00060898944820741833 0 -0.0037390562044257525 -0.00073138272922062847 0 -0.003837939300891905 -0.00057831725265296556 0 -0.0039286707111118964 -0.00077998085349817285 0 -0.0037413992309375502 -0.00088825446822126243 0 -0.0037390562044257525 -0.00073138272922062847 0 -0.0039286707111118964 -0.00077998085349817285 0 -0.0037390562044257525 -0.00073138272922062847 0 -0.003837939300891905 -0.00057831725265296556 0 -0.0036093758374693813 -0.00060898944820741833 0 -0.003837939300891905 -0.00057831725265296556 0 -0.0036093758374693813 -0.00060898944820741833 0 -0.0037102532925028125 -0.00032363844053142634 0 -0.003406654906855162 -0.00038448599179083062 0 -0.0036093758374693813 -0.00060898944820741833 0 -0.0037102532925028125 -0.00032363844053142634 0 -0.003837939300891905 -0.00057831725265296556 0 -0.0037102532925028125 -0.00032363844053142634 0 -0.0039724732883275327 -0.00043170979231162376 0 -0.003837939300891905 -0.00057831725265296556 0 -0.0039724732883275327 -0.00043170979231162376 0 -0.004068092610604198 -0.00059124726994034616 0 -0.0037102532925028125 -0.00032363844053142634 0 -0.0039724732883275327 -0.00043170979231162376 0 -0.0040283169974901657 -0.00021012285366048996 0 -0.0041336583868422823 -0.00042000546616729741 0 -0.0040283169974901657 -0.00021012285366048996 0 -0.0043010202098630107 -0.00026638437221070252 0 -0.0039724732883275327 -0.00043170979231162376 0 -0.0041336583868422823 -0.00042000546616729741 0 -0.0040283169974901657 -0.00021012285366048996 0 -0.0041336583868422823 -0.00042000546616729741 0 -0.004068092610604198 -0.00059124726994034616 0 -0.00426684594926944 -0.0005822229077818412 0 -0.0039724732883275327 -0.00043170979231162376 0 -0.0041336583868422823 -0.00042000546616729741 0 -0.004068092610604198 -0.00059124726994034616 0 -0.004068092610604198 -0.00059124726994034616 0 -0.0041259231165292551 -0.00075130954682164344 0 -0.00426684594926944 -0.0005822229077818412 0 -0.003837939300891905 -0.00057831725265296556 0 -0.004068092610604198 -0.00059124726994034616 0 -0.0039286707111118964 -0.00077998085349817285 0 -0.004068092610604198 -0.00059124726994034616 0 -0.0039286707111118964 -0.00077998085349817285 0 -0.0041259231165292551 -0.00075130954682164344 0 -0.0039798117358424258 9.8576903614557744e-05 0 -0.004195988670239726 0.00032675209198257892 0 -0.0042626169924115951 -3.6706493380027362e-05 0 -0.0039798117358424258 9.8576903614557744e-05 0 -0.0037954519639680556 0.00039981521210846169 0 -0.004195988670239726 0.00032675209198257892 0 -0.0039798117358424258 9.8576903614557744e-05 0 -0.0040283169974901657 -0.00021012285366048996 0 -0.0037683239825902375 -4.9002271423052446e-05 0 -0.0039798117358424258 9.8576903614557744e-05 0 -0.0040283169974901657 -0.00021012285366048996 0 -0.0042626169924115951 -3.6706493380027362e-05 0 -0.0037102532925028125 -0.00032363844053142634 0 -0.0040283169974901657 -0.00021012285366048996 0 -0.0037683239825902375 -4.9002271423052446e-05 0 -0.0037102532925028125 -0.00032363844053142634 0 -0.0037683239825902375 -4.9002271423052446e-05 0 -0.0034038404921414439 3.1735050137244393e-05 0 -0.0039798117358424258 9.8576903614557744e-05 0 -0.0036670485570013509 0.00016440705809406684 0 -0.0037954519639680556 0.00039981521210846169 0 -0.0039798117358424258 9.8576903614557744e-05 0 -0.0037683239825902375 -4.9002271423052446e-05 0 -0.0036670485570013509 0.00016440705809406684 0 -0.0037683239825902375 -4.9002271423052446e-05 0 -0.0036670485570013509 0.00016440705809406684 0 -0.0034038404921414439 3.1735050137244393e-05 0 0.004034581864755582 0.00078959598353070158 0 0.0044457959184201132 0.0013099293323535653 0 0.0040331777051789072 0.0018667149639503961 0 -0.0036670485570013509 0.00016440705809406684 0 -0.0034038404921414439 3.1735050137244393e-05 0 -0.0033935367643922122 0.00045985632804319468 0 0.00054759533702713667 0.00080329289382254727 0 -0.0022103302874096073 -0.00055295605609366851 0 0.00022548348302873987 -0.00055117044662713504 0 0.00054759533702713667 0.00080329289382254727 0 -0.003406654906855162 -0.00038448599179083062 0 -0.0037102532925028125 -0.00032363844053142634 0 -0.0034038404921414439 3.1735050137244393e-05 0 0.0039945632994499601 -0.00032364365793581133 0 0.004034581864755582 0.00078959598353070158 0 0.0047066064793920186 0.00042251475178180941 0 0.004034581864755582 0.00078959598353070158 0 0.0047066064793920186 0.00042251475178180941 0 0.004605143554069299 0.00087918124301506254 0 0.0047035951426807115 -0.00013114408990646943 0 0.0047066064793920186 0.00042251475178180941 0 0.0053808450487620738 3.646791685399089e-05 0 0.0047066064793920186 0.00042251475178180941 0 0.0053808450487620738 3.646791685399089e-05 0 0.0052469504949444667 0.00056419328201917477 0 0.0047066064793920186 0.00042251475178180941 0 0.004605143554069299 0.00087918124301506254 0 0.0052469504949444667 0.00056419328201917477 0 0.0050579212065843693 0.0010665840072169594 0 0.004605143554069299 0.00087918124301506254 0 0.0052469504949444667 0.00056419328201917477 0 0.0050579212065843693 0.0010665840072169594 0 0.0046040154020996508 0.0018464239013757135 0 0.00515831615452844 0.0012715821301550248 0 0.0050579212065843693 0.0010665840072169594 0 0.0044457959184201132 0.0013099293323535653 0 0.0045081145957285339 0.0019461032387172786 0 0.004034581864755582 0.00078959598353070158 0 0.004605143554069299 0.00087918124301506254 0 0.0044457959184201132 0.0013099293323535653 0 0.0050579212065843693 0.0010665840072169594 0 0.004605143554069299 0.00087918124301506254 0 0.0044457959184201132 0.0013099293323535653 0 0.0055555090408804424 0.0011704054542807283 0 0.0052702935038685117 0.0012516457784864546 0 0.0057183821456223034 0.0012156912411443895 0 0.0049613328958966882 0.0016684855541171731 0 0.0037867414658089103 -1.1490054104170883e-05 0 0.0055555090408804424 0.0011704054542807283 0 0.0055625749339732397 0.0010854587517578524 0 0.0052702935038685117 0.0012516457784864546 0 0.0055625749339732397 0.0010854587517578524 0 0.0052702935038685117 0.0012516457784864546 0 0.0055995273610614099 0.00092393354938016033 0 0.0037867414658089103 -1.1490054104170883e-05 0 0.0053760448294816326 0.001177421026056045 0 0.0044457959184201132 0.0013099293323535653 0 0.0045081145957285339 0.0019461032387172786 0 0.0040331777051789072 0.0018667149639503961 0 0.0058713189213674029 -0.00064659374920987805 0 0.0058893722925680856 -0.00063363838649202009 0 0.0059128388523989181 -0.00062892468016967872 0 0.0058893722925680856 -0.00063363838649202009 0 0.0058952278944895287 -0.00062309212364454556 0 0.0059128388523989181 -0.00062892468016967872 0 0.0058713189213674029 -0.00064659374920987805 0 0.0058893722925680856 -0.00063363838649202009 0 0.0058742342158521624 -0.00063413882268605613 0 0.0058893722925680856 -0.00063363838649202009 0 0.0058952278944895287 -0.00062309212364454556 0 0.0058742342158521624 -0.00063413882268605613 0 0.0037867414658089103 -1.1490054104170883e-05 0 -0.0031821844024081604 -0.0030213885518828752 0 0.00012336645729946552 -0.0020486632449707061 0 -0.00038383676311747614 -0.0015405008796093634 0 -0.00039467055415724528 -0.0012850303777603746 0 0.0037867414658089103 -1.1490054104170883e-05 0 -0.0035264591376123855 -0.0027035214234694587 0 -0.0035264591376123855 -0.0027035214234694587 0 -0.0031821844024081604 -0.0030213885518828752 0 -0.0068061424464166851 -0.0041903525388742226 0 -0.0068196442398884066 -0.0043171039390318229 0 -0.0066250560732736942 -0.0044613397565777023 0 -0.0035264591376123855 -0.0027035214234694587 0 -0.0065876231199547899 -0.0042453636152142782 0 -0.0067575406275646507 -0.0041959042912244095 0 -0.0066021510708282969 -0.004238157618128186 0 -0.0065976194426653834 -0.0044477306139841192 0 -0.0067575406275646507 -0.0041959042912244095 0 -0.0065906451371693523 -0.0041003465812486156 0 -0.0067349294796665614 -0.0039408802721884947 0 -0.0067575406275646507 -0.0041959042912244095 0 -0.0066021510708282969 -0.004238157618128186 0 -0.0065906451371693523 -0.0041003465812486156 0 -0.0065906451371693523 -0.0041003465812486156 0 -0.0067349294796665614 -0.0039408802721884947 0 -0.0063801556879198723 -0.0038900589370271152 0 -0.00045390115660948275 -0.0012005568771758666 0 -0.00093180130815942897 -0.00066809037998124415 0 -0.0009363446820983615 -0.0012766167091973989 0 0.0037867414658089103 -1.1490054104170883e-05 0 -0.0022103302874096073 -0.00055295605609366851 0 -0.0035264591376123855 -0.0027035214234694587 0 -0.0022103302874096073 -0.00055295605609366851 0 -0.0036670485570013509 0.00016440705809406684 0 -0.0033935367643922122 0.00045985632804319468 0 -0.0037954519639680556 0.00039981521210846169 0 -0.0065906451371693523 -0.0041003465812486156 0 -0.0063801556879198723 -0.0038900589370271152 0 -0.0064600560062916777 -0.0042108679532272325 0 -0.0022103302874096073 -0.00055295605609366851 0 -0.0050117207470298034 -0.0017354711604599543 0 -0.0063801556879198723 -0.0038900589370271152 0 -0.0064600560062916777 -0.0042108679532272325 0 -0.0060998183145477627 -0.0042990109258118046 0 -0.0064600560062916777 -0.0042108679532272325 0 -0.0060998183145477627 -0.0042990109258118046 0 -0.0063586128581031897 -0.0044977928113721531 0 -0.0066021510708282969 -0.004238157618128186 0 -0.0065906451371693523 -0.0041003465812486156 0 -0.0064600560062916777 -0.0042108679532272325 0 -0.0066021510708282969 -0.004238157618128186 0 -0.0064600560062916777 -0.0042108679532272325 0 -0.0065976194426653834 -0.0044477306139841192 0 -0.0064600560062916777 -0.0042108679532272325 0 -0.0063586128581031897 -0.0044977928113721531 0 -0.0065976194426653834 -0.0044477306139841192 0 -0.0063801556879198723 -0.0038900589370271152 0 -0.0060998183145477627 -0.0042990109258118046 0 -0.0060147502473257763 -0.0038341659548016189 0 -0.0050117207470298034 -0.0017354711604599543 0 -0.0083683296109343316 -0.0029713465706400649 0 -0.0089371841177008984 -0.0062909152640906385 0 -0.0083683296109343316 -0.0029713465706400649 0 0.0063805973096392552 0.00095603029060410476 0 0.0067451576471462011 0.0010961025938531468 0 0.0066309634317088858 0.0011122073717514593 0 0.0067646023408424695 0.0010944884860449348 0 0.0065979297885601206 0.00097861378931190352 0 0.0063805973096392552 0.00095603029060410476 0 0.0067451576471462011 0.0010961025938531468 0 0.0062805399705699117 0.00043047972915863435 0 0.0065910066673265594 0.0013564891436970441 0 0.0067451576471462011 0.0010961025938531468 0 0.006668064851670809 0.001043526783590066 0 0.0065910066673265594 0.0013564891436970441 0 0.0067451576471462011 0.0010961025938531468 0 0.0068270075346365021 0.001522040679349861 0 0.0065910066673265594 0.0013564891436970441 0 0.006535544813277604 0.0016503766474618793 0 0.0067412615020157399 0.0017514148203212835 0 0.0065910066673265594 0.0013564891436970441 0 0.0067412615020157399 0.0017514148203212835 0 0.0068270075346365021 0.001522040679349861 0 0.0067451576471462011 0.0010961025938531468 0 0.0068270075346365021 0.001522040679349861 0 0.0071139274564277532 0.001604435716602315 0 0.0069617838441091619 0.0017703311129583449 0 0.0067412615020157399 0.0017514148203212835 0 0.0068270075346365021 0.001522040679349861 0 0.0069617838441091619 0.0017703311129583449 0 0.0068270075346365021 0.001522040679349861 0 0.0071139274564277532 0.001604435716602315 0 0.0062805399705699117 0.00043047972915863435 0 0.0057894446209187699 0.00058899434261026938 0 0.0061043763368811938 0.00075924073560205616 0 0.0062805399705699117 0.00043047972915863435 0 0.0053808450487620738 3.646791685399089e-05 0 0.0057894446209187699 0.00058899434261026938 0 0.0053808450487620738 3.646791685399089e-05 0 0.0057894446209187699 0.00058899434261026938 0 0.0052469504949444667 0.00056419328201917477 0 0.0050579212065843693 0.0010665840072169594 0 0.0057894446209187699 0.00058899434261026938 0 0.00515831615452844 0.0012715821301550248 0 0.0050579212065843693 0.0010665840072169594 0 0.0057894446209187699 0.00058899434261026938 0 0.0052469504949444667 0.00056419328201917477 0 0.005772557802922725 0.00061428941246125174 0 0.0053760448294816326 0.001177421026056045 0 0.0057894446209187699 0.00058899434261026938 0 0.0057910098274542611 0.00091271975415015789 0 0.0059306715061532263 0.00081680447463660646 0 0.0057894446209187699 0.00058899434261026938 0 0.0057910098274542611 0.00091271975415015789 0 0.0055995273610614099 0.00092393354938016033 0 0.0057910098274542611 0.00091271975415015789 0 0.0060370021134757154 0.00099071417635768753 0 0.0057897735909704685 0.0011027900436083172 0 0.0057910098274542611 0.00091271975415015789 0 0.0059306715061532263 0.00081680447463660646 0 0.0060370021134757154 0.00099071417635768753 0 0.0057910098274542611 0.00091271975415015789 0 0.0056840059912122544 0.0010224577466517964 0 0.0057897735909704685 0.0011027900436083172 0 0.0057910098274542611 0.00091271975415015789 0 0.0055995273610614099 0.00092393354938016033 0 0.0056840059912122544 0.0010224577466517964 0 0.0055625749339732397 0.0010854587517578524 0 0.0055995273610614099 0.00092393354938016033 0 0.0056840059912122544 0.0010224577466517964 0 0.0063805973096392552 0.00095603029060410476 0 0.0062805399705699117 0.00043047972915863435 0 0.0061043763368811938 0.00075924073560205616 0 0.0057894446209187699 0.00058899434261026938 0 0.0059306715061532263 0.00081680447463660646 0 0.0061043763368811938 0.00075924073560205616 0 0.0059306715061532263 0.00081680447463660646 0 0.0061043763368811938 0.00075924073560205616 0 0.0060370021134757154 0.00099071417635768753 0 0.0063805973096392552 0.00095603029060410476 0 0.0061043763368811938 0.00075924073560205616 0 0.0060370021134757154 0.00099071417635768753 0 0.0062551601385010171 0.0011746323097451435 0 0.0059136417384131638 0.001350605538648898 0 0.0065175349097881278 0.0013054617957477498 0 0.0063805973096392552 0.00095603029060410476 0 0.0060370021134757154 0.00099071417635768753 0 0.0062551601385010171 0.0011746323097451435 0 0.0060370021134757154 0.00099071417635768753 0 0.0059903862025359163 0.0011594977959655307 0 0.0062551601385010171 0.0011746323097451435 0 0.0059903862025359163 0.0011594977959655307 0 0.0062551601385010171 0.0011746323097451435 0 0.0059136417384131638 0.001350605538648898 0 0.0058713189213674029 -0.00064659374920987805 0 0.0059533088504399598 -0.00063763721395256219 0 0.0059128388523989181 -0.00062892468016967872 0 0.0052702935038685117 0.0012516457784864546 0 0.0059136417384131638 0.001350605538648898 0 0.0057183821456223034 0.0012156912411443895 0 0.0037867414658089103 -1.1490054104170883e-05 0 0.0062678522956124277 0.00043759314307770367 0 0.0055555090408804424 0.0011704054542807283 0 0.0055625749339732397 0.0010854587517578524 0 0.0056707951379290009 0.0011292425354372027 0 0.0055555090408804424 0.0011704054542807283 0 0.0056707951379290009 0.0011292425354372027 0 0.0057183821456223034 0.0012156912411443895 0 0.0055625749339732397 0.0010854587517578524 0 0.0056840059912122544 0.0010224577466517964 0 0.0056707951379290009 0.0011292425354372027 0 0.0056840059912122544 0.0010224577466517964 0 0.0056707951379290009 0.0011292425354372027 0 0.0057897735909704685 0.0011027900436083172 0 0.0056707951379290009 0.0011292425354372027 0 0.0057897735909704685 0.0011027900436083172 0 0.0057183821456223034 0.0012156912411443895 0 0.0060370021134757154 0.00099071417635768753 0 0.0059903862025359163 0.0011594977959655307 0 0.0057897735909704685 0.0011027900436083172 0 0.0059903862025359163 0.0011594977959655307 0 0.0057897735909704685 0.0011027900436083172 0 0.0057183821456223034 0.0012156912411443895 0 0.0059903862025359163 0.0011594977959655307 0 0.0059136417384131638 0.001350605538648898 0 0.0057183821456223034 0.0012156912411443895 0 0.0059302098569296319 -0.00060787346757077202 0 0.0058535426164623731 -0.0006312400655831249 0 0.0058952278944895287 -0.00062309212364454556 0 0.0059201955523314233 -0.00056649516199698134 0 0.0059122749822098008 -0.00060427832522822638 0 0.0058952278944895287 -0.00062309212364454556 0 0.0059128388523989181 -0.00062892468016967872 0 0.0059618464086445633 -0.00059963610420532434 0 0.0059533088504399598 -0.00063763721395256219 0 0.0059128388523989181 -0.00062892468016967872 0 0.0059618464086445633 -0.00059963610420532434 0 0.0059201955523314233 -0.00056649516199698134 0 0.0059448298814467572 -0.00051474753519532032 0 0.0059237352123896816 -0.00056734901727681169 0 0.0058535426164623731 -0.0006312400655831249 0 0.0065058465578853872 8.7094344586079224e-05 0 0.0059533088504399598 -0.00063763721395256219 0 0.0059618464086445633 -0.00059963610420532434 0 0.0060972994847206799 -0.00060500303292173533 0 0.0059201955523314233 -0.00056649516199698134 0 0.0059448298814467572 -0.00051474753519532032 0 0.0059763732606067897 -0.00049941665358711133 0 0.0062678522956124277 0.00043759314307770367 0 0.0065058465578853872 8.7094344586079224e-05 0 0.0059763732606067897 -0.00049941665358711133 0 0.0060844586757961448 -0.00039182765103729572 0 0.0060019786737139638 -0.00042415853280811685 0 0.0065058465578853872 8.7094344586079224e-05 0 0.0070808848609072743 0.00074776786194417802 0 0.0059448298814467572 -0.00051474753519532032 0 0.0059763732606067897 -0.00049941665358711133 0 0.0060019786737139638 -0.00042415853280811685 0 0.0065058465578853872 8.7094344586079224e-05 0 0.0067766715278669799 -5.4173657401691675e-05 0 0.0065175349097881278 0.0013054617957477498 0 0.0066309634317088858 0.0011122073717514593 0 0.0066826949855906675 0.0010443262318944914 0 0.0063805973096392552 0.00095603029060410476 0 0.0062551601385010171 0.0011746323097451435 0 0.0066309634317088858 0.0011122073717514593 0 0.0062551601385010171 0.0011746323097451435 0 0.0065175349097881278 0.0013054617957477498 0 0.0066309634317088858 0.0011122073717514593 0 0.0064783928277160245 0.00075029346052332257 0 0.006668064851670809 0.001043526783590066 0 0.0066826949855906675 0.0010443262318944914 0 0.0064783928277160245 0.00075029346052332257 0 0.0073799983195383233 0.00050267702836312401 0 0.0070005729895706494 0.00044805408512606519 0 0.0064935774088106966 0.00079113329723077554 0 0.0070808848609072743 0.00074776786194417802 0 0.0067451576471462011 0.0010961025938531468 0 0.0066309634317088858 0.0011122073717514593 0 0.006668064851670809 0.001043526783590066 0 0.0066309634317088858 0.0011122073717514593 0 0.006668064851670809 0.001043526783590066 0 0.0066826949855906675 0.0010443262318944914 0 0.0067833625513312014 0.00033790789529898548 0 0.0070005729895706494 0.00044805408512606519 0 0.0073755763317143461 0.00022606377799158051 0 0.0080930887215087902 0.0003557387572232589 0 0.0073799983195383233 0.00050267702836312401 0 0.0073755763317143461 0.00022606377799158051 0 0.0073799983195383233 0.00050267702836312401 0 0.0070005729895706494 0.00044805408512606519 0 0.0073755763317143461 0.00022606377799158051 0 0.0060844586757961448 -0.00039182765103729572 0 0.0060815380697058167 -0.00032646677603500788 0 0.0060019786737139638 -0.00042415853280811685 0 0.0060844586757961448 -0.00039182765103729572 0 0.0060815380697058167 -0.00032646677603500788 0 0.0061666388948269932 -0.00021972427279743216 0 0.0060815380697058167 -0.00032646677603500788 0 0.0061666388948269932 -0.00021972427279743216 0 0.0060677452068587153 -0.00037085982917469252 0 0.0060677452068587153 -0.00037085982917469252 0 0.005948987834807253 -0.00049199596478685453 0 0.0060019786737139638 -0.00042415853280811685 0 0.0060815380697058167 -0.00032646677603500788 0 0.0060677452068587153 -0.00037085982917469252 0 0.0060019786737139638 -0.00042415853280811685 0 0.0059251479803352101 -0.00027281603132849898 0 0.0059129992134315974 -0.00052656455385724108 0 0.0057552457742704663 -0.00016138709603616497 0 0.0058898286018490356 -0.000567718141146062 0 0.0056040279809992819 -0.00063717059731862149 0 0.0060677452068587153 -0.00037085982917469252 0 0.0058898286018490356 -0.000567718141146062 0 0.005948987834807253 -0.00049199596478685453 0 0.0058898286018490356 -0.000567718141146062 0 0.005948987834807253 -0.00049199596478685453 0 0.0059156927526775394 -0.00060030877410176796 0 0.005948987834807253 -0.00049199596478685453 0 0.0059418593942810911 -0.00051630658970065323 0 0.0059156927526775394 -0.00060030877410176796 0 0.0059448298814467572 -0.00051474753519532032 0 0.0060019786737139638 -0.00042415853280811685 0 0.0059418593942810911 -0.00051630658970065323 0 0.005948987834807253 -0.00049199596478685453 0 0.0060019786737139638 -0.00042415853280811685 0 0.0059418593942810911 -0.00051630658970065323 0 0.0059448298814467572 -0.00051474753519532032 0 0.0059418593942810911 -0.00051630658970065323 0 0.0059237352123896816 -0.00056734901727681169 0 0.0059418593942810911 -0.00051630658970065323 0 0.0059237352123896816 -0.00056734901727681169 0 0.0059156927526775394 -0.00060030877410176796 0 0.0059122749822098008 -0.00060427832522822638 0 0.0059164901659170795 -0.00065825166816284059 0 0.0059103100393008458 -0.00065087665715607055 0 0.0059237352123896816 -0.00056734901727681169 0 0.0059122749822098008 -0.00060427832522822638 0 0.0059164901659170795 -0.00065825166816284059 0 0.0059201955523314233 -0.00056649516199698134 0 0.0059237352123896816 -0.00056734901727681169 0 0.0059122749822098008 -0.00060427832522822638 0 0.0058898286018490356 -0.000567718141146062 0 0.0059156927526775394 -0.00060030877410176796 0 0.0059005964601111394 -0.00077477031541663707 0 0.0059164901659170795 -0.00065825166816284059 0 0.0059156927526775394 -0.00060030877410176796 0 0.0059005964601111394 -0.00077477031541663707 0 0.0059237352123896816 -0.00056734901727681169 0 0.0059164901659170795 -0.00065825166816284059 0 0.0059156927526775394 -0.00060030877410176796 0 0.0059164901659170795 -0.00065825166816284059 0 0.0059005964601111394 -0.00077477031541663707 0 0.0059014983152333089 -0.00084521216464245833 0 0.0059164901659170795 -0.00065825166816284059 0 0.0059014983152333089 -0.00084521216464245833 0 0.0059232734759200861 -0.00075649036326595612 0 0.0059005964601111394 -0.00077477031541663707 0 0.0059014983152333089 -0.00084521216464245833 0 0.0058815507081502539 -0.0009822609726536629 0 0.0059014983152333089 -0.00084521216464245833 0 0.0058815507081502539 -0.0009822609726536629 0 0.0058792670426569106 -0.0010188957939546526 0 0.0059005964601111394 -0.00077477031541663707 0 0.0058815507081502539 -0.0009822609726536629 0 0.0058523649945131243 -0.00095839488704897637 0 0.0059005964601111394 -0.00077477031541663707 0 0.0058523649945131243 -0.00095839488704897637 0 0.005809392265258167 -0.00082205661813176587 0 0.0058523649945131243 -0.00095839488704897637 0 0.0056540886133432961 -0.0010940927239307125 0 0.005809392265258167 -0.00082205661813176587 0 0.0058898286018490356 -0.000567718141146062 0 0.005809392265258167 -0.00082205661813176587 0 0.0056040279809992819 -0.00063717059731862149 0 0.0056540886133432961 -0.0010940927239307125 0 0.005809392265258167 -0.00082205661813176587 0 0.0056040279809992819 -0.00063717059731862149 0 0.0058898286018490356 -0.000567718141146062 0 0.0059005964601111394 -0.00077477031541663707 0 0.005809392265258167 -0.00082205661813176587 0 -0.0089060745466468527 -0.0059188384491187743 0 -0.0085071360134276065 -0.007168338283303476 0 -0.011595134768577597 -0.0074352118866223629 0 -0.011428659983098744 -0.0075305068802762453 0 -0.011482158281648881 -0.0076668137820978715 0 -0.0089371841177008984 -0.0062909152640906385 0 -0.0089060745466468527 -0.0059188384491187743 0 -0.011569666692576209 -0.0072157021336419188 0 -0.011595134768577597 -0.0074352118866223629 0 -0.011439164101960032 -0.007372372882376594 0 -0.0060998183145477627 -0.0042990109258118046 0 -0.0061903834932650476 -0.004834732054672432 0 -0.0063586128581031897 -0.0044977928113721531 0 -0.0061903834932650476 -0.004834732054672432 0 -0.0064212344673971015 -0.0047300875882048728 0 -0.0063586128581031897 -0.0044977928113721531 0 -0.0064212344673971015 -0.0047300875882048728 0 -0.0066128582837997763 -0.0048500297809199637 0 -0.0066250560732736942 -0.0044613397565777023 0 -0.0064010161352985456 -0.0047105260505156633 0 -0.0065876231199547899 -0.0042453636152142782 0 -0.0064212344673971015 -0.0047300875882048728 0 -0.0063586128581031897 -0.0044977928113721531 0 -0.0065976194426653834 -0.0044477306139841192 0 -0.0082859269394776995 -0.0056152894938400547 0 -0.0085071360134276065 -0.007168338283303476 0 -0.0061903834932650476 -0.004834732054672432 0 -0.0066128582837997763 -0.0048500297809199637 0 -0.0063444267979515211 -0.0054512063369719444 0 -0.0061903834932650476 -0.004834732054672432 0 -0.0064212344673971015 -0.0047300875882048728 0 -0.0066128582837997763 -0.0048500297809199637 0 -0.0090048939679303417 -0.0063342662956397842 0 -0.0092350975129442993 -0.0073122839843692573 0 -0.008324124196165756 -0.0078360932893977667 0 -0.0018449068552523241 -0.0034853936868564812 0 -0.0020249347401489937 -0.0042107162216434603 0 0.0059268146941059427 -0.00070143561506800546 0 0.0059232734759200861 -0.00075649036326595612 0 0.0059509948145076283 -0.00084016603133509396 0 -0.0098223637932641789 -0.0063233726944135924 0 -0.0099226397436613673 -0.0078248747188557396 0 -0.0092350975129442993 -0.0073122839843692573 0 -0.0090048939679303417 -0.0063342662956397842 0 -0.0098223637932641789 -0.0063233726944135924 0 -0.0092350975129442993 -0.0073122839843692573 0 -0.0096878633485468647 -0.004821042421597135 0 -0.0090048939679303417 -0.0063342662956397842 0 -0.0098223637932641789 -0.0063233726944135924 0 -0.0031821844024081604 -0.0030213885518828752 0 -0.0018449068552523241 -0.0034853936868564812 0 -0.0068196442398884066 -0.0043171039390318229 0 -0.0066128582837997763 -0.0048500297809199637 0 -0.0066250560732736942 -0.0044613397565777023 0 0.0058742342158521624 -0.00063413882268605613 0 0.0059268146941059427 -0.00070143561506800546 0 0.0059103100393008458 -0.00065087665715607055 0 -0.0031821844024081604 -0.0030213885518828752 0 -0.0082859269394776995 -0.0056152894938400547 0 0.0058952278944895287 -0.00062309212364454556 0 0.0058742342158521624 -0.00063413882268605613 0 0.0059103100393008458 -0.00065087665715607055 0 0.0058952278944895287 -0.00062309212364454556 0 0.0059122749822098008 -0.00060427832522822638 0 0.0059103100393008458 -0.00065087665715607055 0 0.0059268146941059427 -0.00070143561506800546 0 0.0059103100393008458 -0.00065087665715607055 0 0.0059232734759200861 -0.00075649036326595612 0 0.0059164901659170795 -0.00065825166816284059 0 0.0059103100393008458 -0.00065087665715607055 0 0.0059232734759200861 -0.00075649036326595612 0 0.0059232734759200861 -0.00075649036326595612 0 0.0059210299622825006 -0.00088666467679277851 0 0.0059509948145076283 -0.00084016603133509396 0 0.0059014983152333089 -0.00084521216464245833 0 0.0059232734759200861 -0.00075649036326595612 0 0.0059210299622825006 -0.00088666467679277851 0 0.0058792670426569106 -0.0010188957939546526 0 0.0059210299622825006 -0.00088666467679277851 0 0.0058731376991503518 -0.0011540797140289828 0 0.0059014983152333089 -0.00084521216464245833 0 0.0058792670426569106 -0.0010188957939546526 0 0.0059210299622825006 -0.00088666467679277851 0 0.0059210299622825006 -0.00088666467679277851 0 0.0062335425746566928 -0.0010485540923452334 0 0.0058731376991503518 -0.0011540797140289828 0 0.0059937234145040798 -0.0012551846090015487 0 -0.0016149759865878874 -0.0057703418239659094 0 -0.0020249347401489937 -0.0042107162216434603 0 -0.0016149759865878874 -0.0057703418239659094 0 0.0059210299622825006 -0.00088666467679277851 0 0.0059509948145076283 -0.00084016603133509396 0 0.0058967892488215878 -0.0010001379638576919 0 -0.0099226397436613673 -0.0078248747188557396 0 -0.0092229453956809565 -0.0084403791645846198 0 -0.0099549110978504728 -0.0092367458980861534 0 -0.0092229453956809565 -0.0084403791645846198 0 -0.0091346118261779342 -0.0093423786317246103 0 -0.0099549110978504728 -0.0092367458980861534 0 -0.0099226397436613673 -0.0078248747188557396 0 -0.0092350975129442993 -0.0073122839843692573 0 -0.0092229453956809565 -0.0084403791645846198 0 -0.0092350975129442993 -0.0073122839843692573 0 -0.008324124196165756 -0.0078360932893977667 0 -0.0092229453956809565 -0.0084403791645846198 0 -0.008324124196165756 -0.0078360932893977667 0 -0.0092229453956809565 -0.0084403791645846198 0 -0.0087020241715974091 -0.0089402733639357048 0 -0.0085071360134276065 -0.007168338283303476 0 -0.0087091715816009184 -0.0090592635215670184 0 -0.0092229453956809565 -0.0084403791645846198 0 -0.0087020241715974091 -0.0089402733639357048 0 -0.0091346118261779342 -0.0093423786317246103 0 -0.0085067099029862599 -0.008072477171935313 0 -0.0087020241715974091 -0.0089402733639357048 0 -0.007828944169083276 -0.0095008190110940985 0 -0.011635586282802375 -0.0076750665357450476 0 -0.011489639689819109 -0.0079591436676461937 0 -0.011482158281648881 -0.0076668137820978715 0 -0.0085071360134276065 -0.007168338283303476 0 -0.010162058104875284 -0.0096324838894786408 0 -0.011595134768577597 -0.0074352118866223629 0 -0.011635586282802375 -0.0076750665357450476 0 -0.011482158281648881 -0.0076668137820978715 0 -0.0095229989971347771 -0.010631780358679834 0 -0.0096175064985792418 -0.011211335437684255 0 -0.0091594917527695816 -0.010438821479765591 0 -0.010162058104875284 -0.0096324838894786408 0 -0.0086652241672927465 -0.010599808193188346 0 -0.0095229989971347771 -0.010631780358679834 0 -0.0091594917527695816 -0.010438821479765591 0 -0.0093280535633988824 -0.01046489683366315 0 -0.0095229989971347771 -0.010631780358679834 0 -0.0096175064985792418 -0.011211335437684255 0 -0.0098540482352358263 -0.010829183565710224 0 -0.0087020241715974091 -0.0089402733639357048 0 -0.007828944169083276 -0.0095008190110940985 0 -0.0088060625701294921 -0.0098193846568296102 0 -0.007828944169083276 -0.0095008190110940985 0 -0.0088060625701294921 -0.0098193846568296102 0 -0.0091594917527695816 -0.010438821479765591 0 -0.0088060625701294921 -0.0098193846568296102 0 -0.0091346118261779342 -0.0093423786317246103 0 -0.0090935169506996469 -0.010370337528251037 0 -0.0087020241715974091 -0.0089402733639357048 0 -0.0088060625701294921 -0.0098193846568296102 0 -0.0091346118261779342 -0.0093423786317246103 0 -0.0093931981335480738 -0.011251590108367963 0 -0.0089580610980612534 -0.010569835093196308 0 -0.0091594917527695816 -0.010438821479765591 0 -0.0090935169506996469 -0.010370337528251037 0 -0.0093280535633988824 -0.01046489683366315 0 -0.0088060625701294921 -0.0098193846568296102 0 -0.0091594917527695816 -0.010438821479765591 0 -0.0090935169506996469 -0.010370337528251037 0 -0.0080651725682668509 -0.011293446685406607 0 -0.0079558608266659531 -0.011014670542161971 0 -0.0082211441854875989 -0.010883325232230458 0 -0.0080651725682668509 -0.011293446685406607 0 -0.0076135134234374931 -0.011084592531276605 0 -0.0075923668287401153 -0.011680343013282362 0 -0.0080651725682668509 -0.011293446685406607 0 -0.0079558608266659531 -0.011014670542161971 0 -0.0076135134234374931 -0.011084592531276605 0 0.0062846039836025706 -0.0027122584853170985 0 0.0062335425746566928 -0.0010485540923452334 0 0.0057943225466091678 -0.0019220794108323668 0 -0.0093931981335480738 -0.011251590108367963 0 -0.0016149759865878874 -0.0057703418239659094 0 -0.0091346118261779342 -0.0093423786317246103 0 -0.0090935169506996469 -0.010370337528251037 0 -0.0099549110978504728 -0.0092367458980861534 0 -0.00071162944594646809 -0.0071488011945468168 0 -0.0016149759865878874 -0.0057703418239659094 0 0.0058792670426569106 -0.0010188957939546526 0 0.0058731376991503518 -0.0011540797140289828 0 0.0058946194121556397 -0.0010928759860455951 0 0.0062335425746566928 -0.0010485540923452334 0 0.0058731376991503518 -0.0011540797140289828 0 0.0057943225466091678 -0.0019220794108323668 0 0.0058731376991503518 -0.0011540797140289828 0 0.0057943225466091678 -0.0019220794108323668 0 0.0049898050701328014 -0.0020060993850091594 0 0.0058171653161525538 -0.0011911409720230333 0 0.0054412254318341978 -0.0015545803537932684 0 0.0057943225466091678 -0.0019220794108323668 0 0.0053655648377795824 -0.0027364283631498604 0 0.0049898050701328014 -0.0020060993850091594 0 0.0062846039836025706 -0.0027122584853170985 0 0.0057943225466091678 -0.0019220794108323668 0 0.0053655648377795824 -0.0027364283631498604 0 0.0062846039836025706 -0.0027122584853170985 0 0.0053655648377795824 -0.0027364283631498604 0 0.0052156827312441279 -0.0036696621857048224 0 0.0062846039836025706 -0.0027122584853170985 0 0.0052156827312441279 -0.0036696621857048224 0 0.006196352208961628 -0.0045021372781127774 0 0.0056206966316796267 -0.0039879826635338721 0 0.005645023087638321 -0.0039772301616715824 0 0.0056018359352012518 -0.0039903622209584233 0 0.0056206966316796267 -0.0039879826635338721 0 0.0055641372706377763 -0.0040121880503394087 0 0.0056018359352012518 -0.0039903622209584233 0 0.0059055371306202913 -0.003970670391202624 0 0.00064237182164942426 -0.0067610154336788632 0 -0.0075053648448560285 -0.010194379973862929 0 -0.0075601299328860875 -0.010145361993864755 0 -0.0077496599175409814 -0.010406646470174193 0 0.00064237182164942426 -0.0067610154336788632 0 -0.00012821889780265948 -0.0065935233274983188 0 -0.0075601299328860875 -0.010145361993864755 0 -0.0079085297787735084 -0.010063525749604351 0 -0.0079352548696019366 -0.0096848772671105209 0 -0.0079085297787735084 -0.010063525749604351 0 -0.0077496599175409814 -0.010406646470174193 0 -0.008078853916548126 -0.010319647226564119 0 -0.0075601299328860875 -0.010145361993864755 0 -0.0079085297787735084 -0.010063525749604351 0 -0.0077496599175409814 -0.010406646470174193 0 -0.0077496599175409814 -0.010406646470174193 0 -0.0079955053695500537 -0.010706260042824163 0 -0.008078853916548126 -0.010319647226564119 0 -0.00071162944594646809 -0.0071488011945468168 0 0.00064237182164942426 -0.0067610154336788632 0 -0.0076135134234374931 -0.011084592531276605 0 -0.0077496599175409814 -0.010406646470174193 0 -0.0079955053695500537 -0.010706260042824163 0 -0.0076135134234374931 -0.011084592531276605 0 -0.0075053648448560285 -0.010194379973862929 0 -0.0077496599175409814 -0.010406646470174193 0 -0.0079558608266659531 -0.011014670542161971 0 -0.0076135134234374931 -0.011084592531276605 0 -0.0079955053695500537 -0.010706260042824163 0 -0.0080651725682668509 -0.011293446685406607 0 -0.0082211441854875989 -0.010883325232230458 0 -0.0087683465158076204 -0.010789774426241367 0 -0.0079558608266659531 -0.011014670542161971 0 -0.0079955053695500537 -0.010706260042824163 0 -0.0082211441854875989 -0.010883325232230458 0 -0.0082211441854875989 -0.010883325232230458 0 -0.0083245359116555524 -0.010556533986698832 0 -0.0087683465158076204 -0.010789774426241367 0 -0.0079955053695500537 -0.010706260042824163 0 -0.0082211441854875989 -0.010883325232230458 0 -0.0083245359116555524 -0.010556533986698832 0 -0.0079955053695500537 -0.010706260042824163 0 -0.0083245359116555524 -0.010556533986698832 0 -0.008078853916548126 -0.010319647226564119 0 -0.0083245359116555524 -0.010556533986698832 0 -0.0084977487246382585 -0.010046113230889494 0 -0.0087683465158076204 -0.010789774426241367 0 -0.0083245359116555524 -0.010556533986698832 0 -0.008078853916548126 -0.010319647226564119 0 -0.0084977487246382585 -0.010046113230889494 0 -0.0079085297787735084 -0.010063525749604351 0 -0.0084977487246382585 -0.010046113230889494 0 -0.0079352548696019366 -0.0096848772671105209 0 -0.0079085297787735084 -0.010063525749604351 0 -0.008078853916548126 -0.010319647226564119 0 -0.0084977487246382585 -0.010046113230889494 0 -0.0089580610980612534 -0.010569835093196308 0 -0.0095992071217236141 -0.010080530851248418 0 -0.0084977487246382585 -0.010046113230889494 0 -0.0087683465158076204 -0.010789774426241367 0 -0.0096130329920531572 -0.010060369006654185 0 -0.0093280535633988824 -0.01046489683366315 0 -0.0097014291508207007 -0.010502947198232668 0 -0.0096130329920531572 -0.010060369006654185 0 -0.0095229989971347771 -0.010631780358679834 0 -0.0093280535633988824 -0.01046489683366315 0 -0.0097014291508207007 -0.010502947198232668 0 0.0053882265299554253 -0.0019304377060625944 0 0.0062460678471874496 -0.0016331325711943985 0 0.0061399316787565487 -0.0023181014111443702 0 0.0056540886133432961 -0.0010940927239307125 0 0.0053882265299554253 -0.0019304377060625944 0 0.0062460678471874496 -0.0016331325711943985 0 0.0056379893594927909 -0.0011202162565498021 0 0.0061253922635942388 -0.0012591899159765658 0 0.0058523649945131243 -0.00095839488704897637 0 0.0056540886133432961 -0.0010940927239307125 0 0.0058057064474111558 -0.0010810025708725926 0 0.0058815507081502539 -0.0009822609726536629 0 0.0058523649945131243 -0.00095839488704897637 0 0.0058636150749178991 -0.0010538283736974379 0 0.0058523649945131243 -0.00095839488704897637 0 0.0058057064474111558 -0.0010810025708725926 0 0.0058636150749178991 -0.0010538283736974379 0 0.0058815507081502539 -0.0009822609726536629 0 0.0058636150749178991 -0.0010538283736974379 0 0.0058946194121556397 -0.0010928759860455951 0 0.0058815507081502539 -0.0009822609726536629 0 0.0058792670426569106 -0.0010188957939546526 0 0.0058946194121556397 -0.0010928759860455951 0 0.0053655648377795824 -0.0027364283631498604 0 0.0049898050701328014 -0.0020060993850091594 0 0.0042136119999757419 -0.002857813967454239 0 0.0058636150749178991 -0.0010538283736974379 0 0.0058946194121556397 -0.0010928759860455951 0 0.0058728709892711031 -0.0011306504101038569 0 0.0054412254318341978 -0.0015545803537932684 0 0.0057116017205735732 -0.0025108685636523434 0 0.0062460678471874496 -0.0016331325711943985 0 0.0070711018029182594 -0.002270974311311973 0 0.0061399316787565487 -0.0023181014111443702 0 0.0061253922635942388 -0.0012591899159765658 0 0.0057116017205735732 -0.0025108685636523434 0 0.0058057064474111558 -0.0010810025708725926 0 0.0058636150749178991 -0.0010538283736974379 0 0.0058728709892711031 -0.0011306504101038569 0 0.0056404346948230304 -0.0039708552694318255 0 0.0056552452736832008 -0.0039352337352219768 0 0.0056385895714391862 -0.0039607482259436406 0 0.0070711018029182594 -0.002270974311311973 0 0.0064944070668069261 -0.0029456836306521413 0 0.0061399316787565487 -0.0023181014111443702 0 0.0057116017205735732 -0.0025108685636523434 0 0.0060967394377122626 -0.0034854508977452538 0 0.0059055371306202913 -0.003970670391202624 0 0.0057116017205735732 -0.0025108685636523434 0 0.0056206966316796267 -0.0039879826635338721 0 0.0056404346948230304 -0.0039708552694318255 0 0.0056385895714391862 -0.0039607482259436406 0 0.0053655648377795824 -0.0027364283631498604 0 0.0052156827312441279 -0.0036696621857048224 0 0.0042136119999757419 -0.002857813967454239 0 0.0056385895714391862 -0.0039607482259436406 0 0.005645023087638321 -0.0039772301616715824 0 0.0056480218016665227 -0.0039153092853307812 0 0.0056206966316796267 -0.0039879826635338721 0 0.0056385895714391862 -0.0039607482259436406 0 0.005645023087638321 -0.0039772301616715824 0 0.0056552452736832008 -0.0039352337352219768 0 0.0056385895714391862 -0.0039607482259436406 0 0.0056480218016665227 -0.0039153092853307812 0 0.0064944070668069261 -0.0029456836306521413 0 0.0056342893910067936 -0.0037524375824761315 0 0.0056018097394700782 -0.0029068076197171365 0 0.0056552452736832008 -0.0039352337352219768 0 0.0056480218016665227 -0.0039153092853307812 0 0.0056342893910067936 -0.0037524375824761315 0 0.0060967394377122626 -0.0034854508977452538 0 0.0056774931873433713 -0.0037357555030158125 0 0.0064944070668069261 -0.0029456836306521413 0 0.0061399316787565487 -0.0023181014111443702 0 0.0056018097394700782 -0.0029068076197171365 0 0.0053882265299554253 -0.0019304377060625944 0 0.0061399316787565487 -0.0023181014111443702 0 0.0056018097394700782 -0.0029068076197171365 0 0.0053882265299554253 -0.0019304377060625944 0 0.0056018097394700782 -0.0029068076197171365 0 0.0046858607850575572 -0.0031167547186701471 0 0.0056342893910067936 -0.0037524375824761315 0 0.0056018097394700782 -0.0029068076197171365 0 0.0051073792276801321 -0.0035010842065198344 0 0.0056018097394700782 -0.0029068076197171365 0 0.0051073792276801321 -0.0035010842065198344 0 0.0046858607850575572 -0.0031167547186701471 0 0.0051073792276801321 -0.0035010842065198344 0 0.0046858607850575572 -0.0031167547186701471 0 0.0046628077269828243 -0.0037630847783897093 0 0.0052873805892159412 -0.0023683290431295518 0 0.0049948805227977037 -0.0025698614907179351 0 0.0051289820688280585 -0.0029661934897397854 0 0.0049986279120228473 -0.0027393876349295861 0 0.0047584201772066723 -0.0034836613646852242 0 0.0049948805227977037 -0.0025698614907179351 0 0.0050361819485169419 -0.0022155165376156511 0 0.0046715643441458355 -0.0024704099680708329 0 0.0052873805892159412 -0.0023683290431295518 0 0.0049948805227977037 -0.0025698614907179351 0 0.0050361819485169419 -0.0022155165376156511 0 0.0050361819485169419 -0.0022155165376156511 0 0.0050172417755591885 -0.0018947221893858277 0 0.0046561213746137359 -0.0020847555483181472 0 0.0053882265299554253 -0.0019304377060625944 0 0.0052873805892159412 -0.0023683290431295518 0 0.0050361819485169419 -0.0022155165376156511 0 0.0053557669837857261 -0.0019826192061551421 0 0.0049986279120228473 -0.0027393876349295861 0 0.0053882265299554253 -0.0019304377060625944 0 0.0050172417755591885 -0.0018947221893858277 0 0.0051619812411617394 -0.0015330041825278617 0 0.0053882265299554253 -0.0019304377060625944 0 0.0050361819485169419 -0.0022155165376156511 0 0.0050172417755591885 -0.0018947221893858277 0 0.0050172417755591885 -0.0018947221893858277 0 0.0051619812411617394 -0.0015330041825278617 0 0.0047277366029880395 -0.0017109002020698288 0 0.0051619812411617394 -0.0015330041825278617 0 0.0048496377634960576 -0.0013278295238219611 0 0.0047277366029880395 -0.0017109002020698288 0 0.0051619812411617394 -0.0015330041825278617 0 0.0048496377634960576 -0.0013278295238219611 0 0.0052471907039716662 -0.0010159232839919154 0 0.0056540886133432961 -0.0010940927239307125 0 0.0053882265299554253 -0.0019304377060625944 0 0.0051619812411617394 -0.0015330041825278617 0 0.0044952955475201593 -0.0014568951900690941 0 0.0043740611403999116 -0.0018392808514444544 0 0.004138524570228271 -0.0015595273175014008 0 0.0044952955475201593 -0.0014568951900690941 0 0.004138524570228271 -0.0015595273175014008 0 0.0041971145042236256 -0.001216242655724626 0 0.0044952955475201593 -0.0014568951900690941 0 0.0048496377634960576 -0.0013278295238219611 0 0.0047277366029880395 -0.0017109002020698288 0 0.0050172417755591885 -0.0018947221893858277 0 0.0047277366029880395 -0.0017109002020698288 0 0.0046561213746137359 -0.0020847555483181472 0 0.0047277366029880395 -0.0017109002020698288 0 0.0043740611403999116 -0.0018392808514444544 0 0.0046561213746137359 -0.0020847555483181472 0 0.0044952955475201593 -0.0014568951900690941 0 0.0047277366029880395 -0.0017109002020698288 0 0.0043740611403999116 -0.0018392808514444544 0 0.0043740611403999116 -0.0018392808514444544 0 0.0046561213746137359 -0.0020847555483181472 0 0.0040541715871006776 -0.002400060846331317 0 0.0046561213746137359 -0.0020847555483181472 0 0.0046715643441458355 -0.0024704099680708329 0 0.0040541715871006776 -0.002400060846331317 0 0.0050361819485169419 -0.0022155165376156511 0 0.0046561213746137359 -0.0020847555483181472 0 0.0046715643441458355 -0.0024704099680708329 0 0.0049948805227977037 -0.0025698614907179351 0 0.0046715643441458355 -0.0024704099680708329 0 0.0048321197631051417 -0.0028294988830043651 0 0.0046715643441458355 -0.0024704099680708329 0 0.0040541715871006776 -0.002400060846331317 0 0.0042208418684625626 -0.0029769331791649842 0 0.0054482586618695619 -0.0034533126584666723 0 0.005552816028441509 -0.0039244812005196448 0 0.0068200146450696506 -0.004512280439015923 0 0.0065106056639798945 -0.0046736058407810307 0 0.0067061588379013623 -0.0048209646622797715 0 0.0068200146450696506 -0.004512280439015923 0 0.0065106056639798945 -0.0046736058407810307 0 0.0065331922063235062 -0.0043780925731781743 0 0.0068200146450696506 -0.004512280439015923 0 0.0065331922063235062 -0.0043780925731781743 0 0.0067112480338626501 -0.0041895366520308657 0 0.0043740611403999116 -0.0018392808514444544 0 0.0040541715871006776 -0.002400060846331317 0 0.0038809217304309677 -0.0018466432185307237 0 0.0054482586618695619 -0.0034533126584666723 0 0.0052118850566577613 -0.0030436742360024269 0 0.0062398702494258851 -0.0046346488653510815 0 0.0065106056639798945 -0.0046736058407810307 0 0.0063395929683006218 -0.0044421868910575462 0 0.0062398702494258851 -0.0046346488653510815 0 0.0063395929683006218 -0.0044421868910575462 0 0.0062018612679641712 -0.004475101873509863 0 0.0065106056639798945 -0.0046736058407810307 0 0.0065331922063235062 -0.0043780925731781743 0 0.0063395929683006218 -0.0044421868910575462 0 0.0065331922063235062 -0.0043780925731781743 0 0.0063395929683006218 -0.0044421868910575462 0 0.0063568830320791516 -0.0042932778112298557 0 0.0063395929683006218 -0.0044421868910575462 0 0.0063568830320791516 -0.0042932778112298557 0 0.0062254049593594976 -0.0043054729778252915 0 0.0063395929683006218 -0.0044421868910575462 0 0.0062254049593594976 -0.0043054729778252915 0 0.0062018612679641712 -0.004475101873509863 0 0.0060913711546936207 -0.0040134827681445988 0 0.0065329864425527186 -0.0040805390306288278 0 0.0061016290707323782 -0.0038815162351065052 0 0.0061097575605720857 -0.0038260901988733755 0 0.0060990689931525897 -0.0038390091816323376 0 0.0063568830320791516 -0.0042932778112298557 0 0.0062218509053958383 -0.0041559434964253336 0 0.0064621674466327425 -0.0041879168632484561 0 0.0061016290707323782 -0.0038815162351065052 0 0.0060990689931525897 -0.0038390091816323376 0 0.0060750797381341707 -0.0038518216456447296 0 0.0063568830320791516 -0.0042932778112298557 0 0.0062254049593594976 -0.0043054729778252915 0 0.0062218509053958383 -0.0041559434964253336 0 0.0065331922063235062 -0.0043780925731781743 0 0.0063568830320791516 -0.0042932778112298557 0 0.0064621674466327425 -0.0041879168632484561 0 0.0061095532878763809 -0.0038136758283932024 0 0.0060990689931525897 -0.0038390091816323376 0 0.0061077944199281675 -0.0037977227643827805 0 0.0061097575605720857 -0.0038260901988733755 0 0.0061095532878763809 -0.0038136758283932024 0 0.0060990689931525897 -0.0038390091816323376 0 0.0061095532878763809 -0.0038136758283932024 0 0.0061071002476775892 -0.0037950734871127338 0 0.0061077944199281675 -0.0037977227643827805 0 0.0060990689931525897 -0.0038390091816323376 0 0.0061077944199281675 -0.0037977227643827805 0 0.0060688912520386121 -0.0037885472466747581 0 0.0063254190799042547 -0.0041444072085376421 0 0.0064411875198664469 -0.0020746544703253967 0 0.0060990689931525897 -0.0038390091816323376 0 0.0060579248169571323 -0.003831070855825151 0 0.0060750797381341707 -0.0038518216456447296 0 0.0038057665458951272 -0.0016235017682404553 0 0.0052118850566577613 -0.0030436742360024269 0 0.0043740611403999116 -0.0018392808514444544 0 0.0038952313139205669 -0.001819682328175224 0 0.004138524570228271 -0.0015595273175014008 0 0.0065329864425527186 -0.0040805390306288278 0 0.0052118850566577613 -0.0030436742360024269 0 0.0065331922063235062 -0.0043780925731781743 0 0.0064621674466327425 -0.0041879168632484561 0 0.0067112480338626501 -0.0041895366520308657 0 0.0061097575605720857 -0.0038260901988733755 0 0.0061095532878763809 -0.0038136758283932024 0 0.0061047189165352664 -0.0038078356755634492 0 0.0061095532878763809 -0.0038136758283932024 0 0.0061047189165352664 -0.0038078356755634492 0 0.0061071002476775892 -0.0037950734871127338 0 0.0038952313139205669 -0.001819682328175224 0 0.004138524570228271 -0.0015595273175014008 0 0.003702106541940137 -0.0012547414199912319 0 0.0052118850566577613 -0.0030436742360024269 0 0.0049329980951148024 -0.0017046127762620643 0 0.004138524570228271 -0.0015595273175014008 0 0.0041971145042236256 -0.001216242655724626 0 0.003702106541940137 -0.0012547414199912319 0 0.0041971145042236256 -0.001216242655724626 0 0.0036954634477776643 -0.0012112241125692195 0 0.0039092748516086767 -0.00082220471570820547 0 0.0036763324475695279 -0.0011463430234297503 0 0.0049329980951148024 -0.0017046127762620643 0 0.0041971145042236256 -0.001216242655724626 0 0.0039092748516086767 -0.00082220471570820547 0 0.0042540530224508205 -0.0008762411219985863 0 0.0036954634477776643 -0.0012112241125692195 0 0.0039092748516086767 -0.00082220471570820547 0 0.0035853454524428061 -0.00087841831273023445 0 0.0049329980951148024 -0.0017046127762620643 0 0.0047715616148069993 -0.00014094402845224091 0 0.003683472389700293 -0.00065396676147666381 0 0.0034676273479718675 -0.00052235521404884501 0 0.0038194328009985051 -0.00045148688387786095 0 0.0039092748516086767 -0.00082220471570820547 0 0.0035846000305429352 -0.00086028597663657187 0 0.003683472389700293 -0.00065396676147666381 0 0.0034927061529317414 -0.00083461554593123363 0 0.0047715616148069993 -0.00014094402845224091 0 0.0039092748516086767 -0.00082220471570820547 0 0.003683472389700293 -0.00065396676147666381 0 0.0038194328009985051 -0.00045148688387786095 0 0.0039092748516086767 -0.00082220471570820547 0 0.0041481808981744892 -0.00061682550464268744 0 0.0038194328009985051 -0.00045148688387786095 0 0.0039092748516086767 -0.00082220471570820547 0 0.0041481808981744892 -0.00061682550464268744 0 0.0042540530224508205 -0.0008762411219985863 0 0.0062741625775773217 -0.00037550304110853206 0 0.0059543687198781014 -0.00019488348132417675 0 0.0065867756508905129 -0.00016943033189673558 0 0.0061496403784144608 -0.0019995598050805193 0 0.0064411875198664469 -0.0020746544703253967 0 0.0064803756328982026 -0.00051686076383567956 0 0.0065044928092819242 -0.00035207098513536435 0 0.0062741625775773217 -0.00037550304110853206 0 0.006705627105362961 0.001088452027609704 0 0.0065724865789872069 0.00018584894740986311 0 0.0065044928092819242 -0.00035207098513536435 0 0.0062741625775773217 -0.00037550304110853206 0 0.0065867756508905129 -0.00016943033189673558 0 0.0062741625775773217 -0.00037550304110853206 0 0.0059816074227644978 -0.000606974875074038 0 0.0059543687198781014 -0.00019488348132417675 0 0.0064803756328982026 -0.00051686076383567956 0 0.0062741625775773217 -0.00037550304110853206 0 0.0059816074227644978 -0.000606974875074038 0 0.006705627105362961 0.001088452027609704 0 0.0060108560590794655 0.00026450968907054337 0 0.0049329980951148024 -0.0017046127762620643 0 0.0061496403784144608 -0.0019995598050805193 0 0.0053166228165601312 -0.00022386088351791442 0 0.0059543687198781014 -0.00019488348132417675 0 0.0056836818630243173 -0.00042954571109332684 0 0.0059816074227644978 -0.000606974875074038 0 0.0059543687198781014 -0.00019488348132417675 0 0.0056836818630243173 -0.00042954571109332684 0 0.0054826541256929474 -0.00069239270907808174 0 0.0059816074227644978 -0.000606974875074038 0 0.0056836818630243173 -0.00042954571109332684 0 0.0053166228165601312 -0.00022386088351791442 0 0.0054826541256929474 -0.00069239270907808174 0 0.0056836818630243173 -0.00042954571109332684 0 0.0059477978135820172 0.0010694606152935673 0 0.0059594272043946251 0.0011041476280172287 0 0.0059421289778468049 0.0011443281601292582 0 0.0047715616148069993 -0.00014094402845224091 0 0.0060108560590794655 0.00026450968907054337 0 0.0059789687913076317 0.0010783292951908104 0 0.0059594272043946251 0.0011041476280172287 0 0.0059665177455214147 0.0011123196318902691 0 0.0047715616148069993 -0.00014094402845224091 0 0.0052843141878677596 0.0004710610785217195 0 0.0035846000305429352 -0.00086028597663657187 0 0.003683472389700293 -0.00065396676147666381 0 0.0034676273479718675 -0.00052235521404884501 0 0.0059594272043946251 0.0011041476280172287 0 0.0059421289778468049 0.0011443281601292582 0 0.0059669849666958256 0.0011363505122960243 0 0.0059498521814624642 0.0011722781105000326 0 0.0052843141878677596 0.0004710610785217195 0 0.0059594272043946251 0.0011041476280172287 0 0.0059669849666958256 0.0011363505122960243 0 0.0059894238555990185 0.0011354670881769371 0 0.0059789687913076317 0.0010783292951908104 0 0.0059477978135820172 0.0010694606152935673 0 0.0059594272043946251 0.0011041476280172287 0 0.006705627105362961 0.001088452027609704 0 0.0067357307681222755 0.0020338852337989152 0 0.005897157403712841 0.0010635761016826936 0 0.0059477978135820172 0.0010694606152935673 0 0.0059043092802396595 0.0011539869342653529 0 0.0059477978135820172 0.0010694606152935673 0 0.0059043092802396595 0.0011539869342653529 0 0.0059421289778468049 0.0011443281601292582 0 0.0059043092802396595 0.0011539869342653529 0 0.0059483842590419486 0.0011953508040494986 0 0.0059217426489037335 0.0012603931068195099 0 0.0075300064091880625 0.0025598078142372283 0 0.0074817572127316044 0.0022781550951519606 0 0.0077268516887210904 0.0024647533219329955 0 0.0067357307681222755 0.0020338852337989152 0 0.0066964525856118414 0.0017311960593519667 0 0.0059043092802396595 0.0011539869342653529 0 0.0059421289778468049 0.0011443281601292582 0 0.0059483842590419486 0.0011953508040494986 0 0.0059483842590419486 0.0011953508040494986 0 0.0059824961780178309 0.0011571612779792129 0 0.0059843546922401826 0.0012513442928465291 0 0.0059824961780178309 0.0011571612779792129 0 0.0059882527952489937 0.0011354495122235444 0 0.0060557216199380957 0.0012279507393653834 0 0.0059421289778468049 0.0011443281601292582 0 0.0059483842590419486 0.0011953508040494986 0 0.0059824961780178309 0.0011571612779792129 0 0.0059421289778468049 0.0011443281601292582 0 0.0059669849666958256 0.0011363505122960243 0 0.0059824961780178309 0.0011571612779792129 0 0.0053692953855539616 0.00074128733359648364 0 0.0052843141878677596 0.0004710610785217195 0 0.0059669849666958256 0.0011363505122960243 0 0.0059824961780178309 0.0011571612779792129 0 0.0059894238555990185 0.0011354670881769371 0 0.0059824961780178309 0.0011571612779792129 0 0.0059843546922401826 0.0012513442928465291 0 0.0060557216199380957 0.0012279507393653834 0 0.0059483842590419486 0.0011953508040494986 0 0.0059843546922401826 0.0012513442928465291 0 0.0059217426489037335 0.0012603931068195099 0 0.0041481808981744892 -0.00061682550464268744 0 0.0042402509505211567 -0.00029124843381643761 0 0.0038194328009985051 -0.00045148688387786095 0 0.0042402509505211567 -0.00029124843381643761 0 0.0038194328009985051 -0.00045148688387786095 0 0.0038276339436692976 -7.1233838340887122e-05 0 0.0052843141878677596 0.0004710610785217195 0 0.0048476407779112383 0.00051826252758188618 0 0.0034676273479718675 -0.00052235521404884501 0 0.0038194328009985051 -0.00045148688387786095 0 0.0038276339436692976 -7.1233838340887122e-05 0 0.0060401533361712041 0.0013171039303757365 0 0.0059843546922401826 0.0012513442928465291 0 0.0060557216199380957 0.0012279507393653834 0 0.0051755409867611651 0.00088786858325676579 0 0.0048476407779112383 0.00051826252758188618 0 0.0042049386769496934 0.00039205422715204947 0 0.0038276339436692976 -7.1233838340887122e-05 0 0.004236943489562146 4.555731900213555e-05 0 0.0042402509505211567 -0.00029124843381643761 0 0.0038276339436692976 -7.1233838340887122e-05 0 0.004236943489562146 4.555731900213555e-05 0 0.0044487597324599044 0.00025709801882885372 0 0.004236943489562146 4.555731900213555e-05 0 0.0045343946187142532 -5.570758279147582e-06 0 0.0042402509505211567 -0.00029124843381643761 0 0.004236943489562146 4.555731900213555e-05 0 0.0045343946187142532 -5.570758279147582e-06 0 0.0042402509505211567 -0.00029124843381643761 0 0.0045343946187142532 -5.570758279147582e-06 0 0.0046631099498761746 -0.00030264673057739367 0 0.0041481808981744892 -0.00061682550464268744 0 0.0042402509505211567 -0.00029124843381643761 0 0.0045207594903215898 -0.00064061493937212974 0 0.0042402509505211567 -0.00029124843381643761 0 0.0046631099498761746 -0.00030264673057739367 0 0.0045207594903215898 -0.00064061493937212974 0 0.0046631099498761746 -0.00030264673057739367 0 0.0051303074896850865 -0.00059358638122533429 0 0.0045207594903215898 -0.00064061493937212974 0 0.0050915334350112766 -0.00013323067601909522 0 0.0051507901980535958 -0.00056374499308597221 0 0.0046631099498761746 -0.00030264673057739367 0 0.0049408119377506192 -0.00011323421620226949 0 0.0051303074896850865 -0.00059358638122533429 0 0.0053834968838927062 0.00033790106552953405 0 0.0052235705277621511 -0.00012000003300162615 0 0.0054596450887579254 0.00012036627771406631 0 0.0047678503696939835 0.00036647067392267838 0 0.0045343946187142532 -5.570758279147582e-06 0 0.0049408119377506192 -0.00011323421620226949 0 0.0050846233842722372 0.00030785466932145149 0 0.0050915334350112766 -0.00013323067601909522 0 0.0045343946187142532 -5.570758279147582e-06 0 0.0046631099498761746 -0.00030264673057739367 0 0.0049408119377506192 -0.00011323421620226949 0 0.0052235705277621511 -0.00012000003300162615 0 0.0054596450887579254 0.00012036627771406631 0 0.0054706752432142468 -0.00020358089532572971 0 0.0054596450887579254 0.00012036627771406631 0 0.0054706752432142468 -0.00020358089532572971 0 0.0055680815790985537 5.2228610132896506e-05 0 0.0059428893047952227 0.00015397251303836141 0 0.0059251479803352101 -0.00027281603132849898 0 0.0057552457742704663 -0.00016138709603616497 0 0.0054706752432142468 -0.00020358089532572971 0 0.0055680815790985537 5.2228610132896506e-05 0 0.005628080735273472 0.00023749491966781067 0 0.0057552457742704663 -0.00016138709603616497 0 0.0055680815790985537 5.2228610132896506e-05 0 0.0062724019783863966 5.7299190558436382e-05 0 0.0061666388948269932 -0.00021972427279743216 0 0.0060677452068587153 -0.00037085982917469252 0 0.0057552457742704663 -0.00016138709603616497 0 0.0054706752432142468 -0.00020358089532572971 0 0.0056040279809992819 -0.00063717059731862149 0 0.0054706752432142468 -0.00020358089532572971 0 0.0051303074896850865 -0.00059358638122533429 0 0.0056040279809992819 -0.00063717059731862149 0 0.0052235705277621511 -0.00012000003300162615 0 0.0054706752432142468 -0.00020358089532572971 0 0.0051303074896850865 -0.00059358638122533429 0 0.0051303074896850865 -0.00059358638122533429 0 0.0052471907039716662 -0.0010159232839919154 0 0.004868954965843276 -0.00093780239092540007 0 0.0051303074896850865 -0.00059358638122533429 0 0.0056040279809992819 -0.00063717059731862149 0 0.0052471907039716662 -0.0010159232839919154 0 0.0056540886133432961 -0.0010940927239307125 0 0.0056040279809992819 -0.00063717059731862149 0 0.0052471907039716662 -0.0010159232839919154 0 0.0056540886133432961 -0.0010940927239307125 0 0.0051619812411617394 -0.0015330041825278617 0 0.0052471907039716662 -0.0010159232839919154 0 0.0048496377634960576 -0.0013278295238219611 0 0.0052471907039716662 -0.0010159232839919154 0 0.004868954965843276 -0.00093780239092540007 0 0.0048496377634960576 -0.0013278295238219611 0 0.004868954965843276 -0.00093780239092540007 0 0.0045441895169442284 -0.0010794325732085333 0 0.0044952955475201593 -0.0014568951900690941 0 0.0048496377634960576 -0.0013278295238219611 0 0.0045441895169442284 -0.0010794325732085333 0 0.0044952955475201593 -0.0014568951900690941 0 0.0041971145042236256 -0.001216242655724626 0 0.0045441895169442284 -0.0010794325732085333 0 0.0041971145042236256 -0.001216242655724626 0 0.0042540530224508205 -0.0008762411219985863 0 0.0045441895169442284 -0.0010794325732085333 0 0.0041481808981744892 -0.00061682550464268744 0 0.0042540530224508205 -0.0008762411219985863 0 0.0045207594903215898 -0.00064061493937212974 0 0.0042540530224508205 -0.0008762411219985863 0 0.0045441895169442284 -0.0010794325732085333 0 0.0045207594903215898 -0.00064061493937212974 0 0.004868954965843276 -0.00093780239092540007 0 0.0045441895169442284 -0.0010794325732085333 0 0.0045207594903215898 -0.00064061493937212974 0 0.0051303074896850865 -0.00059358638122533429 0 0.004868954965843276 -0.00093780239092540007 0 0.0045207594903215898 -0.00064061493937212974 0 -0.015595811055968035 -0.0029850838011261567 0 -0.015256097694074024 -0.0030804898137083542 0 -0.015364130257951582 -0.0025812275034549858 0 -0.015390666928761234 -0.0032190189595520421 0 -0.01555701378035618 -0.0032279424358355366 0 -0.015595811055968035 -0.0029850838011261567 0 -0.015390666928761234 -0.0032190189595520421 0 -0.015595811055968035 -0.0029850838011261567 0 -0.015256097694074024 -0.0030804898137083542 0 -0.01555701378035618 -0.0032279424358355366 0 -0.015595811055968035 -0.0029850838011261567 0 -0.015833318495373248 -0.0031952291348877433 0 -0.015753686050739749 -0.0029175529500599174 0 -0.01611459780558662 -0.0029688823344449734 0 -0.015595811055968035 -0.0029850838011261567 0 -0.015814648798963035 -0.0027614862966071681 0 -0.015607235724978144 -0.0026860699316570841 0 -0.015595811055968035 -0.0029850838011261567 0 -0.015752323578522628 -0.0031289583150064262 0 -0.015814648798963035 -0.0027614862966071681 0 -0.015256097694074024 -0.0030804898137083542 0 -0.015364130257951582 -0.0025812275034549858 0 -0.014999906558048214 -0.0027882520688142726 0 -0.015256097694074024 -0.0030804898137083542 0 -0.014999941666771226 -0.0036207061692921094 0 -0.014999906558048214 -0.0027882520688142726 0 -0.015256097694074024 -0.0030804898137083542 0 -0.014999941666771226 -0.0036207061692921094 0 -0.015211436993351611 -0.0035191267724491706 0 -0.015000052309993428 -0.0036208779042142228 0 -0.015539221962263072 -0.0037593177097308373 0 -0.014999941666771226 -0.0036207061692921094 0 -0.015211436993351611 -0.0035191267724491706 0 -0.015430197179878062 -0.0037013670913119017 0 -0.015390666928761234 -0.0032190189595520421 0 -0.015256097694074024 -0.0030804898137083542 0 -0.015211436993351611 -0.0035191267724491706 0 -0.015390666928761234 -0.0032190189595520421 0 -0.015211436993351611 -0.0035191267724491706 0 -0.015418160281432306 -0.0034027984381697247 0 -0.015211436993351611 -0.0035191267724491706 0 -0.015411532149857556 -0.0036059730041491933 0 -0.015418160281432306 -0.0034027984381697247 0 -0.015211436993351611 -0.0035191267724491706 0 -0.015411532149857556 -0.0036059730041491933 0 -0.015430197179878062 -0.0037013670913119017 0 -0.015503368301151588 -0.0036267237067574808 0 -0.015597664698943695 -0.0036623514100431439 0 -0.015430197179878062 -0.0037013670913119017 0 -0.015637678703175329 -0.003348461516953183 0 -0.015993171500132106 -0.003290615468968942 0 -0.015848801065748826 -0.0031574944081685535 0 -0.015411532149857556 -0.0036059730041491933 0 -0.015503368301151588 -0.0036267237067574808 0 -0.015430197179878062 -0.0037013670913119017 0 -0.015503368301151588 -0.0036267237067574808 0 -0.01551408307818217 -0.0035271300091850462 0 -0.015597664698943695 -0.0036623514100431439 0 -0.015411532149857556 -0.0036059730041491933 0 -0.015503368301151588 -0.0036267237067574808 0 -0.01551408307818217 -0.0035271300091850462 0 -0.015411532149857556 -0.0036059730041491933 0 -0.015418160281432306 -0.0034027984381697247 0 -0.01556414443573168 -0.0034683498566925714 0 -0.015462106729880576 -0.0035502660385499942 0 -0.015549942949997574 -0.0034634730519419389 0 -0.015492063271986318 -0.0034370604637012072 0 -0.015549942949997574 -0.0034634730519419389 0 -0.01555701378035618 -0.0032279424358355366 0 -0.015418160281432306 -0.0034027984381697247 0 -0.015549656579706432 -0.0034603523809542814 0 -0.015390666928761234 -0.0032190189595520421 0 -0.01555701378035618 -0.0032279424358355366 0 -0.015418160281432306 -0.0034027984381697247 0 -0.015549942949997574 -0.0034634730519419389 0 -0.01611459780558662 -0.0029688823344449734 0 -0.01555701378035618 -0.0032279424358355366 0 -0.015549656579706432 -0.0034603523809542814 0 -0.015833318495373248 -0.0031952291348877433 0 -0.015549942949997574 -0.0034634730519419389 0 -0.015652207285803348 -0.0038226575523177125 0 -0.01551408307818217 -0.0035271300091850462 0 -0.015597664698943695 -0.0036623514100431439 0 -0.015778393350661311 -0.0036541435204800153 0 -0.015637678703175329 -0.003348461516953183 0 -0.015949271075388415 -0.0034883743872771073 0 -0.015993171500132106 -0.003290615468968942 0 -0.016067406542207275 -0.0033502028542670027 0 -0.01605223788761458 -0.0034255895568655972 0 -0.015867658168148627 -0.0032641842573936943 0 -0.015652207285803348 -0.0038226575523177125 0 -0.016524228121131392 -0.0028772658312563818 0 -0.017194185969144411 -0.0026306583193598638 0 -0.017232308258213581 -0.0024659287109249531 0 -0.016811981063872685 -0.0024447814796612539 0 -0.016702201969435091 -0.0026508581267564789 0 -0.016524228121131392 -0.0028772658312563818 0 -0.017194185969144411 -0.0026306583193598638 0 -0.017227024535831133 -0.0024714325593093197 0 -0.017450875146705985 -0.0026748454358419774 0 -0.016524228121131392 -0.0028772658312563818 0 -0.01611459780558662 -0.0029688823344449734 0 -0.017232308258213581 -0.0024659287109249531 0 -0.016811981063872685 -0.0024447814796612539 0 -0.016521612159839775 -0.0017709066508654143 0 -0.016811981063872685 -0.0024447814796612539 0 -0.01630496794672134 -0.0021960041625272517 0 -0.016521612159839775 -0.0017709066508654143 0 -0.016524228121131392 -0.0028772658312563818 0 -0.015711051169419378 -0.0034002352120260813 0 -0.017194185969144411 -0.0026306583193598638 0 -0.016811981063872685 -0.0024447814796612539 0 -0.016724170044524131 -0.0027937518921459102 0 -0.016811981063872685 -0.0024447814796612539 0 -0.016366676160558837 -0.0026238390161905357 0 -0.01630496794672134 -0.0021960041625272517 0 -0.016811981063872685 -0.0024447814796612539 0 -0.016724170044524131 -0.0027937518921459102 0 -0.016366676160558837 -0.0026238390161905357 0 -0.016724170044524131 -0.0027937518921459102 0 -0.016896706534486768 -0.0031866863178874696 0 -0.016341159759951551 -0.0030857739429772891 0 -0.016724170044524131 -0.0027937518921459102 0 -0.016341159759951551 -0.0030857739429772891 0 -0.016366676160558837 -0.0026238390161905357 0 -0.01611459780558662 -0.0029688823344449734 0 -0.016666904072652918 -0.0029536369482250089 0 -0.017194185969144411 -0.0026306583193598638 0 -0.016724170044524131 -0.0027937518921459102 0 -0.016896706534486768 -0.0031866863178874696 0 -0.015752323578522628 -0.0031289583150064262 0 -0.015814648798963035 -0.0027614862966071681 0 -0.0161569772332 -0.002734719059680099 0 -0.017194185969144411 -0.0026306583193598638 0 -0.017450875146705985 -0.0026748454358419774 0 -0.016896706534486768 -0.0031866863178874696 0 -0.015814648798963035 -0.0027614862966071681 0 -0.016021488881274852 -0.00238850204268394 0 -0.015661243715314285 -0.0024146547812505604 0 -0.015814648798963035 -0.0027614862966071681 0 -0.016021488881274852 -0.00238850204268394 0 -0.0161569772332 -0.002734719059680099 0 -0.016896706534486768 -0.0031866863178874696 0 -0.016323208900852475 -0.0037057641393848711 0 -0.016341159759951551 -0.0030857739429772891 0 -0.016666904072652918 -0.0029536369482250089 0 -0.015773278302109905 -0.0024357646911217492 0 -0.016021488881274852 -0.00238850204268394 0 -0.0161569772332 -0.002734719059680099 0 -0.016637694149088448 -0.0022959899600141368 0 -0.01550945514571085 -0.0017209696441426671 0 -0.015363919651799224 -0.0018393837368375317 0 -0.015327054936548781 -0.0016659771445200976 0 -0.016021488881274852 -0.00238850204268394 0 -0.016207024832281567 -0.0020656418234951172 0 -0.016637694149088448 -0.0022959899600141368 0 -0.015840739519095041 -0.001906783753129341 0 -0.015773278302109905 -0.0024357646911217492 0 -0.01550945514571085 -0.0017209696441426671 0 -0.015527920671117265 -0.0017720983969212866 0 -0.015363919651799224 -0.0018393837368375317 0 -0.016021488881274852 -0.00238850204268394 0 -0.016207024832281567 -0.0020656418234951172 0 -0.015659765555246362 -0.0018273009321259118 0 -0.016021488881274852 -0.00238850204268394 0 -0.015659765555246362 -0.0018273009321259118 0 -0.015661243715314285 -0.0024146547812505604 0 -0.015840739519095041 -0.001906783753129341 0 -0.015690509619013169 -0.0018314231382762951 0 -0.01550945514571085 -0.0017209696441426671 0 -0.015659765555246362 -0.0018273009321259118 0 -0.015527920671117265 -0.0017720983969212866 0 -0.015659765555246362 -0.0018273009321259118 0 -0.015417384633648343 -0.0020566411437283488 0 -0.015661243715314285 -0.0024146547812505604 0 -0.015417384633648343 -0.0020566411437283488 0 -0.015661243715314285 -0.0024146547812505604 0 -0.015364130257951582 -0.0025812275034549858 0 -0.015595811055968035 -0.0029850838011261567 0 -0.015364130257951582 -0.0025812275034549858 0 -0.015607235724978144 -0.0026860699316570841 0 -0.015814648798963035 -0.0027614862966071681 0 -0.015661243715314285 -0.0024146547812505604 0 -0.015607235724978144 -0.0026860699316570841 0 -0.015661243715314285 -0.0024146547812505604 0 -0.015364130257951582 -0.0025812275034549858 0 -0.015607235724978144 -0.0026860699316570841 0 -0.015364130257951582 -0.0025812275034549858 0 -0.014999906558048214 -0.0027882520688142726 0 -0.01499991103377645 -0.0019556977458046877 0 -0.015417384633648343 -0.0020566411437283488 0 -0.015364130257951582 -0.0025812275034549858 0 -0.01499991103377645 -0.0019556977458046877 0 -0.015417384633648343 -0.0020566411437283488 0 -0.01499991103377645 -0.0019556977458046877 0 -0.015380188173662435 -0.0015950928725684485 0 -0.01499991103377645 -0.0019556977458046877 0 -0.015380188173662435 -0.0015950928725684485 0 -0.014999890212938172 -0.001123397045562679 0 -0.015659765555246362 -0.0018273009321259118 0 -0.015380188173662435 -0.0015950928725684485 0 -0.015534382948401539 -0.0015116275293579856 0 -0.015659765555246362 -0.0018273009321259118 0 -0.015417384633648343 -0.0020566411437283488 0 -0.015380188173662435 -0.0015950928725684485 0 -0.015380188173662435 -0.0015950928725684485 0 -0.015361090279312492 -0.0011897915295088041 0 -0.015534382948401539 -0.0015116275293579856 0 -0.015380188173662435 -0.0015950928725684485 0 -0.015361090279312492 -0.0011897915295088041 0 -0.014999890212938172 -0.001123397045562679 0 -0.015361090279312492 -0.0011897915295088041 0 -0.015442765041991774 -0.0009302091754974114 0 -0.014999965248953492 -0.00029140365823580183 0 -0.015361090279312492 -0.0011897915295088041 0 -0.014999890212938172 -0.001123397045562679 0 -0.014999965248953492 -0.00029140365823580183 0 -0.015361090279312492 -0.0011897915295088041 0 -0.015442765041991774 -0.0009302091754974114 0 -0.015534382948401539 -0.0015116275293579856 0 -0.015376083497801167 0.00020647921710242268 0 -0.015527952038937897 -8.2578933894150185e-05 0 -0.015786222992205799 0.0002396265665576188 0 -0.015376083497801167 0.00020647921710242268 0 -0.015527952038937897 -8.2578933894150185e-05 0 -0.014999986043094365 -0.00029013146738897773 0 -0.015420754542540159 -0.00050115564414557334 0 -0.014999977108290154 -0.00029069221397126855 0 -0.015981975903343295 0.00055369148570451245 0 -0.015786222992205799 0.0002396265665576188 0 -0.016251084772392069 0.00015421476332451965 0 -0.015786222992205799 0.0002396265665576188 0 -0.015985955576884359 -7.501886300833086e-05 0 -0.016251084772392069 0.00015421476332451965 0 -0.016008521150101207 0.00051627444513124886 0 -0.016069554202692609 0.00048478382149210326 0 -0.015527952038937897 -8.2578933894150185e-05 0 -0.015786222992205799 0.0002396265665576188 0 -0.015985955576884359 -7.501886300833086e-05 0 -0.015420754542540159 -0.00050115564414557334 0 -0.015799368832955782 -0.00077082523284922563 0 -0.015442765041991774 -0.0009302091754974114 0 -0.015531143000667234 -0.0014393121714265209 0 -0.015534382948401539 -0.0015116275293579856 0 -0.015799368832955782 -0.00077082523284922563 0 -0.015657226101414227 -0.00077325091218487566 0 -0.015985955576884359 -7.501886300833086e-05 0 -0.016468706349619801 -0.00015677874425360343 0 -0.016251084772392069 0.00015421476332451965 0 -0.015531143000667234 -0.0014393121714265209 0 -0.015458254232709382 -0.0017245762182169727 0 -0.015397088952440676 -0.0017340632666302622 0 -0.015458254232709382 -0.0017245762182169727 0 -0.015534382948401539 -0.0015116275293579856 0 -0.015527920671117265 -0.0017720983969212866 0 -0.015531143000667234 -0.0014393121714265209 0 -0.015458254232709382 -0.0017245762182169727 0 -0.015534382948401539 -0.0015116275293579856 0 -0.015659765555246362 -0.0018273009321259118 0 -0.015534382948401539 -0.0015116275293579856 0 -0.015527920671117265 -0.0017720983969212866 0 -0.015458254232709382 -0.0017245762182169727 0 -0.015527920671117265 -0.0017720983969212866 0 -0.015363919651799224 -0.0018393837368375317 0 -0.015458254232709382 -0.0017245762182169727 0 -0.015363919651799224 -0.0018393837368375317 0 -0.015266437343031316 -0.0018639843336701383 0 -0.015363919651799224 -0.0018393837368375317 0 -0.015266437343031316 -0.0018639843336701383 0 -0.015082221907880649 -0.0019857861956285613 0 -0.015148683940857419 -0.0019625892297642426 0 -0.015125678045119917 -0.001964107368448432 0 -0.015135121313252309 -0.0019725591624461399 0 -0.015261163834702409 -0.0018398472457955232 0 -0.015131828774661415 -0.0020343962408250361 0 -0.015266437343031316 -0.0018639843336701383 0 -0.015135121313252309 -0.0019725591624461399 0 -0.015261163834702409 -0.0018398472457955232 0 -0.015266437343031316 -0.0018639843336701383 0 -0.015135121313252309 -0.0019725591624461399 0 -0.015082221907880649 -0.0019857861956285613 0 -0.015148683940857419 -0.0019625892297642426 0 -0.015657226101414227 -0.00077325091218487566 0 -0.015266437343031316 -0.0018639843336701383 0 -0.015261163834702409 -0.0018398472457955232 0 -0.015397088952440676 -0.0017340632666302622 0 -0.015458254232709382 -0.0017245762182169727 0 -0.015266437343031316 -0.0018639843336701383 0 -0.015397088952440676 -0.0017340632666302622 0 -0.015261163834702409 -0.0018398472457955232 0 -0.015397088952440676 -0.0017340632666302622 0 -0.015401528306751882 -0.0017174433217847067 0 -0.015531143000667234 -0.0014393121714265209 0 -0.015397088952440676 -0.0017340632666302622 0 -0.015401528306751882 -0.0017174433217847067 0 -0.015988401258169617 0.00056657430836315058 0 -0.016061457259977815 0.00063152279875355866 0 -0.016126684371840644 0.00052963199180770359 0 -0.015031637109041577 -0.0018758162442725221 0 -0.014927567091708139 -0.0017136238635695096 0 -0.015163309708799999 -0.0017687648550587095 0 -0.015657226101414227 -0.00077325091218487566 0 -0.015602577477138512 -0.00059142942207250323 0 -0.016004563151219248 0.00069605661274427222 0 -0.016061457259977815 0.00063152279875355866 0 -0.015949079773560221 0.00064111577529550937 0 -0.015988401258169617 0.00056657430836315058 0 -0.016061457259977815 0.00063152279875355866 0 -0.015949079773560221 0.00064111577529550937 0 -0.015657226101414227 -0.00077325091218487566 0 -0.016069554202692609 0.00048478382149210326 0 -0.016280358200104428 0.00078137331199587274 0 -0.016218054915420357 0.00064374075474535374 0 -0.01635768928563959 0.00067153817488768502 0 -0.016124349704871286 0.00076859328902008936 0 -0.016061457259977815 0.00063152279875355866 0 -0.016218054915420357 0.00064374075474535374 0 -0.016061457259977815 0.00063152279875355866 0 -0.016218054915420357 0.00064374075474535374 0 -0.016126684371840644 0.00052963199180770359 0 -0.016218054915420357 0.00064374075474535374 0 -0.016126684371840644 0.00052963199180770359 0 -0.01631248990937964 0.00049149782277059517 0 -0.015602577477138512 -0.00059142942207250323 0 -0.015842031320001275 -0.00066497023350833211 0 -0.015215913251147765 -0.0019085399286128233 0 -0.015293359303473903 -0.0020363295294140537 0 -0.015396872856553298 -0.0018285563842630589 0 -0.015163309708799999 -0.0017687648550587095 0 -0.015215913251147765 -0.0019085399286128233 0 -0.015396872856553298 -0.0018285563842630589 0 -0.015031637109041577 -0.0018758162442725221 0 -0.015163309708799999 -0.0017687648550587095 0 -0.015215913251147765 -0.0019085399286128233 0 -0.015031637109041577 -0.0018758162442725221 0 -0.015215913251147765 -0.0019085399286128233 0 -0.015131828774661415 -0.0020343962408250361 0 -0.015131828774661415 -0.0020343962408250361 0 -0.015293359303473903 -0.0020363295294140537 0 -0.015021558782293715 -0.0022866004178054883 0 -0.015215913251147765 -0.0019085399286128233 0 -0.015131828774661415 -0.0020343962408250361 0 -0.015293359303473903 -0.0020363295294140537 0 -0.015135121313252309 -0.0019725591624461399 0 -0.015131828774661415 -0.0020343962408250361 0 -0.015021558782293715 -0.0022866004178054883 0 -0.015268444776590097 -0.0024013284212106062 0 -0.014843308982621737 -0.0023233313386405484 0 -0.015293359303473903 -0.0020363295294140537 0 -0.01535520503258655 -0.0022418117741890772 0 -0.015021558782293715 -0.0022866004178054883 0 -0.01454443391785817 -0.002711326237855396 0 -0.014547956042775461 -0.0027332626883518197 0 -0.014801599207504656 -0.00252394099282955 0 -0.01454443391785817 -0.002711326237855396 0 -0.014547956042775461 -0.0027332626883518197 0 -0.014480840753469774 -0.0027993754625167196 0 -0.014801599207504656 -0.00252394099282955 0 -0.015021558782293715 -0.0022866004178054883 0 -0.014988903814732831 -0.0023782352025641402 0 -0.014801599207504656 -0.00252394099282955 0 -0.014988903814732831 -0.0023782352025641402 0 -0.014761752136156742 -0.0025411380199760673 0 -0.014547956042775461 -0.0027332626883518197 0 -0.014801599207504656 -0.00252394099282955 0 -0.014761752136156742 -0.0025411380199760673 0 -0.01454443391785817 -0.002711326237855396 0 -0.014801599207504656 -0.00252394099282955 0 -0.015021558782293715 -0.0022866004178054883 0 -0.015135121313252309 -0.0019725591624461399 0 -0.015021558782293715 -0.0022866004178054883 0 -0.015082221907880649 -0.0019857861956285613 0 -0.015021558782293715 -0.0022866004178054883 0 -0.015082221907880649 -0.0019857861956285613 0 -0.014988903814732831 -0.0023782352025641402 0 -0.015082221907880649 -0.0019857861956285613 0 -0.014807609264764777 -0.0021998571939425599 0 -0.014988903814732831 -0.0023782352025641402 0 -0.015363919651799224 -0.0018393837368375317 0 -0.015082221907880649 -0.0019857861956285613 0 -0.015327054936548781 -0.0016659771445200976 0 -0.01501676046071442 -0.0019982721322969444 0 -0.015773278302109905 -0.0024357646911217492 0 -0.015773278302109905 -0.0024357646911217492 0 -0.015325329962585215 -0.0029300727027359239 0 -0.016323208900852475 -0.0037057641393848711 0 -0.015679665306558462 -0.0033980173991572404 0 -0.016341159759951551 -0.0030857739429772891 0 -0.015325329962585215 -0.0029300727027359239 0 -0.014890500351173994 -0.0028449547467335082 0 -0.015679665306558462 -0.0033980173991572404 0 -0.015345665177205123 -0.0027176982814940175 0 -0.015882042253164388 -0.0027779249186361305 0 -0.015679665306558462 -0.0033980173991572404 0 -0.015345665177205123 -0.0027176982814940175 0 -0.015020174214223884 -0.0030988382908610813 0 -0.015679665306558462 -0.0033980173991572404 0 -0.016341159759951551 -0.0030857739429772891 0 -0.015882042253164388 -0.0027779249186361305 0 -0.016341159759951551 -0.0030857739429772891 0 -0.015882042253164388 -0.0027779249186361305 0 -0.016366676160558837 -0.0026238390161905357 0 -0.016366676160558837 -0.0026238390161905357 0 -0.015976087396809509 -0.0023736333630301185 0 -0.01630496794672134 -0.0021960041625272517 0 -0.015882042253164388 -0.0027779249186361305 0 -0.016366676160558837 -0.0026238390161905357 0 -0.015976087396809509 -0.0023736333630301185 0 -0.015976087396809509 -0.0023736333630301185 0 -0.015720608786934639 -0.0020602423822413196 0 -0.01603850891356412 -0.0020679832485272069 0 -0.015976087396809509 -0.0023736333630301185 0 -0.01630496794672134 -0.0021960041625272517 0 -0.01603850891356412 -0.0020679832485272069 0 -0.015345665177205123 -0.0027176982814940175 0 -0.015609873201675523 -0.0023500014654855377 0 -0.015256849243746765 -0.0023416481497115569 0 -0.015345665177205123 -0.0027176982814940175 0 -0.015882042253164388 -0.0027779249186361305 0 -0.015609873201675523 -0.0023500014654855377 0 -0.015882042253164388 -0.0027779249186361305 0 -0.015976087396809509 -0.0023736333630301185 0 -0.015609873201675523 -0.0023500014654855377 0 -0.015976087396809509 -0.0023736333630301185 0 -0.015609873201675523 -0.0023500014654855377 0 -0.015720608786934639 -0.0020602423822413196 0 -0.015609873201675523 -0.0023500014654855377 0 -0.015384378926219036 -0.0021091991277090907 0 -0.015256849243746765 -0.0023416481497115569 0 -0.015609873201675523 -0.0023500014654855377 0 -0.015384378926219036 -0.0021091991277090907 0 -0.015720608786934639 -0.0020602423822413196 0 -0.015384378926219036 -0.0021091991277090907 0 -0.015256849243746765 -0.0023416481497115569 0 -0.015025473167595131 -0.0021020001733102855 0 -0.015256849243746765 -0.0023416481497115569 0 -0.015025473167595131 -0.0021020001733102855 0 -0.014994839303339695 -0.0024282974444234558 0 -0.015345665177205123 -0.0027176982814940175 0 -0.015256849243746765 -0.0023416481497115569 0 -0.014994839303339695 -0.0024282974444234558 0 -0.015345665177205123 -0.0027176982814940175 0 -0.014994839303339695 -0.0024282974444234558 0 -0.014940312478157318 -0.0027080346545032765 0 -0.014994839303339695 -0.0024282974444234558 0 -0.014678182863363382 -0.0024555875580655967 0 -0.014940312478157318 -0.0027080346545032765 0 -0.014678182863363382 -0.0024555875580655967 0 -0.014684314627283762 -0.0027746720926989325 0 -0.014940312478157318 -0.0027080346545032765 0 -0.015025473167595131 -0.0021020001733102855 0 -0.014994839303339695 -0.0024282974444234558 0 -0.014787757245832915 -0.0021805674885255746 0 -0.014994839303339695 -0.0024282974444234558 0 -0.014787757245832915 -0.0021805674885255746 0 -0.014678182863363382 -0.0024555875580655967 0 -0.015025473167595131 -0.0021020001733102855 0 -0.014787757245832915 -0.0021805674885255746 0 -0.014827320541953407 -0.0019342928407030085 0 -0.014787757245832915 -0.0021805674885255746 0 -0.014575164908153287 -0.0021666126993747873 0 -0.014615718799838922 -0.0019333008620197184 0 -0.014575164908153287 -0.0021666126993747873 0 -0.01438366967592997 -0.0022928606867690512 0 -0.014351209742427543 -0.0019838331741270261 0 -0.014575164908153287 -0.0021666126993747873 0 -0.01438366967592997 -0.0022928606867690512 0 -0.014678182863363382 -0.0024555875580655967 0 -0.014787757245832915 -0.0021805674885255746 0 -0.014575164908153287 -0.0021666126993747873 0 -0.014678182863363382 -0.0024555875580655967 0 -0.014183962053174213 -0.0021518501906763747 0 -0.01388287237756485 -0.0021948463059151802 0 -0.014044016623320946 -0.0018257067470550349 0 -0.014183962053174213 -0.0021518501906763747 0 -0.01438366967592997 -0.0022928606867690512 0 -0.014351209742427543 -0.0019838331741270261 0 -0.014183962053174213 -0.0021518501906763747 0 -0.01438366967592997 -0.0022928606867690512 0 -0.014104816645621947 -0.0024229847535050435 0 -0.014183962053174213 -0.0021518501906763747 0 -0.014104816645621947 -0.0024229847535050435 0 -0.01388287237756485 -0.0021948463059151802 0 -0.014104816645621947 -0.0024229847535050435 0 -0.014371676852823782 -0.002589448773331613 0 -0.014053804585811741 -0.0027855469253060794 0 -0.01438366967592997 -0.0022928606867690512 0 -0.014104816645621947 -0.0024229847535050435 0 -0.014371676852823782 -0.002589448773331613 0 -0.014371676852823782 -0.002589448773331613 0 -0.01437170474283073 -0.0028896638745469438 0 -0.014053804585811741 -0.0027855469253060794 0 -0.01438366967592997 -0.0022928606867690512 0 -0.014371676852823782 -0.002589448773331613 0 -0.014678182863363382 -0.0024555875580655967 0 -0.014371676852823782 -0.002589448773331613 0 -0.014678182863363382 -0.0024555875580655967 0 -0.014684314627283762 -0.0027746720926989325 0 -0.014371676852823782 -0.002589448773331613 0 -0.014684314627283762 -0.0027746720926989325 0 -0.01437170474283073 -0.0028896638745469438 0 -0.014547956042775461 -0.0027332626883518197 0 -0.01437170474283073 -0.0028896638745469438 0 -0.014761752136156742 -0.0025411380199760673 0 -0.014684314627283762 -0.0027746720926989325 0 -0.01437170474283073 -0.0028896638745469438 0 -0.015020174214223884 -0.0030988382908610813 0 -0.014463248416116542 -0.0028469894119249294 0 -0.014890500351173994 -0.0028449547467335082 0 -0.01437170474283073 -0.0028896638745469438 0 -0.014284269822372403 -0.0031039139209378423 0 -0.014053804585811741 -0.0027855469253060794 0 -0.014547956042775461 -0.0027332626883518197 0 -0.014284269822372403 -0.0031039139209378423 0 -0.014480840753469774 -0.0027993754625167196 0 -0.014547956042775461 -0.0027332626883518197 0 -0.01437170474283073 -0.0028896638745469438 0 -0.014284269822372403 -0.0031039139209378423 0 -0.015345665177205123 -0.0027176982814940175 0 -0.015020174214223884 -0.0030988382908610813 0 -0.014940312478157318 -0.0027080346545032765 0 -0.014684314627283762 -0.0027746720926989325 0 -0.015020174214223884 -0.0030988382908610813 0 -0.014940312478157318 -0.0027080346545032765 0 -0.011931520457737169 -0.0036669545776102678 0 -0.013129390618371551 -0.0032482742162351658 0 -0.012056179564473532 -0.0025895588635360838 0 -0.011931520457737169 -0.0036669545776102678 0 -0.013129390618371551 -0.0032482742162351658 0 -0.012959083157915165 -0.004529437239355086 0 -0.014284269822372403 -0.0031039139209378423 0 -0.013129390618371551 -0.0032482742162351658 0 -0.012959083157915165 -0.004529437239355086 0 -0.014271308563016749 -0.0031689493780850371 0 -0.013635751980816794 -0.0037517393800649934 0 -0.014284269822372403 -0.0031039139209378423 0 -0.014480840753469774 -0.0027993754625167196 0 -0.014630526329681986 -0.0028106726619537129 0 -0.014284269822372403 -0.0031039139209378423 0 -0.013129390618371551 -0.0032482742162351658 0 -0.014053804585811741 -0.0027855469253060794 0 -0.013129390618371551 -0.0032482742162351658 0 -0.013078957196245409 -0.0025990252557708967 0 -0.013622284377290598 -0.0025296094262208984 0 -0.013078957196245409 -0.0025990252557708967 0 -0.0134931968465081 -0.0020766770820724247 0 -0.012056179564473532 -0.0025895588635360838 0 -0.013129390618371551 -0.0032482742162351658 0 -0.014053804585811741 -0.0027855469253060794 0 -0.013622284377290598 -0.0025296094262208984 0 -0.014104816645621947 -0.0024229847535050435 0 -0.014053804585811741 -0.0027855469253060794 0 -0.013622284377290598 -0.0025296094262208984 0 -0.0134931968465081 -0.0020766770820724247 0 -0.01388287237756485 -0.0021948463059151802 0 -0.014044016623320946 -0.0018257067470550349 0 -0.013622284377290598 -0.0025296094262208984 0 -0.0134931968465081 -0.0020766770820724247 0 -0.01388287237756485 -0.0021948463059151802 0 -0.014104816645621947 -0.0024229847535050435 0 -0.013622284377290598 -0.0025296094262208984 0 -0.01388287237756485 -0.0021948463059151802 0 -0.013078957196245409 -0.0025990252557708967 0 -0.013622284377290598 -0.0025296094262208984 0 -0.0134931968465081 -0.0020766770820724247 0 -0.012056179564473532 -0.0025895588635360838 0 -0.011139782911040766 -0.0024137840760305607 0 -0.012078878189371554 -0.0022179681773761006 0 -0.011931520457737169 -0.0036669545776102678 0 -0.012056179564473532 -0.0025895588635360838 0 -0.011139782911040766 -0.0024137840760305607 0 -0.013129390618371551 -0.0032482742162351658 0 -0.013078957196245409 -0.0025990252557708967 0 -0.012056179564473532 -0.0025895588635360838 0 -0.011020478755283626 -0.0062441637569707721 0 -0.010343617971189359 -0.005329477227483048 0 -0.0092782866974165396 -0.0057029480876238797 0 -0.010350949952823112 -0.0049769613614524316 0 -0.010324425298503302 -0.0064532472109923248 0 -0.010350949952823112 -0.0049769613614524316 0 -0.010847578023155859 -0.005549891124524255 0 -0.010324425298503302 -0.0064532472109923248 0 -0.010350949952823112 -0.0049769613614524316 0 -0.010847578023155859 -0.005549891124524255 0 -0.010897427575592308 -0.0049196276118826047 0 -0.010350949952823112 -0.0049769613614524316 0 -0.010897427575592308 -0.0049196276118826047 0 -0.010557011887121144 -0.0046973068742104888 0 -0.010557011887121144 -0.0046973068742104888 0 -0.010583735120273949 -0.0046187606280892017 0 -0.010686205996316931 -0.0046274734703883299 0 -0.010557011887121144 -0.0046973068742104888 0 -0.010583735120273949 -0.0046187606280892017 0 -0.010750407132772472 -0.0046196861721417735 0 -0.010897427575592308 -0.0049196276118826047 0 -0.010557011887121144 -0.0046973068742104888 0 -0.010750407132772472 -0.0046196861721417735 0 -0.011020478755283626 -0.0062441637569707721 0 -0.010799374302610949 -0.0034424106622263188 0 -0.010340688041483163 -0.0049920163326093231 0 -0.010350949952823112 -0.0049769613614524316 0 -0.01092384539099614 -0.0044301099530077541 0 -0.011931520457737169 -0.0036669545776102678 0 -0.011139782911040766 -0.0024137840760305607 0 -0.01092384539099614 -0.0044301099530077541 0 -0.010350949952823112 -0.0049769613614524316 0 -0.010557011887121144 -0.0046973068742104888 0 -0.01092384539099614 -0.0044301099530077541 0 -0.010557011887121144 -0.0046973068742104888 0 -0.01092384539099614 -0.0044301099530077541 0 -0.010686205996316931 -0.0046274734703883299 0 -0.010686205996316931 -0.0046274734703883299 0 -0.010386749229652128 -0.004706535095542059 0 -0.011629012433134765 -0.0053924375880609558 0 -0.011033528793733809 -0.0027863862696798272 0 -0.013725356788543043 -0.0030477261534079072 0 -0.01092384539099614 -0.0044301099530077541 0 -0.010686205996316931 -0.0046274734703883299 0 -0.011629012433134765 -0.0053924375880609558 0 -0.010750407132772472 -0.0046196861721417735 0 -0.010510307313647951 -0.0045676834343716275 0 -0.01057921842942477 -0.0043696079170649797 0 -0.010583735120273949 -0.0046187606280892017 0 -0.010750407132772472 -0.0046196861721417735 0 -0.010510307313647951 -0.0045676834343716275 0 -0.010850665457544338 -0.0035810796520962186 0 -0.011033528793733809 -0.0027863862696798272 0 -0.010686205996316931 -0.0046274734703883299 0 -0.010510307313647951 -0.0045676834343716275 0 -0.010386749229652128 -0.004706535095542059 0 -0.010583735120273949 -0.0046187606280892017 0 -0.010686205996316931 -0.0046274734703883299 0 -0.010510307313647951 -0.0045676834343716275 0 -0.010139489946415911 -0.0015036296213090461 0 -0.010261901737393846 -0.001296859414693051 0 -0.010473280866045527 -0.001331169688515578 0 -0.010139489946415911 -0.0015036296213090461 0 -0.010261901737393846 -0.001296859414693051 0 -0.010247747734061225 -0.0010288300528332722 0 -0.012941464121302815 -0.0021245823512466362 0 -0.012954499033840865 -0.0021072476093621302 0 -0.012949082051040383 -0.002115277888282004 0 -0.011033528793733809 -0.0027863862696798272 0 -0.011577761247034201 -0.0012834907708538989 0 -0.010622831793037602 -0.0011314289251966496 0 -0.011577761247034201 -0.0012834907708538989 0 -0.015688036888888549 -0.0021249542109950262 0 -0.015592461923625933 -0.0021131354488502611 0 -0.015562094734131669 -0.0022468872885362348 0 -0.012941464121302815 -0.0021245823512466362 0 -0.012949082051040383 -0.002115277888282004 0 -0.012950510007075098 -0.0021275059403134248 0 -0.014519400277163272 -0.002007600042602445 0 -0.013725356788543043 -0.0030477261534079072 0 -0.015592461923625933 -0.0021131354488502611 0 -0.015562094734131669 -0.0022468872885362348 0 -0.015492001772671227 -0.0020550282464086148 0 -0.011931520457737169 -0.0036669545776102678 0 -0.011629012433134765 -0.0053924375880609558 0 -0.012959083157915165 -0.004529437239355086 0 -0.011931520457737169 -0.0036669545776102678 0 -0.01092384539099614 -0.0044301099530077541 0 -0.011629012433134765 -0.0053924375880609558 0 -0.013725356788543043 -0.0030477261534079072 0 -0.013635751980816794 -0.0037517393800649934 0 -0.01454443391785817 -0.002711326237855396 0 -0.014698024341280693 -0.0027504596059514906 0 -0.014630526329681986 -0.0028106726619537129 0 -0.015268444776590097 -0.0024013284212106062 0 -0.013725356788543043 -0.0030477261534079072 0 -0.01454443391785817 -0.002711326237855396 0 -0.014480840753469774 -0.0027993754625167196 0 -0.014630526329681986 -0.0028106726619537129 0 -0.01535520503258655 -0.0022418117741890772 0 -0.015562094734131669 -0.0022468872885362348 0 -0.015492001772671227 -0.0020550282464086148 0 -0.015293359303473903 -0.0020363295294140537 0 -0.01535520503258655 -0.0022418117741890772 0 -0.015492001772671227 -0.0020550282464086148 0 -0.015293359303473903 -0.0020363295294140537 0 -0.015492001772671227 -0.0020550282464086148 0 -0.015396872856553298 -0.0018285563842630589 0 -0.015592461923625933 -0.0021131354488502611 0 -0.015492001772671227 -0.0020550282464086148 0 -0.015676811993021424 -0.001999653947453836 0 -0.015492001772671227 -0.0020550282464086148 0 -0.015608162139600994 -0.0018829441777786563 0 -0.015676811993021424 -0.001999653947453836 0 -0.016156500583626169 -0.0007635068754493332 0 -0.015842031320001275 -0.00066497023350833211 0 -0.015492001772671227 -0.0020550282464086148 0 -0.015608162139600994 -0.0018829441777786563 0 -0.015396872856553298 -0.0018285563842630589 0 -0.016218054915420357 0.00064374075474535374 0 -0.01631248990937964 0.00049149782277059517 0 -0.01635768928563959 0.00067153817488768502 0 -0.01631248990937964 0.00049149782277059517 0 -0.016485868503996689 0.00059182930750952521 0 -0.01635768928563959 0.00067153817488768502 0 -0.016511688666324836 0.00045114302786345057 0 -0.01631248990937964 0.00049149782277059517 0 -0.016485868503996689 0.00059182930750952521 0 -0.016485868503996689 0.00059182930750952521 0 -0.016468799109250157 0.00074659780855873027 0 -0.01635768928563959 0.00067153817488768502 0 -0.016485868503996689 0.00059182930750952521 0 -0.016468799109250157 0.00074659780855873027 0 -0.016556007941913187 0.00070499912392411109 0 -0.016384944928189996 0.00079039940073356927 0 -0.016468799109250157 0.00074659780855873027 0 -0.01635768928563959 0.00067153817488768502 0 -0.016649334819595341 0.00074468188633072775 0 -0.016733580943081163 0.000822966764510903 0 -0.016592135646934982 0.00066545801901550256 0 -0.016701354651244719 0.00064099365048671481 0 -0.01667814983613947 0.00076377110582850492 0 -0.016668602259543433 0.00083705649486492202 0 -0.016623283447962517 0.00072795991912441495 0 -0.016711212046436372 0.00062023778321619843 0 -0.016668602259543433 0.00083705649486492202 0 -0.016592135646934982 0.00066545801901550256 0 -0.01667814983613947 0.00076377110582850492 0 -0.016623283447962517 0.00072795991912441495 0 -0.016603997553078485 0.0006312572934380322 0 -0.016711212046436372 0.00062023778321619843 0 -0.016581967419084874 0.00083521018513251465 0 -0.016623283447962517 0.00072795991912441495 0 -0.016556007941913187 0.00070499912392411109 0 -0.016485868503996689 0.00059182930750952521 0 -0.016556007941913187 0.00070499912392411109 0 -0.016603997553078485 0.0006312572934380322 0 -0.016623283447962517 0.00072795991912441495 0 -0.016556007941913187 0.00070499912392411109 0 -0.016603997553078485 0.0006312572934380322 0 -0.016511688666324836 0.00045114302786345057 0 -0.016485868503996689 0.00059182930750952521 0 -0.016606403039346341 0.00053762299324311359 0 -0.016603997553078485 0.0006312572934380322 0 -0.016606403039346341 0.00053762299324311359 0 -0.016711212046436372 0.00062023778321619843 0 -0.016485868503996689 0.00059182930750952521 0 -0.016603997553078485 0.0006312572934380322 0 -0.016606403039346341 0.00053762299324311359 0 -0.016606403039346341 0.00053762299324311359 0 -0.016711212046436372 0.00062023778321619843 0 -0.016722643093809803 0.00040355753295570488 0 -0.016592135646934982 0.00066545801901550256 0 -0.016568504783065645 0.00040529855992305937 0 -0.016701354651244719 0.00064099365048671481 0 -0.016733580943081163 0.000822966764510903 0 -0.015840504289591616 -0.00043996965980518972 0 -0.013876177823376828 -0.00025537818783025987 0 -0.014194474025477195 -0.00080279321821096687 0 -0.014289536287493645 -0.00032982268292862409 0 -0.015840504289591616 -0.00043996965980518972 0 -0.013442355856318587 2.7569103639121648e-05 0 -0.016156500583626169 -0.0007635068754493332 0 -0.015840504289591616 -0.00043996965980518972 0 -0.016511688666324836 0.00045114302786345057 0 -0.016606403039346341 0.00053762299324311359 0 -0.016722643093809803 0.00040355753295570488 0 -0.015608162139600994 -0.0018829441777786563 0 -0.015800259340102506 -0.0019200143529623933 0 -0.015676811993021424 -0.001999653947453836 0 -0.015688036888888549 -0.0021249542109950262 0 -0.015592461923625933 -0.0021131354488502611 0 -0.015676811993021424 -0.001999653947453836 0 -0.015800259340102506 -0.0019200143529623933 0 -0.015676811993021424 -0.001999653947453836 0 -0.015805229731874787 -0.0020097639165513543 0 -0.014519400277163272 -0.002007600042602445 0 -0.013551812255054776 -0.0014076110876017249 0 -0.015688036888888549 -0.0021249542109950262 0 -0.015676811993021424 -0.001999653947453836 0 -0.015805229731874787 -0.0020097639165513543 0 -0.012954499033840865 -0.0021072476093621302 0 -0.012949082051040383 -0.002115277888282004 0 -0.012957828382089205 -0.0020931614072232144 0 -0.013876177823376828 -0.00025537818783025987 0 -0.013942513060723192 -0.001012491793304483 0 -0.014194474025477195 -0.00080279321821096687 0 -0.015840504289591616 -0.00043996965980518972 0 -0.013551812255054776 -0.0014076110876017249 0 -0.013551812255054776 -0.0014076110876017249 0 -0.012437582851670771 -0.00085756404930618653 0 -0.012214357337195787 -0.0013670561298630825 0 -0.01218419525189884 -0.0010012814993800377 0 -0.01231378651158745 -0.00089450001890868257 0 -0.011577761247034201 -0.0012834907708538989 0 -0.012437582851670771 -0.00085756404930618653 0 -0.011577761247034201 -0.0012834907708538989 0 -0.013551812255054776 -0.0014076110876017249 0 -0.0102318905175093 -0.0010122716135255109 0 -0.010291671144518628 -0.00068245597272621836 0 -0.010513517781306575 -0.00078514478351762707 0 -0.010513517781306575 -0.00078514478351762707 0 -0.010760934888816298 -0.00090663067983349024 0 -0.010508056774163927 -0.0010923294290860392 0 -0.010513517781306575 -0.00078514478351762707 0 -0.010631771823167874 -0.00055886066715179236 0 -0.010454402030970719 -0.00053651041921490424 0 -0.010513517781306575 -0.00078514478351762707 0 -0.010760934888816298 -0.00090663067983349024 0 -0.010631771823167874 -0.00055886066715179236 0 -0.010291671144518628 -0.00068245597272621836 0 -0.010513517781306575 -0.00078514478351762707 0 -0.010454402030970719 -0.00053651041921490424 0 -0.012437582851670771 -0.00085756404930618653 0 -0.013442355856318587 2.7569103639121648e-05 0 -0.012437582851670771 -0.00085756404930618653 0 -0.011009889763560174 -0.00042873424457399577 0 -0.011001548801866193 -0.00087937642423056687 0 -0.010760934888816298 -0.00090663067983349024 0 -0.010963994218754162 -0.00109066605811786 0 -0.011001548801866193 -0.00087937642423056687 0 -0.010760934888816298 -0.00090663067983349024 0 -0.010859225776750364 -0.00065552968000126576 0 -0.010760934888816298 -0.00090663067983349024 0 -0.010859225776750364 -0.00065552968000126576 0 -0.010631771823167874 -0.00055886066715179236 0 -0.011001548801866193 -0.00087937642423056687 0 -0.010859225776750364 -0.00065552968000126576 0 -0.011053553117640622 -0.00040417444258871024 0 -0.011053553117640622 -0.00040417444258871024 0 -0.010798894388769685 -0.00040914134953648924 0 -0.011064924866222597 0.00010629914564996294 0 -0.011009889763560174 -0.00042873424457399577 0 -0.010847042230023347 5.559370245031405e-05 0 -0.010798894388769685 -0.00040914134953648924 0 -0.010355123485815187 -0.00051174562529398193 0 -0.011064924866222597 0.00010629914564996294 0 -0.010859225776750364 -0.00065552968000126576 0 -0.011053553117640622 -0.00040417444258871024 0 -0.010798894388769685 -0.00040914134953648924 0 -0.010859225776750364 -0.00065552968000126576 0 -0.010631771823167874 -0.00055886066715179236 0 -0.010798894388769685 -0.00040914134953648924 0 -0.016568504783065645 0.00040529855992305937 0 -0.016628372659054542 0.00039238387082082794 0 -0.016701354651244719 0.00064099365048671481 0 -0.013442355856318587 2.7569103639121648e-05 0 -0.013636824187970147 0.00046849980286933746 0 -0.010471259810382433 -0.00024627939727500653 0 -0.01059479910878041 -0.00027076021358544045 0 -0.010549113217462306 0.00027876252820766982 0 -0.012409484057324359 -0.00030571601364025568 0 -0.012402471945476409 -0.00033501429395611809 0 -0.012372328958050637 -0.00032981547041012054 0 -0.013442355856318587 2.7569103639121648e-05 0 -0.011009889763560174 -0.00042873424457399577 0 -0.010631771823167874 -0.00055886066715179236 0 -0.010798894388769685 -0.00040914134953648924 0 -0.010355123485815187 -0.00051174562529398193 0 -0.010574876372717191 -0.00045053100600662863 0 -0.011009889763560174 -0.00042873424457399577 0 -0.01059479910878041 -0.00027076021358544045 0 -0.010549113217462306 0.00027876252820766982 0 -0.011064924866222597 0.00010629914564996294 0 -0.010549113217462306 0.00027876252820766982 0 -0.011064924866222597 0.00010629914564996294 0 -0.010818771163595378 0.00052519896393663716 0 -0.011385390498175042 0.00086602255425500792 0 -0.010878764985860049 0.00087667291473608451 0 -0.01112573342125108 0.00051207815336218863 0 -0.011064924866222597 0.00010629914564996294 0 -0.010818771163595378 0.00052519896393663716 0 -0.01112573342125108 0.00051207815336218863 0 -0.010644332597290911 0.0008930977315679999 0 -0.010878764985860049 0.00087667291473608451 0 -0.010818771163595378 0.00052519896393663716 0 -0.010878764985860049 0.00087667291473608451 0 -0.010818771163595378 0.00052519896393663716 0 -0.01112573342125108 0.00051207815336218863 0 -0.01673604317157841 0.00081678991851817477 0 -0.016701354651244719 0.00064099365048671481 0 -0.01667814983613947 0.00076377110582850492 0 -0.013680960839316209 0.00088482591881050142 0 -0.013636824187970147 0.00046849980286933746 0 -0.010644332597290911 0.0008930977315679999 0 -0.010549113217462306 0.00027876252820766982 0 -0.010818771163595378 0.00052519896393663716 0 -0.0050782379600405056 0.00085537126211215919 0 -0.0051700871146934928 0.00070955118593249834 0 -0.0050888033233432725 0.00059167856451775469 0 -0.0070168842298892831 0.001928452610370103 0 -0.0055276404174772432 -0.0004513155281834927 0 -0.0080456792318999559 0.0016115513932169279 0 -0.0076789014522821069 2.8066756193442206e-05 0 -0.008164986798800249 -0.00017480388837583799 0 -0.0092386511495243673 0.001355120333036733 0 -0.0097280219575043552 0.00010245656170455662 0 -0.0078306320480380203 0.0016139000936271708 0 -0.0080456792318999559 0.0016115513932169279 0 -0.0076789014522821069 2.8066756193442206e-05 0 -0.011385390498175042 0.00086602255425500792 0 -0.01112573342125108 0.00051207815336218863 0 -0.011546529678160521 0.00018044125720660016 0 -0.009804517654067325 0.0011124077794914689 0 -0.010083148476118178 0.0011096722313801298 0 -0.0099944305149675238 0.00023468014255494484 0 -0.01104473428951324 0.00090012379458116341 0 -0.0097280219575043552 0.00010245656170455662 0 -0.0097280219575043552 0.00010245656170455662 0 -0.010619951716134488 -0.00039146721249859982 0 -0.011064924866222597 0.00010629914564996294 0 -0.011546529678160521 0.00018044125720660016 0 -0.011262294064882604 -0.00014259753208936115 0 -0.011064924866222597 0.00010629914564996294 0 -0.01112573342125108 0.00051207815336218863 0 -0.011546529678160521 0.00018044125720660016 0 -0.0097280219575043552 0.00010245656170455662 0 -0.0085970912848582926 -0.00065667494642076933 0 -0.0076789014522821069 2.8066756193442206e-05 0 -0.008164986798800249 -0.00017480388837583799 0 -0.0078258978288088307 -0.00061760319831392246 0 -0.0055276404174772432 -0.0004513155281834927 0 -0.0085970912848582926 -0.00065667494642076933 0 -0.0045888961713845535 -0.00024594320963047063 0 -0.0055276404174772432 -0.0004513155281834927 0 -0.0040618197523512554 -0.00091378029655527176 0 -0.0041259231165292551 -0.00075130954682164344 0 -0.0042825454897362511 -0.00089613153332234287 0 -0.0041259231165292551 -0.00075130954682164344 0 -0.0042825454897362511 -0.00089613153332234287 0 -0.00426684594926944 -0.0005822229077818412 0 -0.0045585111051268104 -0.00079324509584574468 0 -0.0043932797972629769 -0.00059792920579244447 0 -0.0044006240263174913 -0.00042039986290144877 0 -0.0044626523688628397 -0.00092580025465007431 0 -0.0045585111051268104 -0.00079324509584574468 0 -0.0043932797972629769 -0.00059792920579244447 0 -0.011069797191815094 -0.00075543598875666502 0 -0.011033868446710884 -0.00081398614116940445 0 -0.011149179941515467 -0.00099398475317638026 0 -0.0098613717539692506 -5.2518065719860605e-05 0 -0.0099441436802350236 -0.00040315034319951765 0 -0.0098190790401459904 -0.0005686564298583392 0 -0.0085970912848582926 -0.00065667494642076933 0 -0.0077459785174160854 -0.0008066906490570866 0 -0.0055276404174772432 -0.0004513155281834927 0 -0.0043144018759442839 -0.00064912334396847473 0 -0.0085970912848582926 -0.00065667494642076933 0 -0.010619951716134488 -0.00039146721249859982 0 -0.011001548801866193 -0.00087937642423056687 0 -0.011523432491359764 -0.0003053944675010386 0 -0.011211454094379051 -0.00043543830337393428 0 -0.011053553117640622 -0.00040417444258871024 0 -0.011064924866222597 0.00010629914564996294 0 -0.011262294064882604 -0.00014259753208936115 0 -0.011546529678160521 0.00018044125720660016 0 -0.011262294064882604 -0.00014259753208936115 0 -0.011523432491359764 -0.0003053944675010386 0 -0.011262294064882604 -0.00014259753208936115 0 -0.011523432491359764 -0.0003053944675010386 0 -0.011211454094379051 -0.00043543830337393428 0 -0.011053553117640622 -0.00040417444258871024 0 -0.011262294064882604 -0.00014259753208936115 0 -0.011211454094379051 -0.00043543830337393428 0 -0.010619951716134488 -0.00039146721249859982 0 -0.01110038236538941 -0.00099746786502744413 0 -0.011214060975093797 -0.0007981778443141665 0 -0.010619951716134488 -0.00039146721249859982 0 -0.011001548801866193 -0.00087937642423056687 0 -0.011186659519827617 -0.00064355690093791194 0 -0.011169135446990119 -0.00087609905645283327 0 -0.011001548801866193 -0.00087937642423056687 0 -0.011053553117640622 -0.00040417444258871024 0 -0.011211454094379051 -0.00043543830337393428 0 -0.011001548801866193 -0.00087937642423056687 0 -0.011169135446990119 -0.00087609905645283327 0 -0.010963994218754162 -0.00109066605811786 0 -0.011033868446710884 -0.00081398614116940445 0 -0.011045087254282692 -0.0010145309246246967 0 -0.011149179941515467 -0.00099398475317638026 0 -0.0041336583868422823 -0.00042000546616729741 0 -0.00426684594926944 -0.0005822229077818412 0 -0.0043010202098630107 -0.00026638437221070252 0 -0.0043932797972629769 -0.00059792920579244447 0 -0.0044006240263174913 -0.00042039986290144877 0 -0.0043010202098630107 -0.00026638437221070252 0 -0.0043144018759442839 -0.00064912334396847473 0 -0.0043039052626061185 -0.00026712926247826526 0 -0.011045087254282692 -0.0010145309246246967 0 -0.011149179941515467 -0.00099398475317638026 0 -0.011119687116972619 -0.0011030052043739019 0 -0.011119687116972619 -0.0011030052043739019 0 -0.011206373216776495 -0.0012097380730424203 0 -0.011079222731214991 -0.0011836339394050409 0 -0.0040283169974901657 -0.00021012285366048996 0 -0.0043010202098630107 -0.00026638437221070252 0 -0.0042626169924115951 -3.6706493380027362e-05 0 -0.011206373216776495 -0.0012097380730424203 0 -0.01114124802435618 -0.0013068899029800376 0 -0.011079222731214991 -0.0011836339394050409 0 -0.0077459785174160854 -0.0008066906490570866 0 -0.0076244908075143968 -0.00013728224494565631 0 -0.0044006240263174913 -0.00042039986290144877 0 -0.0043010202098630107 -0.00026638437221070252 0 -0.0042626169924115951 -3.6706493380027362e-05 0 -0.011149179941515467 -0.00099398475317638026 0 -0.011119687116972619 -0.0011030052043739019 0 -0.011206373216776495 -0.0012097380730424203 0 -0.011243360092307069 -0.0014298108698721848 0 -0.01114124802435618 -0.0013068899029800376 0 -0.011044952119453354 -0.0014099662378621585 0 -0.011243360092307069 -0.0014298108698721848 0 -0.011206373216776495 -0.0012097380730424203 0 -0.01114124802435618 -0.0013068899029800376 0 -0.0083683296109343316 -0.0029713465706400649 0 -0.0076244908075143968 -0.00013728224494565631 0 -0.011044952119453354 -0.0014099662378621585 0 -0.011079222731214991 -0.0011836339394050409 0 -0.010926837617097486 -0.0012573031896852209 0 -0.01114124802435618 -0.0013068899029800376 0 -0.011044952119453354 -0.0014099662378621585 0 -0.011079222731214991 -0.0011836339394050409 0 -0.01110038236538941 -0.00099746786502744413 0 -0.011086032064944122 -0.0011297360612629286 0 -0.011045087254282692 -0.0010145309246246967 0 -0.011119687116972619 -0.0011030052043739019 0 -0.011079222731214991 -0.0011836339394050409 0 -0.011169135446990119 -0.00087609905645283327 0 -0.011079222731214991 -0.0011836339394050409 0 -0.010963994218754162 -0.00109066605811786 0 -0.011079222731214991 -0.0011836339394050409 0 -0.010963994218754162 -0.00109066605811786 0 -0.010926837617097486 -0.0012573031896852209 0 -0.010760934888816298 -0.00090663067983349024 0 -0.010963994218754162 -0.00109066605811786 0 -0.010766185176104434 -0.0011594233930501902 0 -0.010760934888816298 -0.00090663067983349024 0 -0.010766185176104434 -0.0011594233930501902 0 -0.010508056774163927 -0.0010923294290860392 0 -0.010963994218754162 -0.00109066605811786 0 -0.010766185176104434 -0.0011594233930501902 0 -0.010926837617097486 -0.0012573031896852209 0 -0.0102318905175093 -0.0010122716135255109 0 -0.010513517781306575 -0.00078514478351762707 0 -0.010508056774163927 -0.0010923294290860392 0 -0.010261901737393846 -0.001296859414693051 0 -0.0102318905175093 -0.0010122716135255109 0 -0.010508056774163927 -0.0010923294290860392 0 -0.010766185176104434 -0.0011594233930501902 0 -0.010508056774163927 -0.0010923294290860392 0 -0.010473280866045527 -0.001331169688515578 0 -0.010261901737393846 -0.001296859414693051 0 -0.010508056774163927 -0.0010923294290860392 0 -0.010473280866045527 -0.001331169688515578 0 -0.010139489946415911 -0.0015036296213090461 0 -0.010473280866045527 -0.001331169688515578 0 -0.010699533585888012 -0.0016005566004425899 0 -0.010750407132772472 -0.0046196861721417735 0 -0.01057921842942477 -0.0043696079170649797 0 -0.011560609221704517 -0.0043658963469444083 0 -0.010766185176104434 -0.0011594233930501902 0 -0.010473280866045527 -0.001331169688515578 0 -0.010699533585888012 -0.0016005566004425899 0 -0.011033528793733809 -0.0027863862696798272 0 -0.01065547573798897 -0.0036467586248179092 0 -0.011044952119453354 -0.0014099662378621585 0 -0.010751409063380797 -0.0013987081270122835 0 -0.010926837617097486 -0.0012573031896852209 0 -0.010888583458697226 -0.00048986876655695915 0 -0.01065547573798897 -0.0036467586248179092 0 -0.011847173240956759 -0.0043509661918026002 0 -0.01065547573798897 -0.0036467586248179092 0 -0.010766185176104434 -0.0011594233930501902 0 -0.010751409063380797 -0.0013987081270122835 0 -0.010926837617097486 -0.0012573031896852209 0 -0.010885617027945984 -0.0067234788937254718 0 -0.011100951784953831 -0.0070427917916890065 0 -0.010754691319193304 -0.0072543722423922445 0 -0.011339144150885227 -0.0068781247082901238 0 -0.010885617027945984 -0.0067234788937254718 0 -0.011100951784953831 -0.0070427917916890065 0 -0.010897427575592308 -0.0049196276118826047 0 -0.010750407132772472 -0.0046196861721417735 0 -0.011560609221704517 -0.0043658963469444083 0 -0.010897427575592308 -0.0049196276118826047 0 -0.011560609221704517 -0.0043658963469444083 0 -0.011567220591743666 -0.0052879749201384853 0 -0.01065547573798897 -0.0036467586248179092 0 -0.011171131167202303 -0.0066763017698026469 0 -0.010847578023155859 -0.005549891124524255 0 -0.011567220591743666 -0.0052879749201384853 0 -0.011430727630861634 -0.0068811129047574799 0 -0.011171131167202303 -0.0066763017698026469 0 -0.011016309342610272 -0.007351210450641305 0 -0.010754691319193304 -0.0072543722423922445 0 -0.011081464142496661 -0.0075642132649725953 0 -0.010641322700885207 -0.007977318639705527 0 -0.010847578023155859 -0.005549891124524255 0 -0.010897427575592308 -0.0049196276118826047 0 -0.011567220591743666 -0.0052879749201384853 0 -0.011100951784953831 -0.0070427917916890065 0 -0.011081464142496661 -0.0075642132649725953 0 -0.011344671800329869 -0.0071989605757543451 0 -0.011100951784953831 -0.0070427917916890065 0 -0.010754691319193304 -0.0072543722423922445 0 -0.011081464142496661 -0.0075642132649725953 0 -0.011081464142496661 -0.0075642132649725953 0 -0.011344671800329869 -0.0071989605757543451 0 -0.011441257699935323 -0.0079087722033783971 0 -0.011344671800329869 -0.0071989605757543451 0 -0.011422205114430553 -0.007233028327590982 0 -0.011270467371398878 -0.0073573198556137389 0 -0.011345935548453786 -0.0073008423616556638 0 -0.011381995088872717 -0.0075048828713795207 0 -0.011569666692576209 -0.0072157021336419188 0 -0.011422205114430553 -0.007233028327590982 0 -0.011446113132549807 -0.007083070933905115 0 -0.011569666692576209 -0.0072157021336419188 0 -0.011422205114430553 -0.007233028327590982 0 -0.011439164101960032 -0.007372372882376594 0 -0.011344671800329869 -0.0071989605757543451 0 -0.011422205114430553 -0.007233028327590982 0 -0.011446113132549807 -0.007083070933905115 0 -0.011552368631276694 -0.0069672874925316881 0 -0.011339144150885227 -0.0068781247082901238 0 -0.011446113132549807 -0.007083070933905115 0 -0.011569666692576209 -0.0072157021336419188 0 -0.011552368631276694 -0.0069672874925316881 0 -0.011446113132549807 -0.007083070933905115 0 -0.0083683296109343316 -0.0029713465706400649 0 -0.011847173240956759 -0.0043509661918026002 0 -0.011339144150885227 -0.0068781247082901238 0 -0.011100951784953831 -0.0070427917916890065 0 -0.011344671800329869 -0.0071989605757543451 0 -0.011339144150885227 -0.0068781247082901238 0 -0.011344671800329869 -0.0071989605757543451 0 -0.011446113132549807 -0.007083070933905115 0 -0.011025852989231142 -0.0087394275195538159 0 -0.011381995088872717 -0.0075048828713795207 0 -0.011333095500426852 -0.0074795000362781376 0 -0.011215397112784032 -0.0075761227088251204 0 -0.011270467371398878 -0.0073573198556137389 0 -0.011416253447603414 -0.0086800164570967186 0 -0.011441257699935323 -0.0079087722033783971 0 -0.011367555579424968 -0.0086277741184647861 0 -0.011025852989231142 -0.0087394275195538159 0 -0.011051291089620252 -0.0087491847818779705 0 -0.011333095500426852 -0.0074795000362781376 0 -0.011215397112784032 -0.0075761227088251204 0 -0.011337166105221364 -0.0075961816182474927 0 -0.011595134768577597 -0.0074352118866223629 0 -0.011428659983098744 -0.0075305068802762453 0 -0.011439164101960032 -0.007372372882376594 0 -0.011333095500426852 -0.0074795000362781376 0 -0.011428659983098744 -0.0075305068802762453 0 -0.011337166105221364 -0.0075961816182474927 0 -0.011333095500426852 -0.0074795000362781376 0 -0.011428659983098744 -0.0075305068802762453 0 -0.011439164101960032 -0.007372372882376594 0 -0.011422205114430553 -0.007233028327590982 0 -0.011439164101960032 -0.007372372882376594 0 -0.011270467371398878 -0.0073573198556137389 0 -0.011333095500426852 -0.0074795000362781376 0 -0.011439164101960032 -0.007372372882376594 0 -0.011270467371398878 -0.0073573198556137389 0 -0.011081464142496661 -0.0075642132649725953 0 -0.010641322700885207 -0.007977318639705527 0 -0.011164500425426627 -0.0082060081191664691 0 -0.011081464142496661 -0.0075642132649725953 0 -0.011441257699935323 -0.0079087722033783971 0 -0.011164500425426627 -0.0082060081191664691 0 -0.010891110289567837 -0.0083924855632533223 0 -0.011082440365406575 -0.0086668110428810771 0 -0.010682502315161466 -0.0086671744441118373 0 -0.010641322700885207 -0.007977318639705527 0 -0.010891110289567837 -0.0083924855632533223 0 -0.010682502315161466 -0.0086671744441118373 0 -0.011430727630861634 -0.0068811129047574799 0 -0.010682502315161466 -0.0086671744441118373 0 -0.010430557622344606 -0.0075007367505645134 0 -0.011016309342610272 -0.007351210450641305 0 -0.010733843252276772 -0.0085759150981821915 0 -0.010641322700885207 -0.007977318639705527 0 -0.011164500425426627 -0.0082060081191664691 0 -0.010891110289567837 -0.0083924855632533223 0 -0.011441257699935323 -0.0079087722033783971 0 -0.011164500425426627 -0.0082060081191664691 0 -0.011367555579424968 -0.0086277741184647861 0 -0.011164500425426627 -0.0082060081191664691 0 -0.010891110289567837 -0.0083924855632533223 0 -0.011082440365406575 -0.0086668110428810771 0 -0.011164500425426627 -0.0082060081191664691 0 -0.011082440365406575 -0.0086668110428810771 0 -0.011367555579424968 -0.0086277741184647861 0 -0.011082440365406575 -0.0086668110428810771 0 -0.011367555579424968 -0.0086277741184647861 0 -0.011225840059373656 -0.0088312475372617077 0 -0.01142882368667386 -0.0086899501004899914 0 -0.011367555579424968 -0.0086277741184647861 0 -0.011225840059373656 -0.0088312475372617077 0 -0.011082440365406575 -0.0086668110428810771 0 -0.010980356659598126 -0.009025443872915432 0 -0.010682502315161466 -0.0086671744441118373 0 -0.01142882368667386 -0.0086899501004899914 0 -0.011225840059373656 -0.0088312475372617077 0 -0.011229840192785012 -0.0094220062559755829 0 -0.011082440365406575 -0.0086668110428810771 0 -0.011225840059373656 -0.0088312475372617077 0 -0.010980356659598126 -0.009025443872915432 0 -0.011225840059373656 -0.0088312475372617077 0 -0.010980356659598126 -0.009025443872915432 0 -0.011229840192785012 -0.0094220062559755829 0 -0.010980356659598126 -0.009025443872915432 0 -0.010682502315161466 -0.0086671744441118373 0 -0.010561719231252993 -0.0097371944541953612 0 -0.010955125951890536 -0.0099986778896646016 0 -0.010865094882512305 -0.010071974231414193 0 -0.010980356659598126 -0.009025443872915432 0 -0.010561719231252993 -0.0097371944541953612 0 -0.011229840192785012 -0.0094220062559755829 0 -0.010561719231252993 -0.0097371944541953612 0 -0.011229840192785012 -0.0094220062559755829 0 -0.010807222775045224 -0.010179226787857935 0 -0.010738991204752885 -0.010319554161810782 0 -0.010637971825011363 -0.010315291526994308 0 -0.010623919549199275 -0.010273407346126195 0 -0.010738991204752885 -0.010319554161810782 0 -0.010623919549199275 -0.010273407346126195 0 -0.010807222775045224 -0.010179226787857935 0 -0.011025852989231142 -0.0087394275195538159 0 -0.011101529529769037 -0.0090393859623507569 0 -0.011025852989231142 -0.0087394275195538159 0 -0.010955125951890536 -0.0099986778896646016 0 -0.01072818611858556 -0.010379948723190507 0 -0.010738991204752885 -0.010319554161810782 0 -0.010637971825011363 -0.010315291526994308 0 -0.011215397112784032 -0.0075761227088251204 0 -0.011337166105221364 -0.0075961816182474927 0 -0.011350041658661877 -0.0077610267820424602 0 -0.011337166105221364 -0.0075961816182474927 0 -0.011399501640302333 -0.0076386004574023466 0 -0.011350041658661877 -0.0077610267820424602 0 -0.011428659983098744 -0.0075305068802762453 0 -0.011399501640302333 -0.0076386004574023466 0 -0.011482158281648881 -0.0076668137820978715 0 -0.011428659983098744 -0.0075305068802762453 0 -0.011337166105221364 -0.0075961816182474927 0 -0.011399501640302333 -0.0076386004574023466 0 -0.011399501640302333 -0.0076386004574023466 0 -0.011482158281648881 -0.0076668137820978715 0 -0.011350041658661877 -0.0077610267820424602 0 -0.010162058104875284 -0.0096324838894786408 0 -0.011101529529769037 -0.0090393859623507569 0 -0.010598095205099358 -0.01028904045819432 0 -0.010637971825011363 -0.010315291526994308 0 -0.010623919549199275 -0.010273407346126195 0 -0.011489639689819109 -0.0079591436676461937 0 -0.011482158281648881 -0.0076668137820978715 0 -0.011350041658661877 -0.0077610267820424602 0 -0.010598095205099358 -0.01028904045819432 0 -0.010623919549199275 -0.010273407346126195 0 -0.010543707309746223 -0.010367122829472794 0 -0.010162058104875284 -0.0096324838894786408 0 -0.010118053594293075 -0.010748410555605806 0 -0.010623919549199275 -0.010273407346126195 0 -0.010564791337829779 -0.010393962406544792 0 -0.010543707309746223 -0.010367122829472794 0 -0.010623919549199275 -0.010273407346126195 0 -0.010564791337829779 -0.010393962406544792 0 -0.010807222775045224 -0.010179226787857935 0 -0.010564791337829779 -0.010393962406544792 0 -0.010543707309746223 -0.010367122829472794 0 -0.010235774053306442 -0.010517583482828802 0 -0.010564791337829779 -0.010393962406544792 0 -0.010235774053306442 -0.010517583482828802 0 -0.010420284168153243 -0.010492200448269783 0 -0.0095229989971347771 -0.010631780358679834 0 -0.0098540482352358263 -0.010829183565710224 0 -0.0097014291508207007 -0.010502947198232668 0 -0.0098540482352358263 -0.010829183565710224 0 -0.0097014291508207007 -0.010502947198232668 0 -0.010235774053306442 -0.010517583482828802 0 -0.010118053594293075 -0.010748410555605806 0 -0.010278484780291943 -0.010444524811640998 0 -0.0097014291508207007 -0.010502947198232668 0 -0.010235774053306442 -0.010517583482828802 0 -0.0096130329920531572 -0.010060369006654185 0 -0.010235774053306442 -0.010517583482828802 0 -0.010420284168153243 -0.010492200448269783 0 -0.01034637680376994 -0.01040714806535409 0 -0.01034637680376994 -0.01040714806535409 0 -0.0096130329920531572 -0.010060369006654185 0 -0.010261570513182916 -0.0097654971638679276 0 -0.010235774053306442 -0.010517583482828802 0 -0.01034637680376994 -0.01040714806535409 0 -0.0096130329920531572 -0.010060369006654185 0 -0.01034637680376994 -0.01040714806535409 0 -0.010385837390651057 -0.010645430532170614 0 -0.010489313194129605 -0.010543774905531197 0 -0.01034637680376994 -0.01040714806535409 0 -0.010385837390651057 -0.010645430532170614 0 -0.010261570513182916 -0.0097654971638679276 0 -0.010420284168153243 -0.010492200448269783 0 -0.01034637680376994 -0.01040714806535409 0 -0.010489313194129605 -0.010543774905531197 0 -0.010385837390651057 -0.010645430532170614 0 -0.010489313194129605 -0.010543774905531197 0 -0.010483057727245827 -0.010668322050332578 0 -0.010385837390651057 -0.010645430532170614 0 -0.010483057727245827 -0.010668322050332578 0 -0.01060461217958575 -0.010854988304214457 0 -0.010489313194129605 -0.010543774905531197 0 -0.010483057727245827 -0.010668322050332578 0 -0.010574412225717162 -0.010356201089013323 0 -0.010564791337829779 -0.010393962406544792 0 -0.010489313194129605 -0.010543774905531197 0 -0.010574412225717162 -0.010356201089013323 0 -0.010564791337829779 -0.010393962406544792 0 -0.010420284168153243 -0.010492200448269783 0 -0.010489313194129605 -0.010543774905531197 0 -0.010561719231252993 -0.0097371944541953612 0 -0.010807222775045224 -0.010179226787857935 0 -0.010574412225717162 -0.010356201089013323 0 -0.010564791337829779 -0.010393962406544792 0 -0.010807222775045224 -0.010179226787857935 0 -0.010574412225717162 -0.010356201089013323 0 -0.010561719231252993 -0.0097371944541953612 0 -0.010574412225717162 -0.010356201089013323 0 -0.010019867833085181 -0.010421970588477771 0 -0.010912030217224773 -0.01143726094357086 0 -0.011385898909793147 -0.0113770678630519 0 -0.011394727789062828 -0.011713642342391802 0 -0.010476407291351037 -0.010921529288905468 0 -0.010432830302638876 -0.010540661336655347 0 -0.010912030217224773 -0.01143726094357086 0 -0.011394727789062828 -0.011713642342391802 0 -0.01121438194553431 -0.011863462554235165 0 -0.010912030217224773 -0.01143726094357086 0 -0.01060461217958575 -0.010854988304214457 0 -0.011385898909793147 -0.0113770678630519 0 -0.010483057727245827 -0.010668322050332578 0 -0.010574412225717162 -0.010356201089013323 0 -0.010019867833085181 -0.010421970588477771 0 -0.010476407291351037 -0.010921529288905468 0 -0.010574977424553728 -0.010813157243803339 0 -0.010483057727245827 -0.010668322050332578 0 -0.010019867833085181 -0.010421970588477771 0 -0.01060461217958575 -0.010854988304214457 0 -0.01060461217958575 -0.010854988304214457 0 -0.011269616800050683 -0.010942680241283949 0 -0.011385898909793147 -0.0113770678630519 0 -0.01060461217958575 -0.010854988304214457 0 -0.011006626824625085 -0.010783495982693736 0 -0.010582338185595471 -0.010708004606868316 0 -0.01060461217958575 -0.010854988304214457 0 -0.011006626824625085 -0.010783495982693736 0 -0.011269616800050683 -0.010942680241283949 0 -0.010385837390651057 -0.010645430532170614 0 -0.01060461217958575 -0.010854988304214457 0 -0.010582338185595471 -0.010708004606868316 0 -0.011597647117942594 -0.010806964031674906 0 -0.011269616800050683 -0.010942680241283949 0 -0.011742244896710831 -0.011038691446864811 0 -0.011006626824625085 -0.010783495982693736 0 -0.011597647117942594 -0.010806964031674906 0 -0.011269616800050683 -0.010942680241283949 0 -0.011269616800050683 -0.010942680241283949 0 -0.011742244896710831 -0.011038691446864811 0 -0.011385898909793147 -0.0113770678630519 0 -0.011742244896710831 -0.011038691446864811 0 -0.011804310613140079 -0.011301516321873966 0 -0.011385898909793147 -0.0113770678630519 0 -0.011742244896710831 -0.011038691446864811 0 -0.011804310613140079 -0.011301516321873966 0 -0.012068170064359302 -0.01112631707415389 0 -0.011385898909793147 -0.0113770678630519 0 -0.01175950947043628 -0.011591875146495451 0 -0.011394727789062828 -0.011713642342391802 0 -0.011804310613140079 -0.011301516321873966 0 -0.011385898909793147 -0.0113770678630519 0 -0.01175950947043628 -0.011591875146495451 0 -0.011804310613140079 -0.011301516321873966 0 -0.01175950947043628 -0.011591875146495451 0 -0.012129315846537135 -0.011417085912085867 0 -0.01175950947043628 -0.011591875146495451 0 -0.011664618669476401 -0.011820089409458277 0 -0.012001370067236127 -0.01182613988985028 0 -0.01175950947043628 -0.011591875146495451 0 -0.011664618669476401 -0.011820089409458277 0 -0.011394727789062828 -0.011713642342391802 0 -0.011664618669476401 -0.011820089409458277 0 -0.011937770744642175 -0.012018566054862475 0 -0.012001370067236127 -0.01182613988985028 0 -0.01143706950894444 -0.011983266606672786 0 -0.012197645908929036 -0.012422580550469456 0 -0.011937770744642175 -0.012018566054862475 0 -0.011230309334444041 -0.01278947344933839 0 -0.012516017224460243 -0.0093715191695432666 0 -0.011664618669476401 -0.011820089409458277 0 -0.01143706950894444 -0.011983266606672786 0 -0.011937770744642175 -0.012018566054862475 0 -0.011664618669476401 -0.011820089409458277 0 -0.01143706950894444 -0.011983266606672786 0 -0.011394727789062828 -0.011713642342391802 0 -0.01143706950894444 -0.011983266606672786 0 -0.011394727789062828 -0.011713642342391802 0 -0.01121438194553431 -0.011863462554235165 0 -0.010561719231252993 -0.0097371944541953612 0 -0.010019867833085181 -0.010421970588477771 0 -0.0096427902754565378 -0.0095207064598551092 0 -0.010682502315161466 -0.0086671744441118373 0 -0.010561719231252993 -0.0097371944541953612 0 -0.0096427902754565378 -0.0095207064598551092 0 -0.010682502315161466 -0.0086671744441118373 0 -0.0096427902754565378 -0.0095207064598551092 0 -0.0093563479793916503 -0.0079361736908305242 0 -0.01143706950894444 -0.011983266606672786 0 -0.01121438194553431 -0.011863462554235165 0 -0.011452920068629371 -0.011844237807518128 0 -0.010432830302638876 -0.010540661336655347 0 -0.010342274809154983 -0.010405769408320139 0 -0.010682502315161466 -0.0086671744441118373 0 -0.0093563479793916503 -0.0079361736908305242 0 -0.010430557622344606 -0.0075007367505645134 0 -0.0093563479793916503 -0.0079361736908305242 0 -0.010430557622344606 -0.0075007367505645134 0 -0.010324425298503302 -0.0064532472109923248 0 -0.010847578023155859 -0.005549891124524255 0 -0.011430727630861634 -0.0068811129047574799 0 -0.010324425298503302 -0.0064532472109923248 0 -0.011430727630861634 -0.0068811129047574799 0 -0.010430557622344606 -0.0075007367505645134 0 -0.010324425298503302 -0.0064532472109923248 0 -0.011507243670505958 -0.011502770773168891 0 -0.011452920068629371 -0.011844237807518128 0 -0.011378356738219615 -0.011671395548748627 0 -0.0092782866974165396 -0.0057029480876238797 0 -0.0093563479793916503 -0.0079361736908305242 0 -0.010324425298503302 -0.0064532472109923248 0 -0.011020478755283626 -0.0062441637569707721 0 -0.010342274809154983 -0.010405769408320139 0 -0.011020478755283626 -0.0062441637569707721 0 -0.011670866722552612 -0.0070260306806927573 0 -0.012056179564473532 -0.0025895588635360838 0 -0.012078878189371554 -0.0022179681773761006 0 -0.012276850958390017 -0.002223478373521541 0 -0.0134931968465081 -0.0020766770820724247 0 -0.012056179564473532 -0.0025895588635360838 0 -0.01371953278695128 -0.001415177386935201 0 -0.011670866722552612 -0.0070260306806927573 0 -0.01181021628319291 -0.0068647520281486319 0 -0.012078878189371554 -0.0022179681773761006 0 -0.012276850958390017 -0.002223478373521541 0 -0.012280459165552931 -0.0023080574033622178 0 -0.01197009171039941 -0.0028549632627772529 0 -0.013164890125988832 -0.0010824887574575643 0 -0.0134931968465081 -0.0020766770820724247 0 -0.01371953278695128 -0.001415177386935201 0 -0.014044016623320946 -0.0018257067470550349 0 -0.01143706950894444 -0.011983266606672786 0 -0.011310285332707974 -0.011767874147813762 0 -0.011187199059073238 -0.0118589736413832 0 -0.01143706950894444 -0.011983266606672786 0 -0.011310285332707974 -0.011767874147813762 0 -0.011400217446991654 -0.0118179434533612 0 -0.01143706950894444 -0.011983266606672786 0 -0.011452920068629371 -0.011844237807518128 0 -0.011400217446991654 -0.0118179434533612 0 -0.011452920068629371 -0.011844237807518128 0 -0.011378356738219615 -0.011671395548748627 0 -0.011400217446991654 -0.0118179434533612 0 -0.011378356738219615 -0.011671395548748627 0 -0.011310285332707974 -0.011767874147813762 0 -0.011400217446991654 -0.0118179434533612 0 -0.014925324254495897 -0.001183893236171668 0 -0.014585952012904638 -0.00084110858206017699 0 -0.015455658380864427 -0.0011948124522275952 0 -0.014610368644989347 -0.0067740553032271233 0 -0.01445484025770026 -0.0067005986384436082 0 -0.014488829481803005 -0.0067999390918488979 0 -0.013416848157479261 -0.0059025112764309962 0 -0.015098281639268086 -0.0037798603029544162 0 -0.014925324254495897 -0.001183893236171668 0 -0.01478301994723573 -0.0013231074290734248 0 -0.014634250587128415 -0.0011459485070478483 0 -0.01478301994723573 -0.0013231074290734248 0 -0.014634250587128415 -0.0011459485070478483 0 -0.01458326474504416 -0.0013719723688692695 0 -0.014925324254495897 -0.001183893236171668 0 -0.01478301994723573 -0.0013231074290734248 0 -0.014954147237855436 -0.0014559434248005115 0 -0.014925324254495897 -0.001183893236171668 0 -0.01513302406894107 -0.0013419438157250647 0 -0.015455658380864427 -0.0011948124522275952 0 -0.014925324254495897 -0.001183893236171668 0 -0.01513302406894107 -0.0013419438157250647 0 -0.014954147237855436 -0.0014559434248005115 0 -0.01513302406894107 -0.0013419438157250647 0 -0.015348038102236594 -0.0012859355708455986 0 -0.015286893245026443 -0.0013945869606606122 0 -0.01513302406894107 -0.0013419438157250647 0 -0.015207659914068979 -0.0014535238345597197 0 -0.015286893245026443 -0.0013945869606606122 0 -0.014925324254495897 -0.001183893236171668 0 -0.014585952012904638 -0.00084110858206017699 0 -0.014634250587128415 -0.0011459485070478483 0 -0.012276850958390017 -0.002223478373521541 0 -0.012280459165552931 -0.0023080574033622178 0 -0.012041824446478212 -0.0025368445745223276 0 -0.01371953278695128 -0.001415177386935201 0 -0.014585952012904638 -0.00084110858206017699 0 -0.014354040717683854 -0.0013919366934900797 0 -0.014585952012904638 -0.00084110858206017699 0 -0.014634250587128415 -0.0011459485070478483 0 -0.014354040717683854 -0.0013919366934900797 0 -0.012280459165552931 -0.0023080574033622178 0 -0.012041824446478212 -0.0025368445745223276 0 -0.012086612852879616 -0.0025520275421696374 0 -0.01181021628319291 -0.0068647520281486319 0 -0.012516017224460243 -0.0093715191695432666 0 -0.013164890125988832 -0.0010824887574575643 0 -0.013416848157479261 -0.0059025112764309962 0 -0.013416848157479261 -0.0059025112764309962 0 -0.012516017224460243 -0.0093715191695432666 0 -0.014634250587128415 -0.0011459485070478483 0 -0.01458326474504416 -0.0013719723688692695 0 -0.014354040717683854 -0.0013919366934900797 0 -0.01458326474504416 -0.0013719723688692695 0 -0.014518794183208039 -0.0015661119012857036 0 -0.014798931587776634 -0.001570676989201422 0 -0.01458326474504416 -0.0013719723688692695 0 -0.014354040717683854 -0.0013919366934900797 0 -0.014518794183208039 -0.0015661119012857036 0 -0.014354040717683854 -0.0013919366934900797 0 -0.014518794183208039 -0.0015661119012857036 0 -0.014385091112143849 -0.0017211102511455717 0 -0.014518794183208039 -0.0015661119012857036 0 -0.014646790437563463 -0.0017204499850036873 0 -0.014385091112143849 -0.0017211102511455717 0 -0.014518794183208039 -0.0015661119012857036 0 -0.014646790437563463 -0.0017204499850036873 0 -0.014798931587776634 -0.001570676989201422 0 -0.01371953278695128 -0.001415177386935201 0 -0.014354040717683854 -0.0013919366934900797 0 -0.014044016623320946 -0.0018257067470550349 0 -0.014354040717683854 -0.0013919366934900797 0 -0.014044016623320946 -0.0018257067470550349 0 -0.014385091112143849 -0.0017211102511455717 0 -0.014183962053174213 -0.0021518501906763747 0 -0.014351209742427543 -0.0019838331741270261 0 -0.014044016623320946 -0.0018257067470550349 0 -0.014351209742427543 -0.0019838331741270261 0 -0.014044016623320946 -0.0018257067470550349 0 -0.014385091112143849 -0.0017211102511455717 0 -0.014646790437563463 -0.0017204499850036873 0 -0.014385091112143849 -0.0017211102511455717 0 -0.014615718799838922 -0.0019333008620197184 0 -0.014575164908153287 -0.0021666126993747873 0 -0.014351209742427543 -0.0019838331741270261 0 -0.014615718799838922 -0.0019333008620197184 0 -0.014351209742427543 -0.0019838331741270261 0 -0.014385091112143849 -0.0017211102511455717 0 -0.014615718799838922 -0.0019333008620197184 0 -0.014787757245832915 -0.0021805674885255746 0 -0.014615718799838922 -0.0019333008620197184 0 -0.014827320541953407 -0.0019342928407030085 0 -0.015025473167595131 -0.0021020001733102855 0 -0.014827320541953407 -0.0019342928407030085 0 -0.014990593352584274 -0.00190263029479166 0 -0.014827320541953407 -0.0019342928407030085 0 -0.014990593352584274 -0.00190263029479166 0 -0.014865298094352334 -0.0017604803834290743 0 -0.014990593352584274 -0.00190263029479166 0 -0.014865298094352334 -0.0017604803834290743 0 -0.015017751205909112 -0.0017101100832258068 0 -0.014646790437563463 -0.0017204499850036873 0 -0.014615718799838922 -0.0019333008620197184 0 -0.014827320541953407 -0.0019342928407030085 0 -0.014646790437563463 -0.0017204499850036873 0 -0.014827320541953407 -0.0019342928407030085 0 -0.014865298094352334 -0.0017604803834290743 0 -0.014646790437563463 -0.0017204499850036873 0 -0.014865298094352334 -0.0017604803834290743 0 -0.014798931587776634 -0.001570676989201422 0 -0.014865298094352334 -0.0017604803834290743 0 -0.014798931587776634 -0.001570676989201422 0 -0.015017751205909112 -0.0017101100832258068 0 -0.014798931587776634 -0.001570676989201422 0 -0.014954147237855436 -0.0014559434248005115 0 -0.015017751205909112 -0.0017101100832258068 0 -0.01478301994723573 -0.0013231074290734248 0 -0.014798931587776634 -0.001570676989201422 0 -0.014954147237855436 -0.0014559434248005115 0 -0.01478301994723573 -0.0013231074290734248 0 -0.01458326474504416 -0.0013719723688692695 0 -0.014798931587776634 -0.001570676989201422 0 -0.015207659914068979 -0.0014535238345597197 0 -0.015122328925621794 -0.0015339144130570421 0 -0.015284572976224679 -0.0015443397071403038 0 -0.01513302406894107 -0.0013419438157250647 0 -0.015207659914068979 -0.0014535238345597197 0 -0.015122328925621794 -0.0015339144130570421 0 -0.015207659914068979 -0.0014535238345597197 0 -0.015284572976224679 -0.0015443397071403038 0 -0.015286893245026443 -0.0013945869606606122 0 -0.014954147237855436 -0.0014559434248005115 0 -0.015122328925621794 -0.0015339144130570421 0 -0.015017751205909112 -0.0017101100832258068 0 -0.01513302406894107 -0.0013419438157250647 0 -0.014954147237855436 -0.0014559434248005115 0 -0.015122328925621794 -0.0015339144130570421 0 -0.015122328925621794 -0.0015339144130570421 0 -0.015017751205909112 -0.0017101100832258068 0 -0.015170395514388979 -0.0016929330643183154 0 -0.015170395514388979 -0.0016929330643183154 0 -0.015284572976224679 -0.0015443397071403038 0 -0.015321766474835992 -0.0017204961857456113 0 -0.015122328925621794 -0.0015339144130570421 0 -0.015170395514388979 -0.0016929330643183154 0 -0.015284572976224679 -0.0015443397071403038 0 -0.015384378926219036 -0.0021091991277090907 0 -0.015025473167595131 -0.0021020001733102855 0 -0.015177589874979696 -0.0018912926518710506 0 -0.015170395514388979 -0.0016929330643183154 0 -0.015177589874979696 -0.0018912926518710506 0 -0.015321766474835992 -0.0017204961857456113 0 -0.015017751205909112 -0.0017101100832258068 0 -0.015170395514388979 -0.0016929330643183154 0 -0.015177589874979696 -0.0018912926518710506 0 -0.014990593352584274 -0.00190263029479166 0 -0.015017751205909112 -0.0017101100832258068 0 -0.015177589874979696 -0.0018912926518710506 0 -0.015025473167595131 -0.0021020001733102855 0 -0.014990593352584274 -0.00190263029479166 0 -0.015177589874979696 -0.0018912926518710506 0 -0.015384378926219036 -0.0021091991277090907 0 -0.015494524544091485 -0.0018978457012140137 0 -0.015720608786934639 -0.0020602423822413196 0 -0.015384378926219036 -0.0021091991277090907 0 -0.015177589874979696 -0.0018912926518710506 0 -0.015494524544091485 -0.0018978457012140137 0 -0.015177589874979696 -0.0018912926518710506 0 -0.015494524544091485 -0.0018978457012140137 0 -0.015321766474835992 -0.0017204961857456113 0 -0.015494524544091485 -0.0018978457012140137 0 -0.015659938525644006 -0.0016980345455619231 0 -0.015484697087873684 -0.0017183676220906123 0 -0.015494524544091485 -0.0018978457012140137 0 -0.015321766474835992 -0.0017204961857456113 0 -0.015484697087873684 -0.0017183676220906123 0 -0.015494524544091485 -0.0018978457012140137 0 -0.015720608786934639 -0.0020602423822413196 0 -0.015659938525644006 -0.0016980345455619231 0 -0.015720608786934639 -0.0020602423822413196 0 -0.015659938525644006 -0.0016980345455619231 0 -0.015896094399080688 -0.0018456807155891825 0 -0.015659938525644006 -0.0016980345455619231 0 -0.015738421633807155 -0.0015181844129695172 0 -0.01588084871012525 -0.0016612019156047497 0 -0.015659938525644006 -0.0016980345455619231 0 -0.015896094399080688 -0.0018456807155891825 0 -0.01588084871012525 -0.0016612019156047497 0 -0.015659938525644006 -0.0016980345455619231 0 -0.015738421633807155 -0.0015181844129695172 0 -0.015583007716756306 -0.001482452057766068 0 -0.015738421633807155 -0.0015181844129695172 0 -0.015583007716756306 -0.001482452057766068 0 -0.015617274267416308 -0.0014031528059669362 0 -0.015659938525644006 -0.0016980345455619231 0 -0.015583007716756306 -0.001482452057766068 0 -0.01546197507129651 -0.0015568582683731682 0 -0.015583007716756306 -0.001482452057766068 0 -0.01546197507129651 -0.0015568582683731682 0 -0.015471917805438771 -0.0014092488887902908 0 -0.01546197507129651 -0.0015568582683731682 0 -0.015378007170441493 -0.0014557873332296958 0 -0.015471917805438771 -0.0014092488887902908 0 -0.01546197507129651 -0.0015568582683731682 0 -0.015378007170441493 -0.0014557873332296958 0 -0.015284572976224679 -0.0015443397071403038 0 -0.015378007170441493 -0.0014557873332296958 0 -0.015284572976224679 -0.0015443397071403038 0 -0.015286893245026443 -0.0013945869606606122 0 -0.01546197507129651 -0.0015568582683731682 0 -0.015321766474835992 -0.0017204961857456113 0 -0.015484697087873684 -0.0017183676220906123 0 -0.01546197507129651 -0.0015568582683731682 0 -0.015284572976224679 -0.0015443397071403038 0 -0.015321766474835992 -0.0017204961857456113 0 -0.015659938525644006 -0.0016980345455619231 0 -0.01546197507129651 -0.0015568582683731682 0 -0.015484697087873684 -0.0017183676220906123 0 -0.01630496794672134 -0.0021960041625272517 0 -0.01613068642005043 -0.001829111699859621 0 -0.016521612159839775 -0.0017709066508654143 0 -0.01630496794672134 -0.0021960041625272517 0 -0.01613068642005043 -0.001829111699859621 0 -0.01603850891356412 -0.0020679832485272069 0 -0.015720608786934639 -0.0020602423822413196 0 -0.01603850891356412 -0.0020679832485272069 0 -0.015896094399080688 -0.0018456807155891825 0 -0.01613068642005043 -0.001829111699859621 0 -0.01603850891356412 -0.0020679832485272069 0 -0.015896094399080688 -0.0018456807155891825 0 -0.01613068642005043 -0.001829111699859621 0 -0.01588084871012525 -0.0016612019156047497 0 -0.016006154725698631 -0.0014978960846430331 0 -0.01613068642005043 -0.001829111699859621 0 -0.015896094399080688 -0.0018456807155891825 0 -0.01588084871012525 -0.0016612019156047497 0 -0.015738421633807155 -0.0015181844129695172 0 -0.01588084871012525 -0.0016612019156047497 0 -0.016006154725698631 -0.0014978960846430331 0 -0.015291016602413924 -0.0038275448467142985 0 -0.015357033405191765 -0.0038152201647145526 0 -0.015448346556115329 -0.003890744638501475 0 -0.014811705583900478 -0.0055201769121526597 0 -0.015711051169419378 -0.0034002352120260813 0 -0.015580219174709612 -0.0026695360658611843 0 -0.015711051169419378 -0.0034002352120260813 0 -0.01613068642005043 -0.001829111699859621 0 -0.016006154725698631 -0.0014978960846430331 0 -0.016521612159839775 -0.0017709066508654143 0 -0.015291016602413924 -0.0038275448467142985 0 -0.015357033405191765 -0.0038152201647145526 0 -0.015134128589714715 -0.0037610367566410959 0 -0.014307996342084324 -0.0066635330242669471 0 -0.014297131527778653 -0.0067748694091086586 0 -0.014400837171765712 -0.0067710926427931566 0 -0.014811705583900478 -0.0055201769121526597 0 -0.014429190577894562 -0.0069274295774527771 0 -0.014307996342084324 -0.0066635330242669471 0 -0.014297131527778653 -0.0067748694091086586 0 -0.01422342913426217 -0.0067193435465668491 0 -0.014811705583900478 -0.0055201769121526597 0 -0.015098281639268086 -0.0037798603029544162 0 -0.014278331825117216 -0.0066296191407509645 0 -0.01445484025770026 -0.0067005986384436082 0 -0.014400837171765712 -0.0067710926427931566 0 -0.01513302406894107 -0.0013419438157250647 0 -0.015455658380864427 -0.0011948124522275952 0 -0.015348038102236594 -0.0012859355708455986 0 -0.015455658380864427 -0.0011948124522275952 0 -0.015348038102236594 -0.0012859355708455986 0 -0.015445415440690603 -0.0013177390909995897 0 -0.015348038102236594 -0.0012859355708455986 0 -0.015386214330001362 -0.0013727276570079455 0 -0.015445415440690603 -0.0013177390909995897 0 -0.015348038102236594 -0.0012859355708455986 0 -0.015386214330001362 -0.0013727276570079455 0 -0.015286893245026443 -0.0013945869606606122 0 -0.015378007170441493 -0.0014557873332296958 0 -0.015386214330001362 -0.0013727276570079455 0 -0.015471917805438771 -0.0014092488887902908 0 -0.015378007170441493 -0.0014557873332296958 0 -0.015386214330001362 -0.0013727276570079455 0 -0.015286893245026443 -0.0013945869606606122 0 -0.015471917805438771 -0.0014092488887902908 0 -0.015445415440690603 -0.0013177390909995897 0 -0.015617274267416308 -0.0014031528059669362 0 -0.015455658380864427 -0.0011948124522275952 0 -0.015445415440690603 -0.0013177390909995897 0 -0.015617274267416308 -0.0014031528059669362 0 -0.015583007716756306 -0.001482452057766068 0 -0.015471917805438771 -0.0014092488887902908 0 -0.015617274267416308 -0.0014031528059669362 0 -0.015386214330001362 -0.0013727276570079455 0 -0.015471917805438771 -0.0014092488887902908 0 -0.015445415440690603 -0.0013177390909995897 0 -0.015580219174709612 -0.0026695360658611843 0 -0.015098281639268086 -0.0037798603029544162 0 -0.016006154725698631 -0.0014978960846430331 0 -0.015455658380864427 -0.0011948124522275952 0 -0.015617274267416308 -0.0014031528059669362 0 -0.015738421633807155 -0.0015181844129695172 0 -0.016006154725698631 -0.0014978960846430331 0 -0.015617274267416308 -0.0014031528059669362 0 -0.01445484025770026 -0.0067005986384436082 0 -0.014400837171765712 -0.0067710926427931566 0 -0.014488829481803005 -0.0067999390918488979 0 -0.014400837171765712 -0.0067710926427931566 0 -0.014439912727428908 -0.0068670335313642623 0 -0.014488829481803005 -0.0067999390918488979 0 -0.014400837171765712 -0.0067710926427931566 0 -0.014439912727428908 -0.0068670335313642623 0 -0.014346335338335098 -0.0068805626252324186 0 -0.014439912727428908 -0.0068670335313642623 0 -0.014346335338335098 -0.0068805626252324186 0 -0.014446215747516934 -0.0069743980990465988 0 -0.014439912727428908 -0.0068670335313642623 0 -0.014446215747516934 -0.0069743980990465988 0 -0.014530051885057734 -0.0068761141368650289 0 -0.014297131527778653 -0.0067748694091086586 0 -0.014346335338335098 -0.0068805626252324186 0 -0.0142042806378878 -0.0068427586409697937 0 -0.014297131527778653 -0.0067748694091086586 0 -0.014400837171765712 -0.0067710926427931566 0 -0.014346335338335098 -0.0068805626252324186 0 -0.014346335338335098 -0.0068805626252324186 0 -0.014446215747516934 -0.0069743980990465988 0 -0.014280912378612971 -0.0070532619685310235 0 -0.013606850830891129 -0.010625488840621941 0 -0.014356250460599497 -0.0090173239706974537 0 -0.014346335338335098 -0.0068805626252324186 0 -0.014280912378612971 -0.0070532619685310235 0 -0.0142042806378878 -0.0068427586409697937 0 -0.013606850830891129 -0.010625488840621941 0 -0.013669458069703034 -0.011583322905303105 0 -0.013053771247422281 -0.012000499148821647 0 -0.012714433596346511 -0.011694387076056776 0 -0.013011401002922625 -0.011544261388486118 0 -0.013053771247422281 -0.012000499148821647 0 -0.012549237820780343 -0.01189611897618276 0 -0.012714433596346511 -0.011694387076056776 0 -0.013606850830891129 -0.010625488840621941 0 -0.0120066569190222 -0.012489528241131238 0 -0.013053771247422281 -0.012000499148821647 0 -0.012549237820780343 -0.01189611897618276 0 -0.012252237467862227 -0.01212788641172648 0 -0.012549237820780343 -0.01189611897618276 0 -0.012428709754356421 -0.011723258217238443 0 -0.012307996259084322 -0.011905908210407219 0 -0.012549237820780343 -0.01189611897618276 0 -0.012428709754356421 -0.011723258217238443 0 -0.012714433596346511 -0.011694387076056776 0 -0.013606850830891129 -0.010625488840621941 0 -0.01339585772161544 -0.0096380176702543369 0 -0.013039886091260467 -0.011696463980384068 0 -0.012668623836296763 -0.012112757274466623 0 -0.012252237467862227 -0.01212788641172648 0 -0.014610368644989347 -0.0067740553032271233 0 -0.014530051885057734 -0.0068761141368650289 0 -0.014488829481803005 -0.0067999390918488979 0 -0.012668623836296763 -0.012112757274466623 0 -0.012515680886985587 -0.012193191882213792 0 -0.012252237467862227 -0.01212788641172648 0 -0.013416848157479261 -0.0059025112764309962 0 -0.01339585772161544 -0.0096380176702543369 0 -0.012331731574859455 -0.012391446682867248 0 -0.012668623836296763 -0.012112757274466623 0 -0.012515680886985587 -0.012193191882213792 0 -0.014439912727428908 -0.0068670335313642623 0 -0.014530051885057734 -0.0068761141368650289 0 -0.014488829481803005 -0.0067999390918488979 0 -0.012515680886985587 -0.012193191882213792 0 -0.012197645908929036 -0.012422580550469456 0 -0.012252237467862227 -0.01212788641172648 0 -0.012331731574859455 -0.012391446682867248 0 -0.012515680886985587 -0.012193191882213792 0 -0.012240999175363549 -0.012357622903828698 0 -0.011780775495125236 -0.012041716562050239 0 -0.012516017224460243 -0.0093715191695432666 0 -0.012252237467862227 -0.01212788641172648 0 -0.011937770744642175 -0.012018566054862475 0 -0.012132610168610307 -0.011977947654805339 0 -0.012197645908929036 -0.012422580550469456 0 -0.012252237467862227 -0.01212788641172648 0 -0.011937770744642175 -0.012018566054862475 0 -0.011937770744642175 -0.012018566054862475 0 -0.012132610168610307 -0.011977947654805339 0 -0.012001370067236127 -0.01182613988985028 0 -0.012132610168610307 -0.011977947654805339 0 -0.012307996259084322 -0.011905908210407219 0 -0.012001370067236127 -0.01182613988985028 0 -0.012252237467862227 -0.01212788641172648 0 -0.012132610168610307 -0.011977947654805339 0 -0.012307996259084322 -0.011905908210407219 0 -0.012549237820780343 -0.01189611897618276 0 -0.012252237467862227 -0.01212788641172648 0 -0.012307996259084322 -0.011905908210407219 0 -0.012307996259084322 -0.011905908210407219 0 -0.012217678358204852 -0.011775876379130301 0 -0.012001370067236127 -0.01182613988985028 0 -0.012428709754356421 -0.011723258217238443 0 -0.012307996259084322 -0.011905908210407219 0 -0.012217678358204852 -0.011775876379130301 0 -0.012428709754356421 -0.011723258217238443 0 -0.012217678358204852 -0.011775876379130301 0 -0.012142928755171875 -0.011644226340554171 0 -0.012217678358204852 -0.011775876379130301 0 -0.012001370067236127 -0.01182613988985028 0 -0.012142928755171875 -0.011644226340554171 0 -0.01175950947043628 -0.011591875146495451 0 -0.012001370067236127 -0.01182613988985028 0 -0.012142928755171875 -0.011644226340554171 0 -0.01175950947043628 -0.011591875146495451 0 -0.012142928755171875 -0.011644226340554171 0 -0.012129315846537135 -0.011417085912085867 0 -0.012428709754356421 -0.011723258217238443 0 -0.012142928755171875 -0.011644226340554171 0 -0.012427400385217738 -0.011550750941630949 0 -0.012142928755171875 -0.011644226340554171 0 -0.012129315846537135 -0.011417085912085867 0 -0.012427400385217738 -0.011550750941630949 0 -0.012129315846537135 -0.011417085912085867 0 -0.012470044719047434 -0.011349796052959705 0 -0.01225215172972758 -0.011244401707245735 0 -0.012129315846537135 -0.011417085912085867 0 -0.012427400385217738 -0.011550750941630949 0 -0.012470044719047434 -0.011349796052959705 0 -0.012714433596346511 -0.011694387076056776 0 -0.012736009986491843 -0.011470841976558078 0 -0.013011401002922625 -0.011544261388486118 0 -0.012428709754356421 -0.011723258217238443 0 -0.012714433596346511 -0.011694387076056776 0 -0.012427400385217738 -0.011550750941630949 0 -0.012714433596346511 -0.011694387076056776 0 -0.012427400385217738 -0.011550750941630949 0 -0.012736009986491843 -0.011470841976558078 0 -0.012427400385217738 -0.011550750941630949 0 -0.012470044719047434 -0.011349796052959705 0 -0.012736009986491843 -0.011470841976558078 0 -0.012470044719047434 -0.011349796052959705 0 -0.012736009986491843 -0.011470841976558078 0 -0.012717609622572248 -0.011277547563701159 0 -0.012736009986491843 -0.011470841976558078 0 -0.012932790894117778 -0.011326965409610416 0 -0.013011401002922625 -0.011544261388486118 0 -0.012736009986491843 -0.011470841976558078 0 -0.012717609622572248 -0.011277547563701159 0 -0.012932790894117778 -0.011326965409610416 0 -0.012929446832520744 -0.011049735017835476 0 -0.012529577368323335 -0.011134798222713391 0 -0.013183192989743455 -0.010102701385528507 0 -0.012717609622572248 -0.011277547563701159 0 -0.012932790894117778 -0.011326965409610416 0 -0.012929446832520744 -0.011049735017835476 0 -0.012717609622572248 -0.011277547563701159 0 -0.012929446832520744 -0.011049735017835476 0 -0.012529577368323335 -0.011134798222713391 0 -0.012470044719047434 -0.011349796052959705 0 -0.012529577368323335 -0.011134798222713391 0 -0.01225215172972758 -0.011244401707245735 0 -0.012470044719047434 -0.011349796052959705 0 -0.012717609622572248 -0.011277547563701159 0 -0.012529577368323335 -0.011134798222713391 0 -0.011804310613140079 -0.011301516321873966 0 -0.012129315846537135 -0.011417085912085867 0 -0.012068170064359302 -0.01112631707415389 0 -0.012129315846537135 -0.011417085912085867 0 -0.01225215172972758 -0.011244401707245735 0 -0.012068170064359302 -0.01112631707415389 0 -0.012529577368323335 -0.011134798222713391 0 -0.01225215172972758 -0.011244401707245735 0 -0.012068170064359302 -0.01112631707415389 0 -0.011742244896710831 -0.011038691446864811 0 -0.012068170064359302 -0.01112631707415389 0 -0.012103283369605118 -0.010902977538416252 0 -0.012529577368323335 -0.011134798222713391 0 -0.012068170064359302 -0.01112631707415389 0 -0.012103283369605118 -0.010902977538416252 0 -0.012929446832520744 -0.011049735017835476 0 -0.013183192989743455 -0.010102701385528507 0 -0.013512638646275556 -0.01038009361712814 0 -0.012550597451594467 -0.011149738627824313 0 -0.012654679128526176 -0.010565186706954466 0 -0.012654679128526176 -0.010565186706954466 0 -0.012884713065788488 -0.010362942182654326 0 -0.013183192989743455 -0.010102701385528507 0 -0.013671405483424536 -0.0098976170409605553 0 -0.013512638646275556 -0.01038009361712814 0 -0.013183192989743455 -0.010102701385528507 0 -0.013671405483424536 -0.0098976170409605553 0 -0.013783596721334959 -0.0099312393796139615 0 -0.011597647117942594 -0.010806964031674906 0 -0.012103283369605118 -0.010902977538416252 0 -0.012005241991531248 -0.010736338996800215 0 -0.011597647117942594 -0.010806964031674906 0 -0.011742244896710831 -0.011038691446864811 0 -0.012103283369605118 -0.010902977538416252 0 -0.014052875913494186 -0.010023381499125131 0 -0.014721586115597584 -0.0094984928270564206 0 -0.013926443618191807 -0.0096923432069179125 0 -0.014052875913494186 -0.010023381499125131 0 -0.013671405483424536 -0.0098976170409605553 0 -0.013926443618191807 -0.0096923432069179125 0 -0.014052875913494186 -0.010023381499125131 0 -0.013671405483424536 -0.0098976170409605553 0 -0.013512638646275556 -0.01038009361712814 0 -0.014052875913494186 -0.010023381499125131 0 -0.013512638646275556 -0.01038009361712814 0 -0.014104329270166995 -0.01070398834422719 0 -0.014052875913494186 -0.010023381499125131 0 -0.014104329270166995 -0.01070398834422719 0 -0.014570603924067867 -0.010079742181117455 0 -0.013572876967438538 -0.011086063110486171 0 -0.013689380635259206 -0.011503306331395746 0 -0.014297210868303845 -0.010854864253742722 0 -0.013812806594354309 -0.01064334105903654 0 -0.013572876967438538 -0.011086063110486171 0 -0.014297210868303845 -0.010854864253742722 0 -0.012929446832520744 -0.011049735017835476 0 -0.013512638646275556 -0.01038009361712814 0 -0.014104329270166995 -0.01070398834422719 0 -0.012929446832520744 -0.011049735017835476 0 -0.013572876967438538 -0.011086063110486171 0 -0.013243966688064759 -0.011285840473269628 0 -0.012929446832520744 -0.011049735017835476 0 -0.013812806594354309 -0.01064334105903654 0 -0.013572876967438538 -0.011086063110486171 0 -0.012990869165976665 -0.011018496957428053 0 -0.013943881638328401 -0.010681010875844088 0 -0.012932790894117778 -0.011326965409610416 0 -0.012929446832520744 -0.011049735017835476 0 -0.013243966688064759 -0.011285840473269628 0 -0.013053771247422281 -0.012000499148821647 0 -0.013296455095146244 -0.011533454599950265 0 -0.013689380635259206 -0.011503306331395746 0 -0.012932790894117778 -0.011326965409610416 0 -0.013243966688064759 -0.011285840473269628 0 -0.013011401002922625 -0.011544261388486118 0 -0.013243966688064759 -0.011285840473269628 0 -0.013296455095146244 -0.011533454599950265 0 -0.013011401002922625 -0.011544261388486118 0 -0.013572876967438538 -0.011086063110486171 0 -0.013243966688064759 -0.011285840473269628 0 -0.013459827953784484 -0.011340893684235995 0 -0.013459827953784484 -0.011340893684235995 0 -0.013296455095146244 -0.011533454599950265 0 -0.013689380635259206 -0.011503306331395746 0 -0.013243966688064759 -0.011285840473269628 0 -0.013459827953784484 -0.011340893684235995 0 -0.013296455095146244 -0.011533454599950265 0 -0.013053771247422281 -0.012000499148821647 0 -0.013296455095146244 -0.011533454599950265 0 -0.013011401002922625 -0.011544261388486118 0 -0.013526144057352064 -0.011657240428490307 0 -0.014122396764796595 -0.011435336449035077 0 -0.013894578925638995 -0.011312195986615137 0 -0.013669458069703034 -0.011583322905303105 0 -0.014317941330782001 -0.010832818259556426 0 -0.014122396764796595 -0.011435336449035077 0 -0.013894578925638995 -0.011312195986615137 0 -0.014297210868303845 -0.010854864253742722 0 -0.013572876967438538 -0.011086063110486171 0 -0.013459827953784484 -0.011340893684235995 0 -0.013689380635259206 -0.011503306331395746 0 -0.014356250460599497 -0.0090173239706974537 0 -0.014414869373871663 -0.009354723399425861 0 -0.014122396764796595 -0.011435336449035077 0 -0.014918254649348969 -0.011138503086325118 0 -0.014297210868303845 -0.010854864253742722 0 -0.014280912378612971 -0.0070532619685310235 0 -0.014111774220901555 -0.0071382521802915511 0 -0.014118258833721973 -0.0069664209034492053 0 -0.014111774220901555 -0.0071382521802915511 0 -0.013973840570960327 -0.0070074405340469943 0 -0.014118258833721973 -0.0069664209034492053 0 -0.014918254649348969 -0.011138503086325118 0 -0.014812167971089628 -0.010316385255352986 0 -0.015344480658601008 -0.010510707790941603 0 -0.013812806594354309 -0.01064334105903654 0 -0.014297210868303845 -0.010854864253742722 0 -0.014812167971089628 -0.010316385255352986 0 -0.014918254649348969 -0.011138503086325118 0 -0.014297210868303845 -0.010854864253742722 0 -0.014812167971089628 -0.010316385255352986 0 -0.013943881638328401 -0.010681010875844088 0 -0.014895981790192442 -0.01034220235413536 0 -0.014104329270166995 -0.01070398834422719 0 -0.014570603924067867 -0.010079742181117455 0 -0.014960525167166411 -0.010372760872557191 0 -0.014895981790192442 -0.01034220235413536 0 -0.015733309355897843 -0.010064935446982556 0 -0.014570603924067867 -0.010079742181117455 0 -0.014960525167166411 -0.010372760872557191 0 -0.015376094778279725 -0.0097920555555121788 0 -0.014960525167166411 -0.010372760872557191 0 -0.015376094778279725 -0.0097920555555121788 0 -0.01578462954361811 -0.010043648315360124 0 -0.015257215894877836 -0.0095148727174885119 0 -0.014699918710024514 -0.0094094253945787472 0 -0.015040768830476912 -0.0090074754914734219 0 -0.014721586115597584 -0.0094984928270564206 0 -0.015084682379931637 -0.0088836733320771053 0 -0.014570603924067867 -0.010079742181117455 0 -0.015376094778279725 -0.0097920555555121788 0 -0.014721586115597584 -0.0094984928270564206 0 -0.014052875913494186 -0.010023381499125131 0 -0.014570603924067867 -0.010079742181117455 0 -0.014721586115597584 -0.0094984928270564206 0 -0.015380793183291105 -0.0069953247907555581 0 -0.014999963738580389 -0.0068873558788226808 0 -0.015000137067718538 -0.0077455549030751979 0 -0.015555503260665097 -0.0084555756262700652 0 -0.015228871081544866 -0.0078884532874732415 0 -0.015257215894877836 -0.0095148727174885119 0 -0.015555503260665097 -0.0084555756262700652 0 -0.015040768830476912 -0.0090074754914734219 0 -0.015157160747500601 -0.0087379502453046008 0 -0.015434862928890932 -0.0091105241300254904 0 -0.015376094778279725 -0.0097920555555121788 0 -0.01578462954361811 -0.010043648315360124 0 -0.015976118626711708 -0.0099823369860047462 0 -0.015157160747500601 -0.0087379502453046008 0 -0.015434862928890932 -0.0091105241300254904 0 -0.015222270249244609 -0.0084385321253291675 0 -0.015040768830476912 -0.0090074754914734219 0 -0.015157160747500601 -0.0087379502453046008 0 -0.015084682379931637 -0.0088836733320771053 0 -0.015344480658601008 -0.010510707790941603 0 -0.01578462954361811 -0.010043648315360124 0 -0.015822474868644968 -0.010711976053286328 0 -0.014812167971089628 -0.010316385255352986 0 -0.015344480658601008 -0.010510707790941603 0 -0.01578462954361811 -0.010043648315360124 0 -0.015555503260665097 -0.0084555756262700652 0 -0.014964960493896109 -0.0076383716639374551 0 -0.01578462954361811 -0.010043648315360124 0 -0.015976118626711708 -0.0099823369860047462 0 -0.015822474868644968 -0.010711976053286328 0 -0.015346960416009933 -0.0070176770707534725 0 -0.01500086489352016 -0.0066171765009578895 0 -0.015470718338961919 -0.0064136466700607641 0 -0.015346960416009933 -0.0070176770707534725 0 -0.014999998891175682 -0.0068879424295600717 0 -0.01500086489352016 -0.0066171765009578895 0 -0.015555503260665097 -0.0084555756262700652 0 -0.014999705406514895 -0.0068883685815234862 0 -0.015000862586995173 -0.0066171008421541623 0 -0.01548860688174715 -0.0063882481174490262 0 -0.014999994622835987 -0.0058680532868403837 0 -0.015001823917793243 -0.0066165941841852816 0 -0.014964960493896109 -0.0076383716639374551 0 -0.014918254649348969 -0.011138503086325118 0 -0.015344480658601008 -0.010510707790941603 0 -0.015822474868644968 -0.010711976053286328 0 -0.014414869373871663 -0.009354723399425861 0 -0.014964960493896109 -0.0076383716639374551 0 -0.014964960493896109 -0.0076383716639374551 0 -0.014804928779647132 -0.0060921713929304958 0 -0.014111774220901555 -0.0071382521802915511 0 -0.013940839786304568 -0.0072254674734783652 0 -0.013973840570960327 -0.0070074405340469943 0 -0.01548860688174715 -0.0063882481174490262 0 -0.014999994622835987 -0.0058680532868403837 0 -0.015662096758440561 -0.0055753121171413173 0 -0.014999994622835987 -0.0058680532868403837 0 -0.014999993209814941 -0.0051189930270407443 0 -0.015662096758440561 -0.0055753121171413173 0 -0.014999993209814941 -0.0051189930270407443 0 -0.015834030921959345 -0.0047653383396099253 0 -0.014999993990689209 -0.0043699399993320526 0 -0.014999993209814941 -0.0051189930270407443 0 -0.015834030921959345 -0.0047653383396099253 0 -0.015662096758440561 -0.0055753121171413173 0 -0.014907180317762572 -0.0059043239710296234 0 -0.014804928779647132 -0.0060921713929304958 0 -0.014013990291297755 -0.0067849110867576872 0 -0.013973840570960327 -0.0070074405340469943 0 -0.014118258833721973 -0.0069664209034492053 0 -0.014280912378612971 -0.0070532619685310235 0 -0.014118258833721973 -0.0069664209034492053 0 -0.0142042806378878 -0.0068427586409697937 0 -0.014297131527778653 -0.0067748694091086586 0 -0.0142042806378878 -0.0068427586409697937 0 -0.01422342913426217 -0.0067193435465668491 0 -0.014013990291297755 -0.0067849110867576872 0 -0.014118258833721973 -0.0069664209034492053 0 -0.0142042806378878 -0.0068427586409697937 0 -0.014013990291297755 -0.0067849110867576872 0 -0.0142042806378878 -0.0068427586409697937 0 -0.014130177254765154 -0.0067038305489795606 0 -0.014013990291297755 -0.0067849110867576872 0 -0.014130177254765154 -0.0067038305489795606 0 -0.014062962210221257 -0.0065576893504756392 0 -0.014907180317762572 -0.0059043239710296234 0 -0.015092001623416309 -0.0048510221614844092 0 -0.0142042806378878 -0.0068427586409697937 0 -0.014130177254765154 -0.0067038305489795606 0 -0.01422342913426217 -0.0067193435465668491 0 -0.014307996342084324 -0.0066635330242669471 0 -0.01422342913426217 -0.0067193435465668491 0 -0.014189288039741564 -0.0066116735293095955 0 -0.014130177254765154 -0.0067038305489795606 0 -0.01422342913426217 -0.0067193435465668491 0 -0.014189288039741564 -0.0066116735293095955 0 -0.015652207285803348 -0.0038226575523177125 0 -0.015711051169419378 -0.0034002352120260813 0 -0.015171159205522195 -0.0045619227954145107 0 -0.015213690717976311 -0.004590371946912997 0 -0.015197238414408837 -0.0045954363788788394 0 -0.014811705583900478 -0.0055201769121526597 0 -0.014651625871920794 -0.0055941617133032319 0 -0.015228926251996167 -0.0046149519277800099 0 -0.015213690717976311 -0.004590371946912997 0 -0.015197238414408837 -0.0045954363788788394 0 -0.014130177254765154 -0.0067038305489795606 0 -0.014189288039741564 -0.0066116735293095955 0 -0.014062962210221257 -0.0065576893504756392 0 -0.014651625871920794 -0.0055941617133032319 0 -0.015092001623416309 -0.0048510221614844092 0 -0.015171159205522195 -0.0045619227954145107 0 -0.015197238414408837 -0.0045954363788788394 0 -0.015166304661812713 -0.0045806241312100933 0 -0.015597664698943695 -0.0036623514100431439 0 -0.015778393350661311 -0.0036541435204800153 0 -0.015745904744238377 -0.0038007225620881793 0 -0.015652207285803348 -0.0038226575523177125 0 -0.015092001623416309 -0.0048510221614844092 0 -0.016003184272900574 -0.0039602577189615153 0 -0.015504308426225884 -0.0037927146821368865 0 -0.015597484207094297 -0.0042421480751060952 0 -0.015092001623416309 -0.0048510221614844092 0 -0.015539221962263072 -0.0037593177097308373 0 -0.015597664698943695 -0.0036623514100431439 0 -0.015745904744238377 -0.0038007225620881793 0 -0.015430197179878062 -0.0037013670913119017 0 -0.014999994443678583 -0.0036208950185346372 0 -0.015504308426225884 -0.0037927146821368865 0 -0.014999993990689209 -0.0043699399993320526 0 -0.015504308426225884 -0.0037927146821368865 0 -0.014999993990689209 -0.0043699399993320526 0 -0.015597484207094297 -0.0042421480751060952 0 -0.015834030921959345 -0.0047653383396099253 0 -0.016003184272900574 -0.0039602577189615153 0 -0.015597484207094297 -0.0042421480751060952 0 -0.015834030921959345 -0.0047653383396099253 0 -0.014999993990689209 -0.0043699399993320526 0 -0.015597484207094297 -0.0042421480751060952 0 -0.014743039212806664 -0.010882775797384406 0 -0.014867475564172816 -0.011043649911948991 0 -0.014742095854171394 -0.010786978773554824 0 -0.014743039212806664 -0.010882775797384406 0 -0.014839320063364496 -0.011058145059069945 0 -0.014867475564172816 -0.011043649911948991 0 -0.014743039212806664 -0.010882775797384406 0 -0.014680196788386845 -0.010890393029237673 0 -0.014839320063364496 -0.011058145059069945 0 -0.015036381727310874 -0.010595395265390061 0 -0.014999991678538188 -0.011170151736531504 0 -0.015372229292215222 -0.010357455039032359 0 -0.014999970416063629 -0.010313830371044053 0 -0.015000011109788356 -0.011170285055450859 0 -0.014999163370108386 -0.011170955027309809 0 -0.014839320063364496 -0.011058145059069945 0 -0.014990234976708086 -0.011309733697377386 0 -0.014680196788386845 -0.010890393029237673 0 -0.014999163370108386 -0.011170955027309809 0 -0.014839320063364496 -0.011058145059069945 0 -0.014867475564172816 -0.011043649911948991 0 -0.015067731927635284 -0.011370176376120427 0 -0.014990234976708086 -0.011309733697377386 0 -0.014839320063364496 -0.011058145059069945 0 -0.014867475564172816 -0.011043649911948991 0 -0.014990234976708086 -0.011309733697377386 0 -0.014867475564172816 -0.011043649911948991 0 -0.014940271510226588 -0.011032785685045853 0 -0.015067731927635284 -0.011370176376120427 0 -0.014940271510226588 -0.011032785685045853 0 -0.015202983577893268 -0.011371104813533074 0 -0.015067731927635284 -0.011370176376120427 0 -0.014940271510226588 -0.011032785685045853 0 -0.015004452272604475 -0.011004716955082089 0 -0.015202983577893268 -0.011371104813533074 0 -0.014940271510226588 -0.011032785685045853 0 -0.014784875213487135 -0.010735584204041002 0 -0.014742095854171394 -0.010786978773554824 0 -0.014940271510226588 -0.011032785685045853 0 -0.015004452272604475 -0.011004716955082089 0 -0.014784875213487135 -0.010735584204041002 0 -0.014867475564172816 -0.011043649911948991 0 -0.014940271510226588 -0.011032785685045853 0 -0.014742095854171394 -0.010786978773554824 0 -0.014742095854171394 -0.010786978773554824 0 -0.0146100177342838 -0.010603200372063385 0 -0.014645535170814039 -0.010712693748666709 0 -0.014742095854171394 -0.010786978773554824 0 -0.0146100177342838 -0.010603200372063385 0 -0.014658022520567976 -0.010615220931100519 0 -0.0146100177342838 -0.010603200372063385 0 -0.014658022520567976 -0.010615220931100519 0 -0.014558718260459222 -0.010513524730608908 0 -0.014784875213487135 -0.010735584204041002 0 -0.014742095854171394 -0.010786978773554824 0 -0.014658022520567976 -0.010615220931100519 0 -0.014784875213487135 -0.010735584204041002 0 -0.014658022520567976 -0.010615220931100519 0 -0.014637600404996726 -0.010552192215753962 0 -0.014784875213487135 -0.010735584204041002 0 -0.014637600404996726 -0.010552192215753962 0 -0.014653914872065722 -0.010531173790517134 0 -0.014658022520567976 -0.010615220931100519 0 -0.014637600404996726 -0.010552192215753962 0 -0.014559402909346162 -0.010489036403943898 0 -0.014637600404996726 -0.010552192215753962 0 -0.014559402909346162 -0.010489036403943898 0 -0.01452976641539965 -0.010432607509047421 0 -0.014559402909346162 -0.010489036403943898 0 -0.014470179025394452 -0.010414501581062548 0 -0.01452976641539965 -0.010432607509047421 0 -0.014658022520567976 -0.010615220931100519 0 -0.014559402909346162 -0.010489036403943898 0 -0.014558718260459222 -0.010513524730608908 0 -0.014559402909346162 -0.010489036403943898 0 -0.014479301013208859 -0.010435260475607408 0 -0.014558718260459222 -0.010513524730608908 0 -0.014559402909346162 -0.010489036403943898 0 -0.014479301013208859 -0.010435260475607408 0 -0.014470179025394452 -0.010414501581062548 0 -0.014479301013208859 -0.010435260475607408 0 -0.014470179025394452 -0.010414501581062548 0 -0.014400398865493295 -0.010385847635461406 0 -0.0146100177342838 -0.010603200372063385 0 -0.014531276324449123 -0.010500025691755442 0 -0.014508903876688597 -0.01049488425130664 0 -0.0146100177342838 -0.010603200372063385 0 -0.014558718260459222 -0.010513524730608908 0 -0.014531276324449123 -0.010500025691755442 0 -0.014479301013208859 -0.010435260475607408 0 -0.014558718260459222 -0.010513524730608908 0 -0.014498972695181222 -0.010461824328947177 0 -0.014558718260459222 -0.010513524730608908 0 -0.014498972695181222 -0.010461824328947177 0 -0.014531276324449123 -0.010500025691755442 0 -0.014479301013208859 -0.010435260475607408 0 -0.014498972695181222 -0.010461824328947177 0 -0.014451063977528579 -0.01042264684648362 0 -0.014498972695181222 -0.010461824328947177 0 -0.014451063977528579 -0.01042264684648362 0 -0.014471316549410463 -0.010445914528512399 0 -0.014531276324449123 -0.010500025691755442 0 -0.014508903876688597 -0.01049488425130664 0 -0.014471316549410463 -0.010445914528512399 0 -0.014498972695181222 -0.010461824328947177 0 -0.014531276324449123 -0.010500025691755442 0 -0.014471316549410463 -0.010445914528512399 0 -0.0146100177342838 -0.010603200372063385 0 -0.014508903876688597 -0.01049488425130664 0 -0.014645535170814039 -0.010712693748666709 0 -0.015691561105046131 -0.0094995907822216438 0 -0.015376070085250618 -0.0093165309236288574 0 -0.015422277087295457 -0.0095705468055384563 0 -0.015691561105046131 -0.0094995907822216438 0 -0.015422277087295457 -0.0095705468055384563 0 -0.015380246066097204 -0.0098337771947053076 0 -0.014680196788386845 -0.010890393029237673 0 -0.014508903876688597 -0.01049488425130664 0 -0.014645535170814039 -0.010712693748666709 0 -0.015372229292215222 -0.010357455039032359 0 -0.015691561105046131 -0.0094995907822216438 0 -0.015380246066097204 -0.0098337771947053076 0 -0.015036381727310874 -0.010595395265390061 0 -0.015105723778616329 -0.010046619894649817 0 -0.014743039212806664 -0.010882775797384406 0 -0.014680196788386845 -0.010890393029237673 0 -0.014645535170814039 -0.010712693748666709 0 -0.014743039212806664 -0.010882775797384406 0 -0.014742095854171394 -0.010786978773554824 0 -0.014645535170814039 -0.010712693748666709 0 -0.015372229292215222 -0.010357455039032359 0 -0.015380246066097204 -0.0098337771947053076 0 -0.01519454715216193 -0.0099120578854687644 0 -0.014999970416063629 -0.010313830371044053 0 -0.01519454715216193 -0.0099120578854687644 0 -0.014999890952160776 -0.0094571893173326874 0 -0.015372229292215222 -0.010357455039032359 0 -0.014999970416063629 -0.010313830371044053 0 -0.01519454715216193 -0.0099120578854687644 0 -0.01519454715216193 -0.0099120578854687644 0 -0.014999890952160776 -0.0094571893173326874 0 -0.015248477586987276 -0.009622684668151936 0 -0.015376070085250618 -0.0093165309236288574 0 -0.014999890952160776 -0.0094571893173326874 0 -0.015248477586987276 -0.009622684668151936 0 -0.015422277087295457 -0.0095705468055384563 0 -0.015380246066097204 -0.0098337771947053076 0 -0.015248477586987276 -0.009622684668151936 0 -0.015380246066097204 -0.0098337771947053076 0 -0.01519454715216193 -0.0099120578854687644 0 -0.015248477586987276 -0.009622684668151936 0 -0.015376070085250618 -0.0093165309236288574 0 -0.015422277087295457 -0.0095705468055384563 0 -0.015248477586987276 -0.009622684668151936 0 -0.014999890952160776 -0.0094571893173326874 0 -0.014999909399121344 -0.0086008569214239029 0 -0.015266195714379042 -0.0087953238960666209 0 -0.015376070085250618 -0.0093165309236288574 0 -0.014999890952160776 -0.0094571893173326874 0 -0.015266195714379042 -0.0087953238960666209 0 -0.015376070085250618 -0.0093165309236288574 0 -0.015445504735425322 -0.0088623507357714019 0 -0.015266195714379042 -0.0087953238960666209 0 -0.015691561105046131 -0.0094995907822216438 0 -0.015376070085250618 -0.0093165309236288574 0 -0.015714455155039681 -0.0090352811989054538 0 -0.015691561105046131 -0.0094995907822216438 0 -0.015714455155039681 -0.0090352811989054538 0 -0.016013144857251509 -0.0087303710055450859 0 -0.015340067371951659 -0.009283639450933771 0 -0.015633181779759486 -0.0088881579404539394 0 -0.015445504735425322 -0.0088623507357714019 0 -0.015341046354640262 -0.0087016002610741782 0 -0.015310168716845946 -0.0085977439034788609 0 -0.015445504735425322 -0.0088623507357714019 0 -0.015341046354640262 -0.0087016002610741782 0 -0.015266195714379042 -0.0087953238960666209 0 -0.015341046354640262 -0.0087016002610741782 0 -0.015316731411927556 -0.0085659981014515676 0 -0.015266195714379042 -0.0087953238960666209 0 -0.015316731411927556 -0.0085659981014515676 0 -0.015215489207044715 -0.0085961415306978674 0 -0.015310168716845946 -0.0085977439034788609 0 -0.015341046354640262 -0.0087016002610741782 0 -0.015316731411927556 -0.0085659981014515676 0 -0.015310168716845946 -0.0085977439034788609 0 -0.014999909399121344 -0.0086008569214239029 0 -0.015266195714379042 -0.0087953238960666209 0 -0.015208407699460046 -0.0083857050919426326 0 -0.015316731411927556 -0.0085659981014515676 0 -0.015266195714379042 -0.0087953238960666209 0 -0.015208407699460046 -0.0083857050919426326 0 -0.014999909399121344 -0.0086008569214239029 0 -0.015208407699460046 -0.0083857050919426326 0 -0.015000137067718538 -0.0077455549030751979 0 -0.015261488595951311 -0.008263637128583308 0 -0.015208407699460046 -0.0083857050919426326 0 -0.015235458515351874 -0.0080186088104677259 0 -0.015261488595951311 -0.008263637128583308 0 -0.015208407699460046 -0.0083857050919426326 0 -0.015275758463104789 -0.0084449908968590517 0 -0.015316731411927556 -0.0085659981014515676 0 -0.015262549357463956 -0.0085470584709153776 0 -0.015275758463104789 -0.0084449908968590517 0 -0.015316731411927556 -0.0085659981014515676 0 -0.015208407699460046 -0.0083857050919426326 0 -0.015275758463104789 -0.0084449908968590517 0 -0.015316731411927556 -0.0085659981014515676 0 -0.015262549357463956 -0.0085470584709153776 0 -0.015215489207044715 -0.0085961415306978674 0 -0.015262549357463956 -0.0085470584709153776 0 -0.015235545587246288 -0.0085300687974705393 0 -0.015177399402782911 -0.0086503719651251747 0 -0.015262549357463956 -0.0085470584709153776 0 -0.015235545587246288 -0.0085300687974705393 0 -0.015275758463104789 -0.0084449908968590517 0 -0.015235545587246288 -0.0085300687974705393 0 -0.015275758463104789 -0.0084449908968590517 0 -0.015246621035504143 -0.0084172722931795795 0 -0.015261488595951311 -0.008263637128583308 0 -0.015275758463104789 -0.0084449908968590517 0 -0.015246621035504143 -0.0084172722931795795 0 -0.015246621035504143 -0.0084172722931795795 0 -0.015195710394721814 -0.0086006055276145708 0 -0.015222270249244609 -0.0084385321253291675 0 -0.015235545587246288 -0.0085300687974705393 0 -0.015246621035504143 -0.0084172722931795795 0 -0.015195710394721814 -0.0086006055276145708 0 -0.015177399402782911 -0.0086503719651251747 0 -0.015195710394721814 -0.0086006055276145708 0 -0.015084682379931637 -0.0088836733320771053 0 -0.015235545587246288 -0.0085300687974705393 0 -0.015177399402782911 -0.0086503719651251747 0 -0.015195710394721814 -0.0086006055276145708 0 -0.015157160747500601 -0.0087379502453046008 0 -0.015195710394721814 -0.0086006055276145708 0 -0.015084682379931637 -0.0088836733320771053 0 -0.015157160747500601 -0.0087379502453046008 0 -0.015195710394721814 -0.0086006055276145708 0 -0.015222270249244609 -0.0084385321253291675 0 -0.015380793183291105 -0.0069953247907555581 0 -0.015000137067718538 -0.0077455549030751979 0 -0.015235458515351874 -0.0080186088104677259 0 -0.015434862928890932 -0.0091105241300254904 0 -0.015222270249244609 -0.0084385321253291675 0 -0.015235458515351874 -0.0080186088104677259 0 -0.015208407699460046 -0.0083857050919426326 0 -0.015000137067718538 -0.0077455549030751979 0 -0.015235458515351874 -0.0080186088104677259 0 -0.015261488595951311 -0.008263637128583308 0 -0.015222270249244609 -0.0084385321253291675 0 -0.015235458515351874 -0.0080186088104677259 0 -0.015261488595951311 -0.008263637128583308 0 -0.015246621035504143 -0.0084172722931795795 0 -0.015222270249244609 -0.0084385321253291675 0 -0.014721586115597584 -0.0094984928270564206 0 -0.014631576643056157 -0.0086895160619460936 0 -0.013926443618191807 -0.0096923432069179125 0 -0.014721586115597584 -0.0094984928270564206 0 -0.014935195022269115 -0.0088367611930075113 0 -0.014631576643056157 -0.0086895160619460936 0 -0.014721586115597584 -0.0094984928270564206 0 -0.015045337389084193 -0.0088614956004311601 0 -0.014935195022269115 -0.0088367611930075113 0 -0.014721586115597584 -0.0094984928270564206 0 -0.015084682379931637 -0.0088836733320771053 0 -0.015045337389084193 -0.0088614956004311601 0 -0.015177399402782911 -0.0086503719651251747 0 -0.015084682379931637 -0.0088836733320771053 0 -0.015045337389084193 -0.0088614956004311601 0 -0.015047176058949863 -0.0086409127595842884 0 -0.014631576643056157 -0.0086895160619460936 0 -0.015234131729400389 -0.0085215452718555365 0 -0.015045337389084193 -0.0088614956004311601 0 -0.014935195022269115 -0.0088367611930075113 0 -0.015129814560973308 -0.0086814424739713823 0 -0.014935195022269115 -0.0088367611930075113 0 -0.015129814560973308 -0.0086814424739713823 0 -0.015047176058949863 -0.0086409127595842884 0 -0.015262549357463956 -0.0085470584709153776 0 -0.015177399402782911 -0.0086503719651251747 0 -0.015129814560973308 -0.0086814424739713823 0 -0.015177399402782911 -0.0086503719651251747 0 -0.015045337389084193 -0.0088614956004311601 0 -0.015129814560973308 -0.0086814424739713823 0 -0.015262549357463956 -0.0085470584709153776 0 -0.015129814560973308 -0.0086814424739713823 0 -0.015215489207044715 -0.0085961415306978674 0 -0.015129814560973308 -0.0086814424739713823 0 -0.015215489207044715 -0.0085961415306978674 0 -0.015047176058949863 -0.0086409127595842884 0 -0.015215489207044715 -0.0085961415306978674 0 -0.015047176058949863 -0.0086409127595842884 0 -0.01522575495549802 -0.0085803262982088301 0 -0.014935195022269115 -0.0088367611930075113 0 -0.015047176058949863 -0.0086409127595842884 0 -0.014631576643056157 -0.0086895160619460936 0 -0.014048330569220783 -0.010212183910002486 0 -0.014216965119958361 -0.0103017546714227 0 -0.014348172177450132 -0.010349593627709913 0 -0.014292297300986375 -0.0094994406094219414 0 -0.015140762360785109 -0.0092949158758188957 0 -0.014048330569220783 -0.010212183910002486 0 -0.014216965119958361 -0.0103017546714227 0 -0.014125525472439896 -0.01027557101045774 0 -0.014216965119958361 -0.0103017546714227 0 -0.014305970429103039 -0.01033716826033251 0 -0.014273815022915444 -0.010335088607519477 0 -0.014216965119958361 -0.0103017546714227 0 -0.014273815022915444 -0.010335088607519477 0 -0.014125525472439896 -0.01027557101045774 0 -0.014631576643056157 -0.0086895160619460936 0 -0.015234131729400389 -0.0085215452718555365 0 -0.015265394174784484 -0.0084979407816103223 0 -0.015310168716845946 -0.0085977439034788609 0 -0.01522575495549802 -0.0085803262982088301 0 -0.015234131729400389 -0.0085215452718555365 0 -0.015215489207044715 -0.0085961415306978674 0 -0.015310168716845946 -0.0085977439034788609 0 -0.01522575495549802 -0.0085803262982088301 0 -0.015047176058949863 -0.0086409127595842884 0 -0.01522575495549802 -0.0085803262982088301 0 -0.015234131729400389 -0.0085215452718555365 0 -0.014216965119958361 -0.0103017546714227 0 -0.014305970429103039 -0.01033716826033251 0 -0.014348172177450132 -0.010349593627709913 0 -0.014349946286266527 -0.010355293717632942 0 -0.014348172177450132 -0.010349593627709913 0 -0.014399544562853058 -0.010390814702730124 0 -0.014305970429103039 -0.01033716826033251 0 -0.014349946286266527 -0.010355293717632942 0 -0.014364578659559138 -0.010365697816678772 0 -0.014305970429103039 -0.01033716826033251 0 -0.014349946286266527 -0.010355293717632942 0 -0.014348172177450132 -0.010349593627709913 0 -0.015169999494075081 -0.0092171665934080611 0 -0.015140762360785109 -0.0092949158758188957 0 -0.015310168716845946 -0.0085977439034788609 0 -0.015234131729400389 -0.0085215452718555365 0 -0.015266925798755854 -0.0085525530944330873 0 -0.015445504735425322 -0.0088623507357714019 0 -0.015310168716845946 -0.0085977439034788609 0 -0.015266925798755854 -0.0085525530944330873 0 -0.014508903876688597 -0.01049488425130664 0 -0.014348172177450132 -0.010349593627709913 0 -0.014399544562853058 -0.010390814702730124 0 -0.015105723778616329 -0.010046619894649817 0 -0.015140762360785109 -0.0092949158758188957 0 -0.014508903876688597 -0.01049488425130664 0 -0.014399544562853058 -0.010390814702730124 0 -0.014471316549410463 -0.010445914528512399 0 -0.015633181779759486 -0.0088881579404539394 0 -0.015140762360785109 -0.0092949158758188957 0 -0.014399544562853058 -0.010390814702730124 0 -0.014398382242766149 -0.010387756487678991 0 -0.014430442395265246 -0.010411443521560202 0 -0.014399544562853058 -0.010390814702730124 0 -0.014364578659559138 -0.010365697816678772 0 -0.014398382242766149 -0.010387756487678991 0 -0.014349946286266527 -0.010355293717632942 0 -0.014399544562853058 -0.010390814702730124 0 -0.014364578659559138 -0.010365697816678772 0 -0.014305970429103039 -0.01033716826033251 0 -0.014364578659559138 -0.010365697816678772 0 -0.01435979656161376 -0.010366184311704713 0 -0.014398382242766149 -0.010387756487678991 0 -0.01435979656161376 -0.010366184311704713 0 -0.014412998377578258 -0.010395103307301999 0 -0.014364578659559138 -0.010365697816678772 0 -0.014398382242766149 -0.010387756487678991 0 -0.01435979656161376 -0.010366184311704713 0 -0.014479301013208859 -0.010435260475607408 0 -0.014451063977528579 -0.01042264684648362 0 -0.014412998377578258 -0.010395103307301999 0 -0.014398382242766149 -0.010387756487678991 0 -0.014451063977528579 -0.01042264684648362 0 -0.014412998377578258 -0.010395103307301999 0 -0.014451063977528579 -0.01042264684648362 0 -0.014430442395265246 -0.010411443521560202 0 -0.014471316549410463 -0.010445914528512399 0 -0.014398382242766149 -0.010387756487678991 0 -0.014451063977528579 -0.01042264684648362 0 -0.014430442395265246 -0.010411443521560202 0 -0.014399544562853058 -0.010390814702730124 0 -0.014430442395265246 -0.010411443521560202 0 -0.014471316549410463 -0.010445914528512399 0 -0.014273815022915444 -0.010335088607519477 0 -0.01435979656161376 -0.010366184311704713 0 -0.014400398865493295 -0.010385847635461406 0 -0.014305970429103039 -0.01033716826033251 0 -0.014273815022915444 -0.010335088607519477 0 -0.01435979656161376 -0.010366184311704713 0 -0.014479301013208859 -0.010435260475607408 0 -0.014412998377578258 -0.010395103307301999 0 -0.014400398865493295 -0.010385847635461406 0 -0.01435979656161376 -0.010366184311704713 0 -0.014412998377578258 -0.010395103307301999 0 -0.014400398865493295 -0.010385847635461406 0 -0.014273815022915444 -0.010335088607519477 0 -0.014400398865493295 -0.010385847635461406 0 -0.014354873117701878 -0.010363978757721683 0 -0.014470179025394452 -0.010414501581062548 0 -0.014400398865493295 -0.010385847635461406 0 -0.014354873117701878 -0.010363978757721683 0 -0.014354873117701878 -0.010363978757721683 0 -0.014323094015809366 -0.010350506468203178 0 -0.014193923674814982 -0.010330663018740329 0 -0.014354873117701878 -0.010363978757721683 0 -0.014323094015809366 -0.010350506468203178 0 -0.014429609547919211 -0.010379983868009918 0 -0.014323094015809366 -0.010350506468203178 0 -0.014130641832748481 -0.01035986919640045 0 -0.014268103149660717 -0.010317118078147381 0 -0.014323094015809366 -0.010350506468203178 0 -0.014193923674814982 -0.010330663018740329 0 -0.014130641832748481 -0.01035986919640045 0 -0.014273815022915444 -0.010335088607519477 0 -0.014354873117701878 -0.010363978757721683 0 -0.014193923674814982 -0.010330663018740329 0 -0.014130641832748481 -0.01035986919640045 0 -0.013879473165853584 -0.010327872521543784 0 -0.014085467198274238 -0.010290710588953072 0 -0.013879473165853584 -0.010327872521543784 0 -0.013865276516793715 -0.010267474196943299 0 -0.014085467198274238 -0.010290710588953072 0 -0.014130641832748481 -0.01035986919640045 0 -0.014085467198274238 -0.010290710588953072 0 -0.014268103149660717 -0.010317118078147381 0 -0.014130641832748481 -0.01035986919640045 0 -0.013886841441196392 -0.010397561392337907 0 -0.013879473165853584 -0.010327872521543784 0 -0.014130641832748481 -0.01035986919640045 0 -0.013991197233546837 -0.010222461698722932 0 -0.013886841441196392 -0.010397561392337907 0 -0.014193923674814982 -0.010330663018740329 0 -0.014125525472439896 -0.01027557101045774 0 -0.013991197233546837 -0.010222461698722932 0 -0.014193923674814982 -0.010330663018740329 0 -0.014130641832748481 -0.01035986919640045 0 -0.013991197233546837 -0.010222461698722932 0 -0.014273815022915444 -0.010335088607519477 0 -0.014193923674814982 -0.010330663018740329 0 -0.014125525472439896 -0.01027557101045774 0 -0.014292297300986375 -0.0094994406094219414 0 -0.01401698890644207 -0.0096351835869430916 0 -0.014048330569220783 -0.010212183910002486 0 -0.014125525472439896 -0.01027557101045774 0 -0.013991197233546837 -0.010222461698722932 0 -0.014048330569220783 -0.010212183910002486 0 -0.013991197233546837 -0.010222461698722932 0 -0.013926443618191807 -0.0096923432069179125 0 -0.01386609482486203 -0.0099739376083434281 0 -0.013991197233546837 -0.010222461698722932 0 -0.013926443618191807 -0.0096923432069179125 0 -0.01386609482486203 -0.0099739376083434281 0 -0.013991197233546837 -0.010222461698722932 0 -0.013882659380324973 -0.010380805385926681 0 -0.013671405483424536 -0.0098976170409605553 0 -0.01386609482486203 -0.0099739376083434281 0 -0.013926443618191807 -0.0096923432069179125 0 -0.011597647117942594 -0.010806964031674906 0 -0.012005241991531248 -0.010736338996800215 0 -0.011689463717345543 -0.010667962383138311 0 -0.013671405483424536 -0.0098976170409605553 0 -0.01386609482486203 -0.0099739376083434281 0 -0.013783596721334959 -0.0099312393796139615 0 -0.012884713065788488 -0.010362942182654326 0 -0.013008312402380944 -0.010430539217039191 0 -0.01386609482486203 -0.0099739376083434281 0 -0.013783596721334959 -0.0099312393796139615 0 -0.013882659380324973 -0.010380805385926681 0 -0.012005241991531248 -0.010736338996800215 0 -0.01216952910901006 -0.010604718561702446 0 -0.011689463717345543 -0.010667962383138311 0 -0.01216952910901006 -0.010604718561702446 0 -0.011814568609116022 -0.010527225968021262 0 -0.011689463717345543 -0.010667962383138311 0 -0.01216952910901006 -0.010604718561702446 0 -0.01216514536054426 -0.010412891783310719 0 -0.011814568609116022 -0.010527225968021262 0 -0.013991197233546837 -0.010222461698722932 0 -0.013882659380324973 -0.010380805385926681 0 -0.013886841441196392 -0.010397561392337907 0 -0.013882659380324973 -0.010380805385926681 0 -0.013287321356177726 -0.01024582315048784 0 -0.012965019418428236 -0.01018923470754466 0 -0.013008312402380944 -0.010430539217039191 0 -0.012976093703315707 -0.010115739337125838 0 -0.013882659380324973 -0.010380805385926681 0 -0.013886841441196392 -0.010397561392337907 0 -0.013287321356177726 -0.01024582315048784 0 -0.013886841441196392 -0.010397561392337907 0 -0.013287321356177726 -0.01024582315048784 0 -0.013879473165853584 -0.010327872521543784 0 -0.013287321356177726 -0.01024582315048784 0 -0.013879473165853584 -0.010327872521543784 0 -0.013865276516793715 -0.010267474196943299 0 -0.01216952910901006 -0.010604718561702446 0 -0.01216514536054426 -0.010412891783310719 0 -0.012965019418428236 -0.01018923470754466 0 -0.01216514536054426 -0.010412891783310719 0 -0.012354747864103196 -0.010163146070464505 0 -0.012965019418428236 -0.01018923470754466 0 -0.01216514536054426 -0.010412891783310719 0 -0.012354747864103196 -0.010163146070464505 0 -0.011975054259607114 -0.010118099620514213 0 -0.012354747864103196 -0.010163146070464505 0 -0.012399634582810784 -0.0099020623313645761 0 -0.011975054259607114 -0.010118099620514213 0 -0.012399634582810784 -0.0099020623313645761 0 -0.012915783494541045 -0.0098798930036956226 0 -0.012965019418428236 -0.01018923470754466 0 -0.012354747864103196 -0.010163146070464505 0 -0.012399634582810784 -0.0099020623313645761 0 -0.012965019418428236 -0.01018923470754466 0 -0.012399634582810784 -0.0099020623313645761 0 -0.012702141949213711 -0.0096324820043526393 0 -0.012915783494541045 -0.0098798930036956226 0 -0.012399634582810784 -0.0099020623313645761 0 -0.011861612119868506 -0.009786538026068492 0 -0.011975054259607114 -0.010118099620514213 0 -0.012399634582810784 -0.0099020623313645761 0 -0.012232027954948642 -0.0095276544499921061 0 -0.011861612119868506 -0.009786538026068492 0 -0.012232027954948642 -0.0095276544499921061 0 -0.012702141949213711 -0.0096324820043526393 0 -0.012485092453149525 -0.0089164285102627493 0 -0.012399634582810784 -0.0099020623313645761 0 -0.012232027954948642 -0.0095276544499921061 0 -0.012702141949213711 -0.0096324820043526393 0 -0.012702141949213711 -0.0096324820043526393 0 -0.013109047431746009 -0.009519872567686178 0 -0.012485092453149525 -0.0089164285102627493 0 -0.012702141949213711 -0.0096324820043526393 0 -0.013109047431746009 -0.009519872567686178 0 -0.012915783494541045 -0.0098798930036956226 0 -0.013287321356177726 -0.01024582315048784 0 -0.013109047431746009 -0.009519872567686178 0 -0.012915783494541045 -0.0098798930036956226 0 -0.013447309195229615 -0.010061716483816624 0 -0.013200538428066948 -0.010294285335605021 0 -0.013287321356177726 -0.01024582315048784 0 -0.014257428286736979 -0.0099432607039475398 0 -0.01407901208728116 -0.010200219234017757 0 -0.013287321356177726 -0.01024582315048784 0 -0.012915783494541045 -0.0098798930036956226 0 -0.012965019418428236 -0.01018923470754466 0 -0.013287321356177726 -0.01024582315048784 0 -0.013865276516793715 -0.010267474196943299 0 -0.01407901208728116 -0.010200219234017757 0 -0.013865276516793715 -0.010267474196943299 0 -0.01407901208728116 -0.010200219234017757 0 -0.014085467198274238 -0.010290710588953072 0 -0.01407901208728116 -0.010200219234017757 0 -0.014085467198274238 -0.010290710588953072 0 -0.014305298018306786 -0.010250864874164387 0 -0.014268103149660717 -0.010317118078147381 0 -0.014305298018306786 -0.010250864874164387 0 -0.014409097636506423 -0.010337599011137106 0 -0.014085467198274238 -0.010290710588953072 0 -0.014268103149660717 -0.010317118078147381 0 -0.014305298018306786 -0.010250864874164387 0 -0.014305298018306786 -0.010250864874164387 0 -0.014409097636506423 -0.010337599011137106 0 -0.014481104524205342 -0.010332405747508726 0 -0.014305298018306786 -0.010250864874164387 0 -0.014353815900639317 -0.010151787618926912 0 -0.014481104524205342 -0.010332405747508726 0 -0.01407901208728116 -0.010200219234017757 0 -0.014305298018306786 -0.010250864874164387 0 -0.014353815900639317 -0.010151787618926912 0 -0.014257428286736979 -0.0099432607039475398 0 -0.01407901208728116 -0.010200219234017757 0 -0.014353815900639317 -0.010151787618926912 0 -0.014470179025394452 -0.010414501581062548 0 -0.014354873117701878 -0.010363978757721683 0 -0.014429609547919211 -0.010379983868009918 0 -0.014323094015809366 -0.010350506468203178 0 -0.014268103149660717 -0.010317118078147381 0 -0.014409097636506423 -0.010337599011137106 0 -0.014323094015809366 -0.010350506468203178 0 -0.014429609547919211 -0.010379983868009918 0 -0.014409097636506423 -0.010337599011137106 0 -0.014409097636506423 -0.010337599011137106 0 -0.01452976641539965 -0.010432607509047421 0 -0.014522411880232865 -0.010403989737842408 0 -0.014409097636506423 -0.010337599011137106 0 -0.014522411880232865 -0.010403989737842408 0 -0.014481104524205342 -0.010332405747508726 0 -0.014429609547919211 -0.010379983868009918 0 -0.014409097636506423 -0.010337599011137106 0 -0.01452976641539965 -0.010432607509047421 0 -0.014470179025394452 -0.010414501581062548 0 -0.014429609547919211 -0.010379983868009918 0 -0.01452976641539965 -0.010432607509047421 0 -0.014637600404996726 -0.010552192215753962 0 -0.01452976641539965 -0.010432607509047421 0 -0.014653914872065722 -0.010531173790517134 0 -0.01452976641539965 -0.010432607509047421 0 -0.014522411880232865 -0.010403989737842408 0 -0.014653914872065722 -0.010531173790517134 0 -0.014522411880232865 -0.010403989737842408 0 -0.014653914872065722 -0.010531173790517134 0 -0.014481104524205342 -0.010332405747508726 0 -0.014653914872065722 -0.010531173790517134 0 -0.014481104524205342 -0.010332405747508726 0 -0.014713774789524812 -0.010558118008359617 0 -0.014584738925733424 -0.01033777079333207 0 -0.014353815900639317 -0.010151787618926912 0 -0.014481104524205342 -0.010332405747508726 0 -0.014584738925733424 -0.01033777079333207 0 -0.014481104524205342 -0.010332405747508726 0 -0.014713774789524812 -0.010558118008359617 0 -0.013200538428066948 -0.010294285335605021 0 -0.013869945209799849 -0.010459839863022971 0 -0.013200538428066948 -0.010294285335605021 0 -0.013328593928901801 -0.011385665994764895 0 -0.014584738925733424 -0.01033777079333207 0 -0.014713774789524812 -0.010558118008359617 0 -0.014984404559566565 -0.010798378331061774 0 -0.014713774789524812 -0.010558118008359617 0 -0.014984404559566565 -0.010798378331061774 0 -0.014907270156171833 -0.010804552948409167 0 -0.014784875213487135 -0.010735584204041002 0 -0.014653914872065722 -0.010531173790517134 0 -0.014907270156171833 -0.010804552948409167 0 -0.015004452272604475 -0.011004716955082089 0 -0.014784875213487135 -0.010735584204041002 0 -0.014907270156171833 -0.010804552948409167 0 -0.014653914872065722 -0.010531173790517134 0 -0.014713774789524812 -0.010558118008359617 0 -0.014907270156171833 -0.010804552948409167 0 -0.015004452272604475 -0.011004716955082089 0 -0.014907270156171833 -0.010804552948409167 0 -0.015329157208926098 -0.01126288931162656 0 -0.015004452272604475 -0.011004716955082089 0 -0.015329157208926098 -0.01126288931162656 0 -0.015202983577893268 -0.011371104813533074 0 -0.014984404559566565 -0.010798378331061774 0 -0.014907270156171833 -0.010804552948409167 0 -0.015329157208926098 -0.01126288931162656 0 -0.011721883147881652 -0.011721400650099911 0 -0.011990642611809318 -0.01193163468688974 0 -0.011808791273693539 -0.012145779026427498 0 -0.013328593928901801 -0.011385665994764895 0 -0.013465935474071128 -0.011713289631893692 0 -0.011721883147881652 -0.011721400650099911 0 -0.011808791273693539 -0.012145779026427498 0 -0.01160815651599888 -0.012173065920435874 0 -0.011721883147881652 -0.011721400650099911 0 -0.011990642611809318 -0.01193163468688974 0 -0.012214747288845966 -0.011720768216043861 0 -0.011990642611809318 -0.01193163468688974 0 -0.012214747288845966 -0.011720768216043861 0 -0.012172010935741098 -0.012148424817648622 0 -0.011990642611809318 -0.01193163468688974 0 -0.012172010935741098 -0.012148424817648622 0 -0.011808791273693539 -0.012145779026427498 0 -0.012293233237128456 -0.010151929862436151 0 -0.011704054632748912 -0.01115417367513093 0 -0.012214747288845966 -0.011720768216043861 0 -0.01250396736891742 -0.012163610162189585 0 -0.012172010935741098 -0.012148424817648622 0 -0.012232027954948642 -0.0095276544499921061 0 -0.012485092453149525 -0.0089164285102627493 0 -0.011727944587470986 -0.0094233196954496661 0 -0.013200538428066948 -0.010294285335605021 0 -0.012293233237128456 -0.010151929862436151 0 -0.011910260212073424 -0.011236057740021963 0 -0.011721883147881652 -0.011721400650099911 0 -0.012214747288845966 -0.011720768216043861 0 -0.011140899779405728 -0.0090763223069780675 0 -0.011632257010409725 -0.0089698640143416504 0 -0.011256357024601071 -0.0094199468385283772 0 -0.011140899779405728 -0.0090763223069780675 0 -0.010789518041308073 -0.0094140231165934091 0 -0.011256357024601071 -0.0094199468385283772 0 -0.012485092453149525 -0.0089164285102627493 0 -0.011632257010409725 -0.0089698640143416504 0 -0.011727944587470986 -0.0094233196954496661 0 -0.011632257010409725 -0.0089698640143416504 0 -0.011256357024601071 -0.0094199468385283772 0 -0.011727944587470986 -0.0094233196954496661 0 -0.012485092453149525 -0.0089164285102627493 0 -0.011632257010409725 -0.0089698640143416504 0 -0.011921630372764913 -0.0082541759801564082 0 -0.011632257010409725 -0.0089698640143416504 0 -0.011286246523278143 -0.0086786261362780462 0 -0.011921630372764913 -0.0082541759801564082 0 -0.011286246523278143 -0.0086786261362780462 0 -0.01072606747650846 -0.0088718512952130572 0 -0.011053563533778784 -0.0081893236577747098 0 -0.011140899779405728 -0.0090763223069780675 0 -0.011632257010409725 -0.0089698640143416504 0 -0.011286246523278143 -0.0086786261362780462 0 -0.011140899779405728 -0.0090763223069780675 0 -0.011286246523278143 -0.0086786261362780462 0 -0.01072606747650846 -0.0088718512952130572 0 -0.011042827124318807 -0.008260010845716698 0 -0.010097650770412898 -0.0097418346519969733 0 -0.010390816647096665 -0.0088286856229506678 0 -0.01072606747650846 -0.0088718512952130572 0 -0.010742037628872974 -0.008327795949869236 0 -0.010390816647096665 -0.0088286856229506678 0 -0.01072606747650846 -0.0088718512952130572 0 -0.010211900057264498 -0.0093844190484092815 0 -0.010390816647096665 -0.0088286856229506678 0 -0.0098625733602732361 -0.0087975397587783683 0 -0.010742037628872974 -0.008327795949869236 0 -0.010390816647096665 -0.0088286856229506678 0 -0.0098625733602732361 -0.0087975397587783683 0 -0.010211900057264498 -0.0093844190484092815 0 -0.010211900057264498 -0.0093844190484092815 0 -0.0099620251016496169 -0.0098722847179241371 0 -0.009593883702455239 -0.0097450194401524932 0 -0.0098625733602732361 -0.0087975397587783683 0 -0.010211900057264498 -0.0093844190484092815 0 -0.009593883702455239 -0.0097450194401524932 0 -0.01072606747650846 -0.0088718512952130572 0 -0.010211900057264498 -0.0093844190484092815 0 -0.010789518041308073 -0.0094140231165934091 0 -0.010211900057264498 -0.0093844190484092815 0 -0.010789518041308073 -0.0094140231165934091 0 -0.01050141355786759 -0.0098070375853805854 0 -0.011140899779405728 -0.0090763223069780675 0 -0.01072606747650846 -0.0088718512952130572 0 -0.010789518041308073 -0.0094140231165934091 0 -0.010789518041308073 -0.0094140231165934091 0 -0.01050141355786759 -0.0098070375853805854 0 -0.010947954788818919 -0.0097712566861455422 0 -0.010211900057264498 -0.0093844190484092815 0 -0.01050141355786759 -0.0098070375853805854 0 -0.0099620251016496169 -0.0098722847179241371 0 -0.01050141355786759 -0.0098070375853805854 0 -0.0099620251016496169 -0.0098722847179241371 0 -0.010146610036541864 -0.010133382999321866 0 -0.01050141355786759 -0.0098070375853805854 0 -0.010146610036541864 -0.010133382999321866 0 -0.010701700181638194 -0.010055640245950513 0 -0.010146610036541864 -0.010133382999321866 0 -0.010701700181638194 -0.010055640245950513 0 -0.01065861040662589 -0.010321188656297555 0 -0.010701700181638194 -0.010055640245950513 0 -0.011167354309286082 -0.010151090305671739 0 -0.010947954788818919 -0.0097712566861455422 0 -0.01050141355786759 -0.0098070375853805854 0 -0.010701700181638194 -0.010055640245950513 0 -0.010947954788818919 -0.0097712566861455422 0 -0.011167354309286082 -0.010151090305671739 0 -0.011384717070579474 -0.0097647109983539579 0 -0.011596595261221357 -0.010039343237234023 0 -0.011167354309286082 -0.010151090305671739 0 -0.010947954788818919 -0.0097712566861455422 0 -0.011384717070579474 -0.0097647109983539579 0 -0.010947954788818919 -0.0097712566861455422 0 -0.011384717070579474 -0.0097647109983539579 0 -0.011256357024601071 -0.0094199468385283772 0 -0.011384717070579474 -0.0097647109983539579 0 -0.011256357024601071 -0.0094199468385283772 0 -0.011727944587470986 -0.0094233196954496661 0 -0.010789518041308073 -0.0094140231165934091 0 -0.010947954788818919 -0.0097712566861455422 0 -0.011256357024601071 -0.0094199468385283772 0 -0.011384717070579474 -0.0097647109983539579 0 -0.011727944587470986 -0.0094233196954496661 0 -0.011861612119868506 -0.009786538026068492 0 -0.012232027954948642 -0.0095276544499921061 0 -0.011727944587470986 -0.0094233196954496661 0 -0.011861612119868506 -0.009786538026068492 0 -0.011384717070579474 -0.0097647109983539579 0 -0.011861612119868506 -0.009786538026068492 0 -0.011596595261221357 -0.010039343237234023 0 -0.011861612119868506 -0.009786538026068492 0 -0.011596595261221357 -0.010039343237234023 0 -0.011975054259607114 -0.010118099620514213 0 -0.01216514536054426 -0.010412891783310719 0 -0.011975054259607114 -0.010118099620514213 0 -0.011630742107493045 -0.010331137658603761 0 -0.011596595261221357 -0.010039343237234023 0 -0.011975054259607114 -0.010118099620514213 0 -0.011630742107493045 -0.010331137658603761 0 -0.01216514536054426 -0.010412891783310719 0 -0.011630742107493045 -0.010331137658603761 0 -0.011814568609116022 -0.010527225968021262 0 -0.011167354309286082 -0.010151090305671739 0 -0.011596595261221357 -0.010039343237234023 0 -0.011630742107493045 -0.010331137658603761 0 -0.011167354309286082 -0.010151090305671739 0 -0.011248567129449872 -0.010503551370709296 0 -0.01065861040662589 -0.010321188656297555 0 -0.011167354309286082 -0.010151090305671739 0 -0.011630742107493045 -0.010331137658603761 0 -0.011248567129449872 -0.010503551370709296 0 -0.011630742107493045 -0.010331137658603761 0 -0.011248567129449872 -0.010503551370709296 0 -0.011814568609116022 -0.010527225968021262 0 -0.011248567129449872 -0.010503551370709296 0 -0.011814568609116022 -0.010527225968021262 0 -0.011689463717345543 -0.010667962383138311 0 -0.011248567129449872 -0.010503551370709296 0 -0.011689463717345543 -0.010667962383138311 0 -0.011105394612838751 -0.010681323762141896 0 -0.011006626824625085 -0.010783495982693736 0 -0.011597647117942594 -0.010806964031674906 0 -0.011105394612838751 -0.010681323762141896 0 -0.011597647117942594 -0.010806964031674906 0 -0.011689463717345543 -0.010667962383138311 0 -0.011105394612838751 -0.010681323762141896 0 -0.011006626824625085 -0.010783495982693736 0 -0.011105394612838751 -0.010681323762141896 0 -0.010582338185595471 -0.010708004606868316 0 -0.011248567129449872 -0.010503551370709296 0 -0.011105394612838751 -0.010681323762141896 0 -0.010636093777702204 -0.010565466378060677 0 -0.011105394612838751 -0.010681323762141896 0 -0.010582338185595471 -0.010708004606868316 0 -0.010636093777702204 -0.010565466378060677 0 -0.010582338185595471 -0.010708004606868316 0 -0.010636093777702204 -0.010565466378060677 0 -0.010258886969946063 -0.010614346452847574 0 -0.010636093777702204 -0.010565466378060677 0 -0.01065861040662589 -0.010321188656297555 0 -0.010191688678377093 -0.01038382929661098 0 -0.010636093777702204 -0.010565466378060677 0 -0.010191688678377093 -0.01038382929661098 0 -0.010258886969946063 -0.010614346452847574 0 -0.011248567129449872 -0.010503551370709296 0 -0.010636093777702204 -0.010565466378060677 0 -0.01065861040662589 -0.010321188656297555 0 -0.010701700181638194 -0.010055640245950513 0 -0.011167354309286082 -0.010151090305671739 0 -0.01065861040662589 -0.010321188656297555 0 -0.010146610036541864 -0.010133382999321866 0 -0.01065861040662589 -0.010321188656297555 0 -0.010191688678377093 -0.01038382929661098 0 -0.0096323334546484576 -0.010198436805141023 0 -0.0098520605787264688 -0.010400281305241921 0 -0.010191688678377093 -0.01038382929661098 0 -0.010146610036541864 -0.010133382999321866 0 -0.0096323334546484576 -0.010198436805141023 0 -0.010191688678377093 -0.01038382929661098 0 -0.0096323334546484576 -0.010198436805141023 0 -0.0098520605787264688 -0.010400281305241921 0 -0.0092972163480188798 -0.01013112149127457 0 -0.0098520605787264688 -0.010400281305241921 0 -0.0099779317698658557 -0.010633669923371709 0 -0.0096007536576289305 -0.010478721878258383 0 -0.0098520605787264688 -0.010400281305241921 0 -0.010191688678377093 -0.01038382929661098 0 -0.010258886969946063 -0.010614346452847574 0 -0.0098520605787264688 -0.010400281305241921 0 -0.010258886969946063 -0.010614346452847574 0 -0.0099779317698658557 -0.010633669923371709 0 -0.01029895655583892 -0.010576408921462438 0 -0.0099775652679306177 -0.01032048810379016 0 -0.010385837390651057 -0.010645430532170614 0 -0.0099779317698658557 -0.010633669923371709 0 -0.0096510397102887308 -0.010827656591597831 0 -0.010385837390651057 -0.010645430532170614 0 -0.010582338185595471 -0.010708004606868316 0 -0.010258886969946063 -0.010614346452847574 0 -0.010385837390651057 -0.010645430532170614 0 -0.010258886969946063 -0.010614346452847574 0 -0.0099779317698658557 -0.010633669923371709 0 -0.0096130329920531572 -0.010060369006654185 0 -0.010261570513182916 -0.0097654971638679276 0 -0.0093542800227687968 -0.0089018078296849868 0 -0.0096510397102887308 -0.010827656591597831 0 -0.0091086418352779846 -0.010638917258691183 0 -0.0096007536576289305 -0.010478721878258383 0 -0.0099779317698658557 -0.010633669923371709 0 -0.0096510397102887308 -0.010827656591597831 0 -0.0096007536576289305 -0.010478721878258383 0 -0.0099775652679306177 -0.01032048810379016 0 -0.0089015395662122472 -0.0096207992097115322 0 -0.0096510397102887308 -0.010827656591597831 0 -0.0091086418352779846 -0.010638917258691183 0 -0.0089518431261953677 -0.010690686290519991 0 -0.008910559356075147 -0.0099815288468877179 0 -0.0089015395662122472 -0.0096207992097115322 0 -0.0091086418352779846 -0.010638917258691183 0 -0.0089477155199174565 -0.010411474882889385 0 -0.0088903904514647594 -0.010721912142622964 0 -0.0091086418352779846 -0.010638917258691183 0 -0.0092643869420029161 -0.010389107243553242 0 -0.0096007536576289305 -0.010478721878258383 0 -0.0091086418352779846 -0.010638917258691183 0 -0.0089477155199174565 -0.010411474882889385 0 -0.0092643869420029161 -0.010389107243553242 0 -0.0089477155199174565 -0.010411474882889385 0 -0.0092643869420029161 -0.010389107243553242 0 -0.0092972163480188798 -0.01013112149127457 0 -0.0098520605787264688 -0.010400281305241921 0 -0.0096007536576289305 -0.010478721878258383 0 -0.0092972163480188798 -0.01013112149127457 0 -0.0092643869420029161 -0.010389107243553242 0 -0.0096007536576289305 -0.010478721878258383 0 -0.0092972163480188798 -0.01013112149127457 0 -0.0093172170626049065 -0.010128887099781506 0 -0.0088583239342264405 -0.0097620421953838639 0 -0.0089477155199174565 -0.010411474882889385 0 -0.0092972163480188798 -0.01013112149127457 0 -0.0085381351057461259 -0.010132833741054488 0 -0.0092972163480188798 -0.01013112149127457 0 -0.0091832604103989999 -0.010108070812839627 0 -0.0092334989510487915 -0.010144729586308599 0 -0.0091832604103989999 -0.010108070812839627 0 -0.009035259035662168 -0.01028924003061344 0 -0.0092334989510487915 -0.010144729586308599 0 -0.009035259035662168 -0.01028924003061344 0 -0.0092334989510487915 -0.010144729586308599 0 -0.0092342768957828798 -0.010483906927227921 0 -0.0096323334546484576 -0.010198436805141023 0 -0.0092972163480188798 -0.01013112149127457 0 -0.0091832604103989999 -0.010108070812839627 0 -0.0096323334546484576 -0.010198436805141023 0 -0.0091832604103989999 -0.010108070812839627 0 -0.0094598126390586061 -0.01005011976460477 0 -0.010146610036541864 -0.010133382999321866 0 -0.0096323334546484576 -0.010198436805141023 0 -0.0094598126390586061 -0.01005011976460477 0 -0.0099620251016496169 -0.0098722847179241371 0 -0.0094598126390586061 -0.01005011976460477 0 -0.009593883702455239 -0.0097450194401524932 0 -0.0099620251016496169 -0.0098722847179241371 0 -0.010146610036541864 -0.010133382999321866 0 -0.0094598126390586061 -0.01005011976460477 0 -0.0091832604103989999 -0.010108070812839627 0 -0.0094598126390586061 -0.01005011976460477 0 -0.0086727808814785756 -0.010032001382141957 0 -0.0094598126390586061 -0.01005011976460477 0 -0.0086727808814785756 -0.010032001382141957 0 -0.009593883702455239 -0.0097450194401524932 0 -0.0098625733602732361 -0.0087975397587783683 0 -0.0086727808814785756 -0.010032001382141957 0 -0.009593883702455239 -0.0097450194401524932 0 -0.0068745836686950465 -0.010875697825138397 0 -0.0086727808814785756 -0.010032001382141957 0 -0.0078607077086289851 -0.011283756752326913 0 -0.0085078043532474962 -0.0097328063690676255 0 -0.0086091919755156548 -0.01001770598462917 0 -0.0086727808814785756 -0.010032001382141957 0 -0.0086584747053766731 -0.010952423472540967 0 -0.0078607077086289851 -0.011283756752326913 0 -0.0086584747053766731 -0.010952423472540967 0 -0.0090250613042674507 -0.01077228387901156 0 -0.009035259035662168 -0.01028924003061344 0 -0.0086584747053766731 -0.010952423472540967 0 -0.0090250613042674507 -0.01077228387901156 0 -0.0088591427395613345 -0.011375310409185432 0 -0.0090250613042674507 -0.01077228387901156 0 -0.009035259035662168 -0.01028924003061344 0 -0.0092342768957828798 -0.010483906927227921 0 -0.0091832604103989999 -0.010108070812839627 0 -0.0086727808814785756 -0.010032001382141957 0 -0.009035259035662168 -0.01028924003061344 0 -0.0086727808814785756 -0.010032001382141957 0 -0.0086584747053766731 -0.010952423472540967 0 -0.009035259035662168 -0.01028924003061344 0 -0.0084683054475668488 -0.011978165125740453 0 -0.0080887718504000141 -0.011714245473247703 0 -0.0079100648871015585 -0.012400086084729008 0 -0.0084683054475668488 -0.011978165125740453 0 -0.0081863258733884739 -0.012711348574923067 0 -0.0085733777712601062 -0.012706213620396492 0 -0.0084683054475668488 -0.011978165125740453 0 -0.0079100648871015585 -0.012400086084729008 0 -0.0081863258733884739 -0.012711348574923067 0 -0.0084683054475668488 -0.011978165125740453 0 -0.00893825777494223 -0.011962251827218549 0 -0.0085733777712601062 -0.012706213620396492 0 -0.00893825777494223 -0.011962251827218549 0 -0.0085733777712601062 -0.012706213620396492 0 -0.0090507348994569668 -0.012711049047273529 0 -0.0084683054475668488 -0.011978165125740453 0 -0.00893825777494223 -0.011962251827218549 0 -0.0088591427395613345 -0.011375310409185432 0 -0.0090250613042674507 -0.01077228387901156 0 -0.0088591427395613345 -0.011375310409185432 0 -0.0091795953640245471 -0.011365175356469363 0 -0.00893825777494223 -0.011962251827218549 0 -0.0088591427395613345 -0.011375310409185432 0 -0.0091795953640245471 -0.011365175356469363 0 -0.0086584747053766731 -0.010952423472540967 0 -0.0084683054475668488 -0.011978165125740453 0 -0.0088591427395613345 -0.011375310409185432 0 -0.0086584747053766731 -0.010952423472540967 0 -0.0084683054475668488 -0.011978165125740453 0 -0.0080887718504000141 -0.011714245473247703 0 -0.0078607077086289851 -0.011283756752326913 0 -0.0080887718504000141 -0.011714245473247703 0 -0.0075333125510094016 -0.012083556431313156 0 -0.0086584747053766731 -0.010952423472540967 0 -0.0078607077086289851 -0.011283756752326913 0 -0.0080887718504000141 -0.011714245473247703 0 -0.0078607077086289851 -0.011283756752326913 0 -0.0070298327713553673 -0.011761784922245338 0 -0.0075333125510094016 -0.012083556431313156 0 -0.0068745836686950465 -0.010875697825138397 0 -0.0078607077086289851 -0.011283756752326913 0 -0.0070298327713553673 -0.011761784922245338 0 -0.0070298327713553673 -0.011761784922245338 0 -0.0075333125510094016 -0.012083556431313156 0 -0.0070283409920938603 -0.012425262652602066 0 -0.0075333125510094016 -0.012083556431313156 0 -0.0074071740936998334 -0.012729587675652297 0 -0.0070283409920938603 -0.012425262652602066 0 -0.0075333125510094016 -0.012083556431313156 0 -0.0079100648871015585 -0.012400086084729008 0 -0.0074071740936998334 -0.012729587675652297 0 -0.0080887718504000141 -0.011714245473247703 0 -0.0075333125510094016 -0.012083556431313156 0 -0.0079100648871015585 -0.012400086084729008 0 -0.0079100648871015585 -0.012400086084729008 0 -0.007761240717499087 -0.013095605758528108 0 -0.0074071740936998334 -0.012729587675652297 0 -0.0079100648871015585 -0.012400086084729008 0 -0.007761240717499087 -0.013095605758528108 0 -0.0081863258733884739 -0.012711348574923067 0 -0.007761240717499087 -0.013095605758528108 0 -0.0074071740936998334 -0.012729587675652297 0 -0.0073421223133742931 -0.013288706046177379 0 -0.0074071740936998334 -0.012729587675652297 0 -0.0069822322642017183 -0.013095240469195954 0 -0.0070283409920938603 -0.012425262652602066 0 -0.0074071740936998334 -0.012729587675652297 0 -0.0073421223133742931 -0.013288706046177379 0 -0.0069822322642017183 -0.013095240469195954 0 -0.0073421223133742931 -0.013288706046177379 0 -0.0070032100635893206 -0.013730579012165256 0 -0.0069822322642017183 -0.013095240469195954 0 -0.0073421223133742931 -0.013288706046177379 0 -0.0076016190228169068 -0.013785670647506463 0 -0.0070032100635893206 -0.013730579012165256 0 -0.007761240717499087 -0.013095605758528108 0 -0.0073421223133742931 -0.013288706046177379 0 -0.0076016190228169068 -0.013785670647506463 0 -0.007761240717499087 -0.013095605758528108 0 -0.0081963330300488055 -0.013486876414112087 0 -0.0076016190228169068 -0.013785670647506463 0 -0.007761240717499087 -0.013095605758528108 0 -0.0081963330300488055 -0.013486876414112087 0 -0.0081863258733884739 -0.012711348574923067 0 -0.0081963330300488055 -0.013486876414112087 0 -0.0081863258733884739 -0.012711348574923067 0 -0.0085733777712601062 -0.012706213620396492 0 -0.0081963330300488055 -0.013486876414112087 0 -0.0085733777712601062 -0.012706213620396492 0 -0.0086785361116516677 -0.013343944088252992 0 -0.0085733777712601062 -0.012706213620396492 0 -0.0086785361116516677 -0.013343944088252992 0 -0.0090507348994569668 -0.012711049047273529 0 -0.0081963330300488055 -0.013486876414112087 0 -0.0086785361116516677 -0.013343944088252992 0 -0.0083986153383046463 -0.014253721834961427 0 -0.0081963330300488055 -0.013486876414112087 0 -0.008101053960388278 -0.014656263071122669 0 -0.0083986153383046463 -0.014253721834961427 0 -0.0081963330300488055 -0.013486876414112087 0 -0.008101053960388278 -0.014656263071122669 0 -0.0076016190228169068 -0.013785670647506463 0 -0.008101053960388278 -0.014656263071122669 0 -0.0081595621719664398 -0.015104426523168117 0 -0.0085851072468852603 -0.0154467242375358 0 -0.008101053960388278 -0.014656263071122669 0 -0.0083986153383046463 -0.014253721834961427 0 -0.0079074193934688813 -0.014912021700833325 0 -0.008101053960388278 -0.014656263071122669 0 -0.0081595621719664398 -0.015104426523168117 0 -0.0079074193934688813 -0.014912021700833325 0 -0.0081595621719664398 -0.015104426523168117 0 -0.0076580470620882263 -0.014999552320323661 0 -0.0079074193934688813 -0.014912021700833325 0 -0.0081595621719664398 -0.015104426523168117 0 -0.0076580470620882263 -0.014999552320323661 0 -0.0085356180855717511 -0.014999742757064977 0 -0.0085356180855717511 -0.014999742757064977 0 -0.0089518989241290352 -0.015263507802326284 0 -0.0094124369857781897 -0.014999788644918875 0 -0.0081595621719664398 -0.015104426523168117 0 -0.0085356180855717511 -0.014999742757064977 0 -0.0089518989241290352 -0.015263507802326284 0 -0.0081595621719664398 -0.015104426523168117 0 -0.0089518989241290352 -0.015263507802326284 0 -0.0085851072468852603 -0.0154467242375358 0 -0.0089518989241290352 -0.015263507802326284 0 -0.0085851072468852603 -0.0154467242375358 0 -0.0094790602847496779 -0.015714304727312351 0 -0.008073276160431811 -0.014884350435385971 0 -0.0081467481424106602 -0.015012641192243112 0 -0.0074532031967305713 -0.014371643603134879 0 -0.0070032100635893206 -0.013730579012165256 0 -0.0068152666167775973 -0.014326641502286351 0 -0.0081633884551811486 -0.014684009966940274 0 -0.008073276160431811 -0.014884350435385971 0 -0.008101053960388278 -0.014656263071122669 0 -0.0074532031967305713 -0.014371643603134879 0 -0.0076016190228169068 -0.013785670647506463 0 -0.0074532031967305713 -0.014371643603134879 0 -0.0076016190228169068 -0.013785670647506463 0 -0.0070032100635893206 -0.013730579012165256 0 -0.0070032100635893206 -0.013730579012165256 0 -0.0065762496591678914 -0.013926910664634636 0 -0.0065893899681550233 -0.013426351411161786 0 -0.0065762496591678914 -0.013926910664634636 0 -0.0061864680438087618 -0.013753012819619949 0 -0.0065893899681550233 -0.013426351411161786 0 -0.0065762496591678914 -0.013926910664634636 0 -0.0062339752771895319 -0.014322463080322263 0 -0.0061864680438087618 -0.013753012819619949 0 -0.0065762496591678914 -0.013926910664634636 0 -0.0068152666167775973 -0.014326641502286351 0 -0.0062339752771895319 -0.014322463080322263 0 -0.0070032100635893206 -0.013730579012165256 0 -0.0065762496591678914 -0.013926910664634636 0 -0.0068152666167775973 -0.014326641502286351 0 -0.0089518989241290352 -0.015263507802326284 0 -0.0094790602847496779 -0.015714304727312351 0 -0.0098569885406057899 -0.015337404103349255 0 -0.0094790602847496779 -0.015714304727312351 0 -0.0098569885406057899 -0.015337404103349255 0 -0.010366795783602965 -0.015677030208117247 0 -0.0098569885406057899 -0.015337404103349255 0 -0.010504761313041542 -0.015306774551240415 0 -0.010366795783602965 -0.015677030208117247 0 -0.0081467481424106602 -0.015012641192243112 0 -0.0083850884804806125 -0.0149695368193031 0 -0.0098569885406057899 -0.015337404103349255 0 -0.010289712360130333 -0.014999923717641103 0 -0.010504761313041542 -0.015306774551240415 0 -0.0098569885406057899 -0.015337404103349255 0 -0.010289712360130333 -0.014999923717641103 0 -0.0094124369857781897 -0.014999788644918875 0 -0.0089518989241290352 -0.015263507802326284 0 -0.0098569885406057899 -0.015337404103349255 0 -0.0094124369857781897 -0.014999788644918875 0 -0.010888582739544767 -0.015155223493961119 0 -0.011475253707486694 -0.015287688107089255 0 -0.011166751762588606 -0.014999987358506757 0 -0.010894762235687956 -0.015147840568453573 0 -0.011486333848152883 -0.015257389900520715 0 -0.010289712360130333 -0.014999923717641103 0 -0.011166751762588606 -0.014999987358506757 0 -0.010894762235687956 -0.015147840568453573 0 -0.010894762235687956 -0.015147840568453573 0 -0.01107242475546643 -0.015481664202822192 0 -0.01121922277911174 -0.015260593298402512 0 -0.010894762235687956 -0.015147840568453573 0 -0.010504761313041542 -0.015306774551240415 0 -0.01107242475546643 -0.015481664202822192 0 -0.010289712360130333 -0.014999923717641103 0 -0.010894762235687956 -0.015147840568453573 0 -0.010504761313041542 -0.015306774551240415 0 -0.010504761313041542 -0.015306774551240415 0 -0.010366795783602965 -0.015677030208117247 0 -0.01107242475546643 -0.015481664202822192 0 -0.0083850884804806125 -0.0149695368193031 0 -0.0080876407975526317 -0.015010092209286946 0 -0.0062339752771895319 -0.014322463080322263 0 -0.0057901390992224321 -0.014313746651706639 0 -0.0058798628764055111 -0.014008737792972632 0 -0.0062339752771895319 -0.014322463080322263 0 -0.0058798628764055111 -0.014008737792972632 0 -0.0061864680438087618 -0.013753012819619949 0 -0.0058798628764055111 -0.014008737792972632 0 -0.0061864680438087618 -0.013753012819619949 0 -0.0056476944772386956 -0.013548138351160578 0 -0.012140410349184408 -0.012533341785200526 0 -0.012005314306815056 -0.012613936310233612 0 -0.012017199415840178 -0.012788178595458147 0 -0.0058002263425822815 -0.012875889884862893 0 -0.0062101518452331271 -0.013171244417822917 0 -0.0056476944772386956 -0.013548138351160578 0 -0.008995383856267615 -0.01272264436555318 0 -0.008854867386498445 -0.013164091456562568 0 -0.012140410349184408 -0.012533341785200526 0 -0.01209144030810601 -0.012428660875290022 0 -0.011999788665573824 -0.012486560669163193 0 -0.012140410349184408 -0.012533341785200526 0 -0.012005314306815056 -0.012613936310233612 0 -0.011999788665573824 -0.012486560669163193 0 -0.008995383856267615 -0.01272264436555318 0 -0.0093949218765712016 -0.012471196266740675 0 -0.0058002263425822815 -0.012875889884862893 0 -0.0062101518452331271 -0.013171244417822917 0 -0.0062390136064256248 -0.012601073642677643 0 -0.0061864680438087618 -0.013753012819619949 0 -0.0062101518452331271 -0.013171244417822917 0 -0.0056476944772386956 -0.013548138351160578 0 -0.0062101518452331271 -0.013171244417822917 0 -0.0065893899681550233 -0.013426351411161786 0 -0.0066011039987320429 -0.012833707817688562 0 -0.0061864680438087618 -0.013753012819619949 0 -0.0062101518452331271 -0.013171244417822917 0 -0.0065893899681550233 -0.013426351411161786 0 -0.0070032100635893206 -0.013730579012165256 0 -0.0065893899681550233 -0.013426351411161786 0 -0.0069822322642017183 -0.013095240469195954 0 -0.0069822322642017183 -0.013095240469195954 0 -0.0066011039987320429 -0.012833707817688562 0 -0.0070283409920938603 -0.012425262652602066 0 -0.0065893899681550233 -0.013426351411161786 0 -0.0069822322642017183 -0.013095240469195954 0 -0.0066011039987320429 -0.012833707817688562 0 -0.0062101518452331271 -0.013171244417822917 0 -0.0066011039987320429 -0.012833707817688562 0 -0.0062390136064256248 -0.012601073642677643 0 -0.0066011039987320429 -0.012833707817688562 0 -0.0062390136064256248 -0.012601073642677643 0 -0.006633439082439122 -0.012294969577204972 0 -0.0062390136064256248 -0.012601073642677643 0 -0.0063082541734868726 -0.012235642177706622 0 -0.006633439082439122 -0.012294969577204972 0 -0.0063082541734868726 -0.012235642177706622 0 -0.006633439082439122 -0.012294969577204972 0 -0.0065629349736211562 -0.012066759092511942 0 -0.0066011039987320429 -0.012833707817688562 0 -0.0070283409920938603 -0.012425262652602066 0 -0.006633439082439122 -0.012294969577204972 0 -0.0070298327713553673 -0.011761784922245338 0 -0.0070283409920938603 -0.012425262652602066 0 -0.006633439082439122 -0.012294969577204972 0 -0.0062260886798834823 -0.01202980885064199 0 -0.0077411998227719025 -0.010676946923818945 0 -0.0085078043532474962 -0.0097328063690676255 0 -0.0077411998227719025 -0.010676946923818945 0 -0.0070298327713553673 -0.011761784922245338 0 -0.0065629349736211562 -0.012066759092511942 0 -0.0063069852676346612 -0.011949851450997886 0 -0.0068745836686950465 -0.010875697825138397 0 -0.0070298327713553673 -0.011761784922245338 0 -0.0055162183498023805 -0.011603316880247429 0 -0.0070298327713553673 -0.011761784922245338 0 -0.006633439082439122 -0.012294969577204972 0 -0.0065629349736211562 -0.012066759092511942 0 -0.01072606747650846 -0.0088718512952130572 0 -0.010742037628872974 -0.008327795949869236 0 -0.010965727554863348 -0.0083504827771206432 0 -0.0063082541734868726 -0.012235642177706622 0 -0.0065629349736211562 -0.012066759092511942 0 -0.0063069852676346612 -0.011949851450997886 0 -0.0063082541734868726 -0.012235642177706622 0 -0.0063069852676346612 -0.011949851450997886 0 -0.0060476069499332576 -0.012108846913403214 0 -0.0077411998227719025 -0.010676946923818945 0 -0.010097650770412898 -0.0097418346519969733 0 -0.011286246523278143 -0.0086786261362780462 0 -0.011053563533778784 -0.0081893236577747098 0 -0.011921630372764913 -0.0082541759801564082 0 -0.009791640935205171 -0.011588206491858729 0 -0.010367636120569427 -0.011638678262351897 0 -0.010013436472133895 -0.01138465819124034 0 -0.0077411998227719025 -0.010676946923818945 0 -0.0085921468108721005 -0.011539335790608144 0 -0.0086464424154444226 -0.010741234800411888 0 -0.0089255470954600572 -0.010766045961000914 0 -0.0090362105017018478 -0.010554183057867282 0 -0.010097650770412898 -0.0097418346519969733 0 -0.0085921468108721005 -0.011539335790608144 0 -0.009791640935205171 -0.011588206491858729 0 -0.0098590645646598179 -0.011458275444919773 0 -0.010013436472133895 -0.01138465819124034 0 -0.0085921468108721005 -0.011539335790608144 0 -0.0097343762241878483 -0.011199605589900755 0 -0.010097650770412898 -0.0097418346519969733 0 -0.011704054632748912 -0.01115417367513093 0 -0.011704054632748912 -0.01115417367513093 0 -0.0093949218765712016 -0.012471196266740675 0 -0.012069462557276216 -0.012229923955434308 0 -0.01209144030810601 -0.012428660875290022 0 -0.012026716202125125 -0.012375832347926221 0 -0.010367636120569427 -0.011638678262351897 0 -0.010012545929018204 -0.011158387411402026 0 -0.010013436472133895 -0.01138465819124034 0 -0.012069462557276216 -0.012229923955434308 0 -0.01209144030810601 -0.012428660875290022 0 -0.012183709548544161 -0.012429160187528227 0 -0.012140410349184408 -0.012533341785200526 0 -0.01209144030810601 -0.012428660875290022 0 -0.012183709548544161 -0.012429160187528227 0 -0.0062390136064256248 -0.012601073642677643 0 -0.0063082541734868726 -0.012235642177706622 0 -0.0060476069499332576 -0.012108846913403214 0 -0.0058002263425822815 -0.012875889884862893 0 -0.0062390136064256248 -0.012601073642677643 0 -0.005895589625843977 -0.012532186339896901 0 -0.0062390136064256248 -0.012601073642677643 0 -0.0060476069499332576 -0.012108846913403214 0 -0.005895589625843977 -0.012532186339896901 0 -0.0098504830396340583 -0.011464280009075936 0 -0.010012545929018204 -0.011158387411402026 0 -0.010013436472133895 -0.01138465819124034 0 -0.0085921468108721005 -0.011539335790608144 0 -0.0093949218765712016 -0.012471196266740675 0 -0.011846733307896127 -0.012358647481196638 0 -0.011948024217622848 -0.012329476272016773 0 -0.011880763427594504 -0.012535500143521013 0 -0.011846733307896127 -0.012358647481196638 0 -0.01173724416633825 -0.012467407039098436 0 -0.011880763427594504 -0.012535500143521013 0 -0.011948024217622848 -0.012329476272016773 0 -0.011880763427594504 -0.012535500143521013 0 -0.011999788665573824 -0.012486560669163193 0 -0.011948024217622848 -0.012329476272016773 0 -0.012026716202125125 -0.012375832347926221 0 -0.011999788665573824 -0.012486560669163193 0 -0.01209144030810601 -0.012428660875290022 0 -0.012026716202125125 -0.012375832347926221 0 -0.011999788665573824 -0.012486560669163193 0 -0.011704054632748912 -0.01115417367513093 0 -0.012164353593439689 -0.012195063607669743 0 -0.012069462557276216 -0.012229923955434308 0 -0.011948024217622848 -0.012329476272016773 0 -0.011935578704729497 -0.012206372765782333 0 -0.012069462557276216 -0.012229923955434308 0 -0.011948024217622848 -0.012329476272016773 0 -0.012026716202125125 -0.012375832347926221 0 -0.012164353593439689 -0.012195063607669743 0 -0.011788993931729285 -0.012147928187643405 0 -0.011846733307896127 -0.012358647481196638 0 -0.011935578704729497 -0.012206372765782333 0 -0.011808791273693539 -0.012145779026427498 0 -0.011846733307896127 -0.012358647481196638 0 -0.011948024217622848 -0.012329476272016773 0 -0.011935578704729497 -0.012206372765782333 0 -0.011846733307896127 -0.012358647481196638 0 -0.011808791273693539 -0.012145779026427498 0 -0.011711471606223541 -0.01232599851086269 0 -0.011808791273693539 -0.012145779026427498 0 -0.01160815651599888 -0.012173065920435874 0 -0.011711471606223541 -0.01232599851086269 0 -0.013465935474071128 -0.011713289631893692 0 -0.013565494323538176 -0.012152228522274577 0 -0.015329157208926098 -0.01126288931162656 0 -0.015581550867095895 -0.011820976316291514 0 -0.015202983577893268 -0.011371104813533074 0 -0.01160815651599888 -0.012173065920435874 0 -0.011574400268815 -0.012437109063538621 0 -0.011711471606223541 -0.01232599851086269 0 -0.011574400268815 -0.012437109063538621 0 -0.011711471606223541 -0.01232599851086269 0 -0.01173724416633825 -0.012467407039098436 0 -0.011846733307896127 -0.012358647481196638 0 -0.011711471606223541 -0.01232599851086269 0 -0.01173724416633825 -0.012467407039098436 0 -0.011574400268815 -0.012437109063538621 0 -0.01173724416633825 -0.012467407039098436 0 -0.011701940732009098 -0.012631643162942775 0 -0.01173724416633825 -0.012467407039098436 0 -0.011701940732009098 -0.012631643162942775 0 -0.011880763427594504 -0.012535500143521013 0 -0.013565494323538176 -0.012152228522274577 0 -0.013590559784735024 -0.012523181706469272 0 -0.011574400268815 -0.012437109063538621 0 -0.011701940732009098 -0.012631643162942775 0 -0.011536801581240659 -0.012639250391658297 0 -0.011701940732009098 -0.012631643162942775 0 -0.011619608665667866 -0.012795800564737237 0 -0.011536801581240659 -0.012639250391658297 0 -0.011701940732009098 -0.012631643162942775 0 -0.011762584833975465 -0.012802461722979016 0 -0.011619608665667866 -0.012795800564737237 0 -0.011701940732009098 -0.012631643162942775 0 -0.011832701547329735 -0.012687362543338772 0 -0.011762584833975465 -0.012802461722979016 0 -0.011832701547329735 -0.012687362543338772 0 -0.011880763427594504 -0.012535500143521013 0 -0.011932554643263935 -0.01269048416079918 0 -0.011832701547329735 -0.012687362543338772 0 -0.011932554643263935 -0.01269048416079918 0 -0.011925254492784051 -0.012832435674803688 0 -0.011701940732009098 -0.012631643162942775 0 -0.011832701547329735 -0.012687362543338772 0 -0.011880763427594504 -0.012535500143521013 0 -0.011880763427594504 -0.012535500143521013 0 -0.012005314306815056 -0.012613936310233612 0 -0.011999788665573824 -0.012486560669163193 0 -0.011880763427594504 -0.012535500143521013 0 -0.012005314306815056 -0.012613936310233612 0 -0.011932554643263935 -0.01269048416079918 0 -0.012005314306815056 -0.012613936310233612 0 -0.011932554643263935 -0.01269048416079918 0 -0.012017199415840178 -0.012788178595458147 0 -0.011932554643263935 -0.01269048416079918 0 -0.012017199415840178 -0.012788178595458147 0 -0.011925254492784051 -0.012832435674803688 0 -0.0058798628764055111 -0.014008737792972632 0 -0.0056476944772386956 -0.013548138351160578 0 -0.0055850602155103884 -0.014046596928589328 0 -0.012017199415840178 -0.012788178595458147 0 -0.011925254492784051 -0.012832435674803688 0 -0.011903833832482915 -0.012930860392009479 0 -0.008854867386498445 -0.013164091456562568 0 -0.0085826393528212908 -0.013392024920461279 0 -0.011832701547329735 -0.012687362543338772 0 -0.011925254492784051 -0.012832435674803688 0 -0.011762584833975465 -0.012802461722979016 0 -0.01191089214312876 -0.012906164635408262 0 -0.011929505592984785 -0.012912471360294199 0 -0.01192346840247341 -0.012940957218199831 0 -0.011925254492784051 -0.012832435674803688 0 -0.01191089214312876 -0.012906164635408262 0 -0.011903833832482915 -0.012930860392009479 0 -0.011899469859465243 -0.012843441542631067 0 -0.011928887884877138 -0.01286290233946138 0 -0.011925254492784051 -0.012832435674803688 0 -0.01191089214312876 -0.012906164635408262 0 -0.01192346840247341 -0.012940957218199831 0 -0.01191089214312876 -0.012906164635408262 0 -0.011903833832482915 -0.012930860392009479 0 -0.011929505592984785 -0.012912471360294199 0 -0.011903833832482915 -0.012930860392009479 0 -0.011924469929223972 -0.012890278091176571 0 -0.011929505592984785 -0.012912471360294199 0 -0.0057901390992224321 -0.014313746651706639 0 -0.0058798628764055111 -0.014008737792972632 0 -0.0055850602155103884 -0.014046596928589328 0 -0.0057901390992224321 -0.014313746651706639 0 -0.0055850602155103884 -0.014046596928589328 0 -0.0055276839088014658 -0.014351306849168032 0 -0.0080876407975526317 -0.015010092209286946 0 -0.010008659254609226 -0.014266492012158185 0 -0.011903833832482915 -0.012930860392009479 0 -0.011924469929223972 -0.012890278091176571 0 -0.011904457477858522 -0.01286318800136301 0 -0.0085826393528212908 -0.013392024920461279 0 -0.010008659254609226 -0.014266492012158185 0 -0.011924469929223972 -0.012890278091176571 0 -0.011904457477858522 -0.01286318800136301 0 -0.011927408841304872 -0.012851696800397402 0 -0.012038940699177549 -0.015350778184305178 0 -0.01178624513719129 -0.015176469232430746 0 -0.011486333848152883 -0.015257389900520715 0 -0.011495570448207411 -0.015299207908496348 0 -0.011478432562764438 -0.015333899197748892 0 -0.01121922277911174 -0.015260593298402512 0 -0.011133386527817458 -0.014764928829282067 0 -0.011475253707486694 -0.015287688107089255 0 -0.012039645442622215 -0.01534823357609399 0 -0.012189218852751545 -0.015063328151166188 0 -0.012187609346930443 -0.015375113440682195 0 -0.011133386527817458 -0.014764928829282067 0 -0.011872226108624427 -0.014576807447519624 0 -0.010766275425515875 -0.014104017312810121 0 -0.010597111268739247 -0.014434766898968932 0 -0.011472836407136019 -0.014228782142723013 0 -0.010008659254609226 -0.014266492012158185 0 -0.011872226108624427 -0.014576807447519624 0 -0.011133386527817458 -0.014764928829282067 0 -0.010008659254609226 -0.014266492012158185 0 -0.012038940699177549 -0.015350778184305178 0 -0.012024999962980613 -0.015155720497973143 0 -0.012189218852751545 -0.015063328151166188 0 -0.011133386527817458 -0.014764928829282067 0 -0.011818784938684228 -0.014979902846953852 0 -0.012024999962980613 -0.015155720497973143 0 -0.012043956041463823 -0.015000000398753681 0 -0.012189218852751545 -0.015063328151166188 0 -0.012024999962980613 -0.015155720497973143 0 -0.012043956041463823 -0.015000000398753681 0 -0.01178624513719129 -0.015176469232430746 0 -0.012038940699177549 -0.015350778184305178 0 -0.012024999962980613 -0.015155720497973143 0 -0.01178624513719129 -0.015176469232430746 0 -0.011166751762588606 -0.014999987358506757 0 -0.01178624513719129 -0.015176469232430746 0 -0.011486333848152883 -0.015257389900520715 0 -0.011166751762588606 -0.014999987358506757 0 -0.012043956041463823 -0.015000000398753681 0 -0.01178624513719129 -0.015176469232430746 0 -0.01107242475546643 -0.015481664202822192 0 -0.011478432562764438 -0.015333899197748892 0 -0.01121922277911174 -0.015260593298402512 0 -0.012982745453005783 -0.015148290384817503 0 -0.012124573985307923 -0.015326174150514814 0 -0.012992995337205557 -0.01549344597450102 0 -0.012920984493153546 -0.014999996328140986 0 -0.012993747341244217 -0.015189438116737472 0 -0.012187609346930443 -0.015375113440682195 0 -0.011872226108624427 -0.014576807447519624 0 -0.012343325805667044 -0.014099430869363234 0 -0.01303018210797824 -0.015265694931771427 0 -0.011872226108624427 -0.014576807447519624 0 -0.012043956041463823 -0.015000000398753681 0 -0.012920984493153546 -0.014999996328140986 0 -0.012189218852751545 -0.015063328151166188 0 -0.012920984493153546 -0.014999996328140986 0 -0.012189218852751545 -0.015063328151166188 0 -0.012187609346930443 -0.015375113440682195 0 -0.011927408841304872 -0.012851696800397402 0 -0.011972556708721228 -0.012890643137116126 0 -0.012049235974898556 -0.012839420821494347 0 -0.011924469929223972 -0.012890278091176571 0 -0.011927408841304872 -0.012851696800397402 0 -0.011972556708721228 -0.012890643137116126 0 -0.011924469929223972 -0.012890278091176571 0 -0.011972556708721228 -0.012890643137116126 0 -0.011929505592984785 -0.012912471360294199 0 -0.011972556708721228 -0.012890643137116126 0 -0.012049235974898556 -0.012839420821494347 0 -0.012054429383460095 -0.012922762086056134 0 -0.011972556708721228 -0.012890643137116126 0 -0.012054429383460095 -0.012922762086056134 0 -0.011982734269571171 -0.012928066257740772 0 -0.012054429383460095 -0.012922762086056134 0 -0.011982734269571171 -0.012928066257740772 0 -0.012018820662410187 -0.01298616717606859 0 -0.011929505592984785 -0.012912471360294199 0 -0.011982734269571171 -0.012928066257740772 0 -0.01192346840247341 -0.012940957218199831 0 -0.011972556708721228 -0.012890643137116126 0 -0.011929505592984785 -0.012912471360294199 0 -0.011982734269571171 -0.012928066257740772 0 -0.011982734269571171 -0.012928066257740772 0 -0.01192346840247341 -0.012940957218199831 0 -0.012018820662410187 -0.01298616717606859 0 -0.011928887884877138 -0.01286290233946138 0 -0.011448495444994787 -0.012906653235982375 0 -0.012054429383460095 -0.012922762086056134 0 -0.012018820662410187 -0.01298616717606859 0 -0.012134799160225983 -0.012994905641472933 0 -0.011448495444994787 -0.012906653235982375 0 -0.013757569553251477 -0.01301293185454659 0 -0.011619608665667866 -0.012795800564737237 0 -0.011503668131908991 -0.012800118142846088 0 -0.011536801581240659 -0.012639250391658297 0 -0.015655591359858351 -0.012962700236590503 0 -0.015457490722081614 -0.013049893371532197 0 -0.015478142815900792 -0.012664322121679073 0 -0.015457490722081614 -0.013049893371532197 0 -0.015353495676905745 -0.012868362282574019 0 -0.015478142815900792 -0.012664322121679073 0 -0.016193617532759379 -0.013305135454076716 0 -0.015797939096023755 -0.013330989889626279 0 -0.016048169507983691 -0.013719154404217022 0 -0.013757569553251477 -0.01301293185454659 0 -0.015949450641730978 -0.013167286522023727 0 -0.015797939096023755 -0.013330989889626279 0 -0.016048169507983691 -0.013719154404217022 0 -0.015654896266822874 -0.013740923756130603 0 -0.016048169507983691 -0.013719154404217022 0 -0.015886438570050985 -0.014123058067044352 0 -0.015654896266822874 -0.013740923756130603 0 -0.012054429383460095 -0.012922762086056134 0 -0.012134799160225983 -0.012994905641472933 0 -0.012168863582033423 -0.012927694002331059 0 -0.013757569553251477 -0.01301293185454659 0 -0.014143333573370394 -0.013218599738930213 0 -0.012992995337205557 -0.01549344597450102 0 -0.013814332584153382 -0.015635060260850354 0 -0.013450259830163317 -0.015317196159625434 0 -0.012049235974898556 -0.012839420821494347 0 -0.012054429383460095 -0.012922762086056134 0 -0.012168863582033423 -0.012927694002331059 0 -0.012343325805667044 -0.014099430869363234 0 -0.013980096291945021 -0.014186941671427927 0 -0.012049235974898556 -0.012839420821494347 0 -0.012168863582033423 -0.012927694002331059 0 -0.012208972184553735 -0.012859281591477204 0 -0.014143333573370394 -0.013218599738930213 0 -0.013980096291945021 -0.014186941671427927 0 -0.013814332584153382 -0.015635060260850354 0 -0.013798079021796746 -0.014999923733273681 0 -0.014076947040694792 -0.015000034469522352 0 -0.013980096291945021 -0.014186941671427927 0 -0.014069692827959928 -0.015397858211971803 0 -0.013814332584153382 -0.015635060260850354 0 -0.013798079021796746 -0.014999923733273681 0 -0.013450259830163317 -0.015317196159625434 0 -0.01447780437386045 -0.014901216254508994 0 -0.014078865091808128 -0.014999414798478132 0 -0.014440983145526392 -0.014914984001627839 0 -0.01303018210797824 -0.015265694931771427 0 -0.013797861931266297 -0.014999980061085119 0 -0.012982745453005783 -0.015148290384817503 0 -0.013798079021796746 -0.014999923733273681 0 -0.013450259830163317 -0.015317196159625434 0 -0.012920984493153546 -0.014999996328140986 0 -0.012993747341244217 -0.015189438116737472 0 -0.013798067556548997 -0.015000000657137903 0 -0.012982745453005783 -0.015148290384817503 0 -0.012992995337205557 -0.01549344597450102 0 -0.013450259830163317 -0.015317196159625434 0 -0.014999272832703518 -0.014999319944087699 0 -0.014689341800065548 -0.014856215124517212 0 -0.014999567869781542 -0.014124188162500275 0 -0.014999272832703518 -0.014999319944087699 0 -0.014078865091808128 -0.014999414798478132 0 -0.014689341800065548 -0.014856215124517212 0 -0.014078865091808128 -0.014999414798478132 0 -0.014440983145526392 -0.014914984001627839 0 -0.014689341800065548 -0.014856215124517212 0 -0.013980096291945021 -0.014186941671427927 0 -0.01520765830338721 -0.014431661311656491 0 -0.01447780437386045 -0.014901216254508994 0 -0.014440983145526392 -0.014914984001627839 0 -0.014622356101839718 -0.014800684693187884 0 -0.015886438570050985 -0.014123058067044352 0 -0.015405589178360411 -0.014050262138779183 0 -0.015654896266822874 -0.013740923756130603 0 -0.014440983145526392 -0.014914984001627839 0 -0.014689341800065548 -0.014856215124517212 0 -0.014622356101839718 -0.014800684693187884 0 -0.01520765830338721 -0.014431661311656491 0 -0.014999570115417622 -0.014122333038581595 0 -0.014689341800065548 -0.014856215124517212 0 -0.014622356101839718 -0.014800684693187884 0 -0.014999567869781542 -0.014124188162500275 0 -0.015405589178360411 -0.014050262138779183 0 -0.014999867119722822 -0.014121869281224147 0 -0.015244855719199519 -0.013745296474482433 0 -0.014999867119722822 -0.014121869281224147 0 -0.015244855719199519 -0.013745296474482433 0 -0.014999830635624767 -0.013384072644926527 0 -0.015797939096023755 -0.013330989889626279 0 -0.015654896266822874 -0.013740923756130603 0 -0.015352823418980539 -0.013319103644623881 0 -0.015405589178360411 -0.014050262138779183 0 -0.015244855719199519 -0.013745296474482433 0 -0.015654896266822874 -0.013740923756130603 0 -0.015244855719199519 -0.013745296474482433 0 -0.015654896266822874 -0.013740923756130603 0 -0.015352823418980539 -0.013319103644623881 0 -0.015457490722081614 -0.013049893371532197 0 -0.015352823418980539 -0.013319103644623881 0 -0.015353495676905745 -0.012868362282574019 0 -0.015949450641730978 -0.013167286522023727 0 -0.015257044078228334 -0.013287428182499735 0 -0.015352823418980539 -0.013319103644623881 0 -0.015195381940106212 -0.012950278077230828 0 -0.015353495676905745 -0.012868362282574019 0 -0.015244855719199519 -0.013745296474482433 0 -0.015352823418980539 -0.013319103644623881 0 -0.014999830635624767 -0.013384072644926527 0 -0.015352823418980539 -0.013319103644623881 0 -0.014999830635624767 -0.013384072644926527 0 -0.015195381940106212 -0.012950278077230828 0 -0.014999830635624767 -0.013384072644926527 0 -0.015195381940106212 -0.012950278077230828 0 -0.01499978588696033 -0.01264609243445588 0 -0.015195381940106212 -0.012950278077230828 0 -0.01499978588696033 -0.01264609243445588 0 -0.015262185641135536 -0.012477223969769359 0 -0.01499978588696033 -0.01264609243445588 0 -0.015262185641135536 -0.012477223969769359 0 -0.015132699809539574 -0.011894344656100028 0 -0.015262185641135536 -0.012477223969769359 0 -0.015343568966365351 -0.011976993376723401 0 -0.015132699809539574 -0.011894344656100028 0 -0.015262185641135536 -0.012477223969769359 0 -0.015353495676905745 -0.012868362282574019 0 -0.015478142815900792 -0.012664322121679073 0 -0.015195381940106212 -0.012950278077230828 0 -0.015262185641135536 -0.012477223969769359 0 -0.015353495676905745 -0.012868362282574019 0 -0.013757569553251477 -0.01301293185454659 0 -0.013590559784735024 -0.012523181706469272 0 -0.015655591359858351 -0.012962700236590503 0 -0.015478142815900792 -0.012664322121679073 0 -0.015698803489888322 -0.012434969761371656 0 -0.015478142815900792 -0.012664322121679073 0 -0.015698803489888322 -0.012434969761371656 0 -0.015343568966365351 -0.011976993376723401 0 -0.015581550867095895 -0.011820976316291514 0 -0.015698803489888322 -0.012434969761371656 0 -0.015343568966365351 -0.011976993376723401 0 -0.015262185641135536 -0.012477223969769359 0 -0.015478142815900792 -0.012664322121679073 0 -0.015343568966365351 -0.011976993376723401 0 -0.015343568966365351 -0.011976993376723401 0 -0.015067731927635284 -0.011370176376120427 0 -0.015132699809539574 -0.011894344656100028 0 -0.015581550867095895 -0.011820976316291514 0 -0.015343568966365351 -0.011976993376723401 0 -0.015202983577893268 -0.011371104813533074 0 -0.015343568966365351 -0.011976993376723401 0 -0.015202983577893268 -0.011371104813533074 0 -0.015067731927635284 -0.011370176376120427 0 -0.015067731927635284 -0.011370176376120427 0 -0.014990234976708086 -0.011309733697377386 0 -0.015132699809539574 -0.011894344656100028 0 -0.014999163370108386 -0.011170955027309809 0 -0.014990234976708086 -0.011309733697377386 0 -0.014999835730188477 -0.011907994669188092 0 -0.014990234976708086 -0.011309733697377386 0 -0.014999835730188477 -0.011907994669188092 0 -0.015132699809539574 -0.011894344656100028 0 -0.01499978588696033 -0.01264609243445588 0 -0.014999835730188477 -0.011907994669188092 0 -0.015132699809539574 -0.011894344656100028 0 0.0038928612396172016 -0.0065109211023501104 0 0.0039877733561169771 -0.0059294607288010023 0 0.0042634583930352436 -0.006378548375102296 0 0.0069742876942900951 -0.0056818066820153012 0 0.006877617135148016 -0.0058693282558511164 0 0.0067887402819419426 -0.0057237752025339145 0 0.0058450244384351674 -0.0059097886087058913 0 0.0047994901574083633 -0.0080212080239856869 0 0.003665129306770831 -0.007768613022588273 0 0.0047994901574083633 -0.0080212080239856869 0 0.0051725887400929276 -0.0069960241868777728 0 0.0044912914672075388 -0.006631471327119845 0 0.0041786004113434708 -0.0073480989885589326 0 0.0069742876942900951 -0.0056818066820153012 0 0.007065866472493066 -0.0054907978810145924 0 0.0068056717955168634 -0.0054818264684111306 0 0.0069742876942900951 -0.0056818066820153012 0 0.0067887402819419426 -0.0057237752025339145 0 0.0068056717955168634 -0.0054818264684111306 0 0.0058450244384351674 -0.0059097886087058913 0 0.0049486047987525933 -0.0052869634811955639 0 0.003665129306770831 -0.007768613022588273 0 0.0049486047987525933 -0.0052869634811955639 0 0.0038928612396172016 -0.0065109211023501104 0 0.0036177786604057664 -0.0056597493773330974 0 0.0039877733561169771 -0.0059294607288010023 0 0.0051725887400929276 -0.0069960241868777728 0 0.0044912914672075388 -0.006631471327119845 0 0.0048075081441043476 -0.0059129714470027373 0 0.0036177786604057664 -0.0056597493773330974 0 0.0039877733561169771 -0.0059294607288010023 0 0.0040279505046128877 -0.0054510302235237151 0 0.0039877733561169771 -0.0059294607288010023 0 0.0041655604841506948 -0.0058058662198139498 0 0.0040279505046128877 -0.0054510302235237151 0 0.0039877733561169771 -0.0059294607288010023 0 0.0041655604841506948 -0.0058058662198139498 0 0.0042634583930352436 -0.006378548375102296 0 0.0041655604841506948 -0.0058058662198139498 0 0.0042634583930352436 -0.006378548375102296 0 0.0044023726154877926 -0.0054624787654862228 0 0.0025723908693476489 -0.0068624988211812513 0 0.0046063602804812635 -0.0050068009039554839 0 0.0025723908693476489 -0.0068624988211812513 0 0.0049699416345174051 -0.004299913239120841 0 0.0041983785225260207 -0.0056892622417038701 0 0.0043931806734519895 -0.0049456131574675917 0 0.0044645506138491393 -0.0048691166407636727 0 0.004591588958033032 -0.00517709609781706 0 0.004278172354981253 -0.0055278162914318609 0 0.0044645506138491393 -0.0048691166407636727 0 0.004591588958033032 -0.00517709609781706 0 0.004278172354981253 -0.0055278162914318609 0 0.0048798137726017406 -0.0052895686512234343 0 0.004591588958033032 -0.00517709609781706 0 0.0048649767629442876 -0.0049458100220550454 0 0.0048798137726017406 -0.0052895686512234343 0 -0.001572813079887753 -0.0093843054439866989 0 -0.0015810181446164365 -0.0093621089669211847 0 -0.0015661213944212235 -0.0093492422694504435 0 -0.001572813079887753 -0.0093843054439866989 0 -0.0015541834874841609 -0.0093967731648728903 0 -0.0015661213944212235 -0.0093492422694504435 0 0.0025723908693476489 -0.0068624988211812513 0 0.0014137114142051797 -0.0074178038611826544 0 -0.001572813079887753 -0.0093843054439866989 0 -0.0015541834874841609 -0.0093967731648728903 0 -0.0015593251685153968 -0.0094333061183635141 0 0.003665129306770831 -0.007768613022588273 0 0.0025723908693476489 -0.0068624988211812513 0 -0.001572813079887753 -0.0093843054439866989 0 -0.0015903339636346829 -0.0093891425366068055 0 -0.0015889212040710447 -0.0094231976665827173 0 -0.001572813079887753 -0.0093843054439866989 0 -0.0015810181446164365 -0.0093621089669211847 0 -0.0015903339636346829 -0.0093891425366068055 0 0.0025723908693476489 -0.0068624988211812513 0 0.00064096659325580481 -0.0091837168587115756 0 0.0016020926415044427 -0.0078963246245269819 0 0.0023739207142180726 -0.0076233580293315938 0 0.0021963987468789849 -0.008444235631754048 0 -0.0015810181446164365 -0.0093621089669211847 0 -0.0015903339636346829 -0.0093891425366068055 0 -0.0016240377484956221 -0.0093978520906662852 0 -0.0016240377484956221 -0.0093978520906662852 0 -0.0015889212040710447 -0.0094231976665827173 0 -0.0016672089268873406 -0.0094408942428534006 0 0.0016020926415044427 -0.0078963246245269819 0 0.0021963987468789849 -0.008444235631754048 0 0.0020280519728873491 -0.0091644953229405909 0 0.00064096659325580481 -0.0091837168587115756 0 0.00090236573510801691 -0.00934252480649405 0 -0.0015903339636346829 -0.0093891425366068055 0 -0.0016240377484956221 -0.0093978520906662852 0 -0.0015889212040710447 -0.0094231976665827173 0 -0.0015889212040710447 -0.0094231976665827173 0 -0.001603604558534697 -0.0094833993903422672 0 -0.0015794339626928966 -0.0094876171113616424 0 -0.0015889212040710447 -0.0094231976665827173 0 -0.001603604558534697 -0.0094833993903422672 0 -0.0016672089268873406 -0.0094408942428534006 0 -0.0015541834874841609 -0.0093967731648728903 0 -0.0015593251685153968 -0.0094333061183635141 0 -0.0015395518748481591 -0.0094323479497872148 0 -0.001572813079887753 -0.0093843054439866989 0 -0.0015889212040710447 -0.0094231976665827173 0 -0.0015593251685153968 -0.0094333061183635141 0 -0.0015593251685153968 -0.0094333061183635141 0 -0.0015528040023340623 -0.0094881612120214977 0 -0.0015794339626928966 -0.0094876171113616424 0 -0.0015889212040710447 -0.0094231976665827173 0 -0.0015593251685153968 -0.0094333061183635141 0 -0.0015794339626928966 -0.0094876171113616424 0 -0.0015593251685153968 -0.0094333061183635141 0 -0.0015395518748481591 -0.0094323479497872148 0 -0.0015306892272478386 -0.0094701206668073926 0 -0.0015593251685153968 -0.0094333061183635141 0 -0.0015306892272478386 -0.0094701206668073926 0 -0.0015528040023340623 -0.0094881612120214977 0 -0.0015306892272478386 -0.0094701206668073926 0 -0.0015528040023340623 -0.0094881612120214977 0 -0.0015067523698381428 -0.0095223630236588863 0 -0.0015528040023340623 -0.0094881612120214977 0 -0.0015585358747626681 -0.009523573617509766 0 -0.0015067523698381428 -0.0095223630236588863 0 -0.0015585358747626681 -0.009523573617509766 0 -0.0015794339626928966 -0.0094876171113616424 0 -0.0015832284131400867 -0.0095453807853347963 0 -0.0015794339626928966 -0.0094876171113616424 0 -0.0015832284131400867 -0.0095453807853347963 0 -0.0016021292034085995 -0.0095301021900472647 0 -0.0015528040023340623 -0.0094881612120214977 0 -0.0015585358747626681 -0.009523573617509766 0 -0.0015794339626928966 -0.0094876171113616424 0 -0.001600147860260409 -0.0095787172863387379 0 -0.0016021292034085995 -0.0095301021900472647 0 -0.0016356056233722582 -0.0096267357101390821 0 -0.001600147860260409 -0.0095787172863387379 0 -0.0015832284131400867 -0.0095453807853347963 0 -0.0016021292034085995 -0.0095301021900472647 0 -0.001600147860260409 -0.0095787172863387379 0 -0.0015809244547585212 -0.0095847310974089151 0 -0.0015832284131400867 -0.0095453807853347963 0 -0.0015809244547585212 -0.0095847310974089151 0 -0.0015832284131400867 -0.0095453807853347963 0 -0.0015490983285344046 -0.0095642948115591975 0 -0.0015585358747626681 -0.009523573617509766 0 -0.0015832284131400867 -0.0095453807853347963 0 -0.0015490983285344046 -0.0095642948115591975 0 -0.0015585358747626681 -0.009523573617509766 0 -0.0015490983285344046 -0.0095642948115591975 0 -0.0015067523698381428 -0.0095223630236588863 0 -0.0015490983285344046 -0.0095642948115591975 0 -0.0015067523698381428 -0.0095223630236588863 0 -0.0015096623470432684 -0.0095846308892395017 0 -0.0015809244547585212 -0.0095847310974089151 0 -0.0015490983285344046 -0.0095642948115591975 0 -0.0015564981325653594 -0.0096083027050883028 0 -0.0015490983285344046 -0.0095642948115591975 0 -0.0015096623470432684 -0.0095846308892395017 0 -0.0015564981325653594 -0.0096083027050883028 0 -0.001603604558534697 -0.0094833993903422672 0 -0.0015757526393282326 -0.0097620488491971021 0 -0.001481982803508132 -0.0097817646658651565 0 -0.001603604558534697 -0.0094833993903422672 0 -0.0016021292034085995 -0.0095301021900472647 0 -0.0016356056233722582 -0.0096267357101390821 0 -0.001603604558534697 -0.0094833993903422672 0 -0.0016672089268873406 -0.0094408942428534006 0 -0.0015757526393282326 -0.0097620488491971021 0 -0.00033923961760987949 -0.0092814152041453893 0 -0.00051695859729144935 -0.009997692573312544 0 -0.0001208322436728084 -0.0099754613142213049 0 0.00090236573510801691 -0.00934252480649405 0 -0.0011132861870308125 -0.0098120481022787951 0 -0.0016027641502302462 -0.0094987270778738239 0 -0.0015573492431871362 -0.0097223312852049194 0 -0.001603604558534697 -0.0094833993903422672 0 -0.0015794339626928966 -0.0094876171113616424 0 -0.0016021292034085995 -0.0095301021900472647 0 0.00090236573510801691 -0.00934252480649405 0 0.001599986040218806 -0.0097508773591790734 0 0.0035716819989621037 -0.0094671430407957981 0 0.0036710590023455495 -0.0094290476540591223 0 0.0035918880996112863 -0.0093505543516143128 0 0.003665129306770831 -0.007768613022588273 0 0.00090236573510801691 -0.00934252480649405 0 0.0036079266992972126 -0.0095340264943919745 0 0.0035716819989621037 -0.0094671430407957981 0 0.0036429258501869113 -0.0094848445677143938 0 0.0035716819989621037 -0.0094671430407957981 0 0.0036429258501869113 -0.0094848445677143938 0 0.0036710590023455495 -0.0094290476540591223 0 0.0036079266992972126 -0.0095340264943919745 0 0.0036429258501869113 -0.0094848445677143938 0 0.0037206451890132749 -0.009506887582238591 0 0.0036429258501869113 -0.0094848445677143938 0 0.0037206451890132749 -0.009506887582238591 0 0.0036710590023455495 -0.0094290476540591223 0 0.0037206451890132749 -0.009506887582238591 0 0.0036710590023455495 -0.0094290476540591223 0 0.0037924801673706039 -0.0094040921169418548 0 0.0036710590023455495 -0.0094290476540591223 0 0.0037924801673706039 -0.0094040921169418548 0 0.003724683802918839 -0.0093021511534799733 0 0.0039927321221662976 -0.0091938819956420923 0 0.0039963080988040713 -0.0092339245019224074 0 0.0039756791393781828 -0.0092398876899365961 0 0.0040186269263253896 -0.0092311666827577313 0 0.0039927321221662976 -0.0091938819956420923 0 0.0039756791393781828 -0.0092398876899365961 0 0.0047994901574083633 -0.0080212080239856869 0 0.0054536950293606499 -0.0074737870507806834 0 0.0040802500464548388 -0.0091364768409854056 0 0.0040186269263253896 -0.0092311666827577313 0 0.0039927321221662976 -0.0091938819956420923 0 0.006877617135148016 -0.0058693282558511164 0 0.0065636672629220683 -0.0059515870569492729 0 0.0067887402819419426 -0.0057237752025339145 0 0.0047994901574083633 -0.0080212080239856869 0 0.0037181685405094631 -0.0096334032454113306 0 0.0040125115279203575 -0.0092334215824461004 0 0.0039963080988040713 -0.0092339245019224074 0 0.0040331433085934662 -0.0092099500637636573 0 0.0039927321221662976 -0.0091938819956420923 0 0.0040125115279203575 -0.0092334215824461004 0 0.0039963080988040713 -0.0092339245019224074 0 0.0054536950293606499 -0.0074737870507806834 0 0.0050897327829035211 -0.0076252672291472669 0 0.0065636672629220683 -0.0059515870569492729 0 0.0062975631679998536 -0.005999367117391673 0 0.0062870653502486648 -0.0057940986162321583 0 0.0062975631679998536 -0.005999367117391673 0 0.0062870653502486648 -0.0057940986162321583 0 0.0061359280719713279 -0.0058979437584624726 0 0.0065636672629220683 -0.0059515870569492729 0 0.0062870653502486648 -0.0057940986162321583 0 0.0064409588069615827 -0.0056740614901355617 0 0.0064409588069615827 -0.0056740614901355617 0 0.0062268825463056557 -0.0055668958777783913 0 0.0064924951245338225 -0.0054061658933802458 0 0.0062870653502486648 -0.0057940986162321583 0 0.0064409588069615827 -0.0056740614901355617 0 0.0062268825463056557 -0.0055668958777783913 0 0.0065636672629220683 -0.0059515870569492729 0 0.0067887402819419426 -0.0057237752025339145 0 0.0066525905581840839 -0.0056409064450980151 0 0.0065636672629220683 -0.0059515870569492729 0 0.0064409588069615827 -0.0056740614901355617 0 0.0066525905581840839 -0.0056409064450980151 0 0.0066525905581840839 -0.0056409064450980151 0 0.0068056717955168634 -0.0054818264684111306 0 0.0064924951245338225 -0.0054061658933802458 0 0.0064409588069615827 -0.0056740614901355617 0 0.0066525905581840839 -0.0056409064450980151 0 0.0064924951245338225 -0.0054061658933802458 0 0.0067887402819419426 -0.0057237752025339145 0 0.0066525905581840839 -0.0056409064450980151 0 0.0068056717955168634 -0.0054818264684111306 0 0.0068056717955168634 -0.0054818264684111306 0 0.0066763244840476466 -0.0052549552472381626 0 0.0069892757443555647 -0.0051799254371395747 0 0.0068056717955168634 -0.0054818264684111306 0 0.0066763244840476466 -0.0052549552472381626 0 0.0064924951245338225 -0.0054061658933802458 0 0.0066763244840476466 -0.0052549552472381626 0 0.0064924951245338225 -0.0054061658933802458 0 0.0065921475491281852 -0.0050287468756857155 0 0.0066763244840476466 -0.0052549552472381626 0 0.0067847274264980773 -0.0050422698052615782 0 0.0065921475491281852 -0.0050287468756857155 0 0.0066763244840476466 -0.0052549552472381626 0 0.0067847274264980773 -0.0050422698052615782 0 0.0069892757443555647 -0.0051799254371395747 0 0.0062268825463056557 -0.0055668958777783913 0 0.0064924951245338225 -0.0054061658933802458 0 0.0061890005856927296 -0.0052609596559508804 0 0.0064924951245338225 -0.0054061658933802458 0 0.0063714032353307344 -0.005100221140005295 0 0.0065921475491281852 -0.0050287468756857155 0 0.0064924951245338225 -0.0054061658933802458 0 0.0063714032353307344 -0.005100221140005295 0 0.0061890005856927296 -0.0052609596559508804 0 0.0063714032353307344 -0.005100221140005295 0 0.0063211462031074793 -0.0048634001249255035 0 0.0061551725080466486 -0.0050085090783600159 0 0.0063714032353307344 -0.005100221140005295 0 0.0061551725080466486 -0.0050085090783600159 0 0.0061890005856927296 -0.0052609596559508804 0 0.0063714032353307344 -0.005100221140005295 0 0.0063211462031074793 -0.0048634001249255035 0 0.0065921475491281852 -0.0050287468756857155 0 0.0065106056639798945 -0.0046736058407810307 0 0.0063211462031074793 -0.0048634001249255035 0 0.0065921475491281852 -0.0050287468756857155 0 0.0062398702494258851 -0.0046346488653510815 0 0.0065106056639798945 -0.0046736058407810307 0 0.0063211462031074793 -0.0048634001249255035 0 0.0062398702494258851 -0.0046346488653510815 0 0.0063211462031074793 -0.0048634001249255035 0 0.006103587872120053 -0.0047754789955881645 0 0.0063211462031074793 -0.0048634001249255035 0 0.006103587872120053 -0.0047754789955881645 0 0.0061551725080466486 -0.0050085090783600159 0 0.0067847274264980773 -0.0050422698052615782 0 0.0067061588379013623 -0.0048209646622797715 0 0.0069147088382196008 -0.0048520420395575291 0 0.0067847274264980773 -0.0050422698052615782 0 0.0065921475491281852 -0.0050287468756857155 0 0.0067061588379013623 -0.0048209646622797715 0 0.0065106056639798945 -0.0046736058407810307 0 0.0065921475491281852 -0.0050287468756857155 0 0.0067061588379013623 -0.0048209646622797715 0 0.0068200146450696506 -0.004512280439015923 0 0.0067061588379013623 -0.0048209646622797715 0 0.0069147088382196008 -0.0048520420395575291 0 0.0048321197631051417 -0.0028294988830043651 0 0.0046965191892778318 -0.0031936368954925531 0 0.0051289820688280585 -0.0029661934897397854 0 0.0042208418684625626 -0.0029769331791649842 0 0.0048321197631051417 -0.0028294988830043651 0 0.0046965191892778318 -0.0031936368954925531 0 0.0046715643441458355 -0.0024704099680708329 0 0.0042208418684625626 -0.0029769331791649842 0 0.0048321197631051417 -0.0028294988830043651 0 0.0046965191892778318 -0.0031936368954925531 0 0.0049004576468513377 -0.0036121146863496763 0 0.0051289820688280585 -0.0029661934897397854 0 0.005552816028441509 -0.0039244812005196448 0 0.0058047613990719511 -0.0043376904449561136 0 0.0042208418684625626 -0.0029769331791649842 0 0.0046965191892778318 -0.0031936368954925531 0 0.0043995402258862415 -0.0036104843846288758 0 0.0067847274264980773 -0.0050422698052615782 0 0.0069147088382196008 -0.0048520420395575291 0 0.0069892757443555647 -0.0051799254371395747 0 0.0046244254546766016 -0.0042904883267437799 0 0.0043995402258862415 -0.0036104843846288758 0 0.0049004576468513377 -0.0036121146863496763 0 0.0046965191892778318 -0.0031936368954925531 0 0.0043995402258862415 -0.0036104843846288758 0 0.0049004576468513377 -0.0036121146863496763 0 0.0049486047987525933 -0.0052869634811955639 0 0.0043448691103951127 -0.0041711498073892482 0 0.0036177786604057664 -0.0056597493773330974 0 0.0040137601910648591 -0.0047973152412175007 0 0.0040279505046128877 -0.0054510302235237151 0 0.007065866472493066 -0.0054907978810145924 0 0.0068056717955168634 -0.0054818264684111306 0 0.0069892757443555647 -0.0051799254371395747 0 0.0049486047987525933 -0.0052869634811955639 0 0.0058047613990719511 -0.0043376904449561136 0 0.0048649767629442876 -0.0049458100220550454 0 0.0044645506138491393 -0.0048691166407636727 0 0.0047636648788173704 -0.0046411418576834864 0 0.004591588958033032 -0.00517709609781706 0 0.0048649767629442876 -0.0049458100220550454 0 0.0044645506138491393 -0.0048691166407636727 0 0.0048649767629442876 -0.0049458100220550454 0 0.0047636648788173704 -0.0046411418576834864 0 0.0050670333299144043 -0.0046417935011136601 0 0.0043931806734519895 -0.0049456131574675917 0 0.0044645506138491393 -0.0048691166407636727 0 0.0045715544966384277 -0.0043645096160388613 0 0.0040137601910648591 -0.0047973152412175007 0 0.0040279505046128877 -0.0054510302235237151 0 0.0041940777481003326 -0.0051370366895472528 0 0.0041655604841506948 -0.0058058662198139498 0 0.0040279505046128877 -0.0054510302235237151 0 0.0044023726154877926 -0.0054624787654862228 0 0.0040279505046128877 -0.0054510302235237151 0 0.0044023726154877926 -0.0054624787654862228 0 0.0041940777481003326 -0.0051370366895472528 0 0.0040137601910648591 -0.0047973152412175007 0 0.0041940777481003326 -0.0051370366895472528 0 0.004530902924437398 -0.0045971236322871253 0 0.0044023726154877926 -0.0054624787654862228 0 0.0041940777481003326 -0.0051370366895472528 0 0.004530902924437398 -0.0045971236322871253 0 0.0046063602804812635 -0.0050068009039554839 0 0.0045185573671449137 -0.0045247401242924463 0 0.0047636648788173704 -0.0046411418576834864 0 0.0049111394411800301 -0.0043804991582579314 0 0.0045715544966384277 -0.0043645096160388613 0 0.0044645506138491393 -0.0048691166407636727 0 0.0047636648788173704 -0.0046411418576834864 0 0.0045715544966384277 -0.0043645096160388613 0 0.0047636648788173704 -0.0046411418576834864 0 0.0049111394411800301 -0.0043804991582579314 0 0.0050670333299144043 -0.0046417935011136601 0 0.0049111394411800301 -0.0043804991582579314 0 0.0048814195234544626 -0.0041014688790514319 0 0.0045715544966384277 -0.0043645096160388613 0 0.0045185573671449137 -0.0045247401242924463 0 0.0046678317515113669 -0.0037803315393695148 0 0.0048814195234544626 -0.0041014688790514319 0 0.0045715544966384277 -0.0043645096160388613 0 0.0046628077269828243 -0.0037630847783897093 0 0.0043448691103951127 -0.0041711498073892482 0 0.0047584201772066723 -0.0034836613646852242 0 0.0040137601910648591 -0.0047973152412175007 0 0.004530902924437398 -0.0045971236322871253 0 0.0043724601683758505 -0.0039911222426255279 0 0.004530902924437398 -0.0045971236322871253 0 0.0043724601683758505 -0.0039911222426255279 0 0.0046628077269828243 -0.0037630847783897093 0 0.0049948805227977037 -0.0025698614907179351 0 0.0048321197631051417 -0.0028294988830043651 0 0.0051289820688280585 -0.0029661934897397854 0 0.0046858607850575572 -0.0031167547186701471 0 0.0043724601683758505 -0.0039911222426255279 0 0.0046628077269828243 -0.0037630847783897093 0 0.0048814195234544626 -0.0041014688790514319 0 0.0046628077269828243 -0.0037630847783897093 0 0.0050717026205430909 -0.003855457874221787 0 0.0051073792276801321 -0.0035010842065198344 0 0.0046628077269828243 -0.0037630847783897093 0 0.0050717026205430909 -0.003855457874221787 0 0.0056342893910067936 -0.0037524375824761315 0 0.0050717026205430909 -0.003855457874221787 0 0.0052103335414068535 -0.0040989827253563324 0 0.0056342893910067936 -0.0037524375824761315 0 0.0051073792276801321 -0.0035010842065198344 0 0.0050717026205430909 -0.003855457874221787 0 0.0048814195234544626 -0.0041014688790514319 0 0.0050717026205430909 -0.003855457874221787 0 0.0052103335414068535 -0.0040989827253563324 0 0.0049111394411800301 -0.0043804991582579314 0 0.0052103335414068535 -0.0040989827253563324 0 0.0053010651747485869 -0.004338218453781544 0 0.0049111394411800301 -0.0043804991582579314 0 0.0048814195234544626 -0.0041014688790514319 0 0.0052103335414068535 -0.0040989827253563324 0 0.0052103335414068535 -0.0040989827253563324 0 0.0053010651747485869 -0.004338218453781544 0 0.0055815771269372722 -0.004025698846041639 0 0.0053010651747485869 -0.004338218453781544 0 0.0055815771269372722 -0.004025698846041639 0 0.0055556114062567091 -0.0043227518867663397 0 0.0056342893910067936 -0.0037524375824761315 0 0.0052103335414068535 -0.0040989827253563324 0 0.0055815771269372722 -0.004025698846041639 0 0.0056480218016665227 -0.0039153092853307812 0 0.0056342893910067936 -0.0037524375824761315 0 0.0055815771269372722 -0.004025698846041639 0 0.0056480218016665227 -0.0039153092853307812 0 0.0055815771269372722 -0.004025698846041639 0 0.0056850130394412671 -0.0040170124337149402 0 0.005645023087638321 -0.0039772301616715824 0 0.0056480218016665227 -0.0039153092853307812 0 0.0056850130394412671 -0.0040170124337149402 0 0.005645023087638321 -0.0039772301616715824 0 0.0056850130394412671 -0.0040170124337149402 0 0.0056200953809854709 -0.0039706744981131848 0 0.0054118744435218292 -0.0039683175330989546 0 0.0065597345877579606 -0.004267650775903911 0 0.0057408149784601093 -0.0043681284553549376 0 0.0058754312790324798 -0.0041532900916994965 0 0.0059054518476674674 -0.0043921269629492851 0 0.0056850130394412671 -0.0040170124337149402 0 0.0057408149784601093 -0.0043681284553549376 0 0.0058754312790324798 -0.0041532900916994965 0 0.0056850130394412671 -0.0040170124337149402 0 0.0057408149784601093 -0.0043681284553549376 0 0.0055556114062567091 -0.0043227518867663397 0 0.0055815771269372722 -0.004025698846041639 0 0.0056850130394412671 -0.0040170124337149402 0 0.0055556114062567091 -0.0043227518867663397 0 0.0057408149784601093 -0.0043681284553549376 0 0.0055556114062567091 -0.0043227518867663397 0 0.0055972352615891044 -0.0045888752821862319 0 0.0055556114062567091 -0.0043227518867663397 0 0.0055972352615891044 -0.0045888752821862319 0 0.005385427425412031 -0.0045816322499966072 0 0.0057408149784601093 -0.0043681284553549376 0 0.0057586531177066637 -0.0047331897380588524 0 0.0059054518476674674 -0.0043921269629492851 0 0.0057408149784601093 -0.0043681284553549376 0 0.0055972352615891044 -0.0045888752821862319 0 0.0057586531177066637 -0.0047331897380588524 0 0.0055972352615891044 -0.0045888752821862319 0 0.0057586531177066637 -0.0047331897380588524 0 0.0054072257170589824 -0.0049962621797666499 0 0.0031654261691148326 -0.0066596156184200875 0 0.0018554480835217965 -0.007122281937590339 0 0.0050670333299144043 -0.0046417935011136601 0 0.005385427425412031 -0.0045816322499966072 0 0.0054072257170589824 -0.0049962621797666499 0 0.0055972352615891044 -0.0045888752821862319 0 0.005385427425412031 -0.0045816322499966072 0 0.0054072257170589824 -0.0049962621797666499 0 0.0048649767629442876 -0.0049458100220550454 0 0.0050670333299144043 -0.0046417935011136601 0 0.0054072257170589824 -0.0049962621797666499 0 0.0049111394411800301 -0.0043804991582579314 0 0.0053010651747485869 -0.004338218453781544 0 0.0050670333299144043 -0.0046417935011136601 0 0.0053010651747485869 -0.004338218453781544 0 0.0050670333299144043 -0.0046417935011136601 0 0.005385427425412031 -0.0045816322499966072 0 0.0053010651747485869 -0.004338218453781544 0 0.0055556114062567091 -0.0043227518867663397 0 0.005385427425412031 -0.0045816322499966072 0 -0.0092802522830972064 -0.0088167755429212485 0 -0.005980094670718538 -0.009518868406405423 0 -0.0066982806457518617 -0.0072008266827401348 0 -0.0089015395662122472 -0.0096207992097115322 0 -0.0082009058912921005 -0.0092918933797845604 0 -0.0093542800227687968 -0.0089018078296849868 0 -0.0089150312658303824 -0.009489561367894082 0 -0.0084025932110001113 -0.0089710411529410842 0 -0.0096130329920531572 -0.010060369006654185 0 -0.0093542800227687968 -0.0089018078296849868 0 -0.0089150312658303824 -0.009489561367894082 0 -0.0084977487246382585 -0.010046113230889494 0 -0.0096130329920531572 -0.010060369006654185 0 -0.0089150312658303824 -0.009489561367894082 0 -0.0089150312658303824 -0.009489561367894082 0 -0.008453055110828769 -0.0095019922405663801 0 -0.0084025932110001113 -0.0089710411529410842 0 -0.008453055110828769 -0.0095019922405663801 0 -0.0084025932110001113 -0.0089710411529410842 0 -0.0079352548696019366 -0.0096848772671105209 0 -0.0084977487246382585 -0.010046113230889494 0 -0.0089150312658303824 -0.009489561367894082 0 -0.008453055110828769 -0.0095019922405663801 0 -0.0084977487246382585 -0.010046113230889494 0 -0.008453055110828769 -0.0095019922405663801 0 -0.0079352548696019366 -0.0096848772671105209 0 -0.0082009058912921005 -0.0092918933797845604 0 0.00025166187859167535 -0.0064013402553020054 0 -0.005980094670718538 -0.009518868406405423 0 -0.0026722571330091809 -0.010216797534391279 0 -0.0025661615287956015 -0.0057625459962292805 0 0.00064237182164942426 -0.0067610154336788632 0 0.00025166187859167535 -0.0064013402553020054 0 -0.0075601299328860875 -0.010145361993864755 0 -0.0074071837208773261 -0.0091271061828987754 0 -0.0079352548696019366 -0.0096848772671105209 0 -0.007484242649896041 -0.010198899799199532 0 -0.0075601299328860875 -0.010145361993864755 0 -0.0074071837208773261 -0.0091271061828987754 0 -0.0084025932110001113 -0.0089710411529410842 0 -0.0074071837208773261 -0.0091271061828987754 0 -0.0079352548696019366 -0.0096848772671105209 0 0.0055641372706377763 -0.0040121880503394087 0 0.005541346353044911 -0.0039728429680492873 0 0.0056018359352012518 -0.0039903622209584233 0 0.005541346353044911 -0.0039728429680492873 0 0.0056200953809854709 -0.0039706744981131848 0 0.0056018359352012518 -0.0039903622209584233 0 0.005645023087638321 -0.0039772301616715824 0 0.0056200953809854709 -0.0039706744981131848 0 0.0056018359352012518 -0.0039903622209584233 0 0.00025166187859167535 -0.0064013402553020054 0 0.0065597345877579606 -0.004267650775903911 0 0.0060189513460293075 -0.0042383017894379446 0 0.0058754312790324798 -0.0041532900916994965 0 0.0059054518476674674 -0.0043921269629492851 0 0.0057586531177066637 -0.0047331897380588524 0 0.0059054518476674674 -0.0043921269629492851 0 0.0059964628534527192 -0.0045945523775388509 0 0.0060189513460293075 -0.0042383017894379446 0 0.0059054518476674674 -0.0043921269629492851 0 0.0059964628534527192 -0.0045945523775388509 0 -0.0010775701945635299 -0.0089792327776901069 0 -0.0006746992630330146 -0.0088161609540347505 0 -0.00070433737827856123 -0.009312153328098205 0 0.0031654261691148326 -0.0066596156184200875 0 -0.0011485373411865959 -0.0073758918590461284 0 -0.0011485373411865959 -0.0073758918590461284 0 -0.0042389719364761347 -0.0096117979353554078 0 -0.0073742942909929814 -0.010202527006804718 0 -0.0078135600729019421 -0.010229697697412173 0 -0.0079661536516664969 -0.0096913445939980723 0 -0.0073742942909929814 -0.010202527006804718 0 -0.0079661536516664969 -0.0096913445939980723 0 -0.0073610824825705154 -0.0092603880900784565 0 -0.0011485373411865959 -0.0073758918590461284 0 -0.0083396208614147597 -0.0096209201869585596 0 -0.0073742942909929814 -0.010202527006804718 0 -0.0078135600729019421 -0.010229697697412173 0 -0.0082623327758943061 -0.010493293521146101 0 0.00025166187859167535 -0.0064013402553020054 0 -0.0011485373411865959 -0.0073758918590461284 0 -0.005980094670718538 -0.009518868406405423 0 -0.0025661615287956015 -0.0057625459962292805 0 -0.0066982806457518617 -0.0072008266827401348 0 -0.0078135600729019421 -0.010229697697412173 0 -0.0083206264193198282 -0.010499193908450156 0 -0.0085381351057461259 -0.010132833741054488 0 -0.0083396208614147597 -0.0096209201869585596 0 -0.008487515877535011 -0.0098391621978787779 0 -0.0080072878615163549 -0.010292909708154181 0 -0.0083396208614147597 -0.0096209201869585596 0 -0.0078135600729019421 -0.010229697697412173 0 -0.0085381351057461259 -0.010132833741054488 0 -0.0079661536516664969 -0.0096913445939980723 0 -0.0092972163480188798 -0.01013112149127457 0 -0.0085381351057461259 -0.010132833741054488 0 -0.0087016661859766059 -0.0094642187465327106 0 -0.0085381351057461259 -0.010132833741054488 0 -0.0087016661859766059 -0.0094642187465327106 0 -0.0079661536516664969 -0.0096913445939980723 0 -0.0089015395662122472 -0.0096207992097115322 0 -0.0083396208614147597 -0.0096209201869585596 0 -0.0088903904514647594 -0.010721912142622964 0 -0.0083350543770048611 -0.01050497433066518 0 -0.0084800493295617424 -0.010530548942217903 0 -0.0089477155199174565 -0.010411474882889385 0 -0.0085381351057461259 -0.010132833741054488 0 -0.0084800493295617424 -0.010530548942217903 0 -0.0083206264193198282 -0.010499193908450156 0 -0.0085381351057461259 -0.010132833741054488 0 -0.0084800493295617424 -0.010530548942217903 0 -0.0089477155199174565 -0.010411474882889385 0 -0.0088903904514647594 -0.010721912142622964 0 -0.0084800493295617424 -0.010530548942217903 0 -0.0092334989510487915 -0.010144729586308599 0 -0.0094416107658225959 -0.010374624695885924 0 -0.0092342768957828798 -0.010483906927227921 0 -0.0087016661859766059 -0.0094642187465327106 0 -0.0079661536516664969 -0.0096913445939980723 0 -0.0080086665195715917 -0.0088743460093373729 0 -0.0088583239342264405 -0.0097620421953838639 0 -0.0092756251210483632 -0.0097417196725052158 0 -0.0042389719364761347 -0.0096117979353554078 0 -0.005464144035865072 -0.0097387563084073963 0 -0.0080086665195715917 -0.0088743460093373729 0 -0.0073610824825705154 -0.0092603880900784565 0 -0.0073263878322102557 -0.0083253218666807221 0 -0.0079661536516664969 -0.0096913445939980723 0 -0.0080086665195715917 -0.0088743460093373729 0 -0.0073610824825705154 -0.0092603880900784565 0 -0.0010775701945635299 -0.0089792327776901069 0 -0.00070433737827856123 -0.009312153328098205 0 -0.0010627419171656046 -0.0093983688331303987 0 -0.00070433737827856123 -0.009312153328098205 0 -0.00086458543784689336 -0.0096941587839998161 0 -0.0010627419171656046 -0.0093983688331303987 0 -0.00070433737827856123 -0.009312153328098205 0 -0.00086458543784689336 -0.0096941587839998161 0 -0.00071905025227930112 -0.0098256872895351732 0 -0.00086458543784689336 -0.0096941587839998161 0 -0.00071905025227930112 -0.0098256872895351732 0 -0.00076559106714675954 -0.0098750956507034429 0 -0.005464144035865072 -0.0097387563084073963 0 -0.0039419708619105771 -0.0090460978980782761 0 -0.00086458543784689336 -0.0096941587839998161 0 -0.00076559106714675954 -0.0098750956507034429 0 -0.00089129529022885653 -0.0098526826127661622 0 -0.00086458543784689336 -0.0096941587839998161 0 -0.00089129529022885653 -0.0098526826127661622 0 -0.0010010156233933938 -0.0098289288576168827 0 -0.00089129529022885653 -0.0098526826127661622 0 -0.00096178883424505117 -0.0099047506875146636 0 -0.0010010156233933938 -0.0098289288576168827 0 -0.00089129529022885653 -0.0098526826127661622 0 -0.00096178883424505117 -0.0099047506875146636 0 -0.00092285219383095567 -0.009987385165993479 0 -0.005464144035865072 -0.0097387563084073963 0 -0.0052586897288866485 -0.011047700294588641 0 -0.00076559106714675954 -0.0098750956507034429 0 -0.00089129529022885653 -0.0098526826127661622 0 -0.00092285219383095567 -0.009987385165993479 0 -0.00076559106714675954 -0.0098750956507034429 0 -0.00092285219383095567 -0.009987385165993479 0 -0.0008921889200100713 -0.010198283622625539 0 -0.00076559106714675954 -0.0098750956507034429 0 -0.0006951253215572358 -0.010303935123675894 0 -0.0008921889200100713 -0.010198283622625539 0 -0.00071472342226143362 -0.0098219496485451897 0 -0.00076559106714675954 -0.0098750956507034429 0 -0.0006951253215572358 -0.010303935123675894 0 -0.00092285219383095567 -0.009987385165993479 0 -0.0010660622628556177 -0.010100322602305596 0 -0.0008921889200100713 -0.010198283622625539 0 -0.0097874277672629299 -0.010708849481199685 0 -0.0093916844224115406 -0.011226808855463769 0 -0.0098572498443914493 -0.011524169646858633 0 -0.0097874277672629299 -0.010708849481199685 0 -0.0093916844224115406 -0.011226808855463769 0 -0.0093736550693084147 -0.010797117116223432 0 -0.0094416107658225959 -0.010374624695885924 0 -0.0097874277672629299 -0.010708849481199685 0 -0.0093736550693084147 -0.010797117116223432 0 -0.0092756251210483632 -0.0097417196725052158 0 -0.005464144035865072 -0.0097387563084073963 0 -0.0094416107658225959 -0.010374624695885924 0 -0.0093736550693084147 -0.010797117116223432 0 -0.0092342768957828798 -0.010483906927227921 0 -0.0093736550693084147 -0.010797117116223432 0 -0.0092786766037803031 -0.010938963181578476 0 -0.0097060146978451989 -0.011501320217613048 0 -0.0093916844224115406 -0.011226808855463769 0 -0.0093736550693084147 -0.010797117116223432 0 -0.0087188856965609695 -0.011724802111042458 0 -0.0093436304628964472 -0.010903872217119538 0 -0.0092064159728301852 -0.011655252580193792 0 -0.0093736550693084147 -0.010797117116223432 0 -0.0092786766037803031 -0.010938963181578476 0 -0.0092342768957828798 -0.010483906927227921 0 -0.0090250613042674507 -0.01077228387901156 0 -0.0092786766037803031 -0.010938963181578476 0 -0.0091795953640245471 -0.011365175356469363 0 -0.0090250613042674507 -0.01077228387901156 0 -0.0092786766037803031 -0.010938963181578476 0 -0.0092342768957828798 -0.010483906927227921 0 -0.0014688392097670026 -0.0093724092627867055 0 -0.0015777067951970186 -0.0094444089843145687 0 -0.0015529141371611105 -0.0093885193880740223 0 -0.0014688392097670026 -0.0093724092627867055 0 -0.0015777067951970186 -0.0094444089843145687 0 -0.0014748152065429826 -0.0095503557086530633 0 -0.0015541834874841609 -0.0093967731648728903 0 -0.0015529141371611105 -0.0093885193880740223 0 -0.0015661213944212235 -0.0093492422694504435 0 -0.0015777067951970186 -0.0094444089843145687 0 -0.0015529141371611105 -0.0093885193880740223 0 -0.0015403262865109578 -0.0094164614971906091 0 -0.0015541834874841609 -0.0093967731648728903 0 -0.0015529141371611105 -0.0093885193880740223 0 -0.0015403262865109578 -0.0094164614971906091 0 0.0048649767629442876 -0.0049458100220550454 0 0.0048798137726017406 -0.0052895686512234343 0 0.0054072257170589824 -0.0049962621797666499 0 -0.0015529141371611105 -0.0093885193880740223 0 -0.0015661213944212235 -0.0093492422694504435 0 -0.001451056654232013 -0.0091885372299993131 0 0.0014137114142051797 -0.0074178038611826544 0 0.0018554480835217965 -0.007122281937590339 0 -0.0014688392097670026 -0.0093724092627867055 0 -0.0015529141371611105 -0.0093885193880740223 0 -0.001451056654232013 -0.0091885372299993131 0 -0.0014688392097670026 -0.0093724092627867055 0 -0.001451056654232013 -0.0091885372299993131 0 -0.00128371388434138 -0.0092821663372366341 0 -0.0010775701945635299 -0.0089792327776901069 0 -0.001451056654232013 -0.0091885372299993131 0 -0.00128371388434138 -0.0092821663372366341 0 -0.0010775701945635299 -0.0089792327776901069 0 -0.00128371388434138 -0.0092821663372366341 0 -0.0010627419171656046 -0.0093983688331303987 0 -0.00086458543784689336 -0.0096941587839998161 0 -0.0010627419171656046 -0.0093983688331303987 0 -0.0011218469399183247 -0.0096113026080755816 0 -0.0010627419171656046 -0.0093983688331303987 0 -0.001301288467934036 -0.0094993147832391871 0 -0.0011218469399183247 -0.0096113026080755816 0 -0.0014688392097670026 -0.0093724092627867055 0 -0.00128371388434138 -0.0092821663372366341 0 -0.001301288467934036 -0.0094993147832391871 0 -0.00128371388434138 -0.0092821663372366341 0 -0.0010627419171656046 -0.0093983688331303987 0 -0.001301288467934036 -0.0094993147832391871 0 -0.001301288467934036 -0.0094993147832391871 0 -0.001254287637819936 -0.0096416860686557634 0 -0.0011218469399183247 -0.0096113026080755816 0 -0.0014688392097670026 -0.0093724092627867055 0 -0.001301288467934036 -0.0094993147832391871 0 -0.0014748152065429826 -0.0095503557086530633 0 -0.0013724761932037909 -0.0097142816710938818 0 -0.0014748152065429826 -0.0095503557086530633 0 -0.0015014287449070687 -0.0096934150267366046 0 -0.001301288467934036 -0.0094993147832391871 0 -0.0013724761932037909 -0.0097142816710938818 0 -0.0014748152065429826 -0.0095503557086530633 0 -0.001301288467934036 -0.0094993147832391871 0 -0.001254287637819936 -0.0096416860686557634 0 -0.0013724761932037909 -0.0097142816710938818 0 -0.001254287637819936 -0.0096416860686557634 0 -0.0012823874536608206 -0.0097873875386406892 0 -0.0013724761932037909 -0.0097142816710938818 0 -0.001254287637819936 -0.0096416860686557634 0 -0.0012823874536608206 -0.0097873875386406892 0 -0.0011717456414919744 -0.0097363163866765537 0 -0.0012823874536608206 -0.0097873875386406892 0 -0.0013724761932037909 -0.0097142816710938818 0 -0.0014059321455636563 -0.0098797813263721175 0 -0.0012823874536608206 -0.0097873875386406892 0 -0.0011839291613519674 -0.0098468573031456307 0 -0.0012880327185490958 -0.0099271867652571521 0 -0.0013724761932037909 -0.0097142816710938818 0 -0.0014059321455636563 -0.0098797813263721175 0 -0.0015207457624155261 -0.0098325254575195829 0 -0.0013724761932037909 -0.0097142816710938818 0 -0.0015207457624155261 -0.0098325254575195829 0 -0.0015014287449070687 -0.0096934150267366046 0 -0.00086458543784689336 -0.0096941587839998161 0 -0.001059334174104716 -0.0097299001990643341 0 -0.0011218469399183247 -0.0096113026080755816 0 -0.001254287637819936 -0.0096416860686557634 0 -0.0011218469399183247 -0.0096113026080755816 0 -0.0011717456414919744 -0.0097363163866765537 0 -0.001059334174104716 -0.0097299001990643341 0 -0.0011218469399183247 -0.0096113026080755816 0 -0.0011717456414919744 -0.0097363163866765537 0 -0.0012823874536608206 -0.0097873875386406892 0 -0.0011717456414919744 -0.0097363163866765537 0 -0.0011839291613519674 -0.0098468573031456307 0 -0.0011839291613519674 -0.0098468573031456307 0 -0.0011145241997881311 -0.0097977612603885079 0 -0.0010884891851901373 -0.0098734213907522815 0 -0.0011717456414919744 -0.0097363163866765537 0 -0.0011839291613519674 -0.0098468573031456307 0 -0.0011145241997881311 -0.0097977612603885079 0 -0.001059334174104716 -0.0097299001990643341 0 -0.0011717456414919744 -0.0097363163866765537 0 -0.0011145241997881311 -0.0097977612603885079 0 -0.00086458543784689336 -0.0096941587839998161 0 -0.001059334174104716 -0.0097299001990643341 0 -0.0010010156233933938 -0.0098289288576168827 0 -0.001059334174104716 -0.0097299001990643341 0 -0.0011145241997881311 -0.0097977612603885079 0 -0.0010010156233933938 -0.0098289288576168827 0 -0.0011145241997881311 -0.0097977612603885079 0 -0.0010884891851901373 -0.0098734213907522815 0 -0.0010010156233933938 -0.0098289288576168827 0 -0.00092285219383095567 -0.009987385165993479 0 -0.0010323137894392739 -0.0099513653619287875 0 -0.0010660622628556177 -0.010100322602305596 0 -0.00096178883424505117 -0.0099047506875146636 0 -0.00092285219383095567 -0.009987385165993479 0 -0.0010323137894392739 -0.0099513653619287875 0 -0.00096178883424505117 -0.0099047506875146636 0 -0.0010010156233933938 -0.0098289288576168827 0 -0.0010323137894392739 -0.0099513653619287875 0 -0.0010884891851901373 -0.0098734213907522815 0 -0.0010010156233933938 -0.0098289288576168827 0 -0.0010323137894392739 -0.0099513653619287875 0 -0.0010884891851901373 -0.0098734213907522815 0 -0.0010323137894392739 -0.0099513653619287875 0 -0.0011602456677586171 -0.0099657497666518647 0 -0.0010323137894392739 -0.0099513653619287875 0 -0.0011602456677586171 -0.0099657497666518647 0 -0.0010660622628556177 -0.010100322602305596 0 -0.0011839291613519674 -0.0098468573031456307 0 -0.0010884891851901373 -0.0098734213907522815 0 -0.0011602456677586171 -0.0099657497666518647 0 -0.0011839291613519674 -0.0098468573031456307 0 -0.0011602456677586171 -0.0099657497666518647 0 -0.0012880327185490958 -0.0099271867652571521 0 -0.0011602456677586171 -0.0099657497666518647 0 -0.0012880327185490958 -0.0099271867652571521 0 -0.0012667220048187564 -0.010070792614992991 0 -0.0010660622628556177 -0.010100322602305596 0 -0.0012667220048187564 -0.010070792614992991 0 -0.0012082877727560472 -0.010289656582162084 0 -0.0011602456677586171 -0.0099657497666518647 0 -0.0010660622628556177 -0.010100322602305596 0 -0.0012667220048187564 -0.010070792614992991 0 -0.0013881193896144134 -0.010011101643860541 0 -0.0014059321455636563 -0.0098797813263721175 0 -0.0015415270975142217 -0.010015735681397679 0 -0.0014059321455636563 -0.0098797813263721175 0 -0.0015415270975142217 -0.010015735681397679 0 -0.0015207457624155261 -0.0098325254575195829 0 -0.0013881193896144134 -0.010011101643860541 0 -0.0014059321455636563 -0.0098797813263721175 0 -0.0012880327185490958 -0.0099271867652571521 0 -0.0012823874536608206 -0.0097873875386406892 0 -0.0014059321455636563 -0.0098797813263721175 0 -0.0012880327185490958 -0.0099271867652571521 0 -0.0013881193896144134 -0.010011101643860541 0 -0.0012880327185490958 -0.0099271867652571521 0 -0.0012667220048187564 -0.010070792614992991 0 -0.0012667220048187564 -0.010070792614992991 0 -0.0014419460126978343 -0.01016545801998046 0 -0.0012082877727560472 -0.010289656582162084 0 -0.0013881193896144134 -0.010011101643860541 0 -0.0012667220048187564 -0.010070792614992991 0 -0.0014419460126978343 -0.01016545801998046 0 -0.0013881193896144134 -0.010011101643860541 0 -0.0014419460126978343 -0.01016545801998046 0 -0.0015415270975142217 -0.010015735681397679 0 -0.0014419460126978343 -0.01016545801998046 0 -0.0015415270975142217 -0.010015735681397679 0 -0.0016007355953571094 -0.010270748216864448 0 -0.0017189123462050019 -0.010094712939897298 0 -0.0015415270975142217 -0.010015735681397679 0 -0.0016007355953571094 -0.010270748216864448 0 -0.0017189123462050019 -0.010094712939897298 0 -0.0017964485811059468 -0.0099942427521822665 0 -0.0019831316438702765 -0.010185576380930305 0 -0.0017189123462050019 -0.010094712939897298 0 -0.0019831316438702765 -0.010185576380930305 0 -0.0017709610970960655 -0.010248275787650045 0 -0.0016511004421927737 -0.0098857496917820128 0 -0.0017964485811059468 -0.0099942427521822665 0 -0.0018320173755542713 -0.0098098457938060983 0 -0.0017189123462050019 -0.010094712939897298 0 -0.0016511004421927737 -0.0098857496917820128 0 -0.0017964485811059468 -0.0099942427521822665 0 -0.0016511004421927737 -0.0098857496917820128 0 -0.0015415270975142217 -0.010015735681397679 0 -0.0015207457624155261 -0.0098325254575195829 0 -0.0017189123462050019 -0.010094712939897298 0 -0.0016511004421927737 -0.0098857496917820128 0 -0.0015415270975142217 -0.010015735681397679 0 -0.0016086289064383243 -0.009470782764536138 0 -0.0016877512074542304 -0.0096084363176127726 0 -0.0016511004421927737 -0.0098857496917820128 0 -0.0015207457624155261 -0.0098325254575195829 0 -0.0016178314158633289 -0.0097018047698428801 0 -0.0015777067951970186 -0.0094444089843145687 0 -0.0016178314158633289 -0.0097018047698428801 0 -0.0018320173755542713 -0.0098098457938060983 0 -0.0015207457624155261 -0.0098325254575195829 0 -0.0016178314158633289 -0.0097018047698428801 0 -0.0015014287449070687 -0.0096934150267366046 0 -0.0016511004421927737 -0.0098857496917820128 0 -0.0016178314158633289 -0.0097018047698428801 0 -0.0018320173755542713 -0.0098098457938060983 0 -0.0015777067951970186 -0.0094444089843145687 0 -0.0016178314158633289 -0.0097018047698428801 0 -0.0014748152065429826 -0.0095503557086530633 0 -0.0016178314158633289 -0.0097018047698428801 0 -0.0014748152065429826 -0.0095503557086530633 0 -0.0015014287449070687 -0.0096934150267366046 0 -0.0015395518748481591 -0.0094323479497872148 0 -0.0015403262865109578 -0.0094164614971906091 0 -0.0014766723640190914 -0.00947952374659786 0 -0.0015777067951970186 -0.0094444089843145687 0 -0.0015403262865109578 -0.0094164614971906091 0 -0.001558884432564392 -0.009399311363759379 0 -0.0015306903024787878 -0.0094375255829449271 0 -0.0015323287677973083 -0.0094040788725238845 0 -0.0015403262865109578 -0.0094164614971906091 0 -0.001558884432564392 -0.009399311363759379 0 -0.001557048615872168 -0.0094005704194606767 0 -0.0015541834874841609 -0.0093967731648728903 0 -0.0015395518748481591 -0.0094323479497872148 0 -0.0015403262865109578 -0.0094164614971906091 0 -0.0015395518748481591 -0.0094323479497872148 0 -0.0015306892272478386 -0.0094701206668073926 0 -0.0014766723640190914 -0.00947952374659786 0 -0.0015323287677973083 -0.0094040788725238845 0 -0.0017872420202151222 -0.0098198699207635142 0 -0.0015306892272478386 -0.0094701206668073926 0 -0.0015067523698381428 -0.0095223630236588863 0 -0.0014766723640190914 -0.00947952374659786 0 -0.0015067523698381428 -0.0095223630236588863 0 -0.0014766723640190914 -0.00947952374659786 0 -0.0014279117103545517 -0.0095906450753712701 0 -0.0017964485811059468 -0.0099942427521822665 0 -0.0018320173755542713 -0.0098098457938060983 0 -0.0019831316438702765 -0.010185576380930305 0 -0.0016877512074542304 -0.0096084363176127726 0 -0.0017872420202151222 -0.0098198699207635142 0 -0.001558884432564392 -0.009399311363759379 0 -0.001557048615872168 -0.0094005704194606767 0 -0.0015575722983995886 -0.0094154406031066382 0 -0.0015067523698381428 -0.0095223630236588863 0 -0.0015096623470432684 -0.0095846308892395017 0 -0.0014279117103545517 -0.0095906450753712701 0 -0.0015096623470432684 -0.0095846308892395017 0 -0.0014279117103545517 -0.0095906450753712701 0 -0.0015158683757954684 -0.0096652102401836165 0 -0.0017872420202151222 -0.0098198699207635142 0 -0.0018909053052724211 -0.01017872996847272 0 -0.0014279117103545517 -0.0095906450753712701 0 -0.0014529735792742468 -0.0098436007234873127 0 -0.0015158683757954684 -0.0096652102401836165 0 -0.0017872420202151222 -0.0098198699207635142 0 -0.0020339461913674952 -0.010759849652304917 0 -0.0019831316438702765 -0.010185576380930305 0 -0.0019792033812071294 -0.010758566289409754 0 -0.0017871232656872112 -0.010441595339933796 0 -0.0020282984907588563 -0.010642417471758285 0 -0.0022866917698064438 -0.010594178522750044 0 -0.0021825884144603472 -0.011015435419624719 0 -0.0021096835050336731 -0.0099058530119780393 0 -0.0020282984907588563 -0.010642417471758285 0 -0.0022866917698064438 -0.010594178522750044 0 -0.0019792033812071294 -0.010758566289409754 0 -0.0016706832250382669 -0.010792124680985685 0 -0.0017608546033721605 -0.010632427486122588 0 -0.0019792033812071294 -0.010758566289409754 0 -0.0017608546033721605 -0.010632427486122588 0 -0.0017871232656872112 -0.010441595339933796 0 -0.0016706832250382669 -0.010792124680985685 0 -0.0017608546033721605 -0.010632427486122588 0 -0.0016076233403509101 -0.010540018997809765 0 -0.0017608546033721605 -0.010632427486122588 0 -0.0016076233403509101 -0.010540018997809765 0 -0.0017871232656872112 -0.010441595339933796 0 -0.0016076233403509101 -0.010540018997809765 0 -0.0017871232656872112 -0.010441595339933796 0 -0.0016007355953571094 -0.010270748216864448 0 -0.0019831316438702765 -0.010185576380930305 0 -0.0017871232656872112 -0.010441595339933796 0 -0.0017709610970960655 -0.010248275787650045 0 -0.0017871232656872112 -0.010441595339933796 0 -0.0017709610970960655 -0.010248275787650045 0 -0.0016007355953571094 -0.010270748216864448 0 -0.0017189123462050019 -0.010094712939897298 0 -0.0017709610970960655 -0.010248275787650045 0 -0.0016007355953571094 -0.010270748216864448 0 -0.0014419460126978343 -0.01016545801998046 0 -0.0016007355953571094 -0.010270748216864448 0 -0.0014184062996675162 -0.010405270124146845 0 -0.0014419460126978343 -0.01016545801998046 0 -0.0014184062996675162 -0.010405270124146845 0 -0.0012082877727560472 -0.010289656582162084 0 -0.0014184062996675162 -0.010405270124146845 0 -0.0012082877727560472 -0.010289656582162084 0 -0.0012519799382938802 -0.010484401318161659 0 -0.0016076233403509101 -0.010540018997809765 0 -0.0016007355953571094 -0.010270748216864448 0 -0.0014184062996675162 -0.010405270124146845 0 -0.0010660622628556177 -0.010100322602305596 0 -0.0012082877727560472 -0.010289656582162084 0 -0.0008921889200100713 -0.010198283622625539 0 -0.0012082877727560472 -0.010289656582162084 0 -0.0010258131751669148 -0.010545757734142017 0 -0.0008921889200100713 -0.010198283622625539 0 -0.0012082877727560472 -0.010289656582162084 0 -0.0012519799382938802 -0.010484401318161659 0 -0.0010258131751669148 -0.010545757734142017 0 -0.0012519799382938802 -0.010484401318161659 0 -0.0010258131751669148 -0.010545757734142017 0 -0.0013544547541988791 -0.010698164456696628 0 -0.0010258131751669148 -0.010545757734142017 0 -0.0013544547541988791 -0.010698164456696628 0 -0.0010623417366455053 -0.011024145785060535 0 -0.0016706832250382669 -0.010792124680985685 0 -0.0016076233403509101 -0.010540018997809765 0 -0.0013544547541988791 -0.010698164456696628 0 -0.0016076233403509101 -0.010540018997809765 0 -0.0014184062996675162 -0.010405270124146845 0 -0.0013544547541988791 -0.010698164456696628 0 -0.0014184062996675162 -0.010405270124146845 0 -0.0012519799382938802 -0.010484401318161659 0 -0.0013544547541988791 -0.010698164456696628 0 -0.0016706832250382669 -0.010792124680985685 0 -0.001444674189010535 -0.011104524556809884 0 -0.0017385230371289322 -0.011054811275890083 0 -0.0016706832250382669 -0.010792124680985685 0 -0.0013544547541988791 -0.010698164456696628 0 -0.001444674189010535 -0.011104524556809884 0 -0.001444674189010535 -0.011104524556809884 0 -0.0016728738866568123 -0.011329326078115074 0 -0.0017385230371289322 -0.011054811275890083 0 -0.001444674189010535 -0.011104524556809884 0 -0.0010623417366455053 -0.011024145785060535 0 -0.0011162979948221826 -0.011409834201889369 0 -0.0013544547541988791 -0.010698164456696628 0 -0.001444674189010535 -0.011104524556809884 0 -0.0010623417366455053 -0.011024145785060535 0 -0.001444674189010535 -0.011104524556809884 0 -0.0011162979948221826 -0.011409834201889369 0 -0.0014683319902464443 -0.011546119999691939 0 -0.001444674189010535 -0.011104524556809884 0 -0.0014683319902464443 -0.011546119999691939 0 -0.0016728738866568123 -0.011329326078115074 0 -0.0014683319902464443 -0.011546119999691939 0 -0.0016728738866568123 -0.011329326078115074 0 -0.0018333303539196327 -0.011714518705236139 0 -0.0016728738866568123 -0.011329326078115074 0 -0.0019664641662339656 -0.01135071100386021 0 -0.0018333303539196327 -0.011714518705236139 0 -0.0016728738866568123 -0.011329326078115074 0 -0.0019664641662339656 -0.01135071100386021 0 -0.0017385230371289322 -0.011054811275890083 0 -0.0022184755610979412 -0.011293992124663766 0 -0.0023228617495651333 -0.011645809734567206 0 -0.0024453038016940465 -0.011255337354657094 0 -0.0019664641662339656 -0.01135071100386021 0 -0.0022184755610979412 -0.011293992124663766 0 -0.0023228617495651333 -0.011645809734567206 0 -0.0022184755610979412 -0.011293992124663766 0 -0.0021825884144603472 -0.011015435419624719 0 -0.0024453038016940465 -0.011255337354657094 0 -0.0019664641662339656 -0.01135071100386021 0 -0.0022184755610979412 -0.011293992124663766 0 -0.0021825884144603472 -0.011015435419624719 0 -0.0018909053052724211 -0.01017872996847272 0 -0.0017560853980978677 -0.01087718155538921 0 -0.0020282984907588563 -0.010642417471758285 0 -0.0019664641662339656 -0.01135071100386021 0 -0.0021825884144603472 -0.011015435419624719 0 -0.0022866917698064438 -0.010594178522750044 0 -0.0021825884144603472 -0.011015435419624719 0 -0.0024453038016940465 -0.011255337354657094 0 -0.0020339461913674952 -0.010759849652304917 0 -0.0019566236371292259 -0.011296092541756007 0 -0.0019792033812071294 -0.010758566289409754 0 -0.0016706832250382669 -0.010792124680985685 0 -0.0017385230371289322 -0.011054811275890083 0 -0.0019792033812071294 -0.010758566289409754 0 -0.0019664641662339656 -0.01135071100386021 0 -0.0017385230371289322 -0.011054811275890083 0 -0.00893825777494223 -0.011962251827218549 0 -0.0093123816141514205 -0.011991237044919029 0 -0.0090507348994569668 -0.012711049047273529 0 -0.0093123816141514205 -0.011991237044919029 0 -0.0096523585464178725 -0.0126088075361713 0 -0.0090507348994569668 -0.012711049047273529 0 -0.00893825777494223 -0.011962251827218549 0 -0.0093123816141514205 -0.011991237044919029 0 -0.0091795953640245471 -0.011365175356469363 0 -0.0093123816141514205 -0.011991237044919029 0 -0.0091795953640245471 -0.011365175356469363 0 -0.0097060146978451989 -0.011501320217613048 0 -0.0092786766037803031 -0.010938963181578476 0 -0.0091795953640245471 -0.011365175356469363 0 -0.0097060146978451989 -0.011501320217613048 0 -0.0093123816141514205 -0.011991237044919029 0 -0.0097060146978451989 -0.011501320217613048 0 -0.0096523585464178725 -0.0126088075361713 0 -0.0087188856965609695 -0.011724802111042458 0 -0.0088176909195370936 -0.012701964836338647 0 -0.0094121538507199141 -0.012095852505861048 0 -0.0087188856965609695 -0.011724802111042458 0 -0.0088176909195370936 -0.012701964836338647 0 -0.0082873520663705996 -0.013065009000755726 0 -0.0092064159728301852 -0.011655252580193792 0 -0.0089649329868348102 -0.012830913272451581 0 -0.0094121538507199141 -0.012095852505861048 0 -0.0098572498443914493 -0.011524169646858633 0 -0.009819661542341181 -0.012796977953356515 0 -0.0088176909195370936 -0.012701964836338647 0 -0.0093646236439244215 -0.012744478359377752 0 -0.0094121538507199141 -0.012095852505861048 0 -0.0093646236439244215 -0.012744478359377752 0 -0.0094121538507199141 -0.012095852505861048 0 -0.009819661542341181 -0.012796977953356515 0 -0.0093916844224115406 -0.011226808855463769 0 -0.0094121538507199141 -0.012095852505861048 0 -0.0098572498443914493 -0.011524169646858633 0 -0.0093916844224115406 -0.011226808855463769 0 -0.0087188856965609695 -0.011724802111042458 0 -0.0094121538507199141 -0.012095852505861048 0 -0.0010258131751669148 -0.010545757734142017 0 -0.0006951253215572358 -0.010303935123675894 0 -0.0008921889200100713 -0.010198283622625539 0 -0.0010258131751669148 -0.010545757734142017 0 -0.0010623417366455053 -0.011024145785060535 0 -0.00069899652094359513 -0.010824271102423417 0 -0.0052586897288866485 -0.011047700294588641 0 -0.0051981134586073646 -0.0117214804976143 0 -0.0010258131751669148 -0.010545757734142017 0 -0.0006951253215572358 -0.010303935123675894 0 -0.00069899652094359513 -0.010824271102423417 0 -0.0051981134586073646 -0.0117214804976143 0 -0.0058920144978754779 -0.01291410371032309 0 -0.0010623417366455053 -0.011024145785060535 0 -0.00069899652094359513 -0.010824271102423417 0 -0.00071479540636722617 -0.011357999480735931 0 -0.0010623417366455053 -0.011024145785060535 0 -0.0011162979948221826 -0.011409834201889369 0 -0.00071479540636722617 -0.011357999480735931 0 -0.0011162979948221826 -0.011409834201889369 0 -0.00071479540636722617 -0.011357999480735931 0 -0.0010435704146164581 -0.01186400606292623 0 -0.0088184231442969777 -0.013898666682685664 0 -0.0085376607101179964 -0.013857049364126293 0 -0.0088045418025562462 -0.013418291980010983 0 -0.0088184231442969777 -0.013898666682685664 0 -0.0085376607101179964 -0.013857049364126293 0 -0.0084315663851003593 -0.01423006433137184 0 -0.0085376607101179964 -0.013857049364126293 0 -0.0088045418025562462 -0.013418291980010983 0 -0.0085070943504246682 -0.013454887194162084 0 -0.009819661542341181 -0.012796977953356515 0 -0.0097650372395954536 -0.013947461444709101 0 -0.0093654682852514423 -0.013322622715201952 0 -0.0058920144978754779 -0.01291410371032309 0 -0.0092879389952995883 -0.013728095223555628 0 -0.0093646236439244215 -0.012744478359377752 0 -0.009819661542341181 -0.012796977953356515 0 -0.0093654682852514423 -0.013322622715201952 0 -0.0088176909195370936 -0.012701964836338647 0 -0.0088045418025562462 -0.013418291980010983 0 -0.0085070943504246682 -0.013454887194162084 0 -0.0087126327019245789 -0.012660258445998473 0 -0.0092879389952995883 -0.013728095223555628 0 -0.0088176909195370936 -0.012701964836338647 0 -0.0093646236439244215 -0.012744478359377752 0 -0.0093654682852514423 -0.013322622715201952 0 -0.0082873520663705996 -0.013065009000755726 0 -0.0085070943504246682 -0.013454887194162084 0 -0.0081642622283603448 -0.013982802701870864 0 -0.0089649329868348102 -0.012830913272451581 0 -0.0086430678400195079 -0.013825947743152295 0 -0.0096523585464178725 -0.0126088075361713 0 -0.0091666622206853943 -0.013754265413034639 0 -0.0090507348994569668 -0.012711049047273529 0 -0.0088176909195370936 -0.012701964836338647 0 -0.0082873520663705996 -0.013065009000755726 0 -0.0085070943504246682 -0.013454887194162084 0 -0.0085376607101179964 -0.013857049364126293 0 -0.0085070943504246682 -0.013454887194162084 0 -0.0081642622283603448 -0.013982802701870864 0 -0.0085376607101179964 -0.013857049364126293 0 -0.0081642622283603448 -0.013982802701870864 0 -0.0084315663851003593 -0.01423006433137184 0 -0.0091666622206853943 -0.013754265413034639 0 -0.0086785361116516677 -0.013343944088252992 0 -0.0083986153383046463 -0.014253721834961427 0 -0.0091666622206853943 -0.013754265413034639 0 -0.0086785361116516677 -0.013343944088252992 0 -0.0090507348994569668 -0.012711049047273529 0 -0.0083986153383046463 -0.014253721834961427 0 -0.0082238205307399934 -0.01450268802518655 0 -0.0079074193934688813 -0.014912021700833325 0 -0.0091666622206853943 -0.013754265413034639 0 -0.0083986153383046463 -0.014253721834961427 0 -0.0082238205307399934 -0.01450268802518655 0 -0.0086430678400195079 -0.013825947743152295 0 -0.0083205469940233461 -0.014408712713183124 0 -0.0081642622283603448 -0.013982802701870864 0 -0.0082238205307399934 -0.01450268802518655 0 -0.0084315663851003593 -0.01423006433137184 0 -0.0082238205307399934 -0.01450268802518655 0 -0.0077522484811427877 -0.014736591822803066 0 -0.0079074193934688813 -0.014912021700833325 0 -0.0082238205307399934 -0.01450268802518655 0 -0.0083680545086174153 -0.01444850090135426 0 -0.0077522484811427877 -0.014736591822803066 0 -0.0082238205307399934 -0.01450268802518655 0 -0.0084315663851003593 -0.01423006433137184 0 -0.0083680545086174153 -0.01444850090135426 0 -0.0088184231442969777 -0.013898666682685664 0 -0.0084315663851003593 -0.01423006433137184 0 -0.0083680545086174153 -0.01444850090135426 0 -0.0058920144978754779 -0.01291410371032309 0 -0.006758688942957022 -0.014036327001547375 0 -0.0058920144978754779 -0.01291410371032309 0 -0.0023004671693810578 -0.012181925617856509 0 -0.0048010607210293051 -0.013298828827805852 0 -0.0047958699137146781 -0.013477970735434502 0 -0.0048711156919979022 -0.013433887057076287 0 -0.0047958699137146781 -0.013477970735434502 0 -0.0048606990991449375 -0.013534759226373401 0 -0.0048711156919979022 -0.013433887057076287 0 -0.006758688942957022 -0.014036327001547375 0 -0.0061796715385887373 -0.014564425850295538 0 -0.0047958699137146781 -0.013477970735434502 0 -0.0048606990991449375 -0.013534759226373401 0 -0.0048088463675630341 -0.013648796910549084 0 -0.0048606990991449375 -0.013534759226373401 0 -0.0048088463675630341 -0.013648796910549084 0 -0.004878882501074917 -0.013604304472162917 0 -0.0059881220916931646 -0.014999987439094845 0 -0.0059923418258845925 -0.015348810382014503 0 -0.0055291855876396174 -0.015555005324207932 0 -0.0061796715385887373 -0.014564425850295538 0 -0.0052304501944802333 -0.014562034406697054 0 -0.0059882357971309226 -0.015000438282110505 0 -0.0061796715385887373 -0.014564425850295538 0 -0.0061796715385887373 -0.014564425850295538 0 -0.0067828084686856246 -0.015000120279734439 0 -0.0059881491857966037 -0.014999986720284386 0 -0.0059975924443567375 -0.015352504984573087 0 -0.0067815219172161498 -0.015000003162544828 0 -0.0081008362242060445 -0.014965094371626035 0 -0.0077522484811427877 -0.014736591822803066 0 -0.006785463468821141 -0.015000221718402217 0 -0.0083680545086174153 -0.01444850090135426 0 -0.0081008362242060445 -0.014965094371626035 0 -0.0077522484811427877 -0.014736591822803066 0 -0.0077522484811427877 -0.014736591822803066 0 -0.006785463468821141 -0.015000221718402217 0 -0.0079074193934688813 -0.014912021700833325 0 -0.0076580470620882263 -0.014999552320323661 0 -0.006785463468821141 -0.015000221718402217 0 -0.0079074193934688813 -0.014912021700833325 0 -0.0018056580471327026 -0.012197199155288385 0 -0.0022460367442704646 -0.012000742237979124 0 -0.0018333303539196327 -0.011714518705236139 0 -0.0018056580471327026 -0.012197199155288385 0 -0.0018333303539196327 -0.011714518705236139 0 -0.0014952546811589562 -0.011950029263516104 0 -0.0038570483041693799 -0.015794453881344976 0 -0.0037703959784329017 -0.01555821784173288 0 -0.0040266928560299814 -0.015455147497123048 0 -0.0030778439214816113 -0.013728466679222699 0 -0.0029335011452478509 -0.014020744412595874 0 -0.0029335011452478509 -0.014020744412595874 0 -0.0041960116611883596 -0.015548851139040374 0 -0.0044269814250675983 -0.0153148750466827 0 -0.0042633167786691592 -0.015372376578116515 0 -0.0043261184066430225 -0.015242435608478499 0 -0.0029335011452478509 -0.014020744412595874 0 -0.0013323258071527351 -0.011292302514545766 0 -0.0018667506236062508 -0.013521870624554431 0 -0.0021138179601610544 -0.012294951397352285 0 -0.0025493868375280602 -0.011380339334574987 0 -0.0022460367442704646 -0.012000742237979124 0 -0.0023228617495651333 -0.011645809734567206 0 -0.0018333303539196327 -0.011714518705236139 0 -0.0019664641662339656 -0.01135071100386021 0 -0.0023228617495651333 -0.011645809734567206 0 -0.0018333303539196327 -0.011714518705236139 0 -0.0029335011452478509 -0.014020744412595874 0 -0.0022797364485825466 -0.011837490723310655 0 -0.0014683319902464443 -0.011546119999691939 0 -0.0018333303539196327 -0.011714518705236139 0 -0.0014952546811589562 -0.011950029263516104 0 -0.0014683319902464443 -0.011546119999691939 0 -0.0010435704146164581 -0.01186400606292623 0 -0.0014952546811589562 -0.011950029263516104 0 -0.0011162979948221826 -0.011409834201889369 0 -0.0014683319902464443 -0.011546119999691939 0 -0.0010435704146164581 -0.01186400606292623 0 -0.0023004671693810578 -0.012181925617856509 0 -0.0037761265593061507 -0.014075718281585648 0 -0.0048606990991449375 -0.013534759226373401 0 -0.0048711156919979022 -0.013433887057076287 0 -0.0049454407449670713 -0.013567215819857648 0 -0.0010435704146164581 -0.01186400606292623 0 -0.0014952546811589562 -0.011950029263516104 0 -0.0014061505404085197 -0.012389791749915646 0 -0.0018056580471327026 -0.012197199155288385 0 -0.0014952546811589562 -0.011950029263516104 0 -0.0014061505404085197 -0.012389791749915646 0 -0.0045836778338125377 -0.01524232739626296 0 -0.0045250273943067193 -0.015144862059782289 0 -0.0044597536172999077 -0.015216625972507941 0 -0.0030778439214816113 -0.013728466679222699 0 -0.0037761265593061507 -0.014075718281585648 0 -0.0044269814250675983 -0.0153148750466827 0 -0.0045836778338125377 -0.01524232739626296 0 -0.0044597536172999077 -0.015216625972507941 0 -0.0037761265593061507 -0.014075718281585648 0 -0.0048195426573290831 -0.015477247075870981 0 -0.0050665050249969418 -0.015756251502565894 0 -0.0051617735472262198 -0.015423755325808218 0 -0.0047987066016310174 -0.015382027648228928 0 -0.0048606990991449375 -0.013534759226373401 0 -0.0049454407449670713 -0.013567215819857648 0 -0.004878882501074917 -0.013604304472162917 0 -0.0037761265593061507 -0.014075718281585648 0 -0.0052304501944802333 -0.014562034406697054 0 -0.0050665050249969418 -0.015756251502565894 0 -0.0055291855876396174 -0.015555005324207932 0 -0.0051617735472262198 -0.015423755325808218 0 -0.0055291855876396174 -0.015555005324207932 0 -0.0051617735472262198 -0.015423755325808218 0 -0.0052548223909240719 -0.014999992462930413 0 -0.0059881220916931646 -0.014999987439094845 0 -0.0055291855876396174 -0.015555005324207932 0 -0.0052548223909240719 -0.014999992462930413 0 -0.0052548223909240719 -0.014999992462930413 0 -0.0047987066016310174 -0.015382027648228928 0 -0.0045215307678760251 -0.014999996359155953 0 -0.0051617735472262198 -0.015423755325808218 0 -0.0052548223909240719 -0.014999992462930413 0 -0.0047987066016310174 -0.015382027648228928 0 -0.0048195426573290831 -0.015477247075870981 0 -0.0045214259822151685 -0.014999909244650615 0 -0.0043375527149019403 -0.015000017568262657 0 -0.0044301342648984448 -0.015133873642249151 0 -0.0043261184066430225 -0.015242435608478499 0 -0.0043370805849581636 -0.014999743241649797 0 -0.0041960116611883596 -0.015548851139040374 0 -0.0045209910616743733 -0.014999952643999306 0 -0.0043375527149019403 -0.015000017568262657 0 -0.0044301342648984448 -0.015133873642249151 0 -0.0045250273943067193 -0.015144862059782289 0 -0.0045209910616743733 -0.014999952643999306 0 -0.0044301342648984448 -0.015133873642249151 0 -0.0045250273943067193 -0.015144862059782289 0 -0.0044301342648984448 -0.015133873642249151 0 -0.0044597536172999077 -0.015216625972507941 0 -0.0044269814250675983 -0.0153148750466827 0 -0.0044597536172999077 -0.015216625972507941 0 -0.0043261184066430225 -0.015242435608478499 0 -0.0044301342648984448 -0.015133873642249151 0 -0.0044597536172999077 -0.015216625972507941 0 -0.0043261184066430225 -0.015242435608478499 0 -0.0037703959784329017 -0.01555821784173288 0 -0.0040266928560299814 -0.015455147497123048 0 -0.0037322721001944764 -0.015347731774773719 0 -0.0043367084858028102 -0.015000018099176192 0 -0.0040266928560299814 -0.015455147497123048 0 -0.0039244795066887914 -0.014999853452041065 0 -0.0040266928560299814 -0.015455147497123048 0 -0.0039244795066887914 -0.014999853452041065 0 -0.0037322721001944764 -0.015347731774773719 0 -0.0039244795066887914 -0.014999853452041065 0 -0.0034701205809153294 -0.015158649585607442 0 -0.0037322721001944764 -0.015347731774773719 0 -0.0039242455914271666 -0.014999999169714378 0 -0.0033114464356420264 -0.015289537483672976 0 -0.0030668883539128979 -0.014999997986198913 0 -0.0039241369713158012 -0.015000040458516673 0 -0.00337474493487865 -0.015229868688540496 0 -0.0033114464356420264 -0.015289537483672976 0 -0.0027247092375316429 -0.015253646749724639 0 -0.0026983225107610276 -0.015577602123741022 0 -0.00337474493487865 -0.015229868688540496 0 -0.0029869642700939641 -0.015457055256301703 0 -0.0033114464356420264 -0.015289537483672976 0 -0.0030668883539128979 -0.014999997986198913 0 -0.0027247092375316429 -0.015253646749724639 0 -0.0030927514691227128 -0.015321666568186242 0 -0.0034737851164127185 -0.01555485178092041 0 -0.0032040185607866323 -0.015632523285913594 0 -0.0034701205809153294 -0.015158649585607442 0 -0.0030927514691227128 -0.015321666568186242 0 -0.0034737851164127185 -0.01555485178092041 0 -0.0034701205809153294 -0.015158649585607442 0 -0.0037322721001944764 -0.015347731774773719 0 -0.0034737851164127185 -0.01555485178092041 0 -0.0037703959784329017 -0.01555821784173288 0 -0.0037322721001944764 -0.015347731774773719 0 -0.0034737851164127185 -0.01555485178092041 0 -0.0019686161715515827 -0.015387042196952219 0 -0.0022095045772038109 -0.014999990082842181 0 -0.0016708538610187224 -0.015231613845449734 0 -0.0019686161715515827 -0.015387042196952219 0 -0.0022095045772038109 -0.014999990082842181 0 -0.0023368196074013674 -0.0154032546821662 0 -0.0030668883539128979 -0.014999997986198913 0 -0.0022095045772038109 -0.014999990082842181 0 -0.0027247092375316429 -0.015253646749724639 0 -0.0022095045772038109 -0.014999990082842181 0 -0.0023368196074013674 -0.0154032546821662 0 -0.0027247092375316429 -0.015253646749724639 0 -0.0023368196074013674 -0.0154032546821662 0 -0.0027247092375316429 -0.015253646749724639 0 -0.0026983225107610276 -0.015577602123741022 0 -0.0023368196074013674 -0.0154032546821662 0 -0.0026983225107610276 -0.015577602123741022 0 -0.0020774529878597519 -0.015868614697797174 0 -0.0029869642700939641 -0.015457055256301703 0 -0.0018279444832247111 -0.015318353229718362 0 -0.0030927514691227128 -0.015321666568186242 0 -0.0027590892917315249 -0.015469790379113673 0 -0.002981247492879458 -0.015609846879984422 0 -0.0020088984950800901 -0.015608152377443474 0 -0.0018279444832247111 -0.015318353229718362 0 -0.0019686161715515827 -0.015387042196952219 0 -0.0020341803038604481 -0.015785752832114992 0 -0.0017928043909889904 -0.015661102771876285 0 -0.0019686161715515827 -0.015387042196952219 0 -0.0023368196074013674 -0.0154032546821662 0 -0.0020774529878597519 -0.015868614697797174 0 -0.00073668071358756759 -0.014216915037184218 0 -0.00086533946347618572 -0.014816182772129878 0 -0.00031430932726154716 -0.014408110286238337 0 -0.0027590892917315249 -0.015469790379113673 0 -0.002981247492879458 -0.015609846879984422 0 -0.0028348602798911947 -0.01580355523095885 0 -0.0018279444832247111 -0.015318353229718362 0 -0.0011172680880145753 -0.014784716075041848 0 -0.0030927514691227128 -0.015321666568186242 0 -0.002981247492879458 -0.015609846879984422 0 -0.0032040185607866323 -0.015632523285913594 0 -0.002981247492879458 -0.015609846879984422 0 -0.0030922425130414282 -0.015821259680061955 0 -0.0028348602798911947 -0.01580355523095885 0 -0.002981247492879458 -0.015609846879984422 0 -0.0030922425130414282 -0.015821259680061955 0 -0.0032040185607866323 -0.015632523285913594 0 -0.0028421819819715376 -0.01565288806705491 0 -0.0022845323065644398 -0.015580607609565067 0 -0.0024140838652293504 -0.016169699348263494 0 -0.0028421819819715376 -0.01565288806705491 0 -0.0030978094823335151 -0.015900347230408236 0 -0.0024140838652293504 -0.016169699348263494 0 -0.0031957894025270608 -0.015731562647925083 0 -0.0011172680880145753 -0.014784716075041848 0 0.0010014704786963568 -0.012247910106676359 0 0.00092381672802303242 -0.012621790935600612 0 0.0012933198724003811 -0.01248557484931455 0 0.0010014704786963568 -0.012247910106676359 0 0.0012933198724003811 -0.01248557484931455 0 0.0014228862914773361 -0.012205127856729905 0 -0.0011172680880145753 -0.014784716075041848 0 0.00079479143484677077 -0.01343773827644398 0 -0.0011172680880145753 -0.014784716075041848 0 0.00045912489484326382 -0.011989189245473106 0 -0.0034737851164127185 -0.01555485178092041 0 -0.0033495111419582311 -0.015702264780789534 0 -0.0035183598744567995 -0.015777966792388572 0 -0.0038570483041693799 -0.015794453881344976 0 -0.0037703959784329017 -0.01555821784173288 0 -0.0035696382684503995 -0.015917095371045194 0 -0.0037703959784329017 -0.01555821784173288 0 -0.0034737851164127185 -0.01555485178092041 0 -0.0035696382684503995 -0.015917095371045194 0 -0.0037030157506898458 -0.016279736025628301 0 -0.0020555657597835621 -0.014088246888770133 0 -0.0029335011452478509 -0.014020744412595874 0 -0.0020555657597835621 -0.014088246888770133 0 -0.0034737851164127185 -0.01555485178092041 0 -0.0032040185607866323 -0.015632523285913594 0 -0.0033495111419582311 -0.015702264780789534 0 -0.0030922425130414282 -0.015821259680061955 0 -0.0032040185607866323 -0.015632523285913594 0 -0.0032311513726029002 -0.01574553512720234 0 -0.0032040185607866323 -0.015632523285913594 0 -0.0032311513726029002 -0.01574553512720234 0 -0.0033495111419582311 -0.015702264780789534 0 -0.0032311513726029002 -0.01574553512720234 0 -0.0033495111419582311 -0.015702264780789534 0 -0.003284425592262817 -0.015811695314718675 0 -0.0033495111419582311 -0.015702264780789534 0 -0.003284425592262817 -0.015811695314718675 0 -0.0035183598744567995 -0.015777966792388572 0 -0.003284425592262817 -0.015811695314718675 0 -0.0030978094823335151 -0.015900347230408236 0 -0.0035183598744567995 -0.015777966792388572 0 -0.0019262985224651867 -0.013881705136755306 0 -0.0020555657597835621 -0.014088246888770133 0 -0.0031957894025270608 -0.015731562647925083 0 -0.0031601526235898693 -0.015780631742407139 0 -0.0028421819819715376 -0.01565288806705491 0 -0.003284425592262817 -0.015811695314718675 0 -0.0030978094823335151 -0.015900347230408236 0 -0.0030922425130414282 -0.015821259680061955 0 -0.0032311513726029002 -0.01574553512720234 0 -0.003284425592262817 -0.015811695314718675 0 -0.0020555657597835621 -0.014088246888770133 0 -0.0013323258071527351 -0.011292302514545766 0 -0.00034195855381033327 -0.011749205881711453 0 0.00018670097506961238 -0.012010431505640117 0 0.00034079192992362303 -0.011425755325715188 0 -0.0016348503618525848 -0.013744945728927992 0 -0.0025328253628080829 -0.01332965759593858 0 -0.0022062538500321025 -0.012044376105119416 0 -0.0021138179601610544 -0.012294951397352285 0 -0.0025493868375280602 -0.011380339334574987 0 -0.0024547914036350781 -0.011025120430723333 0 -0.0022797364485825466 -0.011837490723310655 0 -0.0017560853980978677 -0.01087718155538921 0 -0.0013323258071527351 -0.011292302514545766 0 -0.0017560853980978677 -0.01087718155538921 0 -0.0014529735792742468 -0.0098436007234873127 0 -0.00152765519727214 -0.010180916161882622 0 -0.0016066156303187265 -0.00987774469992273 0 -0.0012117671378787866 -0.010902115660824156 0 -0.0011837191391679107 -0.010794047098830601 0 -0.0014114549324913915 -0.010286410379841125 0 0.00034079192992362303 -0.011425755325715188 0 -0.00025698381814130526 -0.011120937988488407 0 0.00011130147382537883 -0.010694931833485582 0 -0.0013323258071527351 -0.011292302514545766 0 -0.00050135827872460821 -0.010510625517934555 0 -0.0011837191391679107 -0.010794047098830601 0 -0.0014114549324913915 -0.010286410379841125 0 -0.0013394226264057275 -0.010249259651034206 0 -0.0017560853980978677 -0.01087718155538921 0 -0.0014439828965309505 -0.010000774365057965 0 -0.00025698381814130526 -0.011120937988488407 0 0.00011130147382537883 -0.010694931833485582 0 -0.00030239387157485182 -0.010438432556780175 0 -0.00034195855381033327 -0.011749205881711453 0 0.00034079192992362303 -0.011425755325715188 0 -0.00025698381814130526 -0.011120937988488407 0 -0.0019262985224651867 -0.013881705136755306 0 0.00045912489484326382 -0.011989189245473106 0 -0.00034195855381033327 -0.011749205881711453 0 -0.00025698381814130526 -0.011120937988488407 0 -0.00086801092462602766 -0.011493960186683964 0 0.00092381672802303242 -0.012621790935600612 0 0.0014486910678820437 -0.012841806383171698 0 0.0012933198724003811 -0.01248557484931455 0 0.00045912489484326382 -0.011989189245473106 0 0.0029355197089990744 -0.01091519191418952 0 0.0036310308686024989 -0.0090795104621390621 0 0.0036133718034894722 -0.0092130556004716545 0 0.0037954889921986259 -0.0091175573102108467 0 0.0036133718034894722 -0.0092130556004716545 0 0.0038016397305144617 -0.0092042541449221787 0 0.0037954889921986259 -0.0091175573102108467 0 -0.00025698381814130526 -0.011120937988488407 0 -0.00069645289149398114 -0.010738749191250962 0 -0.00030239387157485182 -0.010438432556780175 0 0.00045912489484326382 -0.011989189245473106 0 0.0015998216947494602 -0.0095890836996467988 0 -0.00025698381814130526 -0.011120937988488407 0 -0.00086801092462602766 -0.011493960186683964 0 -0.00069645289149398114 -0.010738749191250962 0 -0.00069645289149398114 -0.010738749191250962 0 -0.00051695859729144935 -0.009997692573312544 0 -0.00030239387157485182 -0.010438432556780175 0 0.0036133718034894722 -0.0092130556004716545 0 0.003724683802918839 -0.0093021511534799733 0 0.0035918880996112863 -0.0093505543516143128 0 0.0015998216947494602 -0.0095890836996467988 0 0.001599986040218806 -0.0097508773591790734 0 0.0036133718034894722 -0.0092130556004716545 0 0.003724683802918839 -0.0093021511534799733 0 0.0038016397305144617 -0.0092042541449221787 0 0.0036710590023455495 -0.0094290476540591223 0 0.003724683802918839 -0.0093021511534799733 0 0.0035918880996112863 -0.0093505543516143128 0 -0.0015757526393282326 -0.0097620488491971021 0 -0.001481982803508132 -0.0097817646658651565 0 -0.0014114549324913915 -0.010286410379841125 0 -0.00051695859729144935 -0.009997692573312544 0 -0.0001208322436728084 -0.0099754613142213049 0 -0.00030239387157485182 -0.010438432556780175 0 -0.001600147860260409 -0.0095787172863387379 0 -0.0016356056233722582 -0.0096267357101390821 0 -0.0015934336911951031 -0.0096122735969926335 0 -0.0015809244547585212 -0.0095847310974089151 0 -0.0015934336911951031 -0.0096122735969926335 0 -0.0015564981325653594 -0.0096083027050883028 0 -0.001600147860260409 -0.0095787172863387379 0 -0.0015809244547585212 -0.0095847310974089151 0 -0.0015934336911951031 -0.0096122735969926335 0 -0.0015934336911951031 -0.0096122735969926335 0 -0.0015748321521935236 -0.0096499996336666793 0 -0.0015564981325653594 -0.0096083027050883028 0 -0.0016356056233722582 -0.0096267357101390821 0 -0.0015934336911951031 -0.0096122735969926335 0 -0.0015748321521935236 -0.0096499996336666793 0 -0.0015096623470432684 -0.0095846308892395017 0 -0.0015564981325653594 -0.0096083027050883028 0 -0.0015158683757954684 -0.0096652102401836165 0 -0.0015748321521935236 -0.0096499996336666793 0 -0.0015564981325653594 -0.0096083027050883028 0 -0.0015158683757954684 -0.0096652102401836165 0 -0.0015748321521935236 -0.0096499996336666793 0 -0.0015632473947400135 -0.0097338478733826304 0 -0.0015158683757954684 -0.0096652102401836165 0 -0.0016356056233722582 -0.0096267357101390821 0 -0.0015748321521935236 -0.0096499996336666793 0 -0.0015632473947400135 -0.0097338478733826304 0 -0.0016356056233722582 -0.0096267357101390821 0 -0.0015632473947400135 -0.0097338478733826304 0 -0.0016066156303187265 -0.00987774469992273 0 -0.0015573492431871362 -0.0097223312852049194 0 -0.0014439828965309505 -0.010000774365057965 0 -0.001481982803508132 -0.0097817646658651565 0 -0.0014114549324913915 -0.010286410379841125 0 -0.0013394226264057275 -0.010249259651034206 0 -0.0014529735792742468 -0.0098436007234873127 0 -0.0015632473947400135 -0.0097338478733826304 0 -0.0015158683757954684 -0.0096652102401836165 0 -0.0014529735792742468 -0.0098436007234873127 0 -0.0015632473947400135 -0.0097338478733826304 0 -0.0016066156303187265 -0.00987774469992273 0 -0.0001208322436728084 -0.0099754613142213049 0 0.00011130147382537883 -0.010694931833485582 0 -0.00030239387157485182 -0.010438432556780175 0 -0.0011132861870308125 -0.0098120481022787951 0 -0.00050135827872460821 -0.010510625517934555 0 0.0039693025309180396 -0.0092238946885768117 0 0.0040601110479969379 -0.0091767690571564163 0 0.0040049725280370757 -0.0092422012393953232 0 0.0039693025309180396 -0.0092238946885768117 0 0.0040601110479969379 -0.0091767690571564163 0 0.0039527703901298819 -0.0091673536972814336 0 0.0024897296331682682 -0.013272057269083324 0 0.0026112177871745247 -0.013276917884658476 0 0.0028892357431107643 -0.013512762034975373 0 0.0040149858578273278 -0.0093153119408084656 0 0.0040416778527302601 -0.0092499951614201641 0 0.0040601110479969379 -0.0091767690571564163 0 0.0041603425344662213 -0.009337795414169436 0 0.0040049725280370757 -0.0092422012393953232 0 0.0039963080988040713 -0.0092339245019224074 0 0.0040331433085934662 -0.0092099500637636573 0 0.0040049725280370757 -0.0092422012393953232 0 0.0039963080988040713 -0.0092339245019224074 0 0.0040049725280370757 -0.0092422012393953232 0 0.0039756791393781828 -0.0092398876899365961 0 0.0039693025309180396 -0.0092238946885768117 0 0.0040049725280370757 -0.0092422012393953232 0 0.0039756791393781828 -0.0092398876899365961 0 0.0039693025309180396 -0.0092238946885768117 0 0.0039756791393781828 -0.0092398876899365961 0 0.003910675620667047 -0.0092440628732414591 0 0.0040186269263253896 -0.0092311666827577313 0 0.0039756791393781828 -0.0092398876899365961 0 0.003910675620667047 -0.0092440628732414591 0 0.0037181685405094631 -0.0096334032454113306 0 0.0039910659877739297 -0.0091009617741883535 0 0.0037924801673706039 -0.0094040921169418548 0 0.003724683802918839 -0.0093021511534799733 0 0.003910675620667047 -0.0092440628732414591 0 0.003724683802918839 -0.0093021511534799733 0 0.0038016397305144617 -0.0092042541449221787 0 0.003910675620667047 -0.0092440628732414591 0 0.0038016397305144617 -0.0092042541449221787 0 0.003910675620667047 -0.0092440628732414591 0 0.0039527703901298819 -0.0091673536972814336 0 0.0039693025309180396 -0.0092238946885768117 0 0.003910675620667047 -0.0092440628732414591 0 0.0039527703901298819 -0.0091673536972814336 0 0.0019692132643770056 -0.01305939059304949 0 0.0014486910678820437 -0.012841806383171698 0 0.0018980270616159216 -0.012765688729192674 0 0.0028960027274924287 -0.01110718166619879 0 0.0029355197089990744 -0.01091519191418952 0 0.0038016397305144617 -0.0092042541449221787 0 0.0039527703901298819 -0.0091673536972814336 0 0.0037954889921986259 -0.0091175573102108467 0 0.0014486910678820437 -0.012841806383171698 0 0.0016693864501631031 -0.012510540459921209 0 0.0012933198724003811 -0.01248557484931455 0 0.0018980270616159216 -0.012765688729192674 0 0.0016693864501631031 -0.012510540459921209 0 0.002100598665578639 -0.012538783664805059 0 0.0014486910678820437 -0.012841806383171698 0 0.0018980270616159216 -0.012765688729192674 0 0.0016693864501631031 -0.012510540459921209 0 0.0023408874714036529 -0.012847187788913444 0 0.0024885179970657546 -0.013047814668565742 0 0.0025164748136245365 -0.012900147507342979 0 0.0018980270616159216 -0.012765688729192674 0 0.002100598665578639 -0.012538783664805059 0 0.0023674909928233768 -0.012908489989478009 0 0.0022485243133940356 -0.012575469094858476 0 0.0024338533092795132 -0.013002474145331091 0 0.0033191298113089199 -0.011217157545310545 0 0.0028960027274924287 -0.01110718166619879 0 0.0019692132643770056 -0.01305939059304949 0 0.0018980270616159216 -0.012765688729192674 0 0.0023674909928233768 -0.012908489989478009 0 0.0024897296331682682 -0.013272057269083324 0 0.0019692132643770056 -0.01305939059304949 0 0.0023674909928233768 -0.012908489989478009 0 0.0024897296331682682 -0.013272057269083324 0 0.0026112177871745247 -0.013276917884658476 0 0.0023674909928233768 -0.012908489989478009 0 0.0026112177871745247 -0.013276917884658476 0 0.0024885179970657546 -0.013047814668565742 0 0.0027259591440427339 -0.013097975424653564 0 0.0025950256599780999 -0.013245160596744351 0 0.0024338533092795132 -0.013002474145331091 0 0.0024885179970657546 -0.013047814668565742 0 0.0026609068265694212 -0.012932720405183725 0 0.0027259591440427339 -0.013097975424653564 0 0.0023408874714036529 -0.012847187788913444 0 0.0025164748136245365 -0.012900147507342979 0 0.0025782444558172723 -0.012776489685365593 0 0.0024885179970657546 -0.013047814668565742 0 0.0026609068265694212 -0.012932720405183725 0 0.0025164748136245365 -0.012900147507342979 0 0.0026609068265694212 -0.012932720405183725 0 0.0025164748136245365 -0.012900147507342979 0 0.0025782444558172723 -0.012776489685365593 0 0.0025782444558172723 -0.012776489685365593 0 0.0025393446141393741 -0.012594430685924638 0 0.0028576060147154328 -0.012586334428901755 0 0.0023408874714036529 -0.012847187788913444 0 0.0025782444558172723 -0.012776489685365593 0 0.0022513928154661383 -0.012633168893935117 0 0.0025782444558172723 -0.012776489685365593 0 0.0025393446141393741 -0.012594430685924638 0 0.0021750805832399483 -0.012640913418013728 0 0.0029425736398564048 -0.012501926328368905 0 0.0010260714832578978 -0.013874982459368744 0 -0.00073443271057263147 -0.01604521098533648 0 -0.00025459160792042963 -0.016300329710204738 0 -0.00093643856086036959 -0.01635831001616337 0 0.0010431462316736174 -0.014508620630400206 0 0.0010260714832578978 -0.013874982459368744 0 -0.00073443271057263147 -0.01604521098533648 0 -0.00025459160792042963 -0.016300329710204738 0 -0.00010727753822874983 -0.015682131322449288 0 0.0016693864501631031 -0.012510540459921209 0 0.0012933198724003811 -0.01248557484931455 0 0.0014228862914773361 -0.012205127856729905 0 0.0016693864501631031 -0.012510540459921209 0 0.002100598665578639 -0.012538783664805059 0 0.0018371630187713061 -0.012169267067800324 0 0.00079479143484677077 -0.01343773827644398 0 0.00086851104370882191 -0.013655753325489205 0 0.0016693864501631031 -0.012510540459921209 0 0.0014228862914773361 -0.012205127856729905 0 0.0018371630187713061 -0.012169267067800324 0 0.0023408874714036529 -0.012847187788913444 0 0.0021826955129538054 -0.012640718069983042 0 0.0022513928154661383 -0.012633168893935117 0 0.0022485243133940356 -0.012575469094858476 0 0.00086851104370882191 -0.013655753325489205 0 0.00086851104370882191 -0.013655753325489205 0 0.0010260714832578978 -0.013874982459368744 0 -0.00033721775413643993 -0.014768588933189147 0 0.00019523015078808543 -0.014719349233204535 0 0.00011302050048915674 -0.014600082549078606 0 0.00043012946428193149 -0.01445217289411236 0 0.0007136362086080781 -0.014426361708974982 0 0.00027628889258916948 -0.014223683074577121 0 -0.00073443271057263147 -0.01604521098533648 0 -0.00093643856086036959 -0.01635831001616337 0 -0.0011760345656023209 -0.016250467751576778 0 0.0010260714832578978 -0.013874982459368744 0 -0.00015012858456376141 -0.014929197359199776 0 0.00086851104370882191 -0.013655753325489205 0 -0.00015012858456376141 -0.014929197359199776 0 -0.00073443271057263147 -0.01604521098533648 0 -0.0011760345656023209 -0.016250467751576778 0 -0.0010850962607157606 -0.015882777161224309 0 -0.0011760345656023209 -0.016250467751576778 0 -0.0014770669884408766 -0.015830803873484806 0 -0.0010850962607157606 -0.015882777161224309 0 -0.00015012858456376141 -0.014929197359199776 0 -0.0014696097072021597 -0.0158593738307743 0 -0.00086533946347618572 -0.014816182772129878 0 -0.00033721775413643993 -0.014768588933189147 0 -0.00031430932726154716 -0.014408110286238337 0 -0.00033721775413643993 -0.014768588933189147 0 0.00011302050048915674 -0.014600082549078606 0 -0.00031430932726154716 -0.014408110286238337 0 -0.00015012858456376141 -0.014929197359199776 0 -0.00097639577491768863 -0.015182983975225248 0 -0.0012769748833698375 -0.016118987466474829 0 -0.0016572796091934572 -0.015955521340928119 0 -0.001532868210383304 -0.015764914277926787 0 -0.0018279444832247111 -0.015318353229718362 0 -0.00097639577491768863 -0.015182983975225248 0 -0.0014770669884408766 -0.015830803873484806 0 -0.0012729237903079226 -0.015400762598429891 0 -0.0017815602796020453 -0.015401135626249838 0 -0.0014696097072021597 -0.0158593738307743 0 -0.0017627981507219001 -0.015422211113591419 0 -0.0017928043909889904 -0.015661102771876285 0 -0.001532868210383304 -0.015764914277926787 0 -0.0017815602796020453 -0.015401135626249838 0 -0.0019686161715515827 -0.015387042196952219 0 -0.0017928043909889904 -0.015661102771876285 0 -0.0017815602796020453 -0.015401135626249838 0 -0.0020341803038604481 -0.015785752832114992 0 -0.0016572796091934572 -0.015955521340928119 0 -0.0017928043909889904 -0.015661102771876285 0 -0.0016572796091934572 -0.015955521340928119 0 -0.0017928043909889904 -0.015661102771876285 0 -0.001532868210383304 -0.015764914277926787 0 -0.0014770669884408766 -0.015830803873484806 0 -0.0011909237237356298 -0.015680425440720375 0 -0.0012729237903079226 -0.015400762598429891 0 -0.0014770669884408766 -0.015830803873484806 0 -0.0011909237237356298 -0.015680425440720375 0 -0.0010850962607157606 -0.015882777161224309 0 -0.0011909237237356298 -0.015680425440720375 0 -0.0010850962607157606 -0.015882777161224309 0 -0.00082115701882920077 -0.015608718227143124 0 -0.0011909237237356298 -0.015680425440720375 0 -0.0012729237903079226 -0.015400762598429891 0 -0.00082115701882920077 -0.015608718227143124 0 -0.0013521435716020559 -0.014999987448418897 0 -0.0012729237903079226 -0.015400762598429891 0 -0.00049477804368442497 -0.014999988516832577 0 -0.0012729237903079226 -0.015400762598429891 0 -0.0016708538610187224 -0.015231613845449734 0 -0.0017815602796020453 -0.015401135626249838 0 -0.0022095045772038109 -0.014999990082842181 0 -0.0013521435716020559 -0.014999987448418897 0 -0.0016708538610187224 -0.015231613845449734 0 -0.0013521435716020559 -0.014999987448418897 0 -0.0012729237903079226 -0.015400762598429891 0 -0.0016708538610187224 -0.015231613845449734 0 -0.0019686161715515827 -0.015387042196952219 0 -0.0016708538610187224 -0.015231613845449734 0 -0.0017815602796020453 -0.015401135626249838 0 -0.00073443271057263147 -0.01604521098533648 0 -0.00010727753822874983 -0.015682131322449288 0 -0.00082115701882920077 -0.015608718227143124 0 -0.00073443271057263147 -0.01604521098533648 0 -0.0010850962607157606 -0.015882777161224309 0 -0.00082115701882920077 -0.015608718227143124 0 -0.00010727753822874983 -0.015682131322449288 0 -0.00082115701882920077 -0.015608718227143124 0 -0.00049477804368442497 -0.014999988516832577 0 -0.0012729237903079226 -0.015400762598429891 0 -0.00082115701882920077 -0.015608718227143124 0 -0.00049477804368442497 -0.014999988516832577 0 -0.00010727753822874983 -0.015682131322449288 0 -0.00049477804368442497 -0.014999988516832577 0 0.00036258098958123557 -0.014999985223273647 0 -0.00010727753822874983 -0.015682131322449288 0 0.00036258098958123557 -0.014999985223273647 0 0.00074453899129257243 -0.01562690048371957 0 -0.00010727753822874983 -0.015682131322449288 0 0.00074453899129257243 -0.01562690048371957 0 0.000430090774254734 -0.016240591400545772 0 0.00036258098958123557 -0.014999985223273647 0 0.00074453899129257243 -0.01562690048371957 0 0.0012199409776394586 -0.014999984434886969 0 0.00074453899129257243 -0.01562690048371957 0 0.0012199409776394586 -0.014999984434886969 0 0.0014435311587478953 -0.01566107414806767 0 0.0012199409776394586 -0.014999984434886969 0 0.0017300251217679931 -0.015400382759291006 0 0.0014435311587478953 -0.01566107414806767 0 0.0012199409776394586 -0.014999984434886969 0 0.0017300251217679931 -0.015400382759291006 0 0.001938343133834618 -0.015169346328518621 0 0.0012199409776394586 -0.014999984434886969 0 0.001938343133834618 -0.015169346328518621 0 0.0020772868024504705 -0.01499998932488935 0 0.0014435311587478953 -0.01566107414806767 0 0.0017950467581181527 -0.016108061964499449 0 0.0020367720262848537 -0.015729116876660627 0 0.0017300251217679931 -0.015400382759291006 0 0.0014435311587478953 -0.01566107414806767 0 0.0020367720262848537 -0.015729116876660627 0 0.00074453899129257243 -0.01562690048371957 0 0.0014435311587478953 -0.01566107414806767 0 0.0011148457320951767 -0.016177185777441292 0 0.0019402407372193298 -0.014475438757253302 0 0.0033661573122459906 -0.013354542017422932 0 0.0031261172905234979 -0.012587039529430225 0 0.0033654036211574795 -0.012576697202971627 0 0.0032391294969587058 -0.012778911243077203 0 0.0014435311587478953 -0.01566107414806767 0 0.0011148457320951767 -0.016177185777441292 0 0.0017950467581181527 -0.016108061964499449 0 0.0045596754478216426 -0.011152471368431598 0 0.0045976969412071271 -0.011861321983433863 0 0.0040974290893755049 -0.011806610705122539 0 0.0033661573122459906 -0.013354542017422932 0 0.0038249746946554643 -0.011993185986152708 0 0.0031261172905234979 -0.012587039529430225 0 0.0032391294969587058 -0.012778911243077203 0 0.0030424872018459405 -0.012755713760666917 0 0.0030424872018459405 -0.012755713760666917 0 0.0028278190926779886 -0.012799560004724641 0 0.0028576060147154328 -0.012586334428901755 0 0.0031261172905234979 -0.012587039529430225 0 0.0030424872018459405 -0.012755713760666917 0 0.0028576060147154328 -0.012586334428901755 0 0.0025782444558172723 -0.012776489685365593 0 0.0028278190926779886 -0.012799560004724641 0 0.0028576060147154328 -0.012586334428901755 0 -0.00025459160792042963 -0.016300329710204738 0 -0.00010727753822874983 -0.015682131322449288 0 0.000430090774254734 -0.016240591400545772 0 0.0010431462316736174 -0.014508620630400206 0 0.0016985381928711842 -0.014397740667657484 0 0.0019402407372193298 -0.014475438757253302 0 0.0016985381928711842 -0.014397740667657484 0 0.00074453899129257243 -0.01562690048371957 0 0.0011148457320951767 -0.016177185777441292 0 0.000430090774254734 -0.016240591400545772 0 0.0034378970433696751 -0.015323659513759382 0 0.0035626941860284296 -0.015904405436124088 0 0.0039314214948946652 -0.01549971926327361 0 0.003355020999425327 -0.01535129225936421 0 0.0029346609426491206 -0.014999997027145434 0 0.0037920056103295965 -0.014999998051846531 0 0.0034378970433696751 -0.015323659513759382 0 0.0037921827989491185 -0.014999985393107833 0 0.0039314214948946652 -0.01549971926327361 0 0.0032833718879902748 -0.015439438622572757 0 0.003792033296226923 -0.01499999294162554 0 0.003355020999425327 -0.01535129225936421 0 0.0029346609426491206 -0.014999997027145434 0 0.0027983201111747387 -0.015298108154976509 0 0.003355020999425327 -0.01535129225936421 0 0.0029237648076882511 -0.015696813930829286 0 0.0027983201111747387 -0.015298108154976509 0 0.0034378970433696751 -0.015323659513759382 0 0.0030676523351098749 -0.015625277369121567 0 0.0035626941860284296 -0.015904405436124088 0 0.0046021217664675724 -0.013012319262922947 0 0.0046060277063023356 -0.013008440834855589 0 0.0046149342025650856 -0.013009030873235251 0 0.0034235422774554292 -0.014813346768365453 0 0.0051660845490607878 -0.012695631573130813 0 0.0032833718879902748 -0.015439438622572757 0 0.0034235422774554292 -0.014813346768365453 0 0.0034235422774554292 -0.014813346768365453 0 0.0046966281677165208 -0.0122686662944607 0 0.0031556132374412401 -0.014262185552765937 0 0.0034795805777611617 -0.014241551145506804 0 0.0034776216255915132 -0.013993309590150247 0 0.0031556132374412401 -0.014262185552765937 0 0.0034795805777611617 -0.014241551145506804 0 0.0035585883813965061 -0.014487552204511887 0 0.0034235422774554292 -0.014813346768365453 0 0.0027071263524261289 -0.015077491977174558 0 0.0027983201111747387 -0.015298108154976509 0 0.0024783116789305459 -0.015079352171665516 0 0.0023017499106894545 -0.015361094024400532 0 0.0029346609426491206 -0.014999997027145434 0 0.0024783116789305459 -0.015079352171665516 0 0.0020772868024504705 -0.01499998932488935 0 0.0029237648076882511 -0.015696813930829286 0 0.0027983201111747387 -0.015298108154976509 0 0.0023017499106894545 -0.015361094024400532 0 0.0029346609426491206 -0.014999997027145434 0 0.0027983201111747387 -0.015298108154976509 0 0.0024783116789305459 -0.015079352171665516 0 0.0024473110821756558 -0.015237281878744314 0 0.0027071263524261289 -0.015077491977174558 0 0.0027071263524261289 -0.015077491977174558 0 0.0019863332039422752 -0.015103877039258721 0 0.0024783116789305459 -0.015079352171665516 0 0.0022951543405183533 -0.015364054497895591 0 0.0020772868024504705 -0.01499998932488935 0 0.0022951543405183533 -0.015364054497895591 0 0.001938343133834618 -0.015169346328518621 0 0.0020772868024504705 -0.01499998932488935 0 0.0022779954358132541 -0.01535020877246808 0 0.001938343133834618 -0.015169346328518621 0 0.0020025645010078698 -0.015434771233769866 0 0.0017300251217679931 -0.015400382759291006 0 0.001938343133834618 -0.015169346328518621 0 0.0020025645010078698 -0.015434771233769866 0 0.0017300251217679931 -0.015400382759291006 0 0.0020025645010078698 -0.015434771233769866 0 0.0020367720262848537 -0.015729116876660627 0 0.0027071263524261289 -0.015077491977174558 0 0.0027475208587099233 -0.015151570646446528 0 0.0034795805777611617 -0.014241551145506804 0 0.0035585883813965061 -0.014487552204511887 0 0.0037256998126274678 -0.014222782275193082 0 0.0022779954358132541 -0.01535020877246808 0 0.0020025645010078698 -0.015434771233769866 0 0.0020367720262848537 -0.015729116876660627 0 0.0034795805777611617 -0.014241551145506804 0 0.0037256998126274678 -0.014222782275193082 0 0.0034776216255915132 -0.013993309590150247 0 0.0038903277939805309 -0.0139552835501278 0 0.0037256998126274678 -0.014222782275193082 0 0.0034776216255915132 -0.013993309590150247 0 0.0045596754478216426 -0.011152471368431598 0 0.0048243889213657257 -0.011439375710119786 0 0.0052286390952984863 -0.011119468930675941 0 0.0033661573122459906 -0.013354542017422932 0 0.0046966281677165208 -0.0122686662944607 0 0.0033661573122459906 -0.013354542017422932 0 0.0027475208587099233 -0.015151570646446528 0 0.0051753405500466797 -0.011162273200514262 0 0.0046966281677165208 -0.0122686662944607 0 0.0045596754478216426 -0.011152471368431598 0 0.0045976969412071271 -0.011861321983433863 0 0.0048243889213657257 -0.011439375710119786 0 0.0048243889213657257 -0.011439375710119786 0 0.0051031130054901919 -0.01187031442204088 0 0.0054725007254266189 -0.011509396942617406 0 0.0045976969412071271 -0.011861321983433863 0 0.0048243889213657257 -0.011439375710119786 0 0.0051031130054901919 -0.01187031442204088 0 0.0051031130054901919 -0.01187031442204088 0 0.0054725007254266189 -0.011509396942617406 0 0.0058615055616338552 -0.012225647196418535 0 0.0046966281677165208 -0.0122686662944607 0 0.0053197391554849188 -0.012032742343235637 0 0.0046021217664675724 -0.013012319262922947 0 0.0046062842696659115 -0.013001822880731071 0 0.0046060277063023356 -0.013008440834855589 0 0.0054725007254266189 -0.011509396942617406 0 0.0052894110914562305 -0.011101727363591407 0 0.0058190040402508088 -0.011092056099070874 0 0.0048243889213657257 -0.011439375710119786 0 0.0054725007254266189 -0.011509396942617406 0 0.0052894110914562305 -0.011101727363591407 0 0.0053197391554849188 -0.012032742343235637 0 0.0051660845490607878 -0.012695631573130813 0 0.0055131430232599849 -0.011524482504556769 0 0.0064484938691745522 -0.011739182061294288 0 0.0054725007254266189 -0.011509396942617406 0 0.0058190040402508088 -0.011092056099070874 0 0.0062966117432436573 -0.011818250857740237 0 0.0054725007254266189 -0.011509396942617406 0 0.0065436116047767725 -0.011684657974829269 0 0.0058615055616338552 -0.012225647196418535 0 0.0058190040402508088 -0.011092056099070874 0 0.0062966117432436573 -0.011818250857740237 0 0.0063599900770445255 -0.011060850951729909 0 0.0062966117432436573 -0.011818250857740237 0 0.0063599900770445255 -0.011060850951729909 0 0.0069603033639836663 -0.011393894109416427 0 0.0066369153904967801 -0.012925873308458747 0 0.0069050295237605532 -0.012274493722215158 0 0.0058615055616338552 -0.012225647196418535 0 0.0065436116047767725 -0.011684657974829269 0 0.0069050295237605532 -0.012274493722215158 0 0.0058615055616338552 -0.012225647196418535 0 0.0066369153904967801 -0.012925873308458747 0 0.0058615055616338552 -0.012225647196418535 0 0.0056366926282405616 -0.0132507322656107 0 0.0058615055616338552 -0.012225647196418535 0 0.0050430920881338794 -0.012393850446339868 0 0.0056366926282405616 -0.0132507322656107 0 0.0051031130054901919 -0.01187031442204088 0 0.0058615055616338552 -0.012225647196418535 0 0.0050430920881338794 -0.012393850446339868 0 0.0045976969412071271 -0.011861321983433863 0 0.0050430920881338794 -0.012393850446339868 0 0.0043456902042461861 -0.012436936851135092 0 0.0045976969412071271 -0.011861321983433863 0 0.0051031130054901919 -0.01187031442204088 0 0.0050430920881338794 -0.012393850446339868 0 0.0050430920881338794 -0.012393850446339868 0 0.0047372256634890504 -0.012954420687315232 0 0.0056366926282405616 -0.0132507322656107 0 0.0050430920881338794 -0.012393850446339868 0 0.0047372256634890504 -0.012954420687315232 0 0.0043456902042461861 -0.012436936851135092 0 0.0060339052670763151 -0.011763136317386395 0 0.0071385066086221052 -0.011094876593571154 0 0.0047372256634890504 -0.012954420687315232 0 0.0046655241997348561 -0.013580897677926017 0 0.0056366926282405616 -0.0132507322656107 0 0.0076792693722489355 -0.0093167918357905596 0 0.008268897089054596 -0.0096607646495019146 0 0.0075866936198359441 -0.009958767875676254 0 0.0076792693722489355 -0.0093167918357905596 0 0.008268897089054596 -0.0096607646495019146 0 0.0085442488624741415 -0.0090490363318377065 0 0.008268897089054596 -0.0096607646495019146 0 0.0085442488624741415 -0.0090490363318377065 0 0.009130496828462023 -0.0097081340939223302 0 0.0093767014905676033 -0.0087880952156253519 0 0.0085442488624741415 -0.0090490363318377065 0 0.009130496828462023 -0.0097081340939223302 0 0.0093767014905676033 -0.0087880952156253519 0 0.009130496828462023 -0.0097081340939223302 0 0.0097798365227295212 -0.0092221278815360474 0 0.0079549294784980532 -0.010898341264615844 0 0.0071385066086221052 -0.011094876593571154 0 0.009130496828462023 -0.0097081340939223302 0 0.0097798365227295212 -0.0092221278815360474 0 0.0098107798997176775 -0.0097551174955860104 0 0.0029449610655699534 -0.013116220649425433 0 0.0028631894058768108 -0.012993959428943399 0 0.0031226371759771813 -0.013009961154836091 0 0.0029449610655699534 -0.013116220649425433 0 0.0031226371759771813 -0.013009961154836091 0 0.0030814492514644114 -0.013268035069053575 0 0.0033207441839375371 -0.012838336049280032 0 0.0031069249733493912 -0.013210801676595094 0 0.0029449610655699534 -0.013116220649425433 0 0.0027259591440427339 -0.013097975424653564 0 0.0028422784822674609 -0.013248299742152162 0 0.0026609068265694212 -0.012932720405183725 0 0.0027259591440427339 -0.013097975424653564 0 0.0028631894058768108 -0.012993959428943399 0 0.0029449610655699534 -0.013116220649425433 0 0.0027259591440427339 -0.013097975424653564 0 0.0028631894058768108 -0.012993959428943399 0 0.0026609068265694212 -0.012932720405183725 0 0.0025782444558172723 -0.012776489685365593 0 0.0028278190926779886 -0.012799560004724641 0 0.0026609068265694212 -0.012932720405183725 0 0.0028278190926779886 -0.012799560004724641 0 0.0028631894058768108 -0.012993959428943399 0 0.0030424872018459405 -0.012755713760666917 0 0.0028278190926779886 -0.012799560004724641 0 0.0031226371759771813 -0.013009961154836091 0 0.0028278190926779886 -0.012799560004724641 0 0.0028631894058768108 -0.012993959428943399 0 0.0031226371759771813 -0.013009961154836091 0 0.0038249746946554643 -0.011993185986152708 0 0.0033207441839375371 -0.012838336049280032 0 0.0040974290893755049 -0.011806610705122539 0 0.0043456902042461861 -0.012436936851135092 0 0.003601310195439108 -0.012506294534744304 0 0.0032391294969587058 -0.012778911243077203 0 0.0030424872018459405 -0.012755713760666917 0 0.0031226371759771813 -0.013009961154836091 0 0.0045976969412071271 -0.011861321983433863 0 0.0040974290893755049 -0.011806610705122539 0 0.0043456902042461861 -0.012436936851135092 0 0.0047372256634890504 -0.012954420687315232 0 0.0043456902042461861 -0.012436936851135092 0 0.0039803688295476812 -0.013139119602390474 0 0.003601310195439108 -0.012506294534744304 0 0.0039803688295476812 -0.013139119602390474 0 0.0030814492514644114 -0.013268035069053575 0 0.0043456902042461861 -0.012436936851135092 0 0.003601310195439108 -0.012506294534744304 0 0.0039803688295476812 -0.013139119602390474 0 0.0039803688295476812 -0.013139119602390474 0 0.0036631441859343323 -0.013908175565951229 0 0.0030814492514644114 -0.013268035069053575 0 0.0046655241997348561 -0.013580897677926017 0 0.0039803688295476812 -0.013139119602390474 0 0.0036631441859343323 -0.013908175565951229 0 0.0047372256634890504 -0.012954420687315232 0 0.0046655241997348561 -0.013580897677926017 0 0.0039803688295476812 -0.013139119602390474 0 0.0055665344343625899 -0.0096879613588657879 0 0.0084722756900606488 -0.0076894998667553149 0 0.0060339052670763151 -0.011763136317386395 0 0.0055665344343625899 -0.0096879613588657879 0 0.0076792693722489355 -0.0093167918357905596 0 0.0067785532294022191 -0.0096111636083349907 0 0.0075866936198359441 -0.009958767875676254 0 0.0074906507872835081 -0.0053226019198069179 0 0.0065857301344022477 -0.0056441832339251576 0 0.0066465775642356485 -0.0057759274070388498 0 0.0046275816916499408 -0.00936054928895186 0 0.0044144323572360856 -0.0094334210351780315 0 0.0043713318213420959 -0.0093492791237766975 0 0.0055665344343625899 -0.0096879613588657879 0 0.0056999598778619065 -0.0075272940935313393 0 0.0055665344343625899 -0.0096879613588657879 0 0.0034078069365386333 -0.011565258378083986 0 0.0046275816916499408 -0.00936054928895186 0 0.0043713318213420959 -0.0093492791237766975 0 0.0043074684668270528 -0.0092431009987713527 0 0.0036631441859343323 -0.013908175565951229 0 0.0030814492514644114 -0.013268035069053575 0 0.0028892357431107643 -0.013512762034975373 0 0.0056999598778619065 -0.0075272940935313393 0 0.005434099038313045 -0.0087267427151664061 0 0.0044072578475622707 -0.0094172220174926682 0 0.0043713318213420959 -0.0093492791237766975 0 0.0043778782688555064 -0.0094286088570592289 0 0.0026112177871745247 -0.013276917884658476 0 0.0028422784822674609 -0.013248299742152162 0 0.0028892357431107643 -0.013512762034975373 0 0.0040601110479969379 -0.0091767690571564163 0 0.0041603425344662213 -0.009337795414169436 0 0.0043074684668270528 -0.0092431009987713527 0 0.0033191298113089199 -0.011217157545310545 0 0.0034078069365386333 -0.011565258378083986 0 0.0026112177871745247 -0.013276917884658476 0 0.0027259591440427339 -0.013097975424653564 0 0.0028422784822674609 -0.013248299742152162 0 0.0029449610655699534 -0.013116220649425433 0 0.0030814492514644114 -0.013268035069053575 0 0.0028422784822674609 -0.013248299742152162 0 0.0030814492514644114 -0.013268035069053575 0 0.0028422784822674609 -0.013248299742152162 0 0.0028892357431107643 -0.013512762034975373 0 0.0041603425344662213 -0.009337795414169436 0 0.0043713318213420959 -0.0093492791237766975 0 0.0043778782688555064 -0.0094286088570592289 0 0.0040149858578273278 -0.0093153119408084656 0 0.0052394736691951556 -0.0077033905454434292 0 0.0041603425344662213 -0.009337795414169436 0 0.0043713318213420959 -0.0093492791237766975 0 0.0043074684668270528 -0.0092431009987713527 0 0.0050897327829035211 -0.0076252672291472669 0 0.0052394736691951556 -0.0077033905454434292 0 0.0062975631679998536 -0.005999367117391673 0 0.0060868521316182487 -0.0060426835642820014 0 0.0061359280719713279 -0.0058979437584624726 0 0.0040125115279203575 -0.0092334215824461004 0 0.0040331433085934662 -0.0092099500637636573 0 0.0040883136459884386 -0.0092114517254090911 0 0.0060638285625290679 -0.0060291198317979 0 0.0060868521316182487 -0.0060426835642820014 0 0.0061359280719713279 -0.0058979437584624726 0 0.0059190110264388772 -0.0067590766597768271 0 0.0067803599796244134 -0.0062520777282901643 0 0.0058644246404087955 -0.0072050419328453944 0 0.0059184446161470909 -0.007325273903303257 0 0.0057315825365023094 -0.0072518365461585388 0 0.0056999598778619065 -0.0075272940935313393 0 0.0059190110264388772 -0.0067590766597768271 0 0.0059190110264388772 -0.0067590766597768271 0 0.0052394736691951556 -0.0077033905454434292 0 0.0056999598778619065 -0.0075272940935313393 0 0.0052394736691951556 -0.0077033905454434292 0 0.0060638285625290679 -0.0060291198317979 0 0.0061359280719713279 -0.0058979437584624726 0 0.0060377420402734517 -0.0057974273656033843 0 0.0061359280719713279 -0.0058979437584624726 0 0.0061086730972303846 -0.0057397408837127281 0 0.0060377420402734517 -0.0057974273656033843 0 0.0062870653502486648 -0.0057940986162321583 0 0.0061359280719713279 -0.0058979437584624726 0 0.0061086730972303846 -0.0057397408837127281 0 0.0062870653502486648 -0.0057940986162321583 0 0.0062268825463056557 -0.0055668958777783913 0 0.0061086730972303846 -0.0057397408837127281 0 0.0061086730972303846 -0.0057397408837127281 0 0.0060965210335121207 -0.0057073402993414717 0 0.0060377420402734517 -0.0057974273656033843 0 0.0060371641995303196 -0.0056533018315681185 0 0.0060965210335121207 -0.0057073402993414717 0 0.0061905193172450126 -0.0057556706364520292 0 0.0061086730972303846 -0.0057397408837127281 0 0.0060371641995303196 -0.0056533018315681185 0 0.0060965210335121207 -0.0057073402993414717 0 0.0062268825463056557 -0.0055668958777783913 0 0.0061086730972303846 -0.0057397408837127281 0 0.0060371641995303196 -0.0056533018315681185 0 0.0080713742219670689 -0.0084887004718326841 0 0.0091631292784470162 -0.0084661565874265925 0 0.0090069504132332823 -0.0091678530857267175 0 0.0080713742219670689 -0.0084887004718326841 0 0.0090488763832715161 -0.0076123618828106221 0 0.0091631292784470162 -0.0084661565874265925 0 0.0060965210335121207 -0.0057073402993414717 0 0.0061871498879447918 -0.0057133876955993475 0 0.0061905193172450126 -0.0057556706364520292 0 0.0060965210335121207 -0.0057073402993414717 0 0.0061871498879447918 -0.0057133876955993475 0 0.0060377420402734517 -0.0057974273656033843 0 0.0080713742219670689 -0.0084887004718326841 0 0.0083266959443107722 -0.0072003683011658834 0 0.0074439955657777139 -0.0070989688788248182 0 0.0071921599103760697 -0.0072927251961011118 0 0.0067803599796244134 -0.0062520777282901643 0 0.0080713742219670689 -0.0084887004718326841 0 0.0090488763832715161 -0.0076123618828106221 0 0.0083266959443107722 -0.0072003683011658834 0 0.0083266959443107722 -0.0072003683011658834 0 0.0079625038149724898 -0.0061704113369755002 0 0.0091030840472752297 -0.0066352318864648929 0 0.0090488763832715161 -0.0076123618828106221 0 0.0083266959443107722 -0.0072003683011658834 0 0.0091030840472752297 -0.0066352318864648929 0 0.0083266959443107722 -0.0072003683011658834 0 0.0074439955657777139 -0.0070989688788248182 0 0.0079625038149724898 -0.0061704113369755002 0 0.0059190110264388772 -0.0067590766597768271 0 0.0080486744230278771 -0.0061395411552626275 0 0.0074906507872835081 -0.0053226019198069179 0 0.0066465775642356485 -0.0057759274070388498 0 0.007880922123377973 -0.0062276287274704526 0 0.0068170710921355024 -0.005718922921926768 0 0.0074439955657777139 -0.0070989688788248182 0 0.0079625038149724898 -0.0061704113369755002 0 0.0074906507872835081 -0.0053226019198069179 0 0.007880922123377973 -0.0062276287274704526 0 0.0088904604756447625 -0.0059013874166579799 0 0.0080486744230278771 -0.0061395411552626275 0 0.0089728649203813082 -0.0066096474951703081 0 0.007880922123377973 -0.0062276287274704526 0 0.0088904604756447625 -0.0059013874166579799 0 0.0091030840472752297 -0.0066352318864648929 0 0.0084722756900606488 -0.0076894998667553149 0 0.0092644174415735924 -0.0083876664371876596 0 0.008268897089054596 -0.0096607646495019146 0 0.0075866936198359441 -0.009958767875676254 0 0.0083696378140605595 -0.010274814554504585 0 0.0088904604756447625 -0.0059013874166579799 0 0.010238254946646539 -0.0064526718697346906 0 0.0091030840472752297 -0.0066352318864648929 0 0.008268897089054596 -0.0096607646495019146 0 0.009130496828462023 -0.0097081340939223302 0 0.0083696378140605595 -0.010274814554504585 0 0.010238254946646539 -0.0064526718697346906 0 0.0097619202569653972 -0.0071595211599851678 0 0.010518977485625861 -0.0073392030973671698 0 0.010238254946646539 -0.0064526718697346906 0 0.011641501341271163 -0.0070244470920698019 0 0.010518977485625861 -0.0073392030973671698 0 0.0090488763832715161 -0.0076123618828106221 0 0.0091030840472752297 -0.0066352318864648929 0 0.0097619202569653972 -0.0071595211599851678 0 0.010238254946646539 -0.0064526718697346906 0 0.0091030840472752297 -0.0066352318864648929 0 0.0097619202569653972 -0.0071595211599851678 0 0.009130496828462023 -0.0097081340939223302 0 0.0098010726573178799 -0.010314388130486277 0 0.0098107798997176775 -0.0097551174955860104 0 0.009130496828462023 -0.0097081340939223302 0 0.0091236823851900527 -0.01058053357439832 0 0.0098010726573178799 -0.010314388130486277 0 0.009130496828462023 -0.0097081340939223302 0 0.0083696378140605595 -0.010274814554504585 0 0.0091236823851900527 -0.01058053357439832 0 0.0092644174415735924 -0.0083876664371876596 0 0.010406250469121778 -0.0087986742535821096 0 0.0091236823851900527 -0.01058053357439832 0 0.0098615109563046366 -0.010879383970998855 0 0.0098010726573178799 -0.010314388130486277 0 0.010406250469121778 -0.0087986742535821096 0 0.011364109384151293 -0.009368079548375801 0 0.011641501341271163 -0.0070244470920698019 0 0.013085221622003434 -0.0077130426433058008 0 0.012863377656256888 -0.008100428404068662 0 0.011641501341271163 -0.0070244470920698019 0 0.011865937300295656 -0.0080793614527204238 0 0.012863377656256888 -0.008100428404068662 0 0.011641501341271163 -0.0070244470920698019 0 0.011865937300295656 -0.0080793614527204238 0 0.011078570684252631 -0.0080895491369339691 0 0.011641501341271163 -0.0070244470920698019 0 0.011078570684252631 -0.0080895491369339691 0 0.010518977485625861 -0.0073392030973671698 0 0.011865937300295656 -0.0080793614527204238 0 0.011078570684252631 -0.0080895491369339691 0 0.011887575675527815 -0.0090968300475299125 0 0.011078570684252631 -0.0080895491369339691 0 0.011887575675527815 -0.0090968300475299125 0 0.010891940588412287 -0.0092473043413414825 0 0.012674300184906366 -0.0086775143941892185 0 0.012999282498216911 -0.0085452265336440555 0 0.012863377656256888 -0.008100428404068662 0 0.011865937300295656 -0.0080793614527204238 0 0.011887575675527815 -0.0090968300475299125 0 0.012863377656256888 -0.008100428404068662 0 0.01238136818391696 -0.008834987965522928 0 0.012816386534896038 -0.0081677121642224799 0 0.0090488763832715161 -0.0076123618828106221 0 0.0099038390190413286 -0.0079670339534641914 0 0.0091631292784470162 -0.0084661565874265925 0 0.0090488763832715161 -0.0076123618828106221 0 0.0097619202569653972 -0.0071595211599851678 0 0.0099038390190413286 -0.0079670339534641914 0 0.0097619202569653972 -0.0071595211599851678 0 0.0099038390190413286 -0.0079670339534641914 0 0.010518977485625861 -0.0073392030973671698 0 0.011078570684252631 -0.0080895491369339691 0 0.0099038390190413286 -0.0079670339534641914 0 0.010518977485625861 -0.0073392030973671698 0 0.011078570684252631 -0.0080895491369339691 0 0.0099038390190413286 -0.0079670339534641914 0 0.010257277214945652 -0.0087032615142621696 0 0.011078570684252631 -0.0080895491369339691 0 0.010257277214945652 -0.0087032615142621696 0 0.010891940588412287 -0.0092473043413414825 0 0.010257277214945652 -0.0087032615142621696 0 0.0091631292784470162 -0.0084661565874265925 0 0.0096815215189915392 -0.0092216208194948381 0 0.0099038390190413286 -0.0079670339534641914 0 0.010257277214945652 -0.0087032615142621696 0 0.0091631292784470162 -0.0084661565874265925 0 0.0091631292784470162 -0.0084661565874265925 0 0.0096815215189915392 -0.0092216208194948381 0 0.0090069504132332823 -0.0091678530857267175 0 0.0093665599522192479 -0.0097491115837613097 0 0.0096815215189915392 -0.0092216208194948381 0 0.0090069504132332823 -0.0091678530857267175 0 0.0093665599522192479 -0.0097491115837613097 0 0.0096815215189915392 -0.0092216208194948381 0 0.0099561385896866396 -0.0099661424791513391 0 0.010257277214945652 -0.0087032615142621696 0 0.0096815215189915392 -0.0092216208194948381 0 0.010271064064160894 -0.0093695157475593722 0 0.010271064064160894 -0.0093695157475593722 0 0.0099561385896866396 -0.0099661424791513391 0 0.010942747966346381 -0.0099767804635537798 0 0.010257277214945652 -0.0087032615142621696 0 0.010271064064160894 -0.0093695157475593722 0 0.010891940588412287 -0.0092473043413414825 0 0.010271064064160894 -0.0093695157475593722 0 0.010891940588412287 -0.0092473043413414825 0 0.010942747966346381 -0.0099767804635537798 0 0.0096815215189915392 -0.0092216208194948381 0 0.010271064064160894 -0.0093695157475593722 0 0.0099561385896866396 -0.0099661424791513391 0 0.011194306493585464 -0.0094003973871876444 0 0.0088421459210212983 -0.0077711810621514483 0 0.0099561385896866396 -0.0099661424791513391 0 0.010942747966346381 -0.0099767804635537798 0 0.010026868977225711 -0.010981587360652755 0 0.0099561385896866396 -0.0099661424791513391 0 0.0093782386310607216 -0.010436948044922323 0 0.010026868977225711 -0.010981587360652755 0 0.0093665599522192479 -0.0097491115837613097 0 0.0093782386310607216 -0.010436948044922323 0 0.0087055699770864584 -0.0098744396500964563 0 0.0093665599522192479 -0.0097491115837613097 0 0.0099561385896866396 -0.0099661424791513391 0 0.0093782386310607216 -0.010436948044922323 0 0.012674300184906366 -0.0086775143941892185 0 0.012698188809275483 -0.0089599470919592781 0 0.012780477691271403 -0.008953302903497589 0 0.012982746256555672 -0.008769713007454466 0 0.012674300184906366 -0.0086775143941892185 0 0.012780477691271403 -0.008953302903497589 0 0.012982746256555672 -0.008769713007454466 0 0.012780477691271403 -0.008953302903497589 0 0.013165448133974 -0.0090248067780479991 0 0.012982746256555672 -0.008769713007454466 0 0.012674300184906366 -0.0086775143941892185 0 0.012999282498216911 -0.0085452265336440555 0 0.01238136818391696 -0.008834987965522928 0 0.011194306493585464 -0.0094003973871876444 0 0.011887575675527815 -0.0090968300475299125 0 0.010891940588412287 -0.0092473043413414825 0 0.010989167877926398 -0.010083657567142497 0 0.012674300184906366 -0.0086775143941892185 0 0.012624052904705852 -0.008934094057229669 0 0.012698188809275483 -0.0089599470919592781 0 0.010955015834744021 -0.0095208616122200856 0 0.011194306493585464 -0.0094003973871876444 0 0.012698188809275483 -0.0089599470919592781 0 0.012714032808809655 -0.0089531922876827687 0 0.012717015092037714 -0.0089495806674062938 0 0.011194306493585464 -0.0094003973871876444 0 0.011609013834929585 -0.0086842738054083834 0 0.012624052904705852 -0.008934094057229669 0 0.012698188809275483 -0.0089599470919592781 0 0.012717015092037714 -0.0089495806674062938 0 0.012782498339071689 -0.0088642286152416875 0 0.012813505029257473 -0.0096161271316971986 0 0.012780477691271403 -0.008953302903497589 0 0.013173631290924824 -0.0096872371477762405 0 0.013165448133974 -0.0090248067780479991 0 0.012780477691271403 -0.008953302903497589 0 0.012714032808809655 -0.0089531922876827687 0 0.012674591423079069 -0.0089356313950931139 0 0.012698188809275483 -0.0089599470919592781 0 0.012780477691271403 -0.008953302903497589 0 0.012714032808809655 -0.0089531922876827687 0 0.012702974382614016 -0.0089065464015904497 0 0.012678440168312148 -0.0088666493954305294 0 0.012674591423079069 -0.0089356313950931139 0 0.012714032808809655 -0.0089531922876827687 0 0.012702974382614016 -0.0089065464015904497 0 0.012674591423079069 -0.0089356313950931139 0 0.012702974382614016 -0.0089065464015904497 0 0.012717015092037714 -0.0089495806674062938 0 0.012714663698635659 -0.0088740320593732897 0 0.012714032808809655 -0.0089531922876827687 0 0.012702974382614016 -0.0089065464015904497 0 0.012717015092037714 -0.0089495806674062938 0 0.011609013834929585 -0.0086842738054083834 0 0.011029436939572763 -0.0080824580714920352 0 0.012717015092037714 -0.0089495806674062938 0 0.012740140447748356 -0.0088588585473600157 0 0.012714663698635659 -0.0088740320593732897 0 0.012740140447748356 -0.0088588585473600157 0 0.012718914126156151 -0.0088308470704875491 0 0.012714663698635659 -0.0088740320593732897 0 0.011029436939572763 -0.0080824580714920352 0 0.012411863403725742 -0.0089773187281222706 0 0.012702974382614016 -0.0089065464015904497 0 0.012714663698635659 -0.0088740320593732897 0 0.01269698435906249 -0.0088508258901105353 0 0.012718914126156151 -0.0088308470704875491 0 0.012714663698635659 -0.0088740320593732897 0 0.01269698435906249 -0.0088508258901105353 0 0.012718914126156151 -0.0088308470704875491 0 0.01269698435906249 -0.0088508258901105353 0 0.012686557593941664 -0.0088126387788952862 0 0.01269698435906249 -0.0088508258901105353 0 0.012678440168312148 -0.0088666493954305294 0 0.012686557593941664 -0.0088126387788952862 0 0.012702974382614016 -0.0089065464015904497 0 0.01269698435906249 -0.0088508258901105353 0 0.012678440168312148 -0.0088666493954305294 0 0.0088421459210212983 -0.0077711810621514483 0 0.0074283584488896437 -0.0066031801043374937 0 0.0070251686551502648 -0.0065851538725587664 0 0.007396449495029404 -0.0065656990032093715 0 0.0071216105598849054 -0.0068665856864894128 0 0.0070251686551502648 -0.0065851538725587664 0 0.0071216105598849054 -0.0068665856864894128 0 0.0068550567511994837 -0.0067384458633973788 0 0.0070687016876476837 -0.0062889001305189178 0 0.0070251686551502648 -0.0065851538725587664 0 0.0067497672670557762 -0.0064317933005562638 0 0.0070687016876476837 -0.0062889001305189178 0 0.0070251686551502648 -0.0065851538725587664 0 0.007396449495029404 -0.0065656990032093715 0 0.0084034242950702092 -0.0084878724007347549 0 0.0088421459210212983 -0.0077711810621514483 0 0.010453838898334082 -0.0084507317914617342 0 0.010446296021233287 -0.0083559225296507712 0 0.010537520391642166 -0.00844457934201839 0 0.010466702719795469 -0.0085511046143476634 0 0.010453838898334082 -0.0084507317914617342 0 0.010537520391642166 -0.00844457934201839 0 0.011029436939572763 -0.0080824580714920352 0 0.0088421459210212983 -0.0077711810621514483 0 0.0094920671903952793 -0.0067645678361234005 0 0.008195278244669096 -0.005657819357961189 0 0.0083249410473339933 -0.0066726204682784791 0 0.0094920671903952793 -0.0067645678361234005 0 0.0083249410473339933 -0.0066726204682784791 0 0.0086463286525646221 -0.0074272924539442418 0 0.0083249410473339933 -0.0066726204682784791 0 0.0079214331604990831 -0.007102116178320292 0 0.0086463286525646221 -0.0074272924539442418 0 0.0083249410473339933 -0.0066726204682784791 0 0.0079214331604990831 -0.007102116178320292 0 0.0075473775758800937 -0.0063848702906144639 0 0.008195278244669096 -0.005657819357961189 0 0.0083249410473339933 -0.0066726204682784791 0 0.0075473775758800937 -0.0063848702906144639 0 0.0079214331604990831 -0.007102116178320292 0 0.0075473775758800937 -0.0063848702906144639 0 0.0073065414291339399 -0.0071631864151108331 0 0.0074283584488896437 -0.0066031801043374937 0 0.0069336068664672028 -0.0071165776854169877 0 0.0075473775758800937 -0.0063848702906144639 0 0.0068951297789332849 -0.0071676990559309296 0 0.0073065414291339399 -0.0071631864151108331 0 0.0071216105598849054 -0.0068665856864894128 0 0.0068951297789332849 -0.0071676990559309296 0 0.0068550567511994837 -0.0067384458633973788 0 0.0068951297789332849 -0.0071676990559309296 0 0.0064707302474490691 -0.0066335505612010563 0 0.0069038776181514546 -0.0072343457841267216 0 0.0068951297789332849 -0.0071676990559309296 0 0.0068550567511994837 -0.0067384458633973788 0 0.0064707302474490691 -0.0066335505612010563 0 0.0060702027545850457 -0.0057789328207085147 0 0.0061077127893000033 -0.0061351311472455788 0 0.005626589482321624 -0.0049657411291092182 0 0.0056068073923368272 -0.00475215419708995 0 0.0056296325003055633 -0.004758392570789219 0 0.0070251686551502648 -0.0065851538725587664 0 0.0068550567511994837 -0.0067384458633973788 0 0.0067497672670557762 -0.0064317933005562638 0 0.0067497672670557762 -0.0064317933005562638 0 0.0064707302474490691 -0.0066335505612010563 0 0.0065146187999273039 -0.0061869752201250692 0 0.0068550567511994837 -0.0067384458633973788 0 0.0067497672670557762 -0.0064317933005562638 0 0.0064707302474490691 -0.0066335505612010563 0 0.005626589482321624 -0.0049657411291092182 0 0.005776636396732834 -0.0048649903746122202 0 0.0058229437495417547 -0.0050311530828272989 0 0.005626589482321624 -0.0049657411291092182 0 0.0058229437495417547 -0.0050311530828272989 0 0.0057862990290101293 -0.0053002878061926568 0 0.005626589482321624 -0.0049657411291092182 0 0.005776636396732834 -0.0048649903746122202 0 0.0056557185596636615 -0.0047427420457309775 0 0.005626589482321624 -0.0049657411291092182 0 0.0056296325003055633 -0.004758392570789219 0 0.0056557185596636615 -0.0047427420457309775 0 0.005776636396732834 -0.0048649903746122202 0 0.0056557185596636615 -0.0047427420457309775 0 0.0058810588273243321 -0.0046786450570643632 0 0.005945240979010594 -0.0049042454881032755 0 0.006103587872120053 -0.0047754789955881645 0 0.0058810588273243321 -0.0046786450570643632 0 0.005776636396732834 -0.0048649903746122202 0 0.005945240979010594 -0.0049042454881032755 0 0.0058810588273243321 -0.0046786450570643632 0 0.005945240979010594 -0.0049042454881032755 0 0.006103587872120053 -0.0047754789955881645 0 0.0061551725080466486 -0.0050085090783600159 0 0.005945240979010594 -0.0049042454881032755 0 0.0061551725080466486 -0.0050085090783600159 0 0.0059881294247923255 -0.0051447981898484893 0 0.005945240979010594 -0.0049042454881032755 0 0.0058229437495417547 -0.0050311530828272989 0 0.0059881294247923255 -0.0051447981898484893 0 0.005776636396732834 -0.0048649903746122202 0 0.005945240979010594 -0.0049042454881032755 0 0.0058229437495417547 -0.0050311530828272989 0 0.0058229437495417547 -0.0050311530828272989 0 0.0059881294247923255 -0.0051447981898484893 0 0.0057862990290101293 -0.0053002878061926568 0 0.0059881294247923255 -0.0051447981898484893 0 0.0060438813487360471 -0.0053913406968530402 0 0.0057862990290101293 -0.0053002878061926568 0 0.0061551725080466486 -0.0050085090783600159 0 0.0059881294247923255 -0.0051447981898484893 0 0.0061890005856927296 -0.0052609596559508804 0 0.0059881294247923255 -0.0051447981898484893 0 0.0061890005856927296 -0.0052609596559508804 0 0.0060438813487360471 -0.0053913406968530402 0 0.0062268825463056557 -0.0055668958777783913 0 0.0061890005856927296 -0.0052609596559508804 0 0.0060438813487360471 -0.0053913406968530402 0 0.0062268825463056557 -0.0055668958777783913 0 0.0060371641995303196 -0.0056533018315681185 0 0.0060438813487360471 -0.0053913406968530402 0 0.0060371641995303196 -0.0056533018315681185 0 0.0061905193172450126 -0.0057556706364520292 0 0.0061250548894147524 -0.0060366505420560296 0 0.0060371641995303196 -0.0056533018315681185 0 0.0060438813487360471 -0.0053913406968530402 0 0.0057862990290101293 -0.0053002878061926568 0 0.0060244945181620558 -0.0056608522280203154 0 0.0059662046600396984 -0.0056744490409867268 0 0.0061905193172450126 -0.0057556706364520292 0 0.0063575821973042386 -0.0059688587507161477 0 0.0061250548894147524 -0.0060366505420560296 0 0.0061871498879447918 -0.0057133876955993475 0 0.0061905193172450126 -0.0057556706364520292 0 0.0063189089446765564 -0.0058728403484763657 0 0.0061905193172450126 -0.0057556706364520292 0 0.0063575821973042386 -0.0059688587507161477 0 0.0067031619141387213 -0.0060148334556597866 0 0.005863381643501581 -0.005329445222307546 0 0.0072239177813764668 -0.0072079919115092582 0 0.0071921599103760697 -0.0072927251961011118 0 0.0072239177813764668 -0.0072079919115092582 0 0.0080713742219670689 -0.0084887004718326841 0 0.0090069504132332823 -0.0091678530857267175 0 0.0087055699770864584 -0.0098744396500964563 0 0.0093665599522192479 -0.0097491115837613097 0 0.0090069504132332823 -0.0091678530857267175 0 0.0087055699770864584 -0.0098744396500964563 0 0.0063575821973042386 -0.0059688587507161477 0 0.0067031619141387213 -0.0060148334556597866 0 0.0065146187999273039 -0.0061869752201250692 0 0.0067031619141387213 -0.0060148334556597866 0 0.0067544678026707442 -0.006095255378573956 0 0.0065146187999273039 -0.0061869752201250692 0 0.0070687016876476837 -0.0062889001305189178 0 0.0067135279847520529 -0.0060131843133275518 0 0.0067544678026707442 -0.006095255378573956 0 0.0084034242950702092 -0.0084878724007347549 0 0.0072239177813764668 -0.0072079919115092582 0 0.0072239177813764668 -0.0072079919115092582 0 0.0070472113167834487 -0.0068041137846935043 0 0.0070687016876476837 -0.0062889001305189178 0 0.0067497672670557762 -0.0064317933005562638 0 0.0067544678026707442 -0.006095255378573956 0 0.0067497672670557762 -0.0064317933005562638 0 0.0067544678026707442 -0.006095255378573956 0 0.0065146187999273039 -0.0061869752201250692 0 0.0060702027545850457 -0.0057789328207085147 0 0.0059662046600396984 -0.0056744490409867268 0 0.0063575821973042386 -0.0059688587507161477 0 0.0065146187999273039 -0.0061869752201250692 0 0.0061250548894147524 -0.0060366505420560296 0 0.0064707302474490691 -0.0066335505612010563 0 0.0065146187999273039 -0.0061869752201250692 0 0.0061250548894147524 -0.0060366505420560296 0 0.015536517804675425 -0.0093243567801280982 0 0.015182921204810558 -0.009088279651345824 0 0.014971446739925818 -0.009624000688462692 0 0.015182921204810558 -0.009088279651345824 0 0.014971446739925818 -0.009624000688462692 0 0.014713078687499256 -0.0089933177605138401 0 0.015182921204810558 -0.009088279651345824 0 0.015372820714859981 -0.0087528402583504569 0 0.015027281663584217 -0.0085900847290713081 0 0.015182921204810558 -0.009088279651345824 0 0.014713078687499256 -0.0089933177605138401 0 0.015027281663584217 -0.0085900847290713081 0 0.015536517804675425 -0.0093243567801280982 0 0.015372820714859981 -0.0087528402583504569 0 0.015798503732574763 -0.0087489348196986439 0 0.015536517804675425 -0.0093243567801280982 0 0.015182921204810558 -0.009088279651345824 0 0.015372820714859981 -0.0087528402583504569 0 0.015536517804675425 -0.0093243567801280982 0 0.015798503732574763 -0.0087489348196986439 0 0.016058016850397715 -0.0090668212856328673 0 0.015798503732574763 -0.0087489348196986439 0 0.016058016850397715 -0.0090668212856328673 0 0.016149007407969845 -0.0086480937481738466 0 0.017771576725539657 -0.0076929710069194978 0 0.017874513742675797 -0.0071704798999943763 0 0.017601763206575839 -0.0075542845089637805 0 0.018073778207442149 -0.0074118657974569955 0 0.017771576725539657 -0.0076929710069194978 0 0.017874513742675797 -0.0071704798999943763 0 0.016811468928055569 -0.0083712373754272276 0 0.016905037989563686 -0.0083840149368977022 0 0.017874513742675797 -0.0071704798999943763 0 0.017601763206575839 -0.0075542845089637805 0 0.017652788026521732 -0.0072891979529728862 0 0.017874513742675797 -0.0071704798999943763 0 0.017427831945101942 -0.0068286149010768921 0 0.017830992926140009 -0.0066483747943556718 0 0.01787295831342994 -0.0071698617077453376 0 0.01756066840141533 -0.0070611086836450815 0 0.017874513742675797 -0.0071704798999943763 0 0.018015120774029548 -0.006889028850044371 0 0.017830992926140009 -0.0066483747943556718 0 0.018015120774029548 -0.006889028850044371 0 0.018156721004180872 -0.0066896117389459997 0 0.017830992926140009 -0.0066483747943556718 0 0.018015120774029548 -0.006889028850044371 0 0.018165406096216946 -0.007047722520742569 0 0.018156721004180872 -0.0066896117389459997 0 0.017874513742675797 -0.0071704798999943763 0 0.018015120774029548 -0.006889028850044371 0 0.018165406096216946 -0.007047722520742569 0 0.018165406096216946 -0.007047722520742569 0 0.018395991593119589 -0.006786416621944175 0 0.018156721004180872 -0.0066896117389459997 0 0.018073778207442149 -0.0074118657974569955 0 0.018165406096216946 -0.007047722520742569 0 0.018444575805283386 -0.0071346807519724028 0 0.018073778207442149 -0.0074118657974569955 0 0.017874513742675797 -0.0071704798999943763 0 0.018165406096216946 -0.007047722520742569 0 0.016811468928055569 -0.0083712373754272276 0 0.016642583820403369 -0.0083798866695274869 0 0.018165406096216946 -0.007047722520742569 0 0.018444575805283386 -0.0071346807519724028 0 0.018395991593119589 -0.006786416621944175 0 0.018444575805283386 -0.0071346807519724028 0 0.018598982980325179 -0.0068053694186892008 0 0.018748579240789081 -0.0068997766961729828 0 0.018444575805283386 -0.0071346807519724028 0 0.018395991593119589 -0.006786416621944175 0 0.018598982980325179 -0.0068053694186892008 0 0.018598982980325179 -0.0068053694186892008 0 0.018748579240789081 -0.0068997766961729828 0 0.018782484872535841 -0.0066575634575243405 0 0.014298712350703759 -0.0099678877303441202 0 0.013812925338300249 -0.0094155110860369828 0 0.014411969373626623 -0.0094013711922140766 0 0.016642583820403369 -0.0083798866695274869 0 0.016799911809672111 -0.0085249227995666844 0 0.014971446739925818 -0.009624000688462692 0 0.014298712350703759 -0.0099678877303441202 0 0.014411969373626623 -0.0094013711922140766 0 0.012678440168312148 -0.0088666493954305294 0 0.01263862987826027 -0.0088379208518312938 0 0.012686557593941664 -0.0088126387788952862 0 0.014786810921162789 -0.0075752450016174089 0 0.012813505029257473 -0.0096161271316971986 0 0.012678440168312148 -0.0088666493954305294 0 0.01263862987826027 -0.0088379208518312938 0 0.012674591423079069 -0.0089356313950931139 0 0.013535863843849054 -0.010307400730754663 0 0.013698343999827204 -0.0098500754747256492 0 0.013173631290924824 -0.0096872371477762405 0 0.016799911809672111 -0.0085249227995666844 0 0.014786810921162789 -0.0075752450016174089 0 0.018748579240789081 -0.0068997766961729828 0 0.019001519316774833 -0.0067408856936678422 0 0.018782484872535841 -0.0066575634575243405 0 0.014298712350703759 -0.0099678877303441202 0 0.013535863843849054 -0.010307400730754663 0 0.013698343999827204 -0.0098500754747256492 0 0.014298712350703759 -0.0099678877303441202 0 0.013698343999827204 -0.0098500754747256492 0 0.013812925338300249 -0.0094155110860369828 0 0.013698343999827204 -0.0098500754747256492 0 0.013173631290924824 -0.0096872371477762405 0 0.013812925338300249 -0.0094155110860369828 0 0.013165448133974 -0.0090248067780479991 0 0.013812925338300249 -0.0094155110860369828 0 0.013697206310636955 -0.0090100230882442876 0 0.013173631290924824 -0.0096872371477762405 0 0.013165448133974 -0.0090248067780479991 0 0.013812925338300249 -0.0094155110860369828 0 0.013812925338300249 -0.0094155110860369828 0 0.013697206310636955 -0.0090100230882442876 0 0.014199976280442362 -0.0090249062936505996 0 0.01404394841110345 -0.0086739274108233975 0 0.013697206310636955 -0.0090100230882442876 0 0.014199976280442362 -0.0090249062936505996 0 0.01404394841110345 -0.0086739274108233975 0 0.013675331429861496 -0.0086710510711059414 0 0.013697206310636955 -0.0090100230882442876 0 0.012982746256555672 -0.008769713007454466 0 0.013165448133974 -0.0090248067780479991 0 0.013434372766918362 -0.0086592362444290263 0 0.012982746256555672 -0.008769713007454466 0 0.013434372766918362 -0.0086592362444290263 0 0.012999282498216911 -0.0085452265336440555 0 0.013165448133974 -0.0090248067780479991 0 0.013675331429861496 -0.0086710510711059414 0 0.013697206310636955 -0.0090100230882442876 0 0.013136674795737357 -0.0090804772573501134 0 0.013727242885712273 -0.0084961468398790617 0 0.014971446739925818 -0.009624000688462692 0 0.014411969373626623 -0.0094013711922140766 0 0.014713078687499256 -0.0089933177605138401 0 0.013812925338300249 -0.0094155110860369828 0 0.014411969373626623 -0.0094013711922140766 0 0.014199976280442362 -0.0090249062936505996 0 0.014411969373626623 -0.0094013711922140766 0 0.014199976280442362 -0.0090249062936505996 0 0.014713078687499256 -0.0089933177605138401 0 0.014199976280442362 -0.0090249062936505996 0 0.014380445497419517 -0.0087557058252253229 0 0.014713078687499256 -0.0089933177605138401 0 0.01404394841110345 -0.0086739274108233975 0 0.014199976280442362 -0.0090249062936505996 0 0.014380445497419517 -0.0087557058252253229 0 0.014380445497419517 -0.0087557058252253229 0 0.014713078687499256 -0.0089933177605138401 0 0.014612675601321137 -0.0086251080129321044 0 0.014713078687499256 -0.0089933177605138401 0 0.014612675601321137 -0.0086251080129321044 0 0.015027281663584217 -0.0085900847290713081 0 0.014612675601321137 -0.0086251080129321044 0 0.014642703830731766 -0.0083676312789311459 0 0.015027281663584217 -0.0085900847290713081 0 0.014380445497419517 -0.0087557058252253229 0 0.014612675601321137 -0.0086251080129321044 0 0.014310353051800876 -0.0084700934219864316 0 0.01404394841110345 -0.0086739274108233975 0 0.014310353051800876 -0.0084700934219864316 0 0.014076353857445687 -0.0083436989563521191 0 0.01404394841110345 -0.0086739274108233975 0 0.014380445497419517 -0.0087557058252253229 0 0.014310353051800876 -0.0084700934219864316 0 0.014310353051800876 -0.0084700934219864316 0 0.014386424874698846 -0.0083424035190804002 0 0.014156548564153467 -0.0084129958174481 0 0.014040565090014561 -0.008910052360966236 0 0.012838951183693119 -0.0089543674235820544 0 0.014612675601321137 -0.0086251080129321044 0 0.014310353051800876 -0.0084700934219864316 0 0.014642703830731766 -0.0083676312789311459 0 0.014310353051800876 -0.0084700934219864316 0 0.014386424874698846 -0.0083424035190804002 0 0.014642703830731766 -0.0083676312789311459 0 0.010923644713107177 -0.010778772435368632 0 0.010584458790903882 -0.011176546500310101 0 0.010422290180670894 -0.010701115931691969 0 0.014386424874698846 -0.0083424035190804002 0 0.014420070218409917 -0.0081432972048091808 0 0.014642703830731766 -0.0083676312789311459 0 0.014386424874698846 -0.0083424035190804002 0 0.014420070218409917 -0.0081432972048091808 0 0.014156548564153467 -0.0084129958174481 0 0.012466771768095299 -0.0096920151442259767 0 0.012838951183693119 -0.0089543674235820544 0 0.014642703830731766 -0.0083676312789311459 0 0.014930075050424022 -0.0082366352702438993 0 0.015027281663584217 -0.0085900847290713081 0 0.014420070218409917 -0.0081432972048091808 0 0.014642703830731766 -0.0083676312789311459 0 0.014662755924678058 -0.0078606683646027676 0 0.01486008130896584 -0.0079997161165792814 0 0.013817758143589395 -0.0087490059755091967 0 0.014642703830731766 -0.0083676312789311459 0 0.014826713025340471 -0.0080088380824984377 0 0.014930075050424022 -0.0082366352702438993 0 0.012999282498216911 -0.0085452265336440555 0 0.013166752728020653 -0.0083836163267864 0 0.012863377656256888 -0.008100428404068662 0 0.013434372766918362 -0.0086592362444290263 0 0.012999282498216911 -0.0085452265336440555 0 0.013166752728020653 -0.0083836163267864 0 0.013434372766918362 -0.0086592362444290263 0 0.013166752728020653 -0.0083836163267864 0 0.013329679712428984 -0.0082012667543424622 0 0.013166752728020653 -0.0083836163267864 0 0.013329679712428984 -0.0082012667543424622 0 0.012863377656256888 -0.008100428404068662 0 0.013434372766918362 -0.0086592362444290263 0 0.013329679712428984 -0.0082012667543424622 0 0.013902978936204725 -0.0081921120263973787 0 0.013727242885712273 -0.0084961468398790617 0 0.012838951183693119 -0.0089543674235820544 0 0.01404394841110345 -0.0086739274108233975 0 0.013675331429861496 -0.0086710510711059414 0 0.014076353857445687 -0.0083436989563521191 0 0.010584458790903882 -0.011176546500310101 0 0.010422290180670894 -0.010701115931691969 0 0.0098615109563046366 -0.010879383970998855 0 0.013329679712428984 -0.0082012667543424622 0 0.013902978936204725 -0.0081921120263973787 0 0.013085221622003434 -0.0077130426433058008 0 0.012838951183693119 -0.0089543674235820544 0 0.011364109384151293 -0.009368079548375801 0 0.013329679712428984 -0.0082012667543424622 0 0.013085221622003434 -0.0077130426433058008 0 0.012863377656256888 -0.008100428404068662 0 0.010422290180670894 -0.010701115931691969 0 0.0098615109563046366 -0.010879383970998855 0 0.0098010726573178799 -0.010314388130486277 0 0.010422290180670894 -0.010701115931691969 0 0.010392464339980905 -0.01024312612260578 0 0.010737229194596338 -0.010437678114539264 0 0.010422290180670894 -0.010701115931691969 0 0.0098010726573178799 -0.010314388130486277 0 0.010392464339980905 -0.01024312612260578 0 0.010392464339980905 -0.01024312612260578 0 0.010440322091815751 -0.0097967657143631943 0 0.010907669796810114 -0.010093607886877628 0 0.010392464339980905 -0.01024312612260578 0 0.010440322091815751 -0.0097967657143631943 0 0.0098107798997176775 -0.0097551174955860104 0 0.0098010726573178799 -0.010314388130486277 0 0.010392464339980905 -0.01024312612260578 0 0.0098107798997176775 -0.0097551174955860104 0 0.014883196601293006 -0.0079705410886038598 0 0.015023554043088106 -0.0079674694847770254 0 0.014999195304655566 -0.0080684822520439934 0 0.014826713025340471 -0.0080088380824984377 0 0.014883196601293006 -0.0079705410886038598 0 0.014999195304655566 -0.0080684822520439934 0 0.013817758143589395 -0.0087490059755091967 0 0.014262753193465295 -0.0083067434831320675 0 0.014826713025340471 -0.0080088380824984377 0 0.014999195304655566 -0.0080684822520439934 0 0.014930075050424022 -0.0082366352702438993 0 0.012466771768095299 -0.0096920151442259767 0 0.013817758143589395 -0.0087490059755091967 0 0.010923644713107177 -0.010778772435368632 0 0.010422290180670894 -0.010701115931691969 0 0.010737229194596338 -0.010437678114539264 0 0.011273251459820784 -0.010375866167058483 0 0.010737229194596338 -0.010437678114539264 0 0.010907669796810114 -0.010093607886877628 0 0.010923644713107177 -0.010778772435368632 0 0.011273251459820784 -0.010375866167058483 0 0.010737229194596338 -0.010437678114539264 0 0.010392464339980905 -0.01024312612260578 0 0.010737229194596338 -0.010437678114539264 0 0.010907669796810114 -0.010093607886877628 0 0.010440322091815751 -0.0097967657143631943 0 0.010907669796810114 -0.010093607886877628 0 0.010877805877380898 -0.0096708947131150594 0 0.010907669796810114 -0.010093607886877628 0 0.011333251820629591 -0.0099037611816497183 0 0.010877805877380898 -0.0096708947131150594 0 0.011273251459820784 -0.010375866167058483 0 0.010907669796810114 -0.010093607886877628 0 0.011333251820629591 -0.0099037611816497183 0 0.014842293994573964 -0.0080085632159127267 0 0.014883196601293006 -0.0079705410886038598 0 0.014903218857961913 -0.0078259955887448693 0 0.013817758143589395 -0.0087490059755091967 0 0.01311128929326855 -0.0088812597282318141 0 0.014883196601293006 -0.0079705410886038598 0 0.014903218857961913 -0.0078259955887448693 0 0.015020304330131606 -0.0078829691296119463 0 0.014903218857961913 -0.0078259955887448693 0 0.015020304330131606 -0.0078829691296119463 0 0.01510368301719474 -0.0077091493136421238 0 0.015020304330131606 -0.0078829691296119463 0 0.015202128813034479 -0.0079483303376290202 0 0.01510368301719474 -0.0077091493136421238 0 0.015020304330131606 -0.0078829691296119463 0 0.015023554043088106 -0.0079674694847770254 0 0.015202128813034479 -0.0079483303376290202 0 0.015202128813034479 -0.0079483303376290202 0 0.015591946850534251 -0.0076798538235870418 0 0.01510368301719474 -0.0077091493136421238 0 0.015548510538334824 -0.0081219192503651106 0 0.015202128813034479 -0.0079483303376290202 0 0.015591946850534251 -0.0076798538235870418 0 0.015548510538334824 -0.0081219192503651106 0 0.015202128813034479 -0.0079483303376290202 0 0.015200242128457629 -0.0082305898409716048 0 0.015202128813034479 -0.0079483303376290202 0 0.014999195304655566 -0.0080684822520439934 0 0.015200242128457629 -0.0082305898409716048 0 0.014883196601293006 -0.0079705410886038598 0 0.015020304330131606 -0.0078829691296119463 0 0.015023554043088106 -0.0079674694847770254 0 0.015023554043088106 -0.0079674694847770254 0 0.015202128813034479 -0.0079483303376290202 0 0.014999195304655566 -0.0080684822520439934 0 0.014930075050424022 -0.0082366352702438993 0 0.015200242128457629 -0.0082305898409716048 0 0.015027281663584217 -0.0085900847290713081 0 0.015200242128457629 -0.0082305898409716048 0 0.015478266518253053 -0.0084504938043530285 0 0.015027281663584217 -0.0085900847290713081 0 0.014999195304655566 -0.0080684822520439934 0 0.014930075050424022 -0.0082366352702438993 0 0.015200242128457629 -0.0082305898409716048 0 0.015548510538334824 -0.0081219192503651106 0 0.015200242128457629 -0.0082305898409716048 0 0.015478266518253053 -0.0084504938043530285 0 0.015372820714859981 -0.0087528402583504569 0 0.015798503732574763 -0.0087489348196986439 0 0.015478266518253053 -0.0084504938043530285 0 0.015372820714859981 -0.0087528402583504569 0 0.015478266518253053 -0.0084504938043530285 0 0.015027281663584217 -0.0085900847290713081 0 0.015798503732574763 -0.0087489348196986439 0 0.016149007407969845 -0.0086480937481738466 0 0.015909194418973177 -0.0083951415492107273 0 0.015798503732574763 -0.0087489348196986439 0 0.015478266518253053 -0.0084504938043530285 0 0.015909194418973177 -0.0083951415492107273 0 0.015548510538334824 -0.0081219192503651106 0 0.015478266518253053 -0.0084504938043530285 0 0.015909194418973177 -0.0083951415492107273 0 0.015548510538334824 -0.0081219192503651106 0 0.015909194418973177 -0.0083951415492107273 0 0.015917605548972806 -0.0080575943168783425 0 0.015909194418973177 -0.0083951415492107273 0 0.015917605548972806 -0.0080575943168783425 0 0.016376818126192509 -0.0083003417170915122 0 0.016149007407969845 -0.0086480937481738466 0 0.015909194418973177 -0.0083951415492107273 0 0.016376818126192509 -0.0083003417170915122 0 0.015917605548972806 -0.0080575943168783425 0 0.01616200607641961 -0.0077944273600125281 0 0.016376818126192509 -0.0083003417170915122 0 0.015548510538334824 -0.0081219192503651106 0 0.015917605548972806 -0.0080575943168783425 0 0.015591946850534251 -0.0076798538235870418 0 0.015917605548972806 -0.0080575943168783425 0 0.015591946850534251 -0.0076798538235870418 0 0.01616200607641961 -0.0077944273600125281 0 0.015537615017024475 -0.0078272812526014278 0 0.01604786469553263 -0.0079847941153820007 0 0.015469305168118209 -0.0079666333587626089 0 0.015783592990607991 -0.0077583412171573192 0 0.015240423271587651 -0.0075447682592318984 0 0.015783592990607991 -0.0077583412171573192 0 0.015240423271587651 -0.0075447682592318984 0 0.015652034476502305 -0.0073849783976018529 0 0.015469305168118209 -0.0079666333587626089 0 0.015930019210773638 -0.008172519425984414 0 0.015783592990607991 -0.0077583412171573192 0 0.015783592990607991 -0.0077583412171573192 0 0.015652034476502305 -0.0073849783976018529 0 0.016144770398264327 -0.0075309624447368138 0 0.014093680016126431 -0.0079681155221581427 0 0.013318279544014272 -0.0098541780754791627 0 0.015469305168118209 -0.0079666333587626089 0 0.01510368301719474 -0.0077091493136421238 0 0.015240423271587651 -0.0075447682592318984 0 0.015537615017024475 -0.0078272812526014278 0 0.01514170958093819 -0.0077176630339733342 0 0.01510368301719474 -0.0077091493136421238 0 0.015240423271587651 -0.0075447682592318984 0 0.01493422366638596 -0.0076543317501301085 0 0.011682020040740914 -0.0090092008241614441 0 0.012088180213222452 -0.0091243889480824986 0 0.011365528443560516 -0.0094728884828906325 0 0.011682020040740914 -0.0090092008241614441 0 0.011365528443560516 -0.0094728884828906325 0 0.011434830525336214 -0.0086672758972542469 0 0.014093680016126431 -0.0079681155221581427 0 0.012274336792132395 -0.0088503859650011021 0 0.011682020040740914 -0.0090092008241614441 0 0.012088180213222452 -0.0091243889480824986 0 0.011838071121791145 -0.0087688635370643427 0 0.012088180213222452 -0.0091243889480824986 0 0.012210108961261717 -0.0086111815147814994 0 0.011838071121791145 -0.0087688635370643427 0 0.012088180213222452 -0.0091243889480824986 0 0.012210108961261717 -0.0086111815147814994 0 0.012832274012682127 -0.0087822407292808356 0 0.010878010384473374 -0.010668169439613932 0 0.010679666798047551 -0.010391982841459488 0 0.012210108961261717 -0.0086111815147814994 0 0.011838071121791145 -0.0087688635370643427 0 0.011584935612686227 -0.0084463520115587564 0 0.011682020040740914 -0.0090092008241614441 0 0.011838071121791145 -0.0087688635370643427 0 0.011434830525336214 -0.0086672758972542469 0 0.011838071121791145 -0.0087688635370643427 0 0.011584935612686227 -0.0084463520115587564 0 0.011434830525336214 -0.0086672758972542469 0 0.01009165215933917 -0.012664332718257138 0 0.0094829992931245947 -0.012455875204775591 0 0.0098350865330645958 -0.012313315983123673 0 0.0094829992931245947 -0.012455875204775591 0 0.0095648121358404177 -0.012079252683234894 0 0.0098350865330645958 -0.012313315983123673 0 0.01009165215933917 -0.012664332718257138 0 0.0098350865330645958 -0.012313315983123673 0 0.010242095212210485 -0.01180569442145211 0 0.0095648121358404177 -0.012079252683234894 0 0.0098350865330645958 -0.012313315983123673 0 0.010242095212210485 -0.01180569442145211 0 0.01009165215933917 -0.012664332718257138 0 0.010808140692217683 -0.012216009624670184 0 0.010242095212210485 -0.01180569442145211 0 0.010808140692217683 -0.012216009624670184 0 0.011208958749637741 -0.011553423252201371 0 0.0116982983215927 -0.012479629026525222 0 0.010808140692217683 -0.012216009624670184 0 0.010796479066789459 -0.012873738231549201 0 0.0116982983215927 -0.012479629026525222 0 0.013318279544014272 -0.0098541780754791627 0 0.015643698683254388 -0.0090430378370729564 0 0.013318279544014272 -0.0098541780754791627 0 0.012567333375413509 -0.011618328099991105 0 0.010878010384473374 -0.010668169439613932 0 0.013318279544014272 -0.0098541780754791627 0 0.01009165215933917 -0.012664332718257138 0 0.010808140692217683 -0.012216009624670184 0 0.010796479066789459 -0.012873738231549201 0 0.0097798365227295212 -0.0092221278815360474 0 0.0098107798997176775 -0.0097551174955860104 0 0.0103794769842303 -0.009337305301876913 0 0.010440322091815751 -0.0097967657143631943 0 0.0098107798997176775 -0.0097551174955860104 0 0.0103794769842303 -0.009337305301876913 0 0.010440322091815751 -0.0097967657143631943 0 0.0103794769842303 -0.009337305301876913 0 0.010877805877380898 -0.0096708947131150594 0 0.0103794769842303 -0.009337305301876913 0 0.01073726883584647 -0.0089849157911267574 0 0.010183305087704805 -0.008539643390748107 0 0.0097798365227295212 -0.0092221278815360474 0 0.0103794769842303 -0.009337305301876913 0 0.010183305087704805 -0.008539643390748107 0 0.0103794769842303 -0.009337305301876913 0 0.01073726883584647 -0.0089849157911267574 0 0.010922903164341351 -0.0093002975498586715 0 0.01073726883584647 -0.0089849157911267574 0 0.011076322754279486 -0.00902003139204831 0 0.010960887880704302 -0.0086880611870620589 0 0.01073726883584647 -0.0089849157911267574 0 0.010922903164341351 -0.0093002975498586715 0 0.011076322754279486 -0.00902003139204831 0 0.0103794769842303 -0.009337305301876913 0 0.010922903164341351 -0.0093002975498586715 0 0.010877805877380898 -0.0096708947131150594 0 0.014903218857961913 -0.0078259955887448693 0 0.01510368301719474 -0.0077091493136421238 0 0.01493422366638596 -0.0076543317501301085 0 0.010592619544867513 -0.009814229543210826 0 0.012274336792132395 -0.0088503859650011021 0 0.010922903164341351 -0.0093002975498586715 0 0.010877805877380898 -0.0096708947131150594 0 0.011321879199933256 -0.0094487676260799278 0 0.01311128929326855 -0.0088812597282318141 0 0.012274336792132395 -0.0088503859650011021 0 0.011333251820629591 -0.0099037611816497183 0 0.010877805877380898 -0.0096708947131150594 0 0.011404630844387679 -0.0093964813383164512 0 0.011321879199933256 -0.0094487676260799278 0 0.011076322754279486 -0.00902003139204831 0 0.011434830525336214 -0.0086672758972542469 0 0.012274336792132395 -0.0088503859650011021 0 0.011166521501910187 -0.0089818496439131 0 0.010922903164341351 -0.0093002975498586715 0 0.011321879199933256 -0.0094487676260799278 0 0.011076322754279486 -0.00902003139204831 0 0.011434830525336214 -0.0086672758972542469 0 0.01096017925505734 -0.0082904633378107911 0 0.010960887880704302 -0.0086880611870620589 0 0.011076322754279486 -0.00902003139204831 0 0.011434830525336214 -0.0086672758972542469 0 0.010960887880704302 -0.0086880611870620589 0 0.011584935612686227 -0.0084463520115587564 0 0.011434830525336214 -0.0086672758972542469 0 0.01096017925505734 -0.0082904633378107911 0 0.009239323757244464 -0.012260295557853346 0 0.0092658382055250104 -0.011431939862708112 0 0.0094829992931245947 -0.012455875204775591 0 0.0095648121358404177 -0.012079252683234894 0 0.0089298172024487848 -0.012293690018390762 0 0.010679666798047551 -0.010391982841459488 0 0.0092658382055250104 -0.011431939862708112 0 0.0092658382055250104 -0.011431939862708112 0 0.007310475741769169 -0.012148203316074436 0 0.0092658382055250104 -0.011431939862708112 0 0.0091123078029154321 -0.010363265111783119 0 0.01073726883584647 -0.0089849157911267574 0 0.010960887880704302 -0.0086880611870620589 0 0.010183305087704805 -0.008539643390748107 0 0.01096017925505734 -0.0082904633378107911 0 0.010960887880704302 -0.0086880611870620589 0 0.010183305087704805 -0.008539643390748107 0 0.0088062441782521973 -0.012186138634643327 0 0.0077012385461176173 -0.012576245824004137 0 0.0076546652513509103 -0.011913138545163847 0 0.0082854630422396162 -0.012477307869573755 0 0.0072312781202770009 -0.012151132756061552 0 0.0076059581595898738 -0.01176852633073959 0 0.0069050295237605532 -0.012274493722215158 0 0.0077012385461176173 -0.012576245824004137 0 0.0076546652513509103 -0.011913138545163847 0 0.0065436116047767725 -0.011684657974829269 0 0.0069050295237605532 -0.012274493722215158 0 0.0076546652513509103 -0.011913138545163847 0 0.0066369153904967801 -0.012925873308458747 0 0.0069050295237605532 -0.012274493722215158 0 0.0077012385461176173 -0.012576245824004137 0 0.0093767014905676033 -0.0087880952156253519 0 0.0097798365227295212 -0.0092221278815360474 0 0.010183305087704805 -0.008539643390748107 0 0.0079549294784980532 -0.010898341264615844 0 0.0091123078029154321 -0.010363265111783119 0 0.0051660845490607878 -0.012695631573130813 0 0.0070025604589235169 -0.011323297133788662 0 0.0051660845490607878 -0.012695631573130813 0 0.0057414181946158025 -0.013508792034244215 0 0.0061145692480437819 -0.01103806136217597 0 0.0068611757524070973 -0.011413916319003186 0 0.0072695802902259929 -0.01092321602427161 0 0.0064484938691745522 -0.011739182061294288 0 0.007310475741769169 -0.012148203316074436 0 0.0062966117432436573 -0.011818250857740237 0 0.0072312781202770009 -0.012151132756061552 0 0.0069603033639836663 -0.011393894109416427 0 0.0070025604589235169 -0.011323297133788662 0 0.0075246783204907571 -0.011743000165314356 0 0.0072312781202770009 -0.012151132756061552 0 0.0069603033639836663 -0.011393894109416427 0 0.0076059581595898738 -0.01176852633073959 0 0.0068611757524070973 -0.011413916319003186 0 0.0076059581595898738 -0.01176852633073959 0 0.0072695802902259929 -0.01092321602427161 0 0.0076059581595898738 -0.01176852633073959 0 0.0072695802902259929 -0.01092321602427161 0 0.007947755523356163 -0.01129417041296521 0 0.0072695802902259929 -0.01092321602427161 0 0.007947755523356163 -0.01129417041296521 0 0.0083941926576645721 -0.010817693246635932 0 0.007947755523356163 -0.01129417041296521 0 0.0085229854573798842 -0.011663286099346956 0 0.0083941926576645721 -0.010817693246635932 0 0.0082854630422396162 -0.012477307869573755 0 0.0076059581595898738 -0.01176852633073959 0 0.0085229854573798842 -0.011663286099346956 0 0.0076059581595898738 -0.01176852633073959 0 0.007947755523356163 -0.01129417041296521 0 0.0085229854573798842 -0.011663286099346956 0 0.0092452400833564156 -0.012171192041962263 0 0.0082854630422396162 -0.012477307869573755 0 0.0085229854573798842 -0.011663286099346956 0 0.0085229854573798842 -0.011663286099346956 0 0.0083941926576645721 -0.010817693246635932 0 0.009186849580418972 -0.01143476753153834 0 0.0043658138432183654 -0.015876785883797682 0 0.0052212816453572316 -0.015825005368668797 0 0.0046876846253234771 -0.014999969688527794 0 0.0052212816453572316 -0.015825005368668797 0 0.0055834366272787235 -0.014999977136555773 0 0.0060826730407890633 -0.015760791392451338 0 0.0052212816453572316 -0.015825005368668797 0 0.0055834366272787235 -0.014999977136555773 0 0.0046876846253234771 -0.014999969688527794 0 0.0057414181946158025 -0.013508792034244215 0 0.0068196550686555136 -0.01330570742738609 0 0.0043658138432183654 -0.015876785883797682 0 0.0046876846253234771 -0.014999969688527794 0 0.0039314214948946652 -0.01549971926327361 0 0.0046876846253234771 -0.014999969688527794 0 0.0037921827989491185 -0.014999985393107833 0 0.0039314214948946652 -0.01549971926327361 0 0.0035626941860284296 -0.015904405436124088 0 0.0043658138432183654 -0.015876785883797682 0 0.0039314214948946652 -0.01549971926327361 0 0.011208958749637741 -0.011553423252201371 0 0.010242095212210485 -0.01180569442145211 0 0.010641846491558256 -0.010662415811928437 0 0.011208958749637741 -0.011553423252201371 0 0.010641846491558256 -0.010662415811928437 0 0.011673153863917873 -0.010589933331662709 0 0.010808140692217683 -0.012216009624670184 0 0.011208958749637741 -0.011553423252201371 0 0.010242095212210485 -0.01180569442145211 0 0.009239323757244464 -0.012260295557853346 0 0.010273440720500838 -0.011782708791824324 0 0.010242095212210485 -0.01180569442145211 0 0.0095416530492286027 -0.010724862014920074 0 0.010641846491558256 -0.010662415811928437 0 0.0092452400833564156 -0.012171192041962263 0 0.0085229854573798842 -0.011663286099346956 0 0.009186849580418972 -0.01143476753153834 0 0.0092452400833564156 -0.012171192041962263 0 0.010242095212210485 -0.01180569442145211 0 0.009186849580418972 -0.01143476753153834 0 0.0083941926576645721 -0.010817693246635932 0 0.009186849580418972 -0.01143476753153834 0 0.0095416530492286027 -0.010724862014920074 0 0.010242095212210485 -0.01180569442145211 0 0.009186849580418972 -0.01143476753153834 0 0.0095416530492286027 -0.010724862014920074 0 0.0078435587893689318 -0.013247104407745923 0 0.0086291078983302873 -0.01315752088882767 0 0.0060826730407890633 -0.015760791392451338 0 0.006479126971998578 -0.014999988787775392 0 0.006943921691097428 -0.015688455089197719 0 0.0068196550686555136 -0.01330570742738609 0 0.0078435587893689318 -0.013247104407745923 0 0.0055834366272787235 -0.014999977136555773 0 0.0060826730407890633 -0.015760791392451338 0 0.006479126971998578 -0.014999988787775392 0 0.006479126971998578 -0.014999988787775392 0 0.006943921691097428 -0.015688455089197719 0 0.0073748374420846263 -0.014999941600752402 0 0.0086291078983302873 -0.01315752088882767 0 0.010456686735110732 -0.013257501073527177 0 0.006943921691097428 -0.015688455089197719 0 0.0073748374420846263 -0.014999941600752402 0 0.007805552780152907 -0.015603554816375409 0 0.0073748396026709273 -0.014999989543753893 0 0.0081850284556970535 -0.014999982609031367 0 0.0078119539440912157 -0.015622011420829487 0 0.0073740050564244947 -0.015001702322918007 0 0.010456686735110732 -0.013257501073527177 0 0.0081850284556970535 -0.014999982609031367 0 0.0078119539440912157 -0.015622011420829487 0 0.0086821310937297298 -0.015551746802858675 0 0.014939161585383023 -0.011428372086751796 0 0.015352638950428361 -0.011964186991848621 0 0.015789492431765265 -0.011384908794101679 0 0.010456686735110732 -0.013257501073527177 0 0.01244017343449731 -0.013505646195753123 0 0.012157132934469569 -0.011315807878516177 0 0.0116982983215927 -0.012479629026525222 0 0.012643585044939358 -0.012036692103919175 0 0.011208958749637741 -0.011553423252201371 0 0.011673153863917873 -0.010589933331662709 0 0.012157132934469569 -0.011315807878516177 0 0.011208958749637741 -0.011553423252201371 0 0.012157132934469569 -0.011315807878516177 0 0.0116982983215927 -0.012479629026525222 0 0.010456686735110732 -0.013257501073527177 0 0.013910303039056923 -0.011474195265110261 0 0.013910303039056923 -0.011474195265110261 0 0.015327794427080503 -0.011387872909450128 0 0.01709203191711019 -0.011778112544217709 0 0.015327794427080503 -0.011387872909450128 0 0.017383848725996329 -0.011448340450911932 0 0.017819338667105868 -0.011211223304256761 0 0.017398824903865462 -0.011065803225006466 0 0.015352638950428361 -0.011964186991848621 0 0.015902293450606838 -0.01188151508645683 0 0.015715682932732726 -0.012462753090619125 0 0.016290675390364037 -0.012150684990960442 0 0.015902293450606838 -0.01188151508645683 0 0.015715682932732726 -0.012462753090619125 0 0.015352638950428361 -0.011964186991848621 0 0.015902293450606838 -0.01188151508645683 0 0.015789492431765265 -0.011384908794101679 0 0.016290675390364037 -0.012150684990960442 0 0.015902293450606838 -0.01188151508645683 0 0.016326794010427147 -0.011731775526223802 0 0.016326794010427147 -0.011731775526223802 0 0.015789492431765265 -0.011384908794101679 0 0.016508151838804091 -0.011532076257689931 0 0.01244017343449731 -0.013505646195753123 0 0.012963756829869005 -0.01350784700606205 0 0.015902293450606838 -0.01188151508645683 0 0.016326794010427147 -0.011731775526223802 0 0.015789492431765265 -0.011384908794101679 0 0.0081850284556970535 -0.014999982609031367 0 0.0086821310937297298 -0.015551746802858675 0 0.0089952169528530156 -0.014999986787743877 0 0.0086821310937297298 -0.015551746802858675 0 0.0089952169528530156 -0.014999986787743877 0 0.009549789875414702 -0.015480467697496607 0 0.0089952169528530156 -0.014999986787743877 0 0.0098054018183173722 -0.014999987513252233 0 0.009549789875414702 -0.015480467697496607 0 0.0098054018183173722 -0.014999987513252233 0 0.01061558387389132 -0.01499998871478264 0 0.010415804505414182 -0.015408692422473448 0 0.0098054018183173722 -0.014999987513252233 0 0.009549789875414702 -0.015480467697496607 0 0.010415804505414182 -0.015408692422473448 0 0.012963756829869005 -0.01350784700606205 0 0.013492295535833806 -0.013610068892437049 0 0.016508151838804091 -0.011532076257689931 0 0.016576436511280962 -0.011817393424175399 0 0.01676550942541542 -0.011700878449916942 0 0.016326794010427147 -0.011731775526223802 0 0.016508151838804091 -0.011532076257689931 0 0.01676550942541542 -0.011700878449916942 0 0.01061558387389132 -0.01499998871478264 0 0.011425764261038996 -0.014999989782146346 0 0.011281567632204221 -0.015336784619848899 0 0.013492295535833806 -0.013610068892437049 0 0.013712167951483353 -0.013678742507522745 0 0.01061558387389132 -0.01499998871478264 0 0.010415804505414182 -0.015408692422473448 0 0.011281567632204221 -0.015336784619848899 0 0.016576436511280962 -0.011817393424175399 0 0.016453463156878415 -0.011664660608362985 0 0.01676550942541542 -0.011700878449916942 0 0.016453463156878415 -0.011664660608362985 0 0.016156149605390739 -0.012027474156130256 0 0.016074614438098236 -0.011697176172169345 0 0.016576436511280962 -0.011817393424175399 0 0.016453463156878415 -0.011664660608362985 0 0.016156149605390739 -0.012027474156130256 0 0.016453463156878415 -0.011664660608362985 0 0.016313720082339549 -0.011409401178130316 0 0.016074614438098236 -0.011697176172169345 0 0.016453463156878415 -0.011664660608362985 0 0.01661004206831863 -0.011325779598724547 0 0.01676550942541542 -0.011700878449916942 0 0.016453463156878415 -0.011664660608362985 0 0.01661004206831863 -0.011325779598724547 0 0.016313720082339549 -0.011409401178130316 0 0.016313720082339549 -0.011409401178130316 0 0.016296387794573892 -0.01097067726755979 0 0.015977172199683431 -0.01123507464369101 0 0.01661004206831863 -0.011325779598724547 0 0.016313720082339549 -0.011409401178130316 0 0.016296387794573892 -0.01097067726755979 0 0.016290675390364037 -0.012150684990960442 0 0.016326794010427147 -0.011731775526223802 0 0.01676550942541542 -0.011700878449916942 0 0.01709203191711019 -0.011778112544217709 0 0.016671350123289054 -0.011752694540349287 0 0.01661004206831863 -0.011325779598724547 0 0.01676550942541542 -0.011700878449916942 0 0.017010421713176509 -0.011158363325361536 0 0.017383848725996329 -0.011448340450911932 0 0.01676550942541542 -0.011700878449916942 0 0.017010421713176509 -0.011158363325361536 0 0.017010421713176509 -0.011158363325361536 0 0.017102253584473932 -0.010760174291955638 0 0.017398824903865462 -0.011065803225006466 0 0.017383848725996329 -0.011448340450911932 0 0.017010421713176509 -0.011158363325361536 0 0.017398824903865462 -0.011065803225006466 0 0.01661004206831863 -0.011325779598724547 0 0.017010421713176509 -0.011158363325361536 0 0.016727568215904921 -0.010898639712163918 0 0.017010421713176509 -0.011158363325361536 0 0.017102253584473932 -0.010760174291955638 0 0.016727568215904921 -0.010898639712163918 0 0.017102253584473932 -0.010760174291955638 0 0.016727568215904921 -0.010898639712163918 0 0.016793780291816746 -0.01060447091608342 0 0.017102253584473932 -0.010760174291955638 0 0.017236431659470006 -0.01047367466083913 0 0.017552004821072775 -0.01073720974640632 0 0.01661004206831863 -0.011325779598724547 0 0.016296387794573892 -0.01097067726755979 0 0.016727568215904921 -0.010898639712163918 0 0.016296387794573892 -0.01097067726755979 0 0.016727568215904921 -0.010898639712163918 0 0.016521099207249305 -0.010625337609361211 0 0.016727568215904921 -0.010898639712163918 0 0.016521099207249305 -0.010625337609361211 0 0.016793780291816746 -0.01060447091608342 0 0.016296387794573892 -0.01097067726755979 0 0.016521099207249305 -0.010625337609361211 0 0.016206206488915683 -0.010469763825975682 0 0.016521099207249305 -0.010625337609361211 0 0.016477425900376919 -0.010170719252969765 0 0.016206206488915683 -0.010469763825975682 0 0.016521099207249305 -0.010625337609361211 0 0.016774767389046472 -0.010320415803832418 0 0.016477425900376919 -0.010170719252969765 0 0.016521099207249305 -0.010625337609361211 0 0.016793780291816746 -0.01060447091608342 0 0.016774767389046472 -0.010320415803832418 0 0.016774767389046472 -0.010320415803832418 0 0.016477425900376919 -0.010170719252969765 0 0.016846621443075901 -0.0098872622923073424 0 0.017102253584473932 -0.010760174291955638 0 0.017236431659470006 -0.01047367466083913 0 0.017025965533819461 -0.01043226180023304 0 0.017236431659470006 -0.01047367466083913 0 0.017025965533819461 -0.01043226180023304 0 0.017294569938858466 -0.010253582240917805 0 0.017236431659470006 -0.01047367466083913 0 0.01733970245470131 -0.010274004992597646 0 0.017294569938858466 -0.010253582240917805 0 0.017102253584473932 -0.010760174291955638 0 0.016793780291816746 -0.01060447091608342 0 0.017025965533819461 -0.01043226180023304 0 0.016793780291816746 -0.01060447091608342 0 0.016774767389046472 -0.010320415803832418 0 0.017025965533819461 -0.01043226180023304 0 0.016774767389046472 -0.010320415803832418 0 0.017025965533819461 -0.01043226180023304 0 0.017042926619140544 -0.010162477220264974 0 0.016774767389046472 -0.010320415803832418 0 0.017042926619140544 -0.010162477220264974 0 0.016846621443075901 -0.0098872622923073424 0 0.017025965533819461 -0.01043226180023304 0 0.017042926619140544 -0.010162477220264974 0 0.017294569938858466 -0.010253582240917805 0 0.017042926619140544 -0.010162477220264974 0 0.017248916763751888 -0.0098957075685816489 0 0.016846621443075901 -0.0098872622923073424 0 0.016681658013810538 -0.009975561583643662 0 0.017107544802901817 -0.0089200194008683589 0 0.017042926619140544 -0.010162477220264974 0 0.017294569938858466 -0.010253582240917805 0 0.017248916763751888 -0.0098957075685816489 0 0.016952380095911372 -0.0079296803628546072 0 0.01683938767731788 -0.0081384868537805778 0 0.017016746189121124 -0.00818079732464937 0 0.017349216136859733 -0.010276548406940008 0 0.017294569938858466 -0.010253582240917805 0 0.017248916763751888 -0.0098957075685816489 0 0.016681658013810538 -0.009975561583643662 0 0.016937143189200237 -0.010057194185951041 0 0.016952380095911372 -0.0079296803628546072 0 0.016615183953888956 -0.0077337359418107035 0 0.01683938767731788 -0.0081384868537805778 0 0.016045550786363695 -0.011077326917412412 0 0.015304805608222354 -0.010901997630963372 0 0.015636694717600767 -0.010465430573903209 0 0.017236431659470006 -0.01047367466083913 0 0.01733970245470131 -0.010274004992597646 0 0.017552004821072775 -0.01073720974640632 0 0.016681658013810538 -0.009975561583643662 0 0.01584222598026569 -0.0092533752230859693 0 0.016681658013810538 -0.009975561583643662 0 0.016773826681992395 -0.01061558229423422 0 0.016615183953888956 -0.0077337359418107035 0 0.016584962226742286 -0.0080702016786752002 0 0.01683938767731788 -0.0081384868537805778 0 0.016615183953888956 -0.0077337359418107035 0 0.016255271113316122 -0.0079282627935476618 0 0.016584962226742286 -0.0080702016786752002 0 0.015930019210773638 -0.008172519425984414 0 0.015783592990607991 -0.0077583412171573192 0 0.016255271113316122 -0.0079282627935476618 0 0.015783592990607991 -0.0077583412171573192 0 0.016255271113316122 -0.0079282627935476618 0 0.016144770398264327 -0.0075309624447368138 0 0.01584222598026569 -0.0092533752230859693 0 0.015643698683254388 -0.0090430378370729564 0 0.015304805608222354 -0.010901997630963372 0 0.014547735034313976 -0.010719037636972207 0 0.015058931851612703 -0.010387517891239288 0 0.016615183953888956 -0.0077337359418107035 0 0.016255271113316122 -0.0079282627935476618 0 0.016144770398264327 -0.0075309624447368138 0 0.014547735034313976 -0.010719037636972207 0 0.015058931851612703 -0.010387517891239288 0 0.014504587105419221 -0.01017746930357266 0 0.013776506120352307 -0.010517631808326483 0 0.014547735034313976 -0.010719037636972207 0 0.014504587105419221 -0.01017746930357266 0 0.012567333375413509 -0.011618328099991105 0 0.015327794427080503 -0.011387872909450128 0 0.015058931851612703 -0.010387517891239288 0 0.014504587105419221 -0.01017746930357266 0 0.015224405112284175 -0.0098435216309168821 0 0.015327794427080503 -0.011387872909450128 0 0.016773826681992395 -0.01061558229423422 0 0.015058931851612703 -0.010387517891239288 0 0.015224405112284175 -0.0098435216309168821 0 0.015636694717600767 -0.010465430573903209 0 0.017819338667105868 -0.011211223304256761 0 0.017398824903865462 -0.011065803225006466 0 0.017552004821072775 -0.01073720974640632 0 0.017102253584473932 -0.010760174291955638 0 0.017398824903865462 -0.011065803225006466 0 0.017552004821072775 -0.01073720974640632 0 0.015304805608222354 -0.010901997630963372 0 0.015058931851612703 -0.010387517891239288 0 0.015636694717600767 -0.010465430573903209 0 0.015000030970368538 -0.013192653346092218 0 0.015438206193267141 -0.013876463677586886 0 0.015445422181470395 -0.013081918139069214 0 0.015370311130098006 -0.012864363244544791 0 0.015380683897140823 -0.012147281954168131 0 0.015591915140339852 -0.011545565274684066 0 0.015243492226518239 -0.01192488422050344 0 0.015311181908033582 -0.011175902720244235 0 0.015591915140339852 -0.011545565274684066 0 0.015419437961473794 -0.011002301218040359 0 0.015311181908033582 -0.011175902720244235 0 0.015557075651914352 -0.011309098106767924 0 0.015418593323259297 -0.011032711747675684 0 0.015591915140339852 -0.011545565274684066 0 0.015243492226518239 -0.01192488422050344 0 0.015789917694034747 -0.012304367926359683 0 0.015557075651914352 -0.011309098106767924 0 0.015169779754498847 -0.011983933251395334 0 0.015000030970368538 -0.013192653346092218 0 0.015438206193267141 -0.013876463677586886 0 0.014999989182900882 -0.014084119982648446 0 0.01456751999539869 -0.015031229330681749 0 0.014999999612941007 -0.014975620132180303 0 0.013856303568127318 -0.014999972952397115 0 0.015370311130098006 -0.012864363244544791 0 0.015091161593700128 -0.01390817004730331 0 0.015438206193267141 -0.013876463677586886 0 0.014999989182900882 -0.014084119982648446 0 0.015429557575741978 -0.014671978570138257 0 0.014999989182900882 -0.014084119982648446 0 0.015127717658941229 -0.01493049347620542 0 0.014999995545164912 -0.014975585283648578 0 0.014999989182900882 -0.014084119982648446 0 0.015429557575741978 -0.014671978570138257 0 0.015127717658941229 -0.01493049347620542 0 0.015091161593700128 -0.01390817004730331 0 0.014734137654567195 -0.014442533397518838 0 0.015420397407367321 -0.014670012836784829 0 0.015420540325385096 -0.01492927374261189 0 0.015127717658941229 -0.01493049347620542 0 0.015091161593700128 -0.01390817004730331 0 0.015037505735110897 -0.01479980314511789 0 0.014734137654567195 -0.014442533397518838 0 0.015000111961813292 -0.014975482231513347 0 0.015420540325385096 -0.01492927374261189 0 0.015127717658941229 -0.01493049347620542 0 0.014999995545164912 -0.014975585283648578 0 0.01456751999539869 -0.015031229330681749 0 0.014442725501650116 -0.015047206157358729 0 0.013856303568127318 -0.014999972952397115 0 0.014583121642012569 -0.014429261392964474 0 0.014180254537166917 -0.013913735194519397 0 0.014493353071832289 -0.013733343927665925 0 0.01477468315952531 -0.013418490299946415 0 0.0151026256945606 -0.013678181207201491 0 0.014357889641054033 -0.013457405578000991 0 0.014356988534604294 -0.013746249957460989 0 0.014493353071832289 -0.013733343927665925 0 0.014734137654567195 -0.014442533397518838 0 0.014583121642012569 -0.014429261392964474 0 0.014357889641054033 -0.013457405578000991 0 0.014493353071832289 -0.013733343927665925 0 0.01477468315952531 -0.013418490299946415 0 0.015091161593700128 -0.01390817004730331 0 0.015169779754498847 -0.011983933251395334 0 0.015243492226518239 -0.01192488422050344 0 0.015221038236957396 -0.012801404057041013 0 0.015789917694034747 -0.012304367926359683 0 0.014357889641054033 -0.013457405578000991 0 0.01477468315952531 -0.013418490299946415 0 0.014936591936989783 -0.012959381356636086 0 0.01447102704035892 -0.0118685285388792 0 0.014563922466232384 -0.012284662816570447 0 0.014862686228830869 -0.011928718792942062 0 0.01447102704035892 -0.0118685285388792 0 0.014862686228830869 -0.011928718792942062 0 0.014898367481003403 -0.011508161004830066 0 0.015169779754498847 -0.011983933251395334 0 0.014180254537166917 -0.013913735194519397 0 0.013856301949251677 -0.014999988309462487 0 0.01388614647662738 -0.015117869372528091 0 0.013046124309727508 -0.01499999231061299 0 0.01477468315952531 -0.013418490299946415 0 0.014936591936989783 -0.012959381356636086 0 0.0151026256945606 -0.013678181207201491 0 0.014442725501650116 -0.015047206157358729 0 0.013856303568127318 -0.014999972952397115 0 0.013885765947433378 -0.015116053854553819 0 0.013857352311568944 -0.014998841259886649 0 0.014180254537166917 -0.013913735194519397 0 0.014180254537166917 -0.013913735194519397 0 0.014072262753615915 -0.013674891396367987 0 0.014563922466232384 -0.012284662816570447 0 0.014862686228830869 -0.011928718792942062 0 0.015106902323955639 -0.012219531548256408 0 0.01388614647662738 -0.015117869372528091 0 0.013046124309727508 -0.01499999231061299 0 0.013016364981450691 -0.015191535406882726 0 0.014862686228830869 -0.011928718792942062 0 0.014898367481003403 -0.011508161004830066 0 0.015267688768008604 -0.011766557571744803 0 0.015169779754498847 -0.011983933251395334 0 0.015239178427757252 -0.011272906735211322 0 0.015431144391260351 -0.011121940417359978 0 0.015465545557619743 -0.011302347381785576 0 0.015622552132593056 -0.011160590296133975 0 0.015431144391260351 -0.011121940417359978 0 0.015622552132593056 -0.011160590296133975 0 0.01557866062308933 -0.010996108005884199 0 0.015622552132593056 -0.011160590296133975 0 0.015797731240442061 -0.011001335952770946 0 0.01557866062308933 -0.010996108005884199 0 0.014898367481003403 -0.011508161004830066 0 0.015267688768008604 -0.011766557571744803 0 0.015319762845974846 -0.011166894659542915 0 0.015267688768008604 -0.011766557571744803 0 0.015694403235554679 -0.011590880678396091 0 0.015319762845974846 -0.011166894659542915 0 0.015239178427757252 -0.011272906735211322 0 0.015557979883552848 -0.011094662707985923 0 0.014862686228830869 -0.011928718792942062 0 0.015267688768008604 -0.011766557571744803 0 0.015106902323955639 -0.012219531548256408 0 0.013046124309727508 -0.01499999231061299 0 0.013016364981450691 -0.015191535406882726 0 0.012235943897987413 -0.014999990222689252 0 0.013016364981450691 -0.015191535406882726 0 0.012235943897987413 -0.014999990222689252 0 0.012148307098354894 -0.015264332938679357 0 0.015267688768008604 -0.011766557571744803 0 0.015106902323955639 -0.012219531548256408 0 0.015641757815462762 -0.012140350408462394 0 0.014072262753615915 -0.013674891396367987 0 0.013890690635491559 -0.013706012011774888 0 0.015267688768008604 -0.011766557571744803 0 0.015641757815462762 -0.012140350408462394 0 0.015694403235554679 -0.011590880678396091 0 0.015641757815462762 -0.012140350408462394 0 0.016074614438098236 -0.011697176172169345 0 0.015694403235554679 -0.011590880678396091 0 0.012235943897987413 -0.014999990222689252 0 0.012148307098354894 -0.015264332938679357 0 0.011425764261038996 -0.014999989782146346 0 0.013890690635491559 -0.013706012011774888 0 0.013712167951483353 -0.013678742507522745 0 0.012148307098354894 -0.015264332938679357 0 0.011425764261038996 -0.014999989782146346 0 0.011281567632204221 -0.015336784619848899 0 0.015641757815462762 -0.012140350408462394 0 0.016156149605390739 -0.012027474156130256 0 0.016074614438098236 -0.011697176172169345 0 0.016074614438098236 -0.011697176172169345 0 0.015694403235554679 -0.011590880678396091 0 0.015977172199683431 -0.01123507464369101 0 0.015694403235554679 -0.011590880678396091 0 0.015977172199683431 -0.01123507464369101 0 0.015319762845974846 -0.011166894659542915 0 0.016313720082339549 -0.011409401178130316 0 0.016074614438098236 -0.011697176172169345 0 0.015977172199683431 -0.01123507464369101 0 0.015977172199683431 -0.01123507464369101 0 0.015733455894181961 -0.010833176718421806 0 0.015319762845974846 -0.011166894659542915 0 0.016296387794573892 -0.01097067726755979 0 0.015977172199683431 -0.01123507464369101 0 0.015733455894181961 -0.010833176718421806 0 0.016296387794573892 -0.01097067726755979 0 0.015733455894181961 -0.010833176718421806 0 0.016206206488915683 -0.010469763825975682 0 0.015872879727436399 -0.010793539782865562 0 0.016188294295472316 -0.010493113761553178 0 0.016206206488915683 -0.010469763825975682 0 0.016126335176616914 -0.010077880102124336 0 0.015876080418682739 -0.01040464291372217 0 0.016011770362715751 -0.010763223571612959 0 0.016206206488915683 -0.010469763825975682 0 0.015876080418682739 -0.01040464291372217 0 0.016477425900376919 -0.010170719252969765 0 0.016206206488915683 -0.010469763825975682 0 0.016126335176616914 -0.010077880102124336 0 0.015876080418682739 -0.01040464291372217 0 0.01569131428449114 -0.01051843444435533 0 0.01584689047920031 -0.010231443208587022 0 0.015876080418682739 -0.01040464291372217 0 0.015671703461885528 -0.010691982898921126 0 0.01569131428449114 -0.01051843444435533 0 0.015876080418682739 -0.01040464291372217 0 0.015792882388203901 -0.010748064185779026 0 0.015671703461885528 -0.010691982898921126 0 0.015792882388203901 -0.010748064185779026 0 0.015666354863382911 -0.010857492886474909 0 0.015671703461885528 -0.010691982898921126 0 0.016011770362715751 -0.010763223571612959 0 0.015876080418682739 -0.01040464291372217 0 0.015792882388203901 -0.010748064185779026 0 0.016011770362715751 -0.010763223571612959 0 0.015792882388203901 -0.010748064185779026 0 0.015797731240442061 -0.011001335952770946 0 0.015872879727436399 -0.010793539782865562 0 0.015557979883552848 -0.011094662707985923 0 0.015792882388203901 -0.010748064185779026 0 0.015797731240442061 -0.011001335952770946 0 0.015666354863382911 -0.010857492886474909 0 0.015797731240442061 -0.011001335952770946 0 0.01557866062308933 -0.010996108005884199 0 0.015666354863382911 -0.010857492886474909 0 0.015431144391260351 -0.011121940417359978 0 0.01557866062308933 -0.010996108005884199 0 0.015483623023991882 -0.010979330881686141 0 0.01557866062308933 -0.010996108005884199 0 0.015483623023991882 -0.010979330881686141 0 0.015527065453271545 -0.010862200611374002 0 0.015527065453271545 -0.010862200611374002 0 0.015425271616840762 -0.010895604851831985 0 0.015459892316421206 -0.010889036813372692 0 0.015483623023991882 -0.010979330881686141 0 0.015527065453271545 -0.010862200611374002 0 0.015459892316421206 -0.010889036813372692 0 0.015527065453271545 -0.010862200611374002 0 0.015666354863382911 -0.010857492886474909 0 0.015671703461885528 -0.010691982898921126 0 0.01557866062308933 -0.010996108005884199 0 0.015527065453271545 -0.010862200611374002 0 0.015666354863382911 -0.010857492886474909 0 0.015671703461885528 -0.010691982898921126 0 0.01569131428449114 -0.01051843444435533 0 0.015563709464035038 -0.010757016523432347 0 0.015527065453271545 -0.010862200611374002 0 0.015671703461885528 -0.010691982898921126 0 0.015563709464035038 -0.010757016523432347 0 0.01569131428449114 -0.01051843444435533 0 0.015556922968916845 -0.010699584068313169 0 0.015663308237620972 -0.010434840629473063 0 0.015556922968916845 -0.010699584068313169 0 0.015483468221661224 -0.010800044259393382 0 0.015663308237620972 -0.010434840629473063 0 0.015556922968916845 -0.010699584068313169 0 0.015425271616840762 -0.010895604851831985 0 0.015483468221661224 -0.010800044259393382 0 0.01569131428449114 -0.01051843444435533 0 0.015556922968916845 -0.010699584068313169 0 0.015563709464035038 -0.010757016523432347 0 0.015556922968916845 -0.010699584068313169 0 0.015563709464035038 -0.010757016523432347 0 0.015425271616840762 -0.010895604851831985 0 0.015527065453271545 -0.010862200611374002 0 0.015563709464035038 -0.010757016523432347 0 0.015425271616840762 -0.010895604851831985 0 0.015425271616840762 -0.010895604851831985 0 0.015385675782383729 -0.011148479594412066 0 0.015432812278547295 -0.010841781510348166 0 0.015425271616840762 -0.010895604851831985 0 0.015483468221661224 -0.010800044259393382 0 0.015385675782383729 -0.011148479594412066 0 0.015483468221661224 -0.010800044259393382 0 0.015385675782383729 -0.011148479594412066 0 0.015394165102861459 -0.010543166487684549 0 0.015035789099362679 -0.011423391746413599 0 0.015385675782383729 -0.011148479594412066 0 0.015394165102861459 -0.010543166487684549 0 0.014999971528317765 -0.011409027448099735 0 0.015035789099362679 -0.011423391746413599 0 0.015560461777524133 -0.010854492889286712 0 0.015035789099362679 -0.011423391746413599 0 0.015385675782383729 -0.011148479594412066 0 0.015197201308494312 -0.011787094958916227 0 0.015385675782383729 -0.011148479594412066 0 0.015197201308494312 -0.011787094958916227 0 0.015487906733964624 -0.012308695967558143 0 0.015035789099362679 -0.011423391746413599 0 0.015197201308494312 -0.011787094958916227 0 0.014999931557917442 -0.012301192480649075 0 0.014999971528317765 -0.011409027448099735 0 0.015035789099362679 -0.011423391746413599 0 0.014999931557917442 -0.012301192480649075 0 0.015403007504537382 -0.011175258621764722 0 0.015444309803042138 -0.011573855592306708 0 0.015197201308494312 -0.011787094958916227 0 0.014999931557917442 -0.012301192480649075 0 0.015487906733964624 -0.012308695967558143 0 0.014999931557917442 -0.012301192480649075 0 0.015186538152053276 -0.012859152267227267 0 0.015283708827318785 -0.012668645741815953 0 0.014999931557917442 -0.012301192480649075 0 0.015487906733964624 -0.012308695967558143 0 0.015283708827318785 -0.012668645741815953 0 0.015425271616840762 -0.010895604851831985 0 0.015432812278547295 -0.010841781510348166 0 0.015459892316421206 -0.010889036813372692 0 0.015432812278547295 -0.010841781510348166 0 0.015459892316421206 -0.010889036813372692 0 0.015419437961473794 -0.011002301218040359 0 0.015431144391260351 -0.011121940417359978 0 0.015483623023991882 -0.010979330881686141 0 0.015419437961473794 -0.011002301218040359 0 0.015432812278547295 -0.010841781510348166 0 0.015419437961473794 -0.011002301218040359 0 0.015311181908033582 -0.011175902720244235 0 0.015483623023991882 -0.010979330881686141 0 0.015459892316421206 -0.010889036813372692 0 0.015419437961473794 -0.011002301218040359 0 0.015487906733964624 -0.012308695967558143 0 0.015445422181470395 -0.013081918139069214 0 0.015283708827318785 -0.012668645741815953 0 0.015000030970368538 -0.013192653346092218 0 0.014999931557917442 -0.012301192480649075 0 0.015186538152053276 -0.012859152267227267 0 0.015444309803042138 -0.011573855592306708 0 0.015380683897140823 -0.012147281954168131 0 0.015000030970368538 -0.013192653346092218 0 0.015445422181470395 -0.013081918139069214 0 0.015186538152053276 -0.012859152267227267 0 0.015445422181470395 -0.013081918139069214 0 0.015186538152053276 -0.012859152267227267 0 0.015283708827318785 -0.012668645741815953 0 0.014999955284814391 -0.00962674292166164 0 0.015489241160165602 -0.0096811134648097322 0 0.015552364401708754 -0.0090552556585488109 0 0.015489241160165602 -0.0096811134648097322 0 0.015894583079823672 -0.0096539855497535364 0 0.015552364401708754 -0.0090552556585488109 0 0.015489241160165602 -0.0096811134648097322 0 0.015511604900484701 -0.010224043783239723 0 0.015894583079823672 -0.0096539855497535364 0 0.014999955284814391 -0.00962674292166164 0 0.015489241160165602 -0.0096811134648097322 0 0.015511604900484701 -0.010224043783239723 0 0.014999955284814391 -0.00962674292166164 0 0.015511604900484701 -0.010224043783239723 0 0.014999919074270968 -0.010518229343450173 0 0.015511604900484701 -0.010224043783239723 0 0.014999919074270968 -0.010518229343450173 0 0.015560461777524133 -0.010854492889286712 0 0.014999971528317765 -0.011409027448099735 0 0.014999919074270968 -0.010518229343450173 0 0.015560461777524133 -0.010854492889286712 0 0.01505546349288373 -0.011339302864843168 0 0.015477806443036486 -0.010715317986931443 0 0.015511604900484701 -0.010224043783239723 0 0.015560461777524133 -0.010854492889286712 0 0.015935596113541377 -0.010260321596247709 0 0.015477806443036486 -0.010715317986931443 0 0.015780347202252923 -0.010206684825685718 0 0.015394165102861459 -0.010543166487684549 0 0.015625093394196446 -0.010138509037816022 0 0.015663308237620972 -0.010434840629473063 0 0.015483468221661224 -0.010800044259393382 0 0.015394165102861459 -0.010543166487684549 0 0.015663308237620972 -0.010434840629473063 0 0.015663308237620972 -0.010434840629473063 0 0.015949251380418621 -0.010074753928069079 0 0.01584689047920031 -0.010231443208587022 0 0.01569131428449114 -0.01051843444435533 0 0.015663308237620972 -0.010434840629473063 0 0.01584689047920031 -0.010231443208587022 0 0.015625093394196446 -0.010138509037816022 0 0.015663308237620972 -0.010434840629473063 0 0.015949251380418621 -0.010074753928069079 0 0.015935596113541377 -0.010260321596247709 0 0.016044934586352502 -0.009861417306142907 0 0.015894583079823672 -0.0096539855497535364 0 0.015780347202252923 -0.010206684825685718 0 0.016024269290376029 -0.0098979905735139921 0 0.015625093394196446 -0.010138509037816022 0 0.016044934586352502 -0.009861417306142907 0 0.015949251380418621 -0.010074753928069079 0 0.015511604900484701 -0.010224043783239723 0 0.015935596113541377 -0.010260321596247709 0 0.015894583079823672 -0.0096539855497535364 0 0.016044934586352502 -0.009861417306142907 0 0.015894583079823672 -0.0096539855497535364 0 0.016168055916425561 -0.0096501394084086631 0 0.015645000248336052 -0.0089911568048774114 0 0.015704355308676744 -0.0094719489389245293 0 0.015136983205155025 -0.0083464422987150847 0 0.01537988158747791 -0.0084004338402414117 0 0.015359828359872495 -0.0089759661453976125 0 0.01537988158747791 -0.0084004338402414117 0 0.015359828359872495 -0.0089759661453976125 0 0.015703015174656068 -0.008358849559071296 0 0.016044934586352502 -0.009861417306142907 0 0.016017045115400433 -0.0099787967652631582 0 0.015949251380418621 -0.010074753928069079 0 0.016044934586352502 -0.009861417306142907 0 0.016168055916425561 -0.0096501394084086631 0 0.016017045115400433 -0.0099787967652631582 0 0.015876080418682739 -0.01040464291372217 0 0.01584689047920031 -0.010231443208587022 0 0.015886754771621672 -0.0098485022712705254 0 0.015704355308676744 -0.0094719489389245293 0 0.015883053999392254 -0.0098303629055927714 0 0.016017045115400433 -0.0099787967652631582 0 0.015949251380418621 -0.010074753928069079 0 0.015886754771621672 -0.0098485022712705254 0 0.015949251380418621 -0.010074753928069079 0 0.01584689047920031 -0.010231443208587022 0 0.015886754771621672 -0.0098485022712705254 0 0.015359828359872495 -0.0089759661453976125 0 0.015886754771621672 -0.0098485022712705254 0 0.015973178439517701 -0.009000736012372992 0 0.015886754771621672 -0.0098485022712705254 0 0.016167666509301962 -0.0095399995120183014 0 0.015973178439517701 -0.009000736012372992 0 0.016126335176616914 -0.010077880102124336 0 0.015876080418682739 -0.01040464291372217 0 0.015886754771621672 -0.0098485022712705254 0 0.016126335176616914 -0.010077880102124336 0 0.016167666509301962 -0.0095399995120183014 0 0.016423393158884834 -0.0096926083433431596 0 0.016126335176616914 -0.010077880102124336 0 0.015886754771621672 -0.0098485022712705254 0 0.016167666509301962 -0.0095399995120183014 0 0.016167666509301962 -0.0095399995120183014 0 0.015973178439517701 -0.009000736012372992 0 0.016399047274426301 -0.0090061321102433006 0 0.015973178439517701 -0.009000736012372992 0 0.016241176020515787 -0.0084443325718282763 0 0.016399047274426301 -0.0090061321102433006 0 0.015359828359872495 -0.0089759661453976125 0 0.015973178439517701 -0.009000736012372992 0 0.015703015174656068 -0.008358849559071296 0 0.015973178439517701 -0.009000736012372992 0 0.015703015174656068 -0.008358849559071296 0 0.016241176020515787 -0.0084443325718282763 0 0.016241176020515787 -0.0084443325718282763 0 0.01599240997053062 -0.0080577360051727557 0 0.016391682846208424 -0.0080082425288549499 0 0.015703015174656068 -0.008358849559071296 0 0.01599240997053062 -0.0080577360051727557 0 0.015635175686215801 -0.0077740199444500096 0 0.015703015174656068 -0.008358849559071296 0 0.016241176020515787 -0.0084443325718282763 0 0.01599240997053062 -0.0080577360051727557 0 0.01599240997053062 -0.0080577360051727557 0 0.016103056613690016 -0.0076592896520149773 0 0.015635175686215801 -0.0077740199444500096 0 0.01599240997053062 -0.0080577360051727557 0 0.016103056613690016 -0.0076592896520149773 0 0.016391682846208424 -0.0080082425288549499 0 0.016103056613690016 -0.0076592896520149773 0 0.016156543612785311 -0.0070958616101171592 0 0.015735232918046842 -0.0073468263974164529 0 0.016156543612785311 -0.0070958616101171592 0 0.015735232918046842 -0.0073468263974164529 0 0.015716396761171397 -0.006818594219849327 0 0.016103056613690016 -0.0076592896520149773 0 0.015735232918046842 -0.0073468263974164529 0 0.015635175686215801 -0.0077740199444500096 0 0.015735232918046842 -0.0073468263974164529 0 0.015439492275364029 -0.0074009985071587939 0 0.015635175686215801 -0.0077740199444500096 0 0.015735232918046842 -0.0073468263974164529 0 0.015432149515349138 -0.0070947167276481943 0 0.015716396761171397 -0.006818594219849327 0 0.015735232918046842 -0.0073468263974164529 0 0.015432149515349138 -0.0070947167276481943 0 0.015439492275364029 -0.0074009985071587939 0 0.015432149515349138 -0.0070947167276481943 0 0.015439492275364029 -0.0074009985071587939 0 0.015228802879325562 -0.0072943997116955541 0 0.015501077839930768 -0.0070774297477489232 0 0.015249782934295858 -0.0072762402497207838 0 0.015573283104135466 -0.0070623024874820256 0 0.015228802879325562 -0.0072943997116955541 0 0.015275771153380651 -0.006988661846953746 0 0.015439492275364029 -0.0074009985071587939 0 0.015232320630941763 -0.0076250600110873423 0 0.015635175686215801 -0.0077740199444500096 0 0.015439492275364029 -0.0074009985071587939 0 0.015232320630941763 -0.0076250600110873423 0 0.015228802879325562 -0.0072943997116955541 0 0.015232320630941763 -0.0076250600110873423 0 0.015635175686215801 -0.0077740199444500096 0 0.015327584688972298 -0.0080473435548230922 0 0.01537988158747791 -0.0084004338402414117 0 0.015703015174656068 -0.008358849559071296 0 0.015327584688972298 -0.0080473435548230922 0 0.015703015174656068 -0.008358849559071296 0 0.015635175686215801 -0.0077740199444500096 0 0.015327584688972298 -0.0080473435548230922 0 0.015136983205155025 -0.0083464422987150847 0 0.015327584688972298 -0.0080473435548230922 0 0.014994394062044331 -0.0078276701398973213 0 0.015136983205155025 -0.0083464422987150847 0 0.01537988158747791 -0.0084004338402414117 0 0.015327584688972298 -0.0080473435548230922 0 0.015232320630941763 -0.0076250600110873423 0 0.014994394062044331 -0.0078276701398973213 0 0.014902293932964789 -0.0073841786977929414 0 0.015645000248336052 -0.0089911568048774114 0 0.015547622800466969 -0.0084396685629938954 0 0.015894583079823672 -0.0096539855497535364 0 0.016168055916425561 -0.0096501394084086631 0 0.016112931447293973 -0.0090538506443424618 0 0.015894583079823672 -0.0096539855497535364 0 0.016112931447293973 -0.0090538506443424618 0 0.015552364401708754 -0.0090552556585488109 0 0.016112931447293973 -0.0090538506443424618 0 0.015841324788071032 -0.0083372929725639578 0 0.015552364401708754 -0.0090552556585488109 0 0.015547622800466969 -0.0084396685629938954 0 0.015371810250882198 -0.0078628600535055881 0 0.015232320630941763 -0.0076250600110873423 0 0.015327584688972298 -0.0080473435548230922 0 0.014994394062044331 -0.0078276701398973213 0 0.015232320630941763 -0.0076250600110873423 0 0.015228802879325562 -0.0072943997116955541 0 0.014902293932964789 -0.0073841786977929414 0 0.015228802879325562 -0.0072943997116955541 0 0.015050795164938874 -0.0070117765399667588 0 0.015275771153380651 -0.006988661846953746 0 0.015228802879325562 -0.0072943997116955541 0 0.014902293932964789 -0.0073841786977929414 0 0.015050795164938874 -0.0070117765399667588 0 0.015841324788071032 -0.0083372929725639578 0 0.015457788513541655 -0.0076183517139317434 0 0.015369655477174657 -0.0083256927032123087 0 0.015371810250882198 -0.0078628600535055881 0 0.015176701149773797 -0.0073293499133750923 0 0.014902293932964789 -0.0073841786977929414 0 0.01489785950717405 -0.0070170202082558523 0 0.015050795164938874 -0.0070117765399667588 0 0.015457788513541655 -0.0076183517139317434 0 0.014999937765404214 -0.0078438837879576881 0 0.015369655477174657 -0.0083256927032123087 0 0.014999937765404214 -0.0078438837879576881 0 0.015369655477174657 -0.0083256927032123087 0 0.014999916984159161 -0.008735417170906137 0 0.015369655477174657 -0.0083256927032123087 0 0.014999916984159161 -0.008735417170906137 0 0.015552364401708754 -0.0090552556585488109 0 0.015841324788071032 -0.0083372929725639578 0 0.015369655477174657 -0.0083256927032123087 0 0.015552364401708754 -0.0090552556585488109 0 0.014999955284814391 -0.00962674292166164 0 0.014999916984159161 -0.008735417170906137 0 0.015552364401708754 -0.0090552556585488109 0 0.017023721419910025 -0.0083687085341344284 0 0.016797237541721778 -0.0082891575277363322 0 0.016871356110461855 -0.0083278341898522443 0 0.016968712484969593 -0.0083368339453755037 0 0.017023721419910025 -0.0083687085341344284 0 0.016871356110461855 -0.0083278341898522443 0 0.016376818126192509 -0.0083003417170915122 0 0.016797237541721778 -0.0082891575277363322 0 0.016568827129595374 -0.0087665313397718072 0 0.017023721419910025 -0.0083687085341344284 0 0.016797237541721778 -0.0082891575277363322 0 0.016568827129595374 -0.0087665313397718072 0 0.017013002038781644 -0.0083784482993531657 0 0.017026271607438699 -0.0083818824377187816 0 0.016149007407969845 -0.0086480937481738466 0 0.016376818126192509 -0.0083003417170915122 0 0.016568827129595374 -0.0087665313397718072 0 0.016376818126192509 -0.0083003417170915122 0 0.016797237541721778 -0.0082891575277363322 0 0.016682967108130647 -0.0080097889333250859 0 0.01616200607641961 -0.0077944273600125281 0 0.016376818126192509 -0.0083003417170915122 0 0.016682967108130647 -0.0080097889333250859 0 0.015930019210773638 -0.008172519425984414 0 0.016255271113316122 -0.0079282627935476618 0 0.016408004904761013 -0.0083071195276803629 0 0.01604786469553263 -0.0079847941153820007 0 0.016533567132322912 -0.0081604183156369307 0 0.016255271113316122 -0.0079282627935476618 0 0.016408004904761013 -0.0083071195276803629 0 0.016584962226742286 -0.0080702016786752002 0 0.016408004904761013 -0.0083071195276803629 0 0.016584962226742286 -0.0080702016786752002 0 0.016871356110461855 -0.0083278341898522443 0 0.016584962226742286 -0.0080702016786752002 0 0.016871356110461855 -0.0083278341898522443 0 0.01683938767731788 -0.0081384868537805778 0 0.016533567132322912 -0.0081604183156369307 0 0.016839485175695758 -0.0083046755316323537 0 0.016797237541721778 -0.0082891575277363322 0 0.016682967108130647 -0.0080097889333250859 0 0.016871356110461855 -0.0083278341898522443 0 0.016871356110461855 -0.0083278341898522443 0 0.01683938767731788 -0.0081384868537805778 0 0.016935066386031497 -0.0083303963117590894 0 0.017016746189121124 -0.00818079732464937 0 0.016982873298488278 -0.0084194463556442802 0 0.016935066386031497 -0.0083303963117590894 0 0.01683938767731788 -0.0081384868537805778 0 0.017016746189121124 -0.00818079732464937 0 0.016935066386031497 -0.0083303963117590894 0 0.017107544802901817 -0.0089200194008683589 0 0.017047350133037813 -0.0089156481857508799 0 0.017248916763751888 -0.0098957075685816489 0 0.017143341674775419 -0.0094254532953503105 0 0.016846621443075901 -0.0098872622923073424 0 0.017047350133037813 -0.0089156481857508799 0 0.016881107005246889 -0.0086996829543983696 0 0.016982873298488278 -0.0084194463556442802 0 0.016935066386031497 -0.0083303963117590894 0 0.016933722140913769 -0.0084656357124632438 0 0.016871356110461855 -0.0083278341898522443 0 0.016935066386031497 -0.0083303963117590894 0 0.016933722140913769 -0.0084656357124632438 0 0.016477425900376919 -0.010170719252969765 0 0.016126335176616914 -0.010077880102124336 0 0.016423393158884834 -0.0096926083433431596 0 0.016477425900376919 -0.010170719252969765 0 0.016423393158884834 -0.0096926083433431596 0 0.016846621443075901 -0.0098872622923073424 0 0.017143341674775419 -0.0094254532953503105 0 0.016846621443075901 -0.0098872622923073424 0 0.01671821673413031 -0.0093682284561198478 0 0.016423393158884834 -0.0096926083433431596 0 0.016846621443075901 -0.0098872622923073424 0 0.01671821673413031 -0.0093682284561198478 0 0.017143341674775419 -0.0094254532953503105 0 0.01671821673413031 -0.0093682284561198478 0 0.016872225756780185 -0.0087116790327591859 0 0.01671821673413031 -0.0093682284561198478 0 0.016399047274426301 -0.0090061321102433006 0 0.016872225756780185 -0.0087116790327591859 0 0.016167666509301962 -0.0095399995120183014 0 0.016423393158884834 -0.0096926083433431596 0 0.016399047274426301 -0.0090061321102433006 0 0.016423393158884834 -0.0096926083433431596 0 0.01671821673413031 -0.0093682284561198478 0 0.016399047274426301 -0.0090061321102433006 0 0.016241176020515787 -0.0084443325718282763 0 0.016399047274426301 -0.0090061321102433006 0 0.016595183037782679 -0.0085751021499509694 0 0.016399047274426301 -0.0090061321102433006 0 0.016872225756780185 -0.0087116790327591859 0 0.016595183037782679 -0.0085751021499509694 0 0.016872225756780185 -0.0087116790327591859 0 0.016595183037782679 -0.0085751021499509694 0 0.016831789071980751 -0.0083909975935411701 0 0.016595183037782679 -0.0085751021499509694 0 0.016831789071980751 -0.0083909975935411701 0 0.016616271507420666 -0.0082450598602576905 0 0.016241176020515787 -0.0084443325718282763 0 0.016595183037782679 -0.0085751021499509694 0 0.016616271507420666 -0.0082450598602576905 0 0.016968712484969593 -0.0083368339453755037 0 0.016871356110461855 -0.0083278341898522443 0 0.016933722140913769 -0.0084656357124632438 0 0.016982873298488278 -0.0084194463556442802 0 0.016872225756780185 -0.0087116790327591859 0 0.016933722140913769 -0.0084656357124632438 0 0.016872225756780185 -0.0087116790327591859 0 0.016933722140913769 -0.0084656357124632438 0 0.016831789071980751 -0.0083909975935411701 0 0.016933722140913769 -0.0084656357124632438 0 0.016831789071980751 -0.0083909975935411701 0 0.016880328242431228 -0.0082062963122706608 0 0.016968712484969593 -0.0083368339453755037 0 0.016933722140913769 -0.0084656357124632438 0 0.016880328242431228 -0.0082062963122706608 0 0.016968712484969593 -0.0083368339453755037 0 0.016880328242431228 -0.0082062963122706608 0 0.017043938267673527 -0.0079454300781877808 0 0.016880328242431228 -0.0082062963122706608 0 0.016891727879706272 -0.0079055442222008051 0 0.017043938267673527 -0.0079454300781877808 0 0.016831789071980751 -0.0083909975935411701 0 0.016880328242431228 -0.0082062963122706608 0 0.016730392971134333 -0.0079932638411015292 0 0.016880328242431228 -0.0082062963122706608 0 0.016730392971134333 -0.0079932638411015292 0 0.016891727879706272 -0.0079055442222008051 0 0.016730392971134333 -0.0079932638411015292 0 0.016891727879706272 -0.0079055442222008051 0 0.016825911221462275 -0.0076660263360549671 0 0.016730392971134333 -0.0079932638411015292 0 0.016558711896310439 -0.0077141997073394775 0 0.016825911221462275 -0.0076660263360549671 0 0.016241176020515787 -0.0084443325718282763 0 0.016391682846208424 -0.0080082425288549499 0 0.016616271507420666 -0.0082450598602576905 0 0.016831789071980751 -0.0083909975935411701 0 0.016730392971134333 -0.0079932638411015292 0 0.016616271507420666 -0.0082450598602576905 0 0.016730392971134333 -0.0079932638411015292 0 0.016391682846208424 -0.0080082425288549499 0 0.016616271507420666 -0.0082450598602576905 0 0.016730392971134333 -0.0079932638411015292 0 0.016391682846208424 -0.0080082425288549499 0 0.016558711896310439 -0.0077141997073394775 0 0.016103056613690016 -0.0076592896520149773 0 0.016391682846208424 -0.0080082425288549499 0 0.016558711896310439 -0.0077141997073394775 0 0.016117048434531343 -0.0076620209380875272 0 0.016519535087320986 -0.0076060724022699458 0 0.016103056613690016 -0.0076592896520149773 0 0.016156543612785311 -0.0070958616101171592 0 0.016512967671377689 -0.0074998338522273174 0 0.016512967671377689 -0.0074998338522273174 0 0.016644370093768578 -0.0070733240258293991 0 0.016870185030241878 -0.0074035482959721099 0 0.016156543612785311 -0.0070958616101171592 0 0.016512967671377689 -0.0074998338522273174 0 0.016644370093768578 -0.0070733240258293991 0 0.016857359024100786 -0.0075310501880364042 0 0.017116231206743174 -0.0074565527341590235 0 0.016891727879706272 -0.0079055442222008051 0 0.016825911221462275 -0.0076660263360549671 0 0.017116235431035787 -0.0074499210092503982 0 0.016519535087320986 -0.0076060724022699458 0 0.016857359024100786 -0.0075310501880364042 0 0.016644370093768578 -0.0070733240258293991 0 0.016870185030241878 -0.0074035482959721099 0 0.016977058261687227 -0.0072137597859079482 0 0.016870185030241878 -0.0074035482959721099 0 0.016977058261687227 -0.0072137597859079482 0 0.017116235431035787 -0.0074499210092503982 0 0.016977058261687227 -0.0072137597859079482 0 0.017116235431035787 -0.0074499210092503982 0 0.01715072370388477 -0.0071335947479040755 0 0.017116235431035787 -0.0074499210092503982 0 0.017398445918656278 -0.0072544813107797805 0 0.01715072370388477 -0.0071335947479040755 0 0.017116235431035787 -0.0074499210092503982 0 0.017370808900450993 -0.0076065955083673828 0 0.017398445918656278 -0.0072544813107797805 0 0.017116235431035787 -0.0074499210092503982 0 0.017043938267673527 -0.0079454300781877808 0 0.017370808900450993 -0.0076065955083673828 0 0.016891727879706272 -0.0079055442222008051 0 0.017116235431035787 -0.0074499210092503982 0 0.017043938267673527 -0.0079454300781877808 0 0.017043938267673527 -0.0079454300781877808 0 0.01723295674085008 -0.0079626541824036785 0 0.017370808900450993 -0.0076065955083673828 0 0.017023721419910025 -0.0083687085341344284 0 0.01723295674085008 -0.0079626541824036785 0 0.017519494582481965 -0.0079957808926763956 0 0.017023721419910025 -0.0083687085341344284 0 0.017043938267673527 -0.0079454300781877808 0 0.01723295674085008 -0.0079626541824036785 0 0.016968712484969593 -0.0083368339453755037 0 0.017023721419910025 -0.0083687085341344284 0 0.017043938267673527 -0.0079454300781877808 0 0.016058016850397715 -0.0090668212856328673 0 0.016149007407969845 -0.0086480937481738466 0 0.016568827129595374 -0.0087665313397718072 0 0.016905037989563686 -0.0083840149368977022 0 0.017026271607438699 -0.0083818824377187816 0 0.01723295674085008 -0.0079626541824036785 0 0.017519494582481965 -0.0079957808926763956 0 0.017370808900450993 -0.0076065955083673828 0 0.017519494582481965 -0.0079957808926763956 0 0.017601763206575839 -0.0075542845089637805 0 0.017370808900450993 -0.0076065955083673828 0 0.017771576725539657 -0.0076929710069194978 0 0.017519494582481965 -0.0079957808926763956 0 0.017601763206575839 -0.0075542845089637805 0 0.017601763206575839 -0.0075542845089637805 0 0.017370808900450993 -0.0076065955083673828 0 0.017652788026521732 -0.0072891979529728862 0 0.017370808900450993 -0.0076065955083673828 0 0.017398445918656278 -0.0072544813107797805 0 0.017652788026521732 -0.0072891979529728862 0 0.017277262956437996 -0.0069224929818761678 0 0.01756066840141533 -0.0070611086836450815 0 0.017146907097334362 -0.0065885639789585041 0 0.017427831945101942 -0.0068286149010768921 0 0.017378219295170742 -0.0063380265589029258 0 0.017427831945101942 -0.0068286149010768921 0 0.017378219295170742 -0.0063380265589029258 0 0.017605783780634689 -0.0064385007518965951 0 0.017146907097334362 -0.0065885639789585041 0 0.017168669303858995 -0.0063303122866512048 0 0.017378219295170742 -0.0063380265589029258 0 0.017168669303858995 -0.0063303122866512048 0 0.017202157913318847 -0.0059969560084431562 0 0.017046744598447409 -0.0061717568058120799 0 0.017168669303858995 -0.0063303122866512048 0 0.017378219295170742 -0.0063380265589029258 0 0.017202157913318847 -0.0059969560084431562 0 0.017378219295170742 -0.0063380265589029258 0 0.01740266717543975 -0.0059011180449997586 0 0.017563794846100975 -0.0061492302514794921 0 0.017378219295170742 -0.0063380265589029258 0 0.01740266717543975 -0.0059011180449997586 0 0.017202157913318847 -0.0059969560084431562 0 0.01740266717543975 -0.0059011180449997586 0 0.017202157913318847 -0.0059969560084431562 0 0.017281900715314394 -0.0056531072558726539 0 0.017202157913318847 -0.0059969560084431562 0 0.017281900715314394 -0.0056531072558726539 0 0.017133338296169757 -0.0056735058083530986 0 0.017281900715314394 -0.0056531072558726539 0 0.017133338296169757 -0.0056735058083530986 0 0.017214807997456148 -0.0053890211019068501 0 0.01740266717543975 -0.0059011180449997586 0 0.017281900715314394 -0.0056531072558726539 0 0.017474087274546416 -0.0055049691604670834 0 0.017027694199719213 -0.0056712871601013667 0 0.017037847501135992 -0.0054914805495864579 0 0.016993149033568907 -0.0054970872971250567 0 0.016932507061111809 -0.0058567946202118413 0 0.017027694199719213 -0.0056712871601013667 0 0.017039591593010252 -0.0059165906427786023 0 0.016932507061111809 -0.0058567946202118413 0 0.017027694199719213 -0.0056712871601013667 0 0.016993149033568907 -0.0054970872971250567 0 0.017027694199719213 -0.0056712871601013667 0 0.017133338296169757 -0.0056735058083530986 0 0.017037847501135992 -0.0054914805495864579 0 0.017027694199719213 -0.0056712871601013667 0 0.017133338296169757 -0.0056735058083530986 0 0.017039591593010252 -0.0059165906427786023 0 0.017202157913318847 -0.0059969560084431562 0 0.017133338296169757 -0.0056735058083530986 0 0.017039591593010252 -0.0059165906427786023 0 0.017202157913318847 -0.0059969560084431562 0 0.017039591593010252 -0.0059165906427786023 0 0.017046744598447409 -0.0061717568058120799 0 0.017039591593010252 -0.0059165906427786023 0 0.016901334187049713 -0.0061906925062222761 0 0.017046744598447409 -0.0061717568058120799 0 0.016932507061111809 -0.0058567946202118413 0 0.017039591593010252 -0.0059165906427786023 0 0.016901334187049713 -0.0061906925062222761 0 0.016901334187049713 -0.0061906925062222761 0 0.017046744598447409 -0.0061717568058120799 0 0.01693428750727732 -0.0064362911881576078 0 0.017146907097334362 -0.0065885639789585041 0 0.017168669303858995 -0.0063303122866512048 0 0.01693428750727732 -0.0064362911881576078 0 0.017277262956437996 -0.0069224929818761678 0 0.017042310307643773 -0.0067843568163601055 0 0.017168669303858995 -0.0063303122866512048 0 0.017046744598447409 -0.0061717568058120799 0 0.01693428750727732 -0.0064362911881576078 0 0.016901334187049713 -0.0061906925062222761 0 0.01693428750727732 -0.0064362911881576078 0 0.016755220651194284 -0.0064048605729697386 0 0.016977058261687227 -0.0072137597859079482 0 0.01715072370388477 -0.0071335947479040755 0 0.016924968864293882 -0.006908196067227295 0 0.017042310307643773 -0.0067843568163601055 0 0.016819112936927023 -0.0066545413061047023 0 0.016644370093768578 -0.0070733240258293991 0 0.016977058261687227 -0.0072137597859079482 0 0.016924968864293882 -0.006908196067227295 0 0.016644370093768578 -0.0070733240258293991 0 0.016924968864293882 -0.006908196067227295 0 0.01657627530031322 -0.0065602660469920139 0 0.016755220651194284 -0.0064048605729697386 0 0.01657627530031322 -0.0065602660469920139 0 0.01676104679561646 -0.0061721594268224506 0 0.016819112936927023 -0.0066545413061047023 0 0.016570295238975428 -0.0065596853833157151 0 0.016901334187049713 -0.0061906925062222761 0 0.016755220651194284 -0.0064048605729697386 0 0.01676104679561646 -0.0061721594268224506 0 0.016156543612785311 -0.0070958616101171592 0 0.016644370093768578 -0.0070733240258293991 0 0.016308667249104996 -0.0067097561737110454 0 0.016644370093768578 -0.0070733240258293991 0 0.016308667249104996 -0.0067097561737110454 0 0.01657627530031322 -0.0065602660469920139 0 0.016308667249104996 -0.0067097561737110454 0 0.01657627530031322 -0.0065602660469920139 0 0.016382834994918272 -0.0062454031028486854 0 0.016308667249104996 -0.0067097561737110454 0 0.016382834994918272 -0.0062454031028486854 0 0.016025859155099374 -0.0065259422915640358 0 0.01657627530031322 -0.0065602660469920139 0 0.016382834994918272 -0.0062454031028486854 0 0.016612055835068622 -0.0061630565052451522 0 0.016612055835068622 -0.0061630565052451522 0 0.016731509237827302 -0.0059665855779395668 0 0.016508082062969803 -0.0058740360464715384 0 0.016382834994918272 -0.0062454031028486854 0 0.016612055835068622 -0.0061630565052451522 0 0.016508082062969803 -0.0058740360464715384 0 0.016382834994918272 -0.0062454031028486854 0 0.016508082062969803 -0.0058740360464715384 0 0.01624710066343376 -0.0060172855987131154 0 0.016932507061111809 -0.0058567946202118413 0 0.016901334187049713 -0.0061906925062222761 0 0.01676104679561646 -0.0061721594268224506 0 0.01657627530031322 -0.0065602660469920139 0 0.016612055835068622 -0.0061630565052451522 0 0.01676104679561646 -0.0061721594268224506 0 0.016612055835068622 -0.0061630565052451522 0 0.01676104679561646 -0.0061721594268224506 0 0.016731509237827302 -0.0059665855779395668 0 0.016947805956449739 -0.005849948138500382 0 0.016732291886146628 -0.005698584215714014 0 0.016932507061111809 -0.0058567946202118413 0 0.01669657507117683 -0.0054179429517433571 0 0.016993149033568907 -0.0054970872971250567 0 0.016932507061111809 -0.0058567946202118413 0 0.01676104679561646 -0.0061721594268224506 0 0.016731509237827302 -0.0059665855779395668 0 0.01669657507117683 -0.0054179429517433571 0 0.016840891345356202 -0.005192158792246224 0 0.016993149033568907 -0.0054970872971250567 0 0.016840891345356202 -0.005192158792246224 0 0.016993149033568907 -0.0054970872971250567 0 0.017056408239365821 -0.0050422024565047029 0 0.01669657507117683 -0.0054179429517433571 0 0.016840891345356202 -0.005192158792246224 0 0.016641286293085516 -0.004992200221643677 0 0.016641286293085516 -0.004992200221643677 0 0.016860312407813643 -0.0048608847699646487 0 0.0166173196779879 -0.0046097938772386889 0 0.016840891345356202 -0.005192158792246224 0 0.016641286293085516 -0.004992200221643677 0 0.016860312407813643 -0.0048608847699646487 0 0.016840891345356202 -0.005192158792246224 0 0.016860312407813643 -0.0048608847699646487 0 0.017056408239365821 -0.0050422024565047029 0 0.016860312407813643 -0.0048608847699646487 0 0.017217382869580806 -0.0046685321827448917 0 0.017056408239365821 -0.0050422024565047029 0 0.016508082062969803 -0.0058740360464715384 0 0.01624710066343376 -0.0060172855987131154 0 0.016238288584738018 -0.0056854614125430893 0 0.016493702067182411 -0.0054995442835908499 0 0.016243546231397989 -0.0053037145352198105 0 0.01669657507117683 -0.0054179429517433571 0 0.016641286293085516 -0.004992200221643677 0 0.016474970970987882 -0.0051212888493842104 0 0.016732291886146628 -0.005698584215714014 0 0.016493702067182411 -0.0054995442835908499 0 0.016641286293085516 -0.004992200221643677 0 0.016474970970987882 -0.0051212888493842104 0 0.01641391409212763 -0.0047153295007748373 0 0.016641286293085516 -0.004992200221643677 0 0.01641391409212763 -0.0047153295007748373 0 0.0166173196779879 -0.0046097938772386889 0 0.016474970970987882 -0.0051212888493842104 0 0.01641391409212763 -0.0047153295007748373 0 0.016250755166476515 -0.0049223830647787646 0 0.01641391409212763 -0.0047153295007748373 0 0.016230810520069871 -0.0045171348602951467 0 0.01646731735801071 -0.0042136195527622761 0 0.01641391409212763 -0.0047153295007748373 0 0.0166173196779879 -0.0046097938772386889 0 0.01646731735801071 -0.0042136195527622761 0 0.0166173196779879 -0.0046097938772386889 0 0.016681994508824006 -0.0042667391477585566 0 0.01646731735801071 -0.0042136195527622761 0 0.016860312407813643 -0.0048608847699646487 0 0.016937983816624209 -0.0044107549808393015 0 0.017217382869580806 -0.0046685321827448917 0 0.016860312407813643 -0.0048608847699646487 0 0.0166173196779879 -0.0046097938772386889 0 0.016937983816624209 -0.0044107549808393015 0 0.0166173196779879 -0.0046097938772386889 0 0.016681994508824006 -0.0042667391477585566 0 0.016937983816624209 -0.0044107549808393015 0 0.016937983816624209 -0.0044107549808393015 0 0.017217382869580806 -0.0046685321827448917 0 0.017352868237741667 -0.0042688350391497263 0 0.017217382869580806 -0.0046685321827448917 0 0.017656035942787994 -0.0046094689854694519 0 0.017418239328835412 -0.0049905168411432978 0 0.017365800791284698 -0.0047980764250035368 0 0.01719846779351979 -0.0051406273598546461 0 0.017656035942787994 -0.0046094689854694519 0 0.017626506096261842 -0.0042393279361870118 0 0.017352868237741667 -0.0042688350391497263 0 0.017217382869580806 -0.0046685321827448917 0 0.017656035942787994 -0.0046094689854694519 0 0.017352868237741667 -0.0042688350391497263 0 0.017656035942787994 -0.0046094689854694519 0 0.017883741484319867 -0.0042681764794010972 0 0.017626506096261842 -0.0042393279361870118 0 0.017365800791284698 -0.0047980764250035368 0 0.017602694717892019 -0.0044983207519625687 0 0.017277787826641456 -0.0049145851953320508 0 0.01708602205846305 -0.0049752430198879687 0 0.01720202709403254 -0.0047492229464864456 0 0.017277787826641456 -0.0049145851953320508 0 0.01720202709403254 -0.0047492229464864456 0 0.017304971473713945 -0.004770264194148323 0 0.017277787826641456 -0.0049145851953320508 0 0.017215236956378707 -0.0051188865929509353 0 0.017373318148891485 -0.0050375698214256233 0 0.017277787826641456 -0.0049145851953320508 0 0.01708602205846305 -0.0049752430198879687 0 0.017215236956378707 -0.0051188865929509353 0 0.01708602205846305 -0.0049752430198879687 0 0.017215236956378707 -0.0051188865929509353 0 0.016977911801338605 -0.0052974653378916421 0 0.017215236956378707 -0.0051188865929509353 0 0.017214807997456148 -0.0053890211019068501 0 0.016977911801338605 -0.0052974653378916421 0 0.017215236956378707 -0.0051188865929509353 0 0.017214807997456148 -0.0053890211019068501 0 0.017373318148891485 -0.0050375698214256233 0 0.017214807997456148 -0.0053890211019068501 0 0.017474087274546416 -0.0055049691604670834 0 0.017373318148891485 -0.0050375698214256233 0 0.017281900715314394 -0.0056531072558726539 0 0.017214807997456148 -0.0053890211019068501 0 0.017474087274546416 -0.0055049691604670834 0 0.017133338296169757 -0.0056735058083530986 0 0.017214807997456148 -0.0053890211019068501 0 0.017037847501135992 -0.0054914805495864579 0 0.017214807997456148 -0.0053890211019068501 0 0.017037847501135992 -0.0054914805495864579 0 0.016977911801338605 -0.0052974653378916421 0 0.016993149033568907 -0.0054970872971250567 0 0.017056408239365821 -0.0050422024565047029 0 0.017418239328835412 -0.0049905168411432978 0 0.017037847501135992 -0.0054914805495864579 0 0.016993149033568907 -0.0054970872971250567 0 0.016977911801338605 -0.0052974653378916421 0 0.017007535102333916 -0.0054660083177345718 0 0.01719846779351979 -0.0051406273598546461 0 0.017217382869580806 -0.0046685321827448917 0 0.017056408239365821 -0.0050422024565047029 0 0.017418239328835412 -0.0049905168411432978 0 0.014999984610341018 -0.0056611315001031887 0 0.015479893249935046 -0.005825456155857201 0 0.01499999659293666 -0.0065601222588666753 0 0.014999984610341018 -0.0056611315001031887 0 0.015479893249935046 -0.005825456155857201 0 0.015467587428252254 -0.0055080971949083178 0 0.015771193473070454 -0.0057313427630569218 0 0.015747232337167592 -0.0062491535534427598 0 0.016129786834483295 -0.0057042077092420915 0 0.015479893249935046 -0.005825456155857201 0 0.015771193473070454 -0.0057313427630569218 0 0.015467587428252254 -0.0055080971949083178 0 0.015479893249935046 -0.005825456155857201 0 0.015771193473070454 -0.0057313427630569218 0 0.015747232337167592 -0.0062491535534427598 0 0.015029993413934468 -0.0066020160171083187 0 0.014999859787396472 -0.0065613306494135002 0 0.01502883993413508 -0.0067496495113209456 0 0.015479893249935046 -0.005825456155857201 0 0.015747232337167592 -0.0062491535534427598 0 0.01499999659293666 -0.0065601222588666753 0 0.015467800131036699 -0.0064085549178201995 0 0.014999924441801551 -0.006560195578898231 0 0.014999859787396472 -0.0065613306494135002 0 0.01502883993413508 -0.0067496495113209456 0 0.014999738244291117 -0.0069511296526475023 0 0.01502883993413508 -0.0067496495113209456 0 0.014999738244291117 -0.0069511296526475023 0 0.01500462824399656 -0.006825926709798375 0 0.01489785950717405 -0.0070170202082558523 0 0.014999738244291117 -0.0069511296526475023 0 0.01500462824399656 -0.006825926709798375 0 0.015176701149773797 -0.0073293499133750923 0 0.015000026358705941 -0.0069524021421403879 0 0.015457788513541655 -0.0076183517139317434 0 0.014999937765404214 -0.0078438837879576881 0 0.015000015570362067 -0.0069523306422994979 0 0.01489785950717405 -0.0070170202082558523 0 0.01500462824399656 -0.006825926709798375 0 0.015050795164938874 -0.0070117765399667588 0 0.015029993413934468 -0.0066020160171083187 0 0.01502883993413508 -0.0067496495113209456 0 0.01500462824399656 -0.006825926709798375 0 0.015029993413934468 -0.0066020160171083187 0 0.01500462824399656 -0.006825926709798375 0 0.01508049986029596 -0.0067535793725271619 0 0.01508049986029596 -0.0067535793725271619 0 0.015192490344027042 -0.0068092231143144681 0 0.015134399490415848 -0.006574074103720769 0 0.01500462824399656 -0.006825926709798375 0 0.01508049986029596 -0.0067535793725271619 0 0.015050795164938874 -0.0070117765399667588 0 0.01508049986029596 -0.0067535793725271619 0 0.015050795164938874 -0.0070117765399667588 0 0.015192490344027042 -0.0068092231143144681 0 0.015275771153380651 -0.006988661846953746 0 0.015192490344027042 -0.0068092231143144681 0 0.015417428939417251 -0.0067864264918172995 0 0.015050795164938874 -0.0070117765399667588 0 0.015275771153380651 -0.006988661846953746 0 0.015192490344027042 -0.0068092231143144681 0 0.015192490344027042 -0.0068092231143144681 0 0.015299036284709999 -0.0065782123621635092 0 0.015134399490415848 -0.006574074103720769 0 0.015192490344027042 -0.0068092231143144681 0 0.015299036284709999 -0.0065782123621635092 0 0.015417428939417251 -0.0067864264918172995 0 0.015299036284709999 -0.0065782123621635092 0 0.01528824967375203 -0.006443176806940917 0 0.015210892679779531 -0.0064696589047779432 0 0.015299036284709999 -0.0065782123621635092 0 0.015210892679779531 -0.0064696589047779432 0 0.015134399490415848 -0.006574074103720769 0 0.01528824967375203 -0.006443176806940917 0 0.015210892679779531 -0.0064696589047779432 0 0.015227449443748835 -0.0063541701450743823 0 0.01528824967375203 -0.006443176806940917 0 0.015227449443748835 -0.0063541701450743823 0 0.015324700927530842 -0.0063242090212352062 0 0.015210892679779531 -0.0064696589047779432 0 0.015227449443748835 -0.0063541701450743823 0 0.015195141012051175 -0.0063560158676482341 0 0.015210892679779531 -0.0064696589047779432 0 0.015134399490415848 -0.006574074103720769 0 0.015195141012051175 -0.0063560158676482341 0 0.015467800131036699 -0.0064085549178201995 0 0.015440610975052355 -0.0061351726019118315 0 0.015029993413934468 -0.0066020160171083187 0 0.015134399490415848 -0.006574074103720769 0 0.015195141012051175 -0.0063560158676482341 0 0.015029993413934468 -0.0066020160171083187 0 0.01508049986029596 -0.0067535793725271619 0 0.015134399490415848 -0.006574074103720769 0 0.015747232337167592 -0.0062491535534427598 0 0.016129786834483295 -0.0057042077092420915 0 0.016455557239058099 -0.0059662159966662985 0 0.0153503219894594 -0.0058555896024276412 0 0.015440610975052355 -0.0061351726019118315 0 0.015227449443748835 -0.0063541701450743823 0 0.015166748513830501 -0.0063098981306910053 0 0.015375767659172333 -0.006098243178460621 0 0.015440610975052355 -0.0061351726019118315 0 0.015215787266671704 -0.0061804561025527848 0 0.014551169316620198 -0.0060056141743161451 0 0.014894613202762735 -0.0062796806298825577 0 0.014948123801737429 -0.0058911069422052601 0 0.014894613202762735 -0.0062796806298825577 0 0.015375767659172333 -0.006098243178460621 0 0.014948123801737429 -0.0058911069422052601 0 0.015227449443748835 -0.0063541701450743823 0 0.015324700927530842 -0.0063242090212352062 0 0.015375767659172333 -0.006098243178460621 0 0.015381358748925078 -0.0061686192561744993 0 0.015440610975052355 -0.0061351726019118315 0 0.015375767659172333 -0.006098243178460621 0 0.015662495288319731 -0.0062594057407050173 0 0.015416785334393737 -0.0063899629358897805 0 0.015324700927530842 -0.0063242090212352062 0 0.015375767659172333 -0.006098243178460621 0 0.015416785334393737 -0.0063899629358897805 0 0.015375767659172333 -0.006098243178460621 0 0.015662495288319731 -0.0062594057407050173 0 0.015702999422152593 -0.0058602828044533907 0 0.015662495288319731 -0.0062594057407050173 0 0.015948892340408628 -0.0060968785347101416 0 0.015702999422152593 -0.0058602828044533907 0 0.015662495288319731 -0.0062594057407050173 0 0.015562302819661301 -0.0065358545508052823 0 0.015887893795932053 -0.006481101589611675 0 0.015662495288319731 -0.0062594057407050173 0 0.015887893795932053 -0.006481101589611675 0 0.015948892340408628 -0.0060968785347101416 0 0.015299036284709999 -0.0065782123621635092 0 0.015562302819661301 -0.0065358545508052823 0 0.015416785334393737 -0.0063899629358897805 0 0.015662495288319731 -0.0062594057407050173 0 0.015562302819661301 -0.0065358545508052823 0 0.015416785334393737 -0.0063899629358897805 0 0.01528824967375203 -0.006443176806940917 0 0.015324700927530842 -0.0063242090212352062 0 0.015416785334393737 -0.0063899629358897805 0 0.015299036284709999 -0.0065782123621635092 0 0.01528824967375203 -0.006443176806940917 0 0.015416785334393737 -0.0063899629358897805 0 0.015299036284709999 -0.0065782123621635092 0 0.015562302819661301 -0.0065358545508052823 0 0.015417428939417251 -0.0067864264918172995 0 0.015562302819661301 -0.0065358545508052823 0 0.015417428939417251 -0.0067864264918172995 0 0.01566000501786436 -0.0067385492661063582 0 0.015573283104135466 -0.0070623024874820256 0 0.015417428939417251 -0.0067864264918172995 0 0.01566000501786436 -0.0067385492661063582 0 0.015573283104135466 -0.0070623024874820256 0 0.015275771153380651 -0.006988661846953746 0 0.015417428939417251 -0.0067864264918172995 0 0.015573283104135466 -0.0070623024874820256 0 0.01566000501786436 -0.0067385492661063582 0 0.015882838707342264 -0.0068229285747126679 0 0.015501077839930768 -0.0070774297477489232 0 0.015800126272738847 -0.0068176792557775251 0 0.01566000501786436 -0.0067385492661063582 0 0.015882838707342264 -0.0068229285747126679 0 0.015887893795932053 -0.006481101589611675 0 0.015562302819661301 -0.0065358545508052823 0 0.01566000501786436 -0.0067385492661063582 0 0.015887893795932053 -0.006481101589611675 0 0.015800126272738847 -0.0068176792557775251 0 0.016104729268343367 -0.0065262132095549961 0 0.015882838707342264 -0.0068229285747126679 0 0.016183418727447191 -0.0065316153640231356 0 0.015887893795932053 -0.006481101589611675 0 0.016156543612785311 -0.0070958616101171592 0 0.016308667249104996 -0.0067097561737110454 0 0.016025859155099374 -0.0065259422915640358 0 0.016156543612785311 -0.0070958616101171592 0 0.015716396761171397 -0.006818594219849327 0 0.016025859155099374 -0.0065259422915640358 0 0.016382834994918272 -0.0062454031028486854 0 0.016183418727447191 -0.0065316153640231356 0 0.016146187993690782 -0.0062720809593332545 0 0.016382834994918272 -0.0062454031028486854 0 0.016146187993690782 -0.0062720809593332545 0 0.01624710066343376 -0.0060172855987131154 0 0.016363934148466819 -0.0062770178039399391 0 0.016104729268343367 -0.0065262132095549961 0 0.016183418727447191 -0.0065316153640231356 0 0.016146187993690782 -0.0062720809593332545 0 0.015887893795932053 -0.006481101589611675 0 0.016146187993690782 -0.0062720809593332545 0 0.015887893795932053 -0.006481101589611675 0 0.015948892340408628 -0.0060968785347101416 0 0.015948892340408628 -0.0060968785347101416 0 0.01624710066343376 -0.0060172855987131154 0 0.016022916784828554 -0.0058140517930232302 0 0.016146187993690782 -0.0062720809593332545 0 0.015948892340408628 -0.0060968785347101416 0 0.01624710066343376 -0.0060172855987131154 0 0.01624710066343376 -0.0060172855987131154 0 0.016022916784828554 -0.0058140517930232302 0 0.016238288584738018 -0.0056854614125430893 0 0.015948892340408628 -0.0060968785347101416 0 0.016022916784828554 -0.0058140517930232302 0 0.015702999422152593 -0.0058602828044533907 0 0.016250755166476515 -0.0049223830647787646 0 0.016230810520069871 -0.0045171348602951467 0 0.015952704876385317 -0.0048211021329278361 0 0.016243546231397989 -0.0053037145352198105 0 0.015891010712780811 -0.0050828344572782765 0 0.016022916784828554 -0.0058140517930232302 0 0.016238288584738018 -0.0056854614125430893 0 0.015892765405429245 -0.0053602722829159304 0 0.01641391409212763 -0.0047153295007748373 0 0.016250755166476515 -0.0049223830647787646 0 0.016230810520069871 -0.0045171348602951467 0 0.016230810520069871 -0.0045171348602951467 0 0.016194113701246366 -0.004143362079997201 0 0.01646731735801071 -0.0042136195527622761 0 0.016230810520069871 -0.0045171348602951467 0 0.016194113701246366 -0.004143362079997201 0 0.015872125890184066 -0.0045138506245294922 0 0.016194113701246366 -0.004143362079997201 0 0.015872125890184066 -0.0045138506245294922 0 0.016007947044268139 -0.0040493303335597452 0 0.016230810520069871 -0.0045171348602951467 0 0.015872125890184066 -0.0045138506245294922 0 0.015952704876385317 -0.0048211021329278361 0 0.015872125890184066 -0.0045138506245294922 0 0.015329549158628044 -0.0048296905658536263 0 0.015952704876385317 -0.0048211021329278361 0 0.015872125890184066 -0.0045138506245294922 0 0.016007947044268139 -0.0040493303335597452 0 0.015387680691238477 -0.0045868615366557071 0 0.015990096882907017 -0.0040692961144442007 0 0.015740598748362412 -0.0043542842100961409 0 0.016007947044268139 -0.0040493303335597452 0 0.016023271696964984 -0.003987460726194411 0 0.01606763964579265 -0.0041046681103110976 0 0.016023271696964984 -0.003987460726194411 0 0.015979364055680068 -0.0040637756825374939 0 0.015962801552169427 -0.0039189900647810987 0 0.016023271696964984 -0.003987460726194411 0 0.01606763964579265 -0.0041046681103110976 0 0.015979364055680068 -0.0040637756825374939 0 0.015872125890184066 -0.0045138506245294922 0 0.015387680691238477 -0.0045868615366557071 0 0.015329549158628044 -0.0048296905658536263 0 0.015329549158628044 -0.0048296905658536263 0 0.015470874073288465 -0.0052994113103177389 0 0.015892765405429245 -0.0053602722829159304 0 0.015329549158628044 -0.0048296905658536263 0 0.015187140400380309 -0.0052703196853507543 0 0.015470874073288465 -0.0052994113103177389 0 0.015302784959643108 -0.0054709620132869317 0 0.015187140400380309 -0.0052703196853507543 0 0.015470874073288465 -0.0052994113103177389 0 0.015302784959643108 -0.0054709620132869317 0 0.015470874073288465 -0.0052994113103177389 0 0.015577826410396088 -0.0055654612281288273 0 0.015470874073288465 -0.0052994113103177389 0 0.015892765405429245 -0.0053602722829159304 0 0.015577826410396088 -0.0055654612281288273 0 0.015338799844265347 -0.0048362543826634772 0 0.015891010712780811 -0.0050828344572782765 0 0.015892765405429245 -0.0053602722829159304 0 0.015702999422152593 -0.0058602828044533907 0 0.015577826410396088 -0.0055654612281288273 0 0.016022916784828554 -0.0058140517930232302 0 0.015892765405429245 -0.0053602722829159304 0 0.015702999422152593 -0.0058602828044533907 0 0.015375767659172333 -0.006098243178460621 0 0.015702999422152593 -0.0058602828044533907 0 0.015317040330254059 -0.0057591225600645592 0 0.015702999422152593 -0.0058602828044533907 0 0.015317040330254059 -0.0057591225600645592 0 0.015577826410396088 -0.0055654612281288273 0 0.015375767659172333 -0.006098243178460621 0 0.015317040330254059 -0.0057591225600645592 0 0.014948123801737429 -0.0058911069422052601 0 0.015302784959643108 -0.0054709620132869317 0 0.015317040330254059 -0.0057591225600645592 0 0.015018940251319226 -0.0055392170970930124 0 0.015302784959643108 -0.0054709620132869317 0 0.015317040330254059 -0.0057591225600645592 0 0.015577826410396088 -0.0055654612281288273 0 0.015018940251319226 -0.0055392170970930124 0 0.014948123801737429 -0.0058911069422052601 0 0.014698844747790433 -0.0056836401434723731 0 0.015317040330254059 -0.0057591225600645592 0 0.015018940251319226 -0.0055392170970930124 0 0.014948123801737429 -0.0058911069422052601 0 0.014698844747790433 -0.0056836401434723731 0 0.014764944202868804 -0.0052384651297892595 0 0.014225152658078107 -0.0057430819341972601 0 0.014551169316620198 -0.0060056141743161451 0 0.014948123801737429 -0.0058911069422052601 0 0.014698844747790433 -0.0056836401434723731 0 0.014551169316620198 -0.0060056141743161451 0 0.014698844747790433 -0.0056836401434723731 0 0.014225152658078107 -0.0057430819341972601 0 0.015771193473070454 -0.0057313427630569218 0 0.016129786834483295 -0.0057042077092420915 0 0.015800514220703787 -0.0054283162904136661 0 0.0153503219894594 -0.0058555896024276412 0 0.015265085158705869 -0.0054574030300643664 0 0.015881311259913111 -0.0045394811610913761 0 0.01571856836896135 -0.0043034294862003856 0 0.015541082288035243 -0.0045772905155638506 0 0.015881311259913111 -0.0045394811610913761 0 0.015541082288035243 -0.0045772905155638506 0 0.015531570838362664 -0.0049439213416626777 0 0.015249754961997318 -0.0048842553133679224 0 0.015265085158705869 -0.0054574030300643664 0 0.015329549158628044 -0.0048296905658536263 0 0.015187140400380309 -0.0052703196853507543 0 0.014764944202868804 -0.0052384651297892595 0 0.015018940251319226 -0.0055392170970930124 0 0.014698844747790433 -0.0056836401434723731 0 0.014764944202868804 -0.0052384651297892595 0 0.015187140400380309 -0.0052703196853507543 0 0.015018940251319226 -0.0055392170970930124 0 0.014764944202868804 -0.0052384651297892595 0 0.015302784959643108 -0.0054709620132869317 0 0.015187140400380309 -0.0052703196853507543 0 0.015018940251319226 -0.0055392170970930124 0 0.015740598748362412 -0.0043542842100961409 0 0.015249754961997318 -0.0048842553133679224 0 0.01606763964579265 -0.0041046681103110976 0 0.015895596910497415 -0.004200077211726984 0 0.015979364055680068 -0.0040637756825374939 0 0.01606763964579265 -0.0041046681103110976 0 0.015881311259913111 -0.0045394811610913761 0 0.015895596910497415 -0.004200077211726984 0 0.015387680691238477 -0.0045868615366557071 0 0.015329549158628044 -0.0048296905658536263 0 0.014764944202868804 -0.0052384651297892595 0 0.015895596910497415 -0.004200077211726984 0 0.015979364055680068 -0.0040637756825374939 0 0.015795996326677521 -0.0039970303263020058 0 0.015962801552169427 -0.0039189900647810987 0 0.015795996326677521 -0.0039970303263020058 0 0.015889971431060544 -0.0037685276352594547 0 0.015979364055680068 -0.0040637756825374939 0 0.015962801552169427 -0.0039189900647810987 0 0.015795996326677521 -0.0039970303263020058 0 0.015881311259913111 -0.0045394811610913761 0 0.015895596910497415 -0.004200077211726984 0 0.01571856836896135 -0.0043034294862003856 0 0.015795996326677521 -0.0039970303263020058 0 0.01571856836896135 -0.0043034294862003856 0 0.015496217578188086 -0.0042316387766546115 0 0.015895596910497415 -0.004200077211726984 0 0.015795996326677521 -0.0039970303263020058 0 0.01571856836896135 -0.0043034294862003856 0 0.015496217578188086 -0.0042316387766546115 0 0.015282493874472908 -0.0045247911907963876 0 0.015541082288035243 -0.0045772905155638506 0 0.01571856836896135 -0.0043034294862003856 0 0.015496217578188086 -0.0042316387766546115 0 0.015541082288035243 -0.0045772905155638506 0 0.015795996326677521 -0.0039970303263020058 0 0.015496217578188086 -0.0042316387766546115 0 0.015472813643002445 -0.00373384887288999 0 0.015496217578188086 -0.0042316387766546115 0 0.01499994951397593 -0.0040997291814226294 0 0.015472813643002445 -0.00373384887288999 0 0.01499994951397593 -0.0040997291814226294 0 0.015282493874472908 -0.0045247911907963876 0 0.014999961798278104 -0.0047614893056698408 0 0.015496217578188086 -0.0042316387766546115 0 0.01499994951397593 -0.0040997291814226294 0 0.015282493874472908 -0.0045247911907963876 0 0.015282493874472908 -0.0045247911907963876 0 0.014999961798278104 -0.0047614893056698408 0 0.015285343171401263 -0.0047831575675569924 0 0.015000065238043217 -0.0047620592676713988 0 0.015353665480119594 -0.0049562444816057746 0 0.015282493874472908 -0.0045247911907963876 0 0.015285343171401263 -0.0047831575675569924 0 0.015541082288035243 -0.0045772905155638506 0 0.015285343171401263 -0.0047831575675569924 0 0.015541082288035243 -0.0045772905155638506 0 0.015531570838362664 -0.0049439213416626777 0 0.015407065945025358 -0.0050958894586856113 0 0.015800514220703787 -0.0054283162904136661 0 0.015467587428252254 -0.0055080971949083178 0 0.015353665480119594 -0.0049562444816057746 0 0.015265085158705869 -0.0054574030300643664 0 0.015771193473070454 -0.0057313427630569218 0 0.015800514220703787 -0.0054283162904136661 0 0.015467587428252254 -0.0055080971949083178 0 0.014999984610341018 -0.0056611315001031887 0 0.014999996316590856 -0.0047620779534476377 0 0.015407065945025358 -0.0050958894586856113 0 0.014999984610341018 -0.0056611315001031887 0 0.015407065945025358 -0.0050958894586856113 0 0.015467587428252254 -0.0055080971949083178 0 0.014999940811182048 -0.0019323914489350058 0 0.015524141548629604 -0.002434876803026145 0 0.015676130958124514 -0.001687942797905375 0 0.015524141548629604 -0.002434876803026145 0 0.016137239021461677 -0.0022722135507232885 0 0.015676130958124514 -0.001687942797905375 0 0.015524141548629604 -0.002434876803026145 0 0.01586878687928106 -0.0026981920330686063 0 0.016137239021461677 -0.0022722135507232885 0 0.015524141548629604 -0.002434876803026145 0 0.015681557916489824 -0.0031607980591503724 0 0.01586878687928106 -0.0026981920330686063 0 0.014999940811182048 -0.0019323914489350058 0 0.015524141548629604 -0.002434876803026145 0 0.0149999174374374 -0.0027750771493856258 0 0.015524141548629604 -0.002434876803026145 0 0.0149999174374374 -0.0027750771493856258 0 0.015681557916489824 -0.0031607980591503724 0 0.014999975227729471 -0.0027751330145311904 0 0.015263679544606461 -0.0033035858277783896 0 0.014999925549654848 -0.0034373639235295308 0 0.015000104208193435 -0.0027749853996662291 0 0.015598326984033323 -0.0031794832084618241 0 0.014999975227729471 -0.0027751330145311904 0 0.015263679544606461 -0.0033035858277783896 0 0.015537672499173672 -0.0032130864073818075 0 0.01499994951397593 -0.0040997291814226294 0 0.014999925549654848 -0.0034373639235295308 0 0.015472813643002445 -0.00373384887288999 0 0.015263679544606461 -0.0033035858277783896 0 0.014999925549654848 -0.0034373639235295308 0 0.015472813643002445 -0.00373384887288999 0 0.015263679544606461 -0.0033035858277783896 0 0.015472813643002445 -0.00373384887288999 0 0.015537672499173672 -0.0032130864073818075 0 0.015472813643002445 -0.00373384887288999 0 0.015537672499173672 -0.0032130864073818075 0 0.01572978387389742 -0.0037070921108463503 0 0.015598326984033323 -0.0031794832084618241 0 0.015964565203290579 -0.003502110523293387 0 0.015681557916489824 -0.0031607980591503724 0 0.016065512431256191 -0.0034257920269864977 0 0.016055927164247634 -0.003114884594105056 0 0.015537672499173672 -0.0032130864073818075 0 0.01572978387389742 -0.0037070921108463503 0 0.015877204876690757 -0.0035636443437394457 0 0.015795996326677521 -0.0039970303263020058 0 0.015472813643002445 -0.00373384887288999 0 0.01572978387389742 -0.0037070921108463503 0 0.01572978387389742 -0.0037070921108463503 0 0.015889971431060544 -0.0037685276352594547 0 0.015877204876690757 -0.0035636443437394457 0 0.015795996326677521 -0.0039970303263020058 0 0.01572978387389742 -0.0037070921108463503 0 0.015889971431060544 -0.0037685276352594547 0 0.015964565203290579 -0.003502110523293387 0 0.016042517532805337 -0.0037110525199512156 0 0.015962801552169427 -0.0039189900647810987 0 0.015889971431060544 -0.0037685276352594547 0 0.016022109812858371 -0.0037539450993945146 0 0.015889971431060544 -0.0037685276352594547 0 0.015877204876690757 -0.0035636443437394457 0 0.016022109812858371 -0.0037539450993945146 0 0.016065512431256191 -0.0034257920269864977 0 0.016030582397491961 -0.0035036250021157878 0 0.016022109812858371 -0.0037539450993945146 0 0.016065512431256191 -0.0034257920269864977 0 0.016056608741094561 -0.0033406567020133086 0 0.016030582397491961 -0.0035036250021157878 0 0.016065512431256191 -0.0034257920269864977 0 0.016056608741094561 -0.0033406567020133086 0 0.016055927164247634 -0.003114884594105056 0 0.016056608741094561 -0.0033406567020133086 0 0.016027669523163625 -0.0034298465113300107 0 0.016030582397491961 -0.0035036250021157878 0 0.016056608741094561 -0.0033406567020133086 0 0.016027669523163625 -0.0034298465113300107 0 0.01603489324546864 -0.0034287972051779032 0 0.016027669523163625 -0.0034298465113300107 0 0.01603489324546864 -0.0034287972051779032 0 0.016019460179640434 -0.0034824977942930148 0 0.016688534660529102 -0.0028000426038885837 0 0.016433530701624403 -0.0025378955090845923 0 0.016561982223427578 -0.0023310275080458466 0 0.016688534660529102 -0.0028000426038885837 0 0.016433530701624403 -0.0025378955090845923 0 0.016228754108273485 -0.0026811712182474119 0 0.016056608741094561 -0.0033406567020133086 0 0.01603489324546864 -0.0034287972051779032 0 0.016055927164247634 -0.003114884594105056 0 0.016077573784360255 -0.0031032559832438939 0 0.016146703107387896 -0.0031161148704728181 0 0.016688534660529102 -0.0028000426038885837 0 0.016055927164247634 -0.003114884594105056 0 0.016228754108273485 -0.0026811712182474119 0 0.015681557916489824 -0.0031607980591503724 0 0.016055927164247634 -0.003114884594105056 0 0.01586878687928106 -0.0026981920330686063 0 0.01586878687928106 -0.0026981920330686063 0 0.016228754108273485 -0.0026811712182474119 0 0.016137239021461677 -0.0022722135507232885 0 0.016055927164247634 -0.003114884594105056 0 0.01586878687928106 -0.0026981920330686063 0 0.016228754108273485 -0.0026811712182474119 0 0.016433530701624403 -0.0025378955090845923 0 0.016228754108273485 -0.0026811712182474119 0 0.016137239021461677 -0.0022722135507232885 0 0.016137239021461677 -0.0022722135507232885 0 0.016561982223427578 -0.0023310275080458466 0 0.0163211253916789 -0.0018072178542973866 0 0.016688534660529102 -0.0028000426038885837 0 0.016777606340776647 -0.0019722049053997261 0 0.016561982223427578 -0.0023310275080458466 0 0.016077573784360255 -0.0031032559832438939 0 0.016214476611660252 -0.0025483014622625418 0 0.016777606340776647 -0.0019722049053997261 0 0.016561982223427578 -0.0023310275080458466 0 0.0163211253916789 -0.0018072178542973866 0 0.016433530701624403 -0.0025378955090845923 0 0.016137239021461677 -0.0022722135507232885 0 0.016561982223427578 -0.0023310275080458466 0 0.015654681956382623 -0.0033728018875939176 0 0.015686441913923429 -0.0031264152309205089 0 0.015865284709959931 -0.0032806369950158934 0 0.015686441913923429 -0.0031264152309205089 0 0.015865284709959931 -0.0032806369950158934 0 0.015807178663787023 -0.003088451415835817 0 0.015865284709959931 -0.0032806369950158934 0 0.015935708505603888 -0.0030756475619974936 0 0.015807178663787023 -0.003088451415835817 0 0.015865284709959931 -0.0032806369950158934 0 0.016093963821394254 -0.0031975673148420657 0 0.015935708505603888 -0.0030756475619974936 0 0.016068345502541655 -0.003507134283614927 0 0.016178736364329167 -0.003503177326362994 0 0.016112385471767233 -0.0033385188467030952 0 0.016015569288172431 -0.0034643733270546965 0 0.016068345502541655 -0.003507134283614927 0 0.016112385471767233 -0.0033385188467030952 0 0.015884784803730137 -0.0034051662982896775 0 0.016130151895619949 -0.0032559220041844784 0 0.016068345502541655 -0.003507134283614927 0 0.016103739627371983 -0.0036359176687506939 0 0.016178736364329167 -0.003503177326362994 0 0.016068345502541655 -0.003507134283614927 0 0.016043492137261445 -0.0036082997224901937 0 0.016103739627371983 -0.0036359176687506939 0 0.016068345502541655 -0.003507134283614927 0 0.016019460179640434 -0.0034824977942930148 0 0.016043492137261445 -0.0036082997224901937 0 0.016015569288172431 -0.0034643733270546965 0 0.016068345502541655 -0.003507134283614927 0 0.016019460179640434 -0.0034824977942930148 0 0.01603489324546864 -0.0034287972051779032 0 0.016015569288172431 -0.0034643733270546965 0 0.016019460179640434 -0.0034824977942930148 0 0.016077573784360255 -0.0031032559832438939 0 0.015884784803730137 -0.0034051662982896775 0 0.016027669523163625 -0.0034298465113300107 0 0.016019460179640434 -0.0034824977942930148 0 0.016030582397491961 -0.0035036250021157878 0 0.016019460179640434 -0.0034824977942930148 0 0.016030582397491961 -0.0035036250021157878 0 0.016043492137261445 -0.0036082997224901937 0 0.016030582397491961 -0.0035036250021157878 0 0.016043492137261445 -0.0036082997224901937 0 0.016022109812858371 -0.0037539450993945146 0 0.016023271696964984 -0.003987460726194411 0 0.015962801552169427 -0.0039189900647810987 0 0.016022109812858371 -0.0037539450993945146 0 0.016007947044268139 -0.0040493303335597452 0 0.016023271696964984 -0.003987460726194411 0 0.016022109812858371 -0.0037539450993945146 0 0.016007947044268139 -0.0040493303335597452 0 0.016022109812858371 -0.0037539450993945146 0 0.016087703935799454 -0.0038383724844887816 0 0.016043492137261445 -0.0036082997224901937 0 0.016087703935799454 -0.0038383724844887816 0 0.016103739627371983 -0.0036359176687506939 0 0.016043492137261445 -0.0036082997224901937 0 0.016022109812858371 -0.0037539450993945146 0 0.016087703935799454 -0.0038383724844887816 0 0.016087703935799454 -0.0038383724844887816 0 0.016103739627371983 -0.0036359176687506939 0 0.016237681318953461 -0.0037075752759301588 0 0.016087703935799454 -0.0038383724844887816 0 0.016237681318953461 -0.0037075752759301588 0 0.016288019850898446 -0.0039310892275551323 0 0.016194113701246366 -0.004143362079997201 0 0.016087703935799454 -0.0038383724844887816 0 0.016288019850898446 -0.0039310892275551323 0 0.016194113701246366 -0.004143362079997201 0 0.016007947044268139 -0.0040493303335597452 0 0.016087703935799454 -0.0038383724844887816 0 0.016194113701246366 -0.004143362079997201 0 0.016288019850898446 -0.0039310892275551323 0 0.01646731735801071 -0.0042136195527622761 0 0.016288019850898446 -0.0039310892275551323 0 0.01646731735801071 -0.0042136195527622761 0 0.016497337930270733 -0.0037363519152770514 0 0.016237681318953461 -0.0037075752759301588 0 0.016344808054555664 -0.0035996822893425472 0 0.016497337930270733 -0.0037363519152770514 0 0.016237681318953461 -0.0037075752759301588 0 0.016288019850898446 -0.0039310892275551323 0 0.016497337930270733 -0.0037363519152770514 0 0.016344808054555664 -0.0035996822893425472 0 0.016441251471894729 -0.0033943512445533701 0 0.016497337930270733 -0.0037363519152770514 0 0.016344808054555664 -0.0035996822893425472 0 0.016286633935238853 -0.003384316989266804 0 0.016486968243288797 -0.0033720381813993239 0 0.01641403039480701 -0.0033794091525103272 0 0.016389011718780155 -0.003819920324307619 0 0.016365270178615825 -0.003571189478298948 0 0.01641403039480701 -0.0033794091525103272 0 0.016237681318953461 -0.0037075752759301588 0 0.016344808054555664 -0.0035996822893425472 0 0.016178736364329167 -0.003503177326362994 0 0.016103739627371983 -0.0036359176687506939 0 0.016237681318953461 -0.0037075752759301588 0 0.016178736364329167 -0.003503177326362994 0 0.016344808054555664 -0.0035996822893425472 0 0.016178736364329167 -0.003503177326362994 0 0.016286633935238853 -0.003384316989266804 0 0.016286633935238853 -0.003384316989266804 0 0.016112385471767233 -0.0033385188467030952 0 0.016355513004949186 -0.0031314344415676997 0 0.016178736364329167 -0.003503177326362994 0 0.016286633935238853 -0.003384316989266804 0 0.016112385471767233 -0.0033385188467030952 0 0.016286633935238853 -0.003384316989266804 0 0.016486968243288797 -0.0033720381813993239 0 0.016355513004949186 -0.0031314344415676997 0 0.016493621532127425 -0.0033420653716321543 0 0.016399927166387843 -0.0028895194570394685 0 0.016661907981948249 -0.0029826649264625832 0 0.01641403039480701 -0.0033794091525103272 0 0.016424243992520977 -0.0029000411452534311 0 0.016486968243288797 -0.0033720381813993239 0 0.016355513004949186 -0.0031314344415676997 0 0.016399927166387843 -0.0028895194570394685 0 0.016355513004949186 -0.0031314344415676997 0 0.01622198487525486 -0.0028503481205313878 0 0.016399927166387843 -0.0028895194570394685 0 0.016355513004949186 -0.0031314344415676997 0 0.016105001023817993 -0.003013307489069748 0 0.01622198487525486 -0.0028503481205313878 0 0.016093963821394254 -0.0031975673148420657 0 0.016355513004949186 -0.0031314344415676997 0 0.016105001023817993 -0.003013307489069748 0 0.016130151895619949 -0.0032559220041844784 0 0.016337272694355229 -0.0031446150089356134 0 0.016059475104429653 -0.00098595313111913912 0 0.015983088161406412 -0.0018850701165648287 0 0.01622198487525486 -0.0028503481205313878 0 0.016351936468908087 -0.002711678363892711 0 0.01606831430270907 -0.0027844157237321763 0 0.016105001023817993 -0.003013307489069748 0 0.01622198487525486 -0.0028503481205313878 0 0.01606831430270907 -0.0027844157237321763 0 0.01622198487525486 -0.0028503481205313878 0 0.016351936468908087 -0.002711678363892711 0 0.01631977242421798 -0.00282105192754182 0 0.016351936468908087 -0.002711678363892711 0 0.016476644100375519 -0.0027768921200291442 0 0.016588741563789824 -0.0026573779008884535 0 0.016399927166387843 -0.0028895194570394685 0 0.016476644100375519 -0.0027768921200291442 0 0.016661907981948249 -0.0029826649264625832 0 0.016351936468908087 -0.002711678363892711 0 0.01631977242421798 -0.00282105192754182 0 0.016476644100375519 -0.0027768921200291442 0 0.01622198487525486 -0.0028503481205313878 0 0.01631977242421798 -0.00282105192754182 0 0.016399927166387843 -0.0028895194570394685 0 0.01631977242421798 -0.00282105192754182 0 0.016399927166387843 -0.0028895194570394685 0 0.016476644100375519 -0.0027768921200291442 0 0.016059475104429653 -0.00098595313111913912 0 0.016324081704198426 -0.0013128521080178937 0 0.015475601670796084 -8.1275818513218057e-05 0 0.0157585640575327 0.00033041575460692992 0 0.015387321085981091 0.00046734854436158448 0 0.015475601670796084 -8.1275818513218057e-05 0 0.0157585640575327 0.00033041575460692992 0 0.015998712802568649 1.9512243159780911e-05 0 0.016059475104429653 -0.00098595313111913912 0 0.015938706446582029 0.00019045188923790088 0 0.0157585640575327 0.00033041575460692992 0 0.015868109275961453 0.00071424351180351324 0 0.015387321085981091 0.00046734854436158448 0 0.016200837459094359 0.0010417701157716501 0 0.015868109275961453 0.00071424351180351324 0 0.015575151484730442 0.00085123356027863692 0 0.015300868426576868 0.0010224493322638071 0 0.015387321085981091 0.00046734854436158448 0 0.015575151484730442 0.00085123356027863692 0 0.015868109275961453 0.00071424351180351324 0 0.015387321085981091 0.00046734854436158448 0 0.015575151484730442 0.00085123356027863692 0 0.016814193273166064 0.00047179143392102975 0 0.016327840070782432 -8.3979793442929567e-05 0 0.016218951494558938 0.00012044283650494434 0 0.01611624308427935 0.001169889913470486 0 0.016097244989348839 -0.00018894229849545887 0 0.01611624308427935 0.001169889913470486 0 0.015938706446582029 0.00019045188923790088 0 0.016814193273166064 0.00047179143392102975 0 0.016293055079934875 0.00059702557279305219 0 0.016218951494558938 0.00012044283650494434 0 0.016398952143733009 0.00042195249187416338 0 0.016487732705429737 -0.00014755678137078789 0 0.015769200475565466 -0.00028376990299513679 0 0.016487732705429737 -0.00014755678137078789 0 0.016171283005992229 -0.00049666150452377684 0 0.015769200475565466 -0.00028376990299513679 0 0.016571752188669086 -0.00071132999398501313 0 0.016487732705429737 -0.00014755678137078789 0 0.016171283005992229 -0.00049666150452377684 0 0.016571752188669086 -0.00071132999398501313 0 0.016171283005992229 -0.00049666150452377684 0 0.015857669239509091 -0.00084176172783412067 0 0.016171283005992229 -0.00049666150452377684 0 0.015769200475565466 -0.00028376990299513679 0 0.015857669239509091 -0.00084176172783412067 0 0.016097244989348839 -0.00018894229849545887 0 0.015644581246001651 -0.0014206687894106724 0 0.016327840070782432 -8.3979793442929567e-05 0 0.015923519955602299 -0.0002374334915434862 0 0.015821742460601061 -0.00065599775648879583 0 0.015769200475565466 -0.00028376990299513679 0 0.015152609029100738 -0.00097592600655444948 0 0.015857669239509091 -0.00084176172783412067 0 0.016327840070782432 -8.3979793442929567e-05 0 0.016218951494558938 0.00012044283650494434 0 0.015923519955602299 -0.0002374334915434862 0 0.016293055079934875 0.00059702557279305219 0 0.016218951494558938 0.00012044283650494434 0 0.016013438308055985 0.00039210132155747645 0 0.016218951494558938 0.00012044283650494434 0 0.015710384818953579 0.00014523814233763515 0 0.016013438308055985 0.00039210132155747645 0 0.015965122477419262 0.00014549154805354616 0 0.016264554864900301 -0.000130275688225076 0 0.016645532476941574 0.00020246063611238841 0 0.016585216002314218 -0.00020010734085939782 0 0.016373070925516941 1.5547729055010395e-05 0 0.016034300520104284 0.0010523543947732483 0 0.016264554864900301 -0.000130275688225076 0 0.016218951494558938 0.00012044283650494434 0 0.015688569687989758 0.00013608505386897548 0 0.015923519955602299 -0.0002374334915434862 0 0.015786855730714755 0.0006448126448345378 0 0.015710384818953579 0.00014523814233763515 0 0.016013438308055985 0.00039210132155747645 0 0.016264554864900301 -0.000130275688225076 0 0.016267512281632708 -0.0011121081208853179 0 0.015688569687989758 0.00013608505386897548 0 0.015923519955602299 -0.0002374334915434862 0 0.015559521365351259 -0.00070435394650968357 0 0.015923519955602299 -0.0002374334915434862 0 0.015821742460601061 -0.00065599775648879583 0 0.015559521365351259 -0.00070435394650968357 0 0.015644581246001651 -0.0014206687894106724 0 0.016267512281632708 -0.0011121081208853179 0 0.015644581246001651 -0.0014206687894106724 0 0.016009561390026 -0.0021509489067146502 0 0.016058276168687515 -0.0015231386095898853 0 0.015925390002864297 -0.0016679782034559002 0 0.01594302596532161 -0.001545479158526435 0 0.015823071229630406 -0.0028402816920219962 0 0.015839674767546302 -0.0029742175877266481 0 0.015703387220329445 -0.0029759719645640419 0 0.015823071229630406 -0.0028402816920219962 0 0.015952869087181357 -0.002939220509238226 0 0.015839674767546302 -0.0029742175877266481 0 0.016105001023817993 -0.003013307489069748 0 0.01606831430270907 -0.0027844157237321763 0 0.015952869087181357 -0.002939220509238226 0 0.015644581246001651 -0.0014206687894106724 0 0.015983088161406412 -0.0018850701165648287 0 0.015823071229630406 -0.0028402816920219962 0 0.01606831430270907 -0.0027844157237321763 0 0.015952869087181357 -0.002939220509238226 0 0.015952869087181357 -0.002939220509238226 0 0.015935708505603888 -0.0030756475619974936 0 0.015839674767546302 -0.0029742175877266481 0 0.016105001023817993 -0.003013307489069748 0 0.015952869087181357 -0.002939220509238226 0 0.015935708505603888 -0.0030756475619974936 0 0.016093963821394254 -0.0031975673148420657 0 0.016105001023817993 -0.003013307489069748 0 0.015935708505603888 -0.0030756475619974936 0 0.015935708505603888 -0.0030756475619974936 0 0.015807178663787023 -0.003088451415835817 0 0.015839674767546302 -0.0029742175877266481 0 0.015686441913923429 -0.0031264152309205089 0 0.015807178663787023 -0.003088451415835817 0 0.015703387220329445 -0.0029759719645640419 0 0.015807178663787023 -0.003088451415835817 0 0.015839674767546302 -0.0029742175877266481 0 0.015703387220329445 -0.0029759719645640419 0 0.0163211253916789 -0.0018072178542973866 0 0.016230527888335632 -0.0013473673077503837 0 0.016880480291437384 -0.0012299325744054954 0 0.016833214094239657 -0.0015459511074123057 0 0.0163211253916789 -0.0018072178542973866 0 0.016880480291437384 -0.0012299325744054954 0 0.016214476611660252 -0.0025483014622625418 0 0.016009561390026 -0.0021509489067146502 0 0.016777606340776647 -0.0019722049053997261 0 0.016833214094239657 -0.0015459511074123057 0 0.0163211253916789 -0.0018072178542973866 0 0.016137239021461677 -0.0022722135507232885 0 0.0163211253916789 -0.0018072178542973866 0 0.015676130958124514 -0.001687942797905375 0 0.0163211253916789 -0.0018072178542973866 0 0.016230527888335632 -0.0013473673077503837 0 0.015676130958124514 -0.001687942797905375 0 0.016230527888335632 -0.0013473673077503837 0 0.016030957241033029 -0.00071617167451398301 0 0.015648300812289108 -0.00097702059314095095 0 0.016230527888335632 -0.0013473673077503837 0 0.016809841396897996 -0.0012315608724962413 0 0.016457141653523865 -0.00078827853163351163 0 0.016485946249132424 -0.0013205131014125814 0 0.016267512281632708 -0.0011121081208853179 0 0.016009561390026 -0.0021509489067146502 0 0.016267512281632708 -0.0011121081208853179 0 0.01694003339382559 -0.00035559453316754081 0 0.016809841396897996 -0.0012315608724962413 0 0.016457141653523865 -0.00078827853163351163 0 0.016264554864900301 -0.000130275688225076 0 0.016300908383789902 -0.0002759325186456439 0 0.01694003339382559 -0.00035559453316754081 0 0.016457141653523865 -0.00078827853163351163 0 0.016292176846115607 -0.00032886968138462854 0 0.016149242283238618 0.0002534627966949048 0 0.016373070925516941 1.5547729055010395e-05 0 0.016107858206453718 -0.00019404527207404353 0 0.016585216002314218 -0.00020010734085939782 0 0.016373070925516941 1.5547729055010395e-05 0 0.016107858206453718 -0.00019404527207404353 0 0.016292176846115607 -0.00032886968138462854 0 0.016030957241033029 -0.00071617167451398301 0 0.015642765282404159 -0.00029465358633356067 0 0.015871990918862048 4.4123729528353652e-05 0 0.016107858206453718 -0.00019404527207404353 0 0.015594391365646757 -0.00020914123317182482 0 0.016300908383789902 -0.0002759325186456439 0 0.015592308200763145 -0.00025079438800109104 0 0.016230527888335632 -0.0013473673077503837 0 0.016457141653523865 -0.00078827853163351163 0 0.016030957241033029 -0.00071617167451398301 0 0.016457141653523865 -0.00078827853163351163 0 0.016292176846115607 -0.00032886968138462854 0 0.016030957241033029 -0.00071617167451398301 0 0.015642765282404159 -0.00029465358633356067 0 0.015323265048061339 -0.00065250113556181209 0 0.015648300812289108 -0.00097702059314095095 0 0.016030957241033029 -0.00071617167451398301 0 0.015642765282404159 -0.00029465358633356067 0 0.015648300812289108 -0.00097702059314095095 0 0.015317130659040069 6.6376425102559507e-05 0 0.015594391365646757 -0.00020914123317182482 0 0.014999990115912173 -0.00024703486560984328 0 0.015642765282404159 -0.00029465358633356067 0 0.014999987442023721 -0.00024722509146274645 0 0.015323265048061339 -0.00065250113556181209 0 0.015592308200763145 -0.00025079438800109104 0 0.015000151156650331 -0.00024717554653793376 0 0.014999987442023721 -0.00024722509146274645 0 0.015323265048061339 -0.00065250113556181209 0 0.014999981990255975 -0.0010897513321639336 0 0.015323265048061339 -0.00065250113556181209 0 0.014999981990255975 -0.0010897513321639336 0 0.015648300812289108 -0.00097702059314095095 0 0.014999981990255975 -0.0010897513321639336 0 0.015648300812289108 -0.00097702059314095095 0 0.015676130958124514 -0.001687942797905375 0 0.016230527888335632 -0.0013473673077503837 0 0.015648300812289108 -0.00097702059314095095 0 0.015676130958124514 -0.001687942797905375 0 0.014999940811182048 -0.0019323914489350058 0 0.014999981990255975 -0.0010897513321639336 0 0.015676130958124514 -0.001687942797905375 0 0.01679397247800329 -0.0023711409902803433 0 0.0164853594189786 -0.0018229486178436797 0 0.01728535996060869 -0.0018603578029122803 0 0.017391611496780347 -0.0036745386692152138 0 0.017486202975626197 -0.0038356209962784413 0 0.017224615097032627 -0.0038508902501808405 0 0.017363633502906199 -0.0036320475659016548 0 0.017699352717971913 -0.0032783927009299024 0 0.017610755911074239 -0.0036538063630327305 0 0.017363633502906199 -0.0036320475659016548 0 0.017610755911074239 -0.0036538063630327305 0 0.017486202975626197 -0.0038356209962784413 0 0.017163314054377047 -0.0033345306327054562 0 0.017505149442174735 -0.0038822635158835502 0 0.017406944372950522 -0.0036721703554908522 0 0.017194834710156936 -0.0036567557507667719 0 0.017224615097032627 -0.0038508902501808405 0 0.017163314054377047 -0.0033345306327054562 0 0.017220511195032279 -0.003835440037913653 0 0.017406944372950522 -0.0036721703554908522 0 0.017194834710156936 -0.0036567557507667719 0 0.017229089673468517 -0.0033444259631643897 0 0.017194834710156936 -0.0036567557507667719 0 0.017224615097032627 -0.0038508902501808405 0 0.017025996854094012 -0.0038242152568640606 0 0.017163314054377047 -0.0033345306327054562 0 0.016826335437294122 -0.0025052767688691527 0 0.017194834710156936 -0.0036567557507667719 0 0.017229089673468517 -0.0033444259631643897 0 0.017037878200376926 -0.0035772232474734823 0 0.017163314054377047 -0.0033345306327054562 0 0.017542735975166698 -0.0024926991281068282 0 0.017699352717971913 -0.0032783927009299024 0 0.01809266724062375 -0.003430658028331153 0 0.017827080853879591 -0.0036958958594818527 0 0.01809266724062375 -0.003430658028331153 0 0.017827080853879591 -0.0036958958594818527 0 0.018128197902966423 -0.003924830304986371 0 0.017349328460028381 -0.003529997274325322 0 0.017292413468389872 -0.0042115928955243831 0 0.017699352717971913 -0.0032783927009299024 0 0.017827080853879591 -0.0036958958594818527 0 0.017610755911074239 -0.0036538063630327305 0 0.017827080853879591 -0.0036958958594818527 0 0.017610755911074239 -0.0036538063630327305 0 0.017648052202430774 -0.0038450431188404781 0 0.017827080853879591 -0.0036958958594818527 0 0.017648052202430774 -0.0038450431188404781 0 0.017778237967287263 -0.0039984725966165551 0 0.017648052202430774 -0.0038450431188404781 0 0.017778237967287263 -0.0039984725966165551 0 0.017541976345221283 -0.0040297428364103197 0 0.017827080853879591 -0.0036958958594818527 0 0.017778237967287263 -0.0039984725966165551 0 0.018128197902966423 -0.003924830304986371 0 0.017778237967287263 -0.0039984725966165551 0 0.017883741484319867 -0.0042681764794010972 0 0.018128197902966423 -0.003924830304986371 0 0.01720202709403254 -0.0047492229464864456 0 0.017293691344173173 -0.0046064647084864936 0 0.017304971473713945 -0.004770264194148323 0 0.017602694717892019 -0.0044983207519625687 0 0.017292413468389872 -0.0042115928955243831 0 0.017778237967287263 -0.0039984725966165551 0 0.017883741484319867 -0.0042681764794010972 0 0.017626506096261842 -0.0042393279361870118 0 0.017778237967287263 -0.0039984725966165551 0 0.017626506096261842 -0.0042393279361870118 0 0.017541976345221283 -0.0040297428364103197 0 0.017541976345221283 -0.0040297428364103197 0 0.017343674912191454 -0.0040084069337352601 0 0.017352868237741667 -0.0042688350391497263 0 0.017626506096261842 -0.0042393279361870118 0 0.017541976345221283 -0.0040297428364103197 0 0.017352868237741667 -0.0042688350391497263 0 0.017541976345221283 -0.0040297428364103197 0 0.017486202975626197 -0.0038356209962784413 0 0.017343674912191454 -0.0040084069337352601 0 0.017648052202430774 -0.0038450431188404781 0 0.017541976345221283 -0.0040297428364103197 0 0.017486202975626197 -0.0038356209962784413 0 0.017610755911074239 -0.0036538063630327305 0 0.017648052202430774 -0.0038450431188404781 0 0.017486202975626197 -0.0038356209962784413 0 0.017486202975626197 -0.0038356209962784413 0 0.017224615097032627 -0.0038508902501808405 0 0.017343674912191454 -0.0040084069337352601 0 0.017224615097032627 -0.0038508902501808405 0 0.017343674912191454 -0.0040084069337352601 0 0.01711693531279131 -0.0040714108078367438 0 0.017343674912191454 -0.0040084069337352601 0 0.017352868237741667 -0.0042688350391497263 0 0.01711693531279131 -0.0040714108078367438 0 0.016937983816624209 -0.0044107549808393015 0 0.017352868237741667 -0.0042688350391497263 0 0.01711693531279131 -0.0040714108078367438 0 0.016937983816624209 -0.0044107549808393015 0 0.01711693531279131 -0.0040714108078367438 0 0.016847062271261155 -0.0040456827125547176 0 0.016681994508824006 -0.0042667391477585566 0 0.016847062271261155 -0.0040456827125547176 0 0.016586023010806469 -0.003972330705586509 0 0.016681994508824006 -0.0042667391477585566 0 0.016937983816624209 -0.0044107549808393015 0 0.016847062271261155 -0.0040456827125547176 0 0.016847062271261155 -0.0040456827125547176 0 0.016586023010806469 -0.003972330705586509 0 0.016789641759672173 -0.0036895712442494618 0 0.016847062271261155 -0.0040456827125547176 0 0.017025996854094012 -0.0038242152568640606 0 0.016789641759672173 -0.0036895712442494618 0 0.017224615097032627 -0.0038508902501808405 0 0.01711693531279131 -0.0040714108078367438 0 0.017025996854094012 -0.0038242152568640606 0 0.01711693531279131 -0.0040714108078367438 0 0.016847062271261155 -0.0040456827125547176 0 0.017025996854094012 -0.0038242152568640606 0 0.01646731735801071 -0.0042136195527622761 0 0.016586023010806469 -0.003972330705586509 0 0.016309879006194239 -0.0038810282036361144 0 0.016467066364684028 -0.004174894250719023 0 0.016389011718780155 -0.003819920324307619 0 0.016681994508824006 -0.0042667391477585566 0 0.01646731735801071 -0.0042136195527622761 0 0.016586023010806469 -0.003972330705586509 0 0.016586023010806469 -0.003972330705586509 0 0.016309879006194239 -0.0038810282036361144 0 0.016463101832670527 -0.0036350248244378901 0 0.016190556160483829 -0.0034824804954445118 0 0.016309879006194239 -0.0038810282036361144 0 0.016463101832670527 -0.0036350248244378901 0 0.016586023010806469 -0.003972330705586509 0 0.016463101832670527 -0.0036350248244378901 0 0.016789641759672173 -0.0036895712442494618 0 0.016463101832670527 -0.0036350248244378901 0 0.016662447031162968 -0.0034506269235056839 0 0.016789641759672173 -0.0036895712442494618 0 0.016463101832670527 -0.0036350248244378901 0 0.016662447031162968 -0.0034506269235056839 0 0.016418443140397719 -0.0033720864891487847 0 0.016662447031162968 -0.0034506269235056839 0 0.016418443140397719 -0.0033720864891487847 0 0.016716742352557996 -0.0032167860674849739 0 0.016190556160483829 -0.0034824804954445118 0 0.016463101832670527 -0.0036350248244378901 0 0.016418443140397719 -0.0033720864891487847 0 0.017194834710156936 -0.0036567557507667719 0 0.017025996854094012 -0.0038242152568640606 0 0.017037878200376926 -0.0035772232474734823 0 0.017025996854094012 -0.0038242152568640606 0 0.017037878200376926 -0.0035772232474734823 0 0.016789641759672173 -0.0036895712442494618 0 0.016662447031162968 -0.0034506269235056839 0 0.016926291906736075 -0.0033326567850539466 0 0.016716742352557996 -0.0032167860674849739 0 0.016662447031162968 -0.0034506269235056839 0 0.016789641759672173 -0.0036895712442494618 0 0.016926291906736075 -0.0033326567850539466 0 0.017037878200376926 -0.0035772232474734823 0 0.016789641759672173 -0.0036895712442494618 0 0.016926291906736075 -0.0033326567850539466 0 0.017229089673468517 -0.0033444259631643897 0 0.017037878200376926 -0.0035772232474734823 0 0.016926291906736075 -0.0033326567850539466 0 0.017229089673468517 -0.0033444259631643897 0 0.016926291906736075 -0.0033326567850539466 0 0.017051838749184933 -0.0030091155310134924 0 0.016926291906736075 -0.0033326567850539466 0 0.016810325102600217 -0.0029826999669506048 0 0.017051838749184933 -0.0030091155310134924 0 0.016826335437294122 -0.0025052767688691527 0 0.0166600248368514 -0.0022367019498421509 0 0.016926291906736075 -0.0033326567850539466 0 0.016716742352557996 -0.0032167860674849739 0 0.016810325102600217 -0.0029826999669506048 0 0.016810325102600217 -0.0029826999669506048 0 0.017051838749184933 -0.0030091155310134924 0 0.016863355064979321 -0.0026673327591386934 0 0.016716742352557996 -0.0032167860674849739 0 0.016810325102600217 -0.0029826999669506048 0 0.016567898261980234 -0.0029994007856059962 0 0.0166600248368514 -0.0022367019498421509 0 0.016274403507284627 -0.0013021084775219039 0 0.016189143418150503 -0.0012777488175339455 0 0.016220386904770217 -0.00087316074686149604 0 0.016533284212842683 -0.00088582626906041873 0 0.016190556160483829 -0.0034824804954445118 0 0.016418443140397719 -0.0033720864891487847 0 0.016340889864976591 -0.0031151833071667171 0 0.01641403039480701 -0.0033794091525103272 0 0.016497453347380113 -0.0032416174954392777 0 0.016716742352557996 -0.0032167860674849739 0 0.016340889864976591 -0.0031151833071667171 0 0.016567898261980234 -0.0029994007856059962 0 0.016418443140397719 -0.0033720864891487847 0 0.016716742352557996 -0.0032167860674849739 0 0.016340889864976591 -0.0031151833071667171 0 0.016810325102600217 -0.0029826999669506048 0 0.016567898261980234 -0.0029994007856059962 0 0.016498077539356826 -0.0027396778138733518 0 0.016340889864976591 -0.0031151833071667171 0 0.016567898261980234 -0.0029994007856059962 0 0.016498077539356826 -0.0027396778138733518 0 0.016476644100375519 -0.0027768921200291442 0 0.016661907981948249 -0.0029826649264625832 0 0.016588741563789824 -0.0026573779008884535 0 0.016497453347380113 -0.0032416174954392777 0 0.016321758908969735 -0.001647296147580502 0 0.016661907981948249 -0.0029826649264625832 0 0.016588741563789824 -0.0026573779008884535 0 0.016830195951680293 -0.0026069553801252674 0 0.016324081704198426 -0.0013128521080178937 0 0.016321758908969735 -0.001647296147580502 0 0.015998712802568649 1.9512243159780911e-05 0 0.016514336634262189 0.00011591551774631987 0 0.0162023905161599 0.00052490492677864317 0 0.0157585640575327 0.00033041575460692992 0 0.015998712802568649 1.9512243159780911e-05 0 0.0162023905161599 0.00052490492677864317 0 0.016321758908969735 -0.001647296147580502 0 0.016274403507284627 -0.0013021084775219039 0 0.016514336634262189 0.00011591551774631987 0 0.016886676523045138 0.0009449584918038757 0 0.0162023905161599 0.00052490492677864317 0 0.015425857793663098 -0.0007983948405145756 0 0.0156593244832899 -0.00025830664005913962 0 0.015784799441368187 -0.00045521321724574081 0 0.016321758908969735 -0.001647296147580502 0 0.015942238854158491 0.0017578750177810534 0 0.016180483581319832 0.0010160117919118638 0 0.016886676523045138 0.0009449584918038757 0 0.0162023905161599 0.00052490492677864317 0 0.016054436279556709 0.0024832425476565231 0 0.015618105435559651 0.00077930401400366225 0 0.016180483581319832 0.0010160117919118638 0 0.015868109275961453 0.00071424351180351324 0 0.0162023905161599 0.00052490492677864317 0 0.0157585640575327 0.00033041575460692992 0 0.015868109275961453 0.00071424351180351324 0 0.0162023905161599 0.00052490492677864317 0 0.016189143418150503 -0.0012777488175339455 0 0.016220386904770217 -0.00087316074686149604 0 0.015901039191019185 -0.0007375609963052145 0 0.016065633076884082 -0.00070461810376900723 0 0.016220386904770217 -0.00087316074686149604 0 0.015901039191019185 -0.0007375609963052145 0 0.016065633076884082 -0.00070461810376900723 0 0.016220386904770217 -0.00087316074686149604 0 0.016369267712201655 -0.00058789990262170212 0 0.015425857793663098 -0.0007983948405145756 0 0.01593073236932167 -0.00070503161319224671 0 0.015784799441368187 -0.00045521321724574081 0 0.016810325102600217 -0.0029826999669506048 0 0.016498077539356826 -0.0027396778138733518 0 0.016863355064979321 -0.0026673327591386934 0 0.016065633076884082 -0.00070461810376900723 0 0.01591917043777711 -0.00072542217037130342 0 0.016003942173327495 -0.00047609894050743782 0 0.016112997498793285 -0.0011074264479129013 0 0.016274403507284627 -0.0013021084775219039 0 0.01591917043777711 -0.00072542217037130342 0 0.016003942173327495 -0.00047609894050743782 0 0.015784799441368187 -0.00045521321724574081 0 0.0156593244832899 -0.00025830664005913962 0 0.016003942173327495 -0.00047609894050743782 0 0.015784799441368187 -0.00045521321724574081 0 0.0156593244832899 -0.00025830664005913962 0 0.016003942173327495 -0.00047609894050743782 0 0.016194469578128718 -0.00030808117856800449 0 0.016274403507284627 -0.0013021084775219039 0 0.015730360552946212 -0.00036428459339474505 0 0.015942238854158491 0.0017578750177810534 0 0.016087500830187354 0.0016134596353872459 0 0.016065633076884082 -0.00070461810376900723 0 0.016003942173327495 -0.00047609894050743782 0 0.016369267712201655 -0.00058789990262170212 0 0.016003942173327495 -0.00047609894050743782 0 0.016194469578128718 -0.00030808117856800449 0 0.016369267712201655 -0.00058789990262170212 0 0.016194469578128718 -0.00030808117856800449 0 0.016369267712201655 -0.00058789990262170212 0 0.016780584554584321 -0.00035873856539061567 0 0.016249293039432029 0.0036573582656007878 0 0.016051260396222192 0.0035567377752788029 0 0.016286636292369861 0.0035083823505259269 0 0.016087500830187354 0.0016134596353872459 0 0.016522534534109238 0.0015747717768104996 0 0.016522534534109238 0.0015747717768104996 0 0.017108564686254692 0.0015027057442797652 0 0.016780584554584321 -0.00035873856539061567 0 0.017059627281117644 -0.00066322461153232566 0 0.017373952228049331 -0.00042038348572204248 0 0.017059627281117644 -0.00066322461153232566 0 0.016533284212842683 -0.00088582626906041873 0 0.017018727957942147 -0.0010422429334292593 0 0.016780584554584321 -0.00035873856539061567 0 0.017059627281117644 -0.00066322461153232566 0 0.016533284212842683 -0.00088582626906041873 0 0.016369267712201655 -0.00058789990262170212 0 0.016780584554584321 -0.00035873856539061567 0 0.016533284212842683 -0.00088582626906041873 0 0.016220386904770217 -0.00087316074686149604 0 0.016369267712201655 -0.00058789990262170212 0 0.016533284212842683 -0.00088582626906041873 0 0.01728535996060869 -0.0018603578029122803 0 0.016656177249442596 -0.0013587741031052915 0 0.017018727957942147 -0.0010422429334292593 0 0.016533284212842683 -0.00088582626906041873 0 0.016656177249442596 -0.0013587741031052915 0 0.017018727957942147 -0.0010422429334292593 0 0.0164853594189786 -0.0018229486178436797 0 0.01728535996060869 -0.0018603578029122803 0 0.016656177249442596 -0.0013587741031052915 0 0.016189143418150503 -0.0012777488175339455 0 0.016533284212842683 -0.00088582626906041873 0 0.016656177249442596 -0.0013587741031052915 0 0.0164853594189786 -0.0018229486178436797 0 0.016189143418150503 -0.0012777488175339455 0 0.016656177249442596 -0.0013587741031052915 0 0.01728535996060869 -0.0018603578029122803 0 0.017018727957942147 -0.0010422429334292593 0 0.017430920722024266 -0.0011860731425945563 0 0.017699352717971913 -0.0032783927009299024 0 0.01809266724062375 -0.003430658028331153 0 0.018044573142455087 -0.0029142411738855094 0 0.017349328460028381 -0.003529997274325322 0 0.017629426619438438 -0.0021992673785092621 0 0.017542735975166698 -0.0024926991281068282 0 0.017629426619438438 -0.0021992673785092621 0 0.01728535996060869 -0.0018603578029122803 0 0.017430920722024266 -0.0011860731425945563 0 0.01776895707299949 -0.0013596940220897359 0 0.017018727957942147 -0.0010422429334292593 0 0.017430920722024266 -0.0011860731425945563 0 0.017423185168227988 -0.00075362101887383977 0 0.017430920722024266 -0.0011860731425945563 0 0.01776895707299949 -0.0013596940220897359 0 0.017721684245820536 -0.00093062236545216873 0 0.017629426619438438 -0.0021992673785092621 0 0.017679384852722777 -0.00077376274606271789 0 0.017702546460040727 -0.0013402703618296448 0 0.017668216863287595 -0.00091426727519525967 0 0.018078127366698341 -0.00095246132437624119 0 0.017721684245820536 -0.00093062236545216873 0 0.017423185168227988 -0.00075362101887383977 0 0.017653320572610199 -0.00050706790523592251 0 0.017430920722024266 -0.0011860731425945563 0 0.017721684245820536 -0.00093062236545216873 0 0.017423185168227988 -0.00075362101887383977 0 0.017679384852722777 -0.00077376274606271789 0 0.017663743813460475 -0.00060862307553829033 0 0.017668216863287595 -0.00091426727519525967 0 0.017805777023555375 -0.0006940234951618347 0 0.017653320572610199 -0.00050706790523592251 0 0.017059627281117644 -0.00066322461153232566 0 0.017018727957942147 -0.0010422429334292593 0 0.017423185168227988 -0.00075362101887383977 0 0.017059627281117644 -0.00066322461153232566 0 0.017423185168227988 -0.00075362101887383977 0 0.017373952228049331 -0.00042038348572204248 0 0.016566087655196737 0.0036330764899186034 0 0.016286636292369861 0.0035083823505259269 0 0.016624827152555897 0.0034275166759098375 0 0.017423185168227988 -0.00075362101887383977 0 0.017373952228049331 -0.00042038348572204248 0 0.017653320572610199 -0.00050706790523592251 0 0.017373952228049331 -0.00042038348572204248 0 0.017653320572610199 -0.00050706790523592251 0 0.017927609828465037 -0.0004719130963018309 0 0.016898762295731295 0.0036240728087015644 0 0.016624827152555897 0.0034275166759098375 0 0.016978704744683926 0.0033693334316083636 0 0.017108564686254692 0.0015027057442797652 0 0.016942716179237639 0.0014171712108247197 0 0.017805777023555375 -0.0006940234951618347 0 0.017653320572610199 -0.00050706790523592251 0 0.017927609828465037 -0.0004719130963018309 0 0.016029804072348868 0.0039005417467959124 0 0.016942716179237639 0.0014171712108247197 0 0.015414363908777309 0.0022230218359750946 0 0.015675254373220239 0.0013852081708984236 0 0.01601331227805736 0.0017791370368430456 0 0.015675254373220239 0.0013852081708984236 0 0.016176985714760575 0.0013269737241257322 0 0.01601331227805736 0.0017791370368430456 0 0.016942716179237639 0.0014171712108247197 0 0.015921590871506072 0.0014171981221134582 0 0.016176985714760575 0.0013269737241257322 0 0.01601331227805736 0.0017791370368430456 0 0.016457045954970086 0.0016901250455878798 0 0.016378863015487195 0.0022269714522007047 0 0.01601331227805736 0.0017791370368430456 0 0.016457045954970086 0.0016901250455878798 0 0.016457045954970086 0.0016901250455878798 0 0.016906673657609391 0.0018924783846840309 0 0.016806230764195646 0.0012188853854214017 0 0.016176985714760575 0.0013269737241257322 0 0.016457045954970086 0.0016901250455878798 0 0.016806230764195646 0.0012188853854214017 0 0.017375888348125486 -0.0017988023258640232 0 0.016896400407989454 -0.002301796488280757 0 0.017539526714328658 -0.0022230060922829721 0 0.01710538922674101 -0.00051274894306172283 0 0.016857687181295725 -0.0013581136875808601 0 0.016176985714760575 0.0013269737241257322 0 0.016806230764195646 0.0012188853854214017 0 0.015989720877871018 0.00036589865095782689 0 0.017805777023555375 -0.0006940234951618347 0 0.017927609828465037 -0.0004719130963018309 0 0.018078127366698341 -0.00095246132437624119 0 0.017668216863287595 -0.00091426727519525967 0 0.017805777023555375 -0.0006940234951618347 0 0.018078127366698341 -0.00095246132437624119 0 0.015670235981747563 0.0013754057756474427 0 0.016176985714760575 0.0013269737241257322 0 0.015989720877871018 0.00036589865095782689 0 0.016942716179237639 0.0014171712108247197 0 0.016857687181295725 -0.0013581136875808601 0 0.016505573529174908 0.0023027242807411876 0 0.015652020262393793 0.00088419099973117824 0 0.01779380706202454 -0.0016461708533717873 0 0.017003415283470161 -0.0013845980198781088 0 0.017721012987373937 -0.0015826998820644685 0 0.014150381606438179 0.0029154484137737489 0 0.014935362783672145 0.0029776863527572195 0 0.014235134233383503 0.0034616669722486552 0 0.017003415283470161 -0.0013845980198781088 0 0.017721012987373937 -0.0015826998820644685 0 0.017112635767284202 -0.00051458427868931664 0 0.01779380706202454 -0.0016461708533717873 0 0.017375888348125486 -0.0017988023258640232 0 0.017617232122746733 -0.0017754368997816236 0 0.017721012987373937 -0.0015826998820644685 0 0.017617232122746733 -0.0017754368997816236 0 0.017830942735909218 -0.0020608567292249654 0 0.016505573529174908 0.0023027242807411876 0 0.01710538922674101 -0.00051274894306172283 0 0.017595311727795129 0.0020477227787774363 0 0.016906673657609391 0.0018924783846840309 0 0.016806230764195646 0.0012188853854214017 0 0.01779380706202454 -0.0016461708533717873 0 0.017721012987373937 -0.0015826998820644685 0 0.017617232122746733 -0.0017754368997816236 0 0.017375888348125486 -0.0017988023258640232 0 0.017617232122746733 -0.0017754368997816236 0 0.017539526714328658 -0.0022230060922829721 0 0.017617232122746733 -0.0017754368997816236 0 0.017539526714328658 -0.0022230060922829721 0 0.017830942735909218 -0.0020608567292249654 0 0.017539526714328658 -0.0022230060922829721 0 0.017830942735909218 -0.0020608567292249654 0 0.017895587851159422 -0.0025335752085531072 0 0.01767040539581511 -0.0015470635361819439 0 0.017955005823049729 -0.0013984904267695341 0 0.017721012987373937 -0.0015826998820644685 0 0.017830942735909218 -0.0020608567292249654 0 0.018345140627725718 -0.0022293832370254996 0 0.017830942735909218 -0.0020608567292249654 0 0.018345140627725718 -0.0022293832370254996 0 0.017895587851159422 -0.0025335752085531072 0 0.018345140627725718 -0.0022293832370254996 0 0.018292762458405849 -0.0029216058735587118 0 0.017895587851159422 -0.0025335752085531072 0 0.018292762458405849 -0.0029216058735587118 0 0.017895587851159422 -0.0025335752085531072 0 0.01797233494135754 -0.0031391574250680464 0 0.017895587851159422 -0.0025335752085531072 0 0.017387992399004942 -0.0026171553986448102 0 0.017463230135819258 -0.0030639341289706687 0 0.017539526714328658 -0.0022230060922829721 0 0.017895587851159422 -0.0025335752085531072 0 0.017387992399004942 -0.0026171553986448102 0 0.018190029530935778 -0.0035575129174059178 0 0.01797233494135754 -0.0031391574250680464 0 0.017444840132408487 -0.0035091467893473296 0 0.017895587851159422 -0.0025335752085531072 0 0.01797233494135754 -0.0031391574250680464 0 0.017444840132408487 -0.0035091467893473296 0 0.017878266464478834 -0.0025762978755758999 0 0.017483316671061448 -0.0032561134601994473 0 0.018292762458405849 -0.0029216058735587118 0 0.018190029530935778 -0.0035575129174059178 0 0.018904536747386756 -0.0031172216859769396 0 0.018292762458405849 -0.0029216058735587118 0 0.018190029530935778 -0.0035575129174059178 0 0.01797233494135754 -0.0031391574250680464 0 0.016579185833882605 -0.0027387193409089739 0 0.016953260606388625 -0.0023549098329626733 0 0.01710882212845536 -0.0028757015439742624 0 0.016857687181295725 -0.0013581136875808601 0 0.017174156741419498 -0.003193383447419628 0 0.017629426619438438 -0.0021992673785092621 0 0.016857687181295725 -0.0013581136875808601 0 0.016896400407989454 -0.002301796488280757 0 0.017387992399004942 -0.0026171553986448102 0 0.01710882212845536 -0.0028757015439742624 0 0.016896400407989454 -0.002301796488280757 0 0.017539526714328658 -0.0022230060922829721 0 0.017387992399004942 -0.0026171553986448102 0 0.017387992399004942 -0.0026171553986448102 0 0.017463230135819258 -0.0030639341289706687 0 0.01710882212845536 -0.0028757015439742624 0 0.017463230135819258 -0.0030639341289706687 0 0.01710882212845536 -0.0028757015439742624 0 0.016968769219243684 -0.0031998450418391448 0 0.016579185833882605 -0.0027387193409089739 0 0.01710882212845536 -0.0028757015439742624 0 0.016968769219243684 -0.0031998450418391448 0 0.016649084495949974 -0.0034422373849159176 0 0.016579185833882605 -0.0027387193409089739 0 0.016968769219243684 -0.0031998450418391448 0 0.016649084495949974 -0.0034422373849159176 0 0.016968769219243684 -0.0031998450418391448 0 0.017085908195548002 -0.003598243538014005 0 0.017127567181934273 -0.0038891956982992017 0 0.017292413468389872 -0.0042115928955243831 0 0.016649084495949974 -0.0034422373849159176 0 0.017085908195548002 -0.003598243538014005 0 0.016722497688242303 -0.0041331776188809257 0 0.017282691200407884 -0.0041377970161553604 0 0.017509940952068707 -0.0042230788815812506 0 0.017409095820934813 -0.0044101186661545831 0 0.017282691200407884 -0.0041377970161553604 0 0.017509940952068707 -0.0042230788815812506 0 0.017582235741550194 -0.003976609681512415 0 0.017463230135819258 -0.0030639341289706687 0 0.016968769219243684 -0.0031998450418391448 0 0.017085908195548002 -0.003598243538014005 0 0.017483316671061448 -0.0032561134601994473 0 0.017127567181934273 -0.0038891956982992017 0 0.017444840132408487 -0.0035091467893473296 0 0.017282691200407884 -0.0041377970161553604 0 0.017582235741550194 -0.003976609681512415 0 0.018235175483724723 -0.0039183687060313204 0 0.0175144768594576 -0.0039834195438352349 0 0.017730785839049894 -0.0040615722263525221 0 0.017582235741550194 -0.003976609681512415 0 0.017762889672962516 -0.0041135748652058532 0 0.018190029530935778 -0.0035575129174059178 0 0.017444840132408487 -0.0035091467893473296 0 0.017582235741550194 -0.003976609681512415 0 0.017730785839049894 -0.0040615722263525221 0 0.017762889672962516 -0.0041135748652058532 0 0.017711218529486546 -0.0041043829704587855 0 0.017762889672962516 -0.0041135748652058532 0 0.017804140146266131 -0.0041009805873255837 0 0.017724663000705798 -0.0041176179534432545 0 0.017762889672962516 -0.0041135748652058532 0 0.017838564488975344 -0.0040818730944769347 0 0.017804140146266131 -0.0041009805873255837 0 0.017768909163888132 -0.0041261128683724993 0 0.017733935319758747 -0.0042332404919898595 0 0.017509940952068707 -0.0042230788815812506 0 0.017762889672962516 -0.0041135748652058532 0 0.017642861099117915 -0.0043877088306452233 0 0.017509940952068707 -0.0042230788815812506 0 0.017582235741550194 -0.003976609681512415 0 0.017762889672962516 -0.0041135748652058532 0 0.017838564488975344 -0.0040818730944769347 0 0.017804140146266131 -0.0041009805873255837 0 0.017896555039437146 -0.004104795283786768 0 0.017804140146266131 -0.0041009805873255837 0 0.017896555039437146 -0.004104795283786768 0 0.017773381923071707 -0.0040950526326498536 0 0.017896555039437146 -0.004104795283786768 0 0.017839131841064219 -0.0040907826948913305 0 0.018062030369207293 -0.0041272706707564171 0 0.017896555039437146 -0.004104795283786768 0 0.017903364097707843 -0.0041759457470518582 0 0.018062030369207293 -0.0041272706707564171 0 0.017896555039437146 -0.004104795283786768 0 0.017839131841064219 -0.0040907826948913305 0 0.017773381923071707 -0.0040950526326498536 0 0.017896555039437146 -0.004104795283786768 0 0.017903364097707843 -0.0041759457470518582 0 0.017757976231709618 -0.0041422957146691249 0 0.017838564488975344 -0.0040818730944769347 0 0.017896555039437146 -0.004104795283786768 0 0.017757976231709618 -0.0041422957146691249 0 0.017733935319758747 -0.0042332404919898595 0 0.017632122455991207 -0.0044039563484228857 0 0.017511905126363976 -0.0046491013064072512 0 0.017345761007832167 -0.0045971153274743885 0 0.017409095820934813 -0.0044101186661545831 0 0.017511905126363976 -0.0046491013064072512 0 0.017345761007832167 -0.0045971153274743885 0 0.017416859469241215 -0.0048734002700448996 0 0.017345761007832167 -0.0045971153274743885 0 0.017180171780487689 -0.0044463803206876715 0 0.017304971473713945 -0.004770264194148323 0 0.017292413468389872 -0.0042115928955243831 0 0.017288649737666327 -0.0048789896318173027 0 0.017345761007832167 -0.0045971153274743885 0 0.017180171780487689 -0.0044463803206876715 0 0.017409095820934813 -0.0044101186661545831 0 0.017282691200407884 -0.0041377970161553604 0 0.017180171780487689 -0.0044463803206876715 0 0.017409095820934813 -0.0044101186661545831 0 0.017642861099117915 -0.0043877088306452233 0 0.017511905126363976 -0.0046491013064072512 0 0.017409095820934813 -0.0044101186661545831 0 0.017509940952068707 -0.0042230788815812506 0 0.017642861099117915 -0.0043877088306452233 0 0.017409095820934813 -0.0044101186661545831 0 0.010360695659041337 0.0016403068347375276 0 0.010111315884540582 0.0020305106273430336 0 0.0098520129599986746 0.0015666349678559578 0 0.013928146551641225 -0.0012433819976976083 0 0.013711556172039608 -0.00094171079149233945 0 0.017454620698901399 -0.0041170883865040697 0 0.017133558879597232 -0.0039108997469282959 0 0.01742830038864366 -0.0039118349502559645 0 0.01742830038864366 -0.0039118349502559645 0 0.017633219887048732 -0.0040067019778438793 0 0.017555706363207954 -0.0037618840723264318 0 0.017454620698901399 -0.0041170883865040697 0 0.01742830038864366 -0.0039118349502559645 0 0.017633219887048732 -0.0040067019778438793 0 0.017633219887048732 -0.0040067019778438793 0 0.017839131841064219 -0.0040907826948913305 0 0.01772262142796004 -0.0039696081205781181 0 0.017633219887048732 -0.0040067019778438793 0 0.017839131841064219 -0.0040907826948913305 0 0.017773381923071707 -0.0040950526326498536 0 0.017804140146266131 -0.0041009805873255837 0 0.017773381923071707 -0.0040950526326498536 0 0.017724663000705798 -0.0041176179534432545 0 0.017773381923071707 -0.0040950526326498536 0 0.017647386991439893 -0.0041105976173295292 0 0.017724663000705798 -0.0041176179534432545 0 0.017633219887048732 -0.0040067019778438793 0 0.017773381923071707 -0.0040950526326498536 0 0.017647386991439893 -0.0041105976173295292 0 0.017454620698901399 -0.0041170883865040697 0 0.017633219887048732 -0.0040067019778438793 0 0.017647386991439893 -0.0041105976173295292 0 0.017454620698901399 -0.0041170883865040697 0 0.017647386991439893 -0.0041105976173295292 0 0.017635781089747952 -0.0041268037407701449 0 0.017647386991439893 -0.0041105976173295292 0 0.017724663000705798 -0.0041176179534432545 0 0.017635781089747952 -0.0041268037407701449 0 0.017762889672962516 -0.0041135748652058532 0 0.017724663000705798 -0.0041176179534432545 0 0.017711218529486546 -0.0041043829704587855 0 0.017724663000705798 -0.0041176179534432545 0 0.017711218529486546 -0.0041043829704587855 0 0.017635781089747952 -0.0041268037407701449 0 0.017711218529486546 -0.0041043829704587855 0 0.017635781089747952 -0.0041268037407701449 0 0.017693897488412845 -0.0040960674127566449 0 0.013869987234162296 -0.0013765639022077945 0 0.016032150114677721 -0.001461536737052652 0 0.010619578531590073 0.0012789934614327741 0 0.010148311218171498 0.0014039821155611932 0 0.010421001298662119 0.0010513105387044178 0 0.013928146551641225 -0.0012433819976976083 0 0.013869987234162296 -0.0013765639022077945 0 0.010360695659041337 0.0016403068347375276 0 0.010619578531590073 0.0012789934614327741 0 0.010148311218171498 0.0014039821155611932 0 0.010148311218171498 0.0014039821155611932 0 0.010019298275599667 0.0011487760372949206 0 0.0098520129599986746 0.0015666349678559578 0 0.010360695659041337 0.0016403068347375276 0 0.010148311218171498 0.0014039821155611932 0 0.0098520129599986746 0.0015666349678559578 0 0.010148311218171498 0.0014039821155611932 0 0.010019298275599667 0.0011487760372949206 0 0.010421001298662119 0.0010513105387044178 0 0.010019298275599667 0.0011487760372949206 0 0.010424027787929942 0.0006785160293144146 0 0.0098782616856844946 0.00087179278065720417 0 0.010019298275599667 0.0011487760372949206 0 0.010421001298662119 0.0010513105387044178 0 0.010424027787929942 0.0006785160293144146 0 0.010424027787929942 0.0006785160293144146 0 0.0099403381531760256 0.00050216554283580197 0 0.0098782616856844946 0.00087179278065720417 0 0.017730785839049894 -0.0040615722263525221 0 0.017711218529486546 -0.0041043829704587855 0 0.017693897488412845 -0.0040960674127566449 0 0.018235175483724723 -0.0039183687060313204 0 0.016032150114677721 -0.001461536737052652 0 0.010421001298662119 0.0010513105387044178 0 0.010424027787929942 0.0006785160293144146 0 0.010899615901714831 0.00088847335487730373 0 0.010619578531590073 0.0012789934614327741 0 0.010421001298662119 0.0010513105387044178 0 0.010899615901714831 0.00088847335487730373 0 0.014941204918957238 -5.0370893600741872e-05 0 0.016331769140593529 0.00077198796496650364 0 0.015977781577136096 -0.00076096310340306934 0 0.012219989889077125 0.0013750242104534553 0 0.016032150114677721 -0.001461536737052652 0 0.018345140627725718 -0.0022293832370254996 0 0.018292762458405849 -0.0029216058735587118 0 0.018904536747386756 -0.0031172216859769396 0 0.017955005823049729 -0.0013984904267695341 0 0.016032150114677721 -0.001461536737052652 0 0.017112635767284202 -0.00051458427868931664 0 0.016331769140593529 0.00077198796496650364 0 0.015977781577136096 -0.00076096310340306934 0 0.015652020262393793 0.00088419099973117824 0 0.014949366567298122 0.0016225776840785256 0 0.017003415283470161 -0.0013845980198781088 0 0.017112635767284202 -0.00051458427868931664 0 0.015977781577136096 -0.00076096310340306934 0 0.012812904960358489 0.00446205045150314 0 0.013530079531198048 0.0039517882370958841 0 0.012672055255938341 0.0040743155798791146 0 0.012219989889077125 0.0013750242104534553 0 0.014949366567298122 0.0016225776840785256 0 0.013530079531198048 0.0039517882370958841 0 0.012672055255938341 0.0040743155798791146 0 0.012778000614874333 0.0035787773368250236 0 0.013530079531198048 0.0039517882370958841 0 0.013554045270279407 0.0032777960108973554 0 0.012778000614874333 0.0035787773368250236 0 0.013554045270279407 0.0032777960108973554 0 0.012999290289675591 0.0030986414845272795 0 0.012778000614874333 0.0035787773368250236 0 0.014150381606438179 0.0029154484137737489 0 0.014235134233383503 0.0034616669722486552 0 0.013554045270279407 0.0032777960108973554 0 0.014235134233383503 0.0034616669722486552 0 0.013530079531198048 0.0039517882370958841 0 0.013554045270279407 0.0032777960108973554 0 0.012812904960358489 0.00446205045150314 0 0.012305745743955269 0.0039113000584669773 0 0.011688923624745521 0.0039927366390627092 0 0.012219989889077125 0.0013750242104534553 0 0.010723603476865939 0.0023290751846808864 0 0.012305745743955269 0.0039113000584669773 0 0.011688923624745521 0.0039927366390627092 0 0.012005117896495528 0.0034141603814770508 0 0.012812904960358489 0.00446205045150314 0 0.012305745743955269 0.0039113000584669773 0 0.012672055255938341 0.0040743155798791146 0 0.012305745743955269 0.0039113000584669773 0 0.012672055255938341 0.0040743155798791146 0 0.012778000614874333 0.0035787773368250236 0 0.0124785987448611 0.0030277954773456268 0 0.012778000614874333 0.0035787773368250236 0 0.012005117896495528 0.0034141603814770508 0 0.012305745743955269 0.0039113000584669773 0 0.012778000614874333 0.0035787773368250236 0 0.012005117896495528 0.0034141603814770508 0 0.0124785987448611 0.0030277954773456268 0 0.012999290289675591 0.0030986414845272795 0 0.012778000614874333 0.0035787773368250236 0 0.011793558866821345 0.0023772050280919219 0 0.012019959724297227 0.0034435490711263962 0 0.01180693845071556 0.0025763590501635338 0 0.012005117896495528 0.0034141603814770508 0 0.011551080385993616 0.0030187713200819726 0 0.011948393423742721 0.0028359229127979603 0 0.0124785987448611 0.0030277954773456268 0 0.012005117896495528 0.0034141603814770508 0 0.011688923624745521 0.0039927366390627092 0 0.012005117896495528 0.0034141603814770508 0 0.011323329536844947 0.003333704238514723 0 0.011688923624745521 0.0039927366390627092 0 0.011323329536844947 0.003333704238514723 0 0.010457739602076048 0.0033169780302200131 0 0.0094317658744122543 0.00024147300924493094 0 0.009047354403486781 0.0006782369695263028 0 0.0094768769080077527 0.0009216649838135727 0 0.010869397820877702 0.0030903722685949749 0 0.011323329536844947 0.003333704238514723 0 0.010457739602076048 0.0033169780302200131 0 0.012005117896495528 0.0034141603814770508 0 0.011551080385993616 0.0030187713200819726 0 0.011323329536844947 0.003333704238514723 0 0.0099403381531760256 0.00050216554283580197 0 0.0094317658744122543 0.00024147300924493094 0 0.0094768769080077527 0.0009216649838135727 0 0.011688923624745521 0.0039927366390627092 0 0.01035084178834393 0.0033357984705459508 0 0.010457739602076048 0.0033169780302200131 0 0.011366997251060891 0.0027106874442194592 0 0.011551080385993616 0.0030187713200819726 0 0.011260824464675254 0.0030576576628863136 0 0.011551080385993616 0.0030187713200819726 0 0.011260824464675254 0.0030576576628863136 0 0.011323329536844947 0.003333704238514723 0 0.011260824464675254 0.0030576576628863136 0 0.010869397820877702 0.0030903722685949749 0 0.011323329536844947 0.003333704238514723 0 0.010742865714241599 0.0027673292481063742 0 0.011026204256936711 0.0028454232838735515 0 0.010869397820877702 0.0030903722685949749 0 0.011026204256936711 0.0028454232838735515 0 0.011260824464675254 0.0030576576628863136 0 0.010869397820877702 0.0030903722685949749 0 0.010723603476865939 0.0023290751846808864 0 0.0098832823941519942 0.0022487281995166785 0 0.0098832823941519942 0.0022487281995166785 0 0.0099474753765742569 0.0022877007257159593 0 0.010869397820877702 0.0030903722685949749 0 0.010457739602076048 0.0033169780302200131 0 0.010562831603683771 0.0031187244231341213 0 0.010457739602076048 0.0033169780302200131 0 0.010562831603683771 0.0031187244231341213 0 0.010365890494280841 0.0031238793291321161 0 0.010562831603683771 0.0031187244231341213 0 0.010555335264216386 0.0029436645195428175 0 0.010365890494280841 0.0031238793291321161 0 0.010742865714241599 0.0027673292481063742 0 0.010869397820877702 0.0030903722685949749 0 0.010555335264216386 0.0029436645195428175 0 0.010869397820877702 0.0030903722685949749 0 0.010562831603683771 0.0031187244231341213 0 0.010555335264216386 0.0029436645195428175 0 0.010276839439945533 0.0028677074615801753 0 0.010167339255914138 0.0030391488725515265 0 0.0098074111358544061 0.0029427747042736381 0 0.010343937738886725 0.003334718617617435 0 0.010457739602076048 0.0033169780302200131 0 0.010365890494280841 0.0031238793291321161 0 0.010343937738886725 0.003334718617617435 0 0.010170989978333135 0.0032386887772329312 0 0.010365890494280841 0.0031238793291321161 0 0.0098832823941519942 0.0022487281995166785 0 0.010112120815235144 0.0024766344070616536 0 0.010170989978333135 0.0032386887772329312 0 0.010365890494280841 0.0031238793291321161 0 0.010167339255914138 0.0030391488725515265 0 0.010276839439945533 0.0028677074615801753 0 0.010365890494280841 0.0031238793291321161 0 0.010167339255914138 0.0030391488725515265 0 0.010276839439945533 0.0028677074615801753 0 0.010555335264216386 0.0029436645195428175 0 0.010365890494280841 0.0031238793291321161 0 0.010170989978333135 0.0032386887772329312 0 0.010167339255914138 0.0030391488725515265 0 0.0098074111358544061 0.0029427747042736381 0 0.0098832823941519942 0.0022487281995166785 0 0.0090895623217981513 0.0018572357902583482 0 0.01033475397830875 0.0033304317677250203 0 0.010170989978333135 0.0032386887772329312 0 0.0090370005259793693 0.0035070369969540899 0 0.010170989978333135 0.0032386887772329312 0 0.0098074111358544061 0.0029427747042736381 0 0.0090370005259793693 0.0035070369969540899 0 0.0091987184147436837 0.0027855552996694662 0 0.0098074111358544061 0.0029427747042736381 0 0.0090370005259793693 0.0035070369969540899 0 0.0090895623217981513 0.0018572357902583482 0 0.0073900352751883648 0.0020303148934803549 0 0.0084540140904469478 0.0028330023211544041 0 0.0090370005259793693 0.0035070369969540899 0 0.0077698328930519136 0.0036763570212284577 0 0.0084540140904469478 0.0028330023211544041 0 0.0091987184147436837 0.0027855552996694662 0 0.0090370005259793693 0.0035070369969540899 0 0.0088686619698345407 0.00032019393294206597 0 0.0085975729843039486 0.00070938313820984554 0 0.0082524684818364256 0.00043846520949356694 0 0.0088686619698345407 0.00032019393294206597 0 0.0085975729843039486 0.00070938313820984554 0 0.009047354403486781 0.0006782369695263028 0 0.0094317658744122543 0.00024147300924493094 0 0.0088686619698345407 0.00032019393294206597 0 0.009047354403486781 0.0006782369695263028 0 0.009047354403486781 0.0006782369695263028 0 0.0088079745337941457 0.001243296054386542 0 0.0094768769080077527 0.0009216649838135727 0 0.0085975729843039486 0.00070938313820984554 0 0.0088079745337941457 0.001243296054386542 0 0.0083181398839300737 0.0009737100982304274 0 0.0085975729843039486 0.00070938313820984554 0 0.009047354403486781 0.0006782369695263028 0 0.0088079745337941457 0.001243296054386542 0 0.0088079745337941457 0.001243296054386542 0 0.0094768769080077527 0.0009216649838135727 0 0.0093066818456782417 0.0016195871650533224 0 0.0094703032730227565 0.00094154352602504826 0 0.0093862577996317604 0.0014379894751035988 0 0.010019298275599667 0.0011487760372949206 0 0.0098782616856844946 0.00087179278065720417 0 0.0094697129560547093 0.0012854700890791257 0 0.0098782616856844946 0.00087179278065720417 0 0.0094768769080077527 0.0009216649838135727 0 0.0094697129560547093 0.0012854700890791257 0 0.0099403381531760256 0.00050216554283580197 0 0.0098782616856844946 0.00087179278065720417 0 0.0094768769080077527 0.0009216649838135727 0 0.0057916180840011013 0.0019185183059532178 0 0.0056508793209999698 0.0022468674731399197 0 0.0055842872896683946 0.002157171871031181 0 0.0063488847837532775 0.0014178948619626437 0 0.0064902873395183301 0.0012923336818100747 0 0.0067887749979175637 0.00087865353311769199 0 0.0075659101995482984 0.00058728017715639863 0 0.0073871799879007237 0.0010788253810011747 0 0.0058079155945253086 0.0022859837579784102 0 0.0057916180840011013 0.0019185183059532178 0 0.0056508793209999698 0.0022468674731399197 0 0.0056804937001986942 0.0023623442093299533 0 0.0058079155945253086 0.0022859837579784102 0 0.0056508793209999698 0.0022468674731399197 0 0.005585070344226277 0.0022883480673495239 0 0.0055842872896683946 0.002157171871031181 0 0.0055727357457530848 0.0022514441292174553 0 0.0056508793209999698 0.0022468674731399197 0 0.005585070344226277 0.0022883480673495239 0 0.0055842872896683946 0.002157171871031181 0 0.00562058976878503 0.0023345066988985849 0 0.0056508793209999698 0.0022468674731399197 0 0.005585070344226277 0.0022883480673495239 0 0.0075659101995482984 0.00058728017715639863 0 0.0081653217632409944 0.00055459366563052968 0 0.0078665727218457521 0.0010187536104300206 0 0.0064902873395183301 0.0012923336818100747 0 0.0073900352751883648 0.0020303148934803549 0 0.0075659101995482984 0.00058728017715639863 0 0.0081653217632409944 0.00055459366563052968 0 0.0082543943048271461 0.00043722977885787243 0 0.0055842872896683946 0.002157171871031181 0 0.0055727357457530848 0.0022514441292174553 0 0.0055693377118172021 0.0022632489428231263 0 0.0055727357457530848 0.0022514441292174553 0 0.0055709526860554899 0.0022949975530196982 0 0.0055693377118172021 0.0022632489428231263 0 0.005585070344226277 0.0022883480673495239 0 0.0055727357457530848 0.0022514441292174553 0 0.0055709526860554899 0.0022949975530196982 0 0.0055709526860554899 0.0022949975530196982 0 0.0055892920863730702 0.002299948807942721 0 0.0055693377118172021 0.0022632489428231263 0 0.0068410655557663352 0.002629254961096731 0 0.0073900352751883648 0.0020303148934803549 0 0.0055868321076769454 0.0023068186609525609 0 0.0055892920863730702 0.002299948807942721 0 0.0055693377118172021 0.0022632489428231263 0 0.0085975729843039486 0.00070938313820984554 0 0.0081653217632409944 0.00055459366563052968 0 0.0083181398839300737 0.0009737100982304274 0 0.0085975729843039486 0.00070938313820984554 0 0.0081653217632409944 0.00055459366563052968 0 0.0082524684818364256 0.00043846520949356694 0 0.0080479792583986725 0.0010656946939900803 0 0.0073900352751883648 0.0020303148934803549 0 0.0088079745337941457 0.001243296054386542 0 0.0083181398839300737 0.0009737100982304274 0 0.0081268141283424248 0.001312994289765984 0 0.0088079745337941457 0.001243296054386542 0 0.0081268141283424248 0.001312994289765984 0 0.0085295510625354194 0.0017292169428356073 0 0.0081268141283424248 0.001312994289765984 0 0.0078665727218457521 0.0010187536104300206 0 0.0077101293957319624 0.0015929160059708111 0 0.0081653217632409944 0.00055459366563052968 0 0.0083181398839300737 0.0009737100982304274 0 0.0078665727218457521 0.0010187536104300206 0 0.0083181398839300737 0.0009737100982304274 0 0.0081268141283424248 0.001312994289765984 0 0.0078665727218457521 0.0010187536104300206 0 0.0075659101995482984 0.00058728017715639863 0 0.0078665727218457521 0.0010187536104300206 0 0.0073871799879007237 0.0010788253810011747 0 0.0078665727218457521 0.0010187536104300206 0 0.0073871799879007237 0.0010788253810011747 0 0.0077101293957319624 0.0015929160059708111 0 0.0067353371859728327 0.001602838834018701 0 0.0070351955519247673 0.0013723036334686986 0 0.0070532309725096195 0.0019826334855752967 0 0.0070351955519247673 0.0013723036334686986 0 0.0070532309725096195 0.0019826334855752967 0 0.0077101293957319624 0.0015929160059708111 0 0.0073871799879007237 0.0010788253810011747 0 0.0070351955519247673 0.0013723036334686986 0 0.0077101293957319624 0.0015929160059708111 0 0.0067887749979175637 0.00087865353311769199 0 0.0073871799879007237 0.0010788253810011747 0 0.0070351955519247673 0.0013723036334686986 0 0.0075972057887403865 0.0018510643778164751 0 0.0076226613507299748 0.0016659439587359201 0 0.0077630460577206711 0.0017558523771618573 0 0.0073977307100741799 0.0018334689874145412 0 0.0076652856418211587 0.0016193947653563032 0 0.0077101293957319624 0.0015929160059708111 0 0.0077630460577206711 0.0017558523771618573 0 0.0079925522955204779 0.0017599327137339325 0 0.0076226613507299748 0.0016659439587359201 0 0.0077101293957319624 0.0015929160059708111 0 0.0077630460577206711 0.0017558523771618573 0 0.0077630460577206711 0.0017558523771618573 0 0.0079925522955204779 0.0017599327137339325 0 0.0079121015441387024 0.0019724093542629688 0 0.0075972057887403865 0.0018510643778164751 0 0.0077630460577206711 0.0017558523771618573 0 0.0079121015441387024 0.0019724093542629688 0 0.0081268141283424248 0.001312994289765984 0 0.0077101293957319624 0.0015929160059708111 0 0.0079925522955204779 0.0017599327137339325 0 0.0081268141283424248 0.001312994289765984 0 0.0079925522955204779 0.0017599327137339325 0 0.0083481197825772957 0.001645584662056256 0 0.0081469187527821122 0.0013226290332621856 0 0.0084338099842114159 0.0016774933890789632 0 0.0079925522955204779 0.0017599327137339325 0 0.0083481197825772957 0.001645584662056256 0 0.0082532550609562255 0.0018753733165296708 0 0.0083481197825772957 0.001645584662056256 0 0.0082532550609562255 0.0018753733165296708 0 0.0086287530869985102 0.0019066863966165362 0 0.0082532550609562255 0.0018753733165296708 0 0.0082807638881752469 0.002101244048297814 0 0.0086287530869985102 0.0019066863966165362 0 0.0082807638881752469 0.002101244048297814 0 0.0080249098684325882 0.0021814797724106156 0 0.0079121015441387024 0.0019724093542629688 0 0.0082532550609562255 0.0018753733165296708 0 0.0082807638881752469 0.002101244048297814 0 0.0079121015441387024 0.0019724093542629688 0 0.0079925522955204779 0.0017599327137339325 0 0.0082532550609562255 0.0018753733165296708 0 0.0079121015441387024 0.0019724093542629688 0 0.0079121015441387024 0.0019724093542629688 0 0.0076474120054084377 0.0020657754825170981 0 0.0078047635480562394 0.002239208465478463 0 0.0080249098684325882 0.0021814797724106156 0 0.0079121015441387024 0.0019724093542629688 0 0.0078047635480562394 0.002239208465478463 0 0.0074817572127316044 0.0022781550951519606 0 0.0076474120054084377 0.0020657754825170981 0 0.0078047635480562394 0.002239208465478463 0 0.0075972057887403865 0.0018510643778164751 0 0.0079121015441387024 0.0019724093542629688 0 0.0076474120054084377 0.0020657754825170981 0 0.010019298275599667 0.0011487760372949206 0 0.0098520129599986746 0.0015666349678559578 0 0.0094697129560547093 0.0012854700890791257 0 0.0098520129599986746 0.0015666349678559578 0 0.0094697129560547093 0.0012854700890791257 0 0.0093668997747493286 0.0017102980819403775 0 0.0093862577996317604 0.0014379894751035988 0 0.0092537867216908199 0.0018858754638001087 0 0.0088079745337941457 0.001243296054386542 0 0.0093066818456782417 0.0016195871650533224 0 0.0089435363296517401 0.001774938737819254 0 0.0088079745337941457 0.001243296054386542 0 0.0085295510625354194 0.0017292169428356073 0 0.0089435363296517401 0.001774938737819254 0 0.0084338099842114159 0.0016774933890789632 0 0.0087518627079566005 0.0019892110860055519 0 0.0085295510625354194 0.0017292169428356073 0 0.0089435363296517401 0.001774938737819254 0 0.0088629098353786798 0.0020610461001481675 0 0.0093066818456782417 0.0016195871650533224 0 0.0089435363296517401 0.001774938737819254 0 0.0091428155771769836 0.0020442000802922277 0 0.0089435363296517401 0.001774938737819254 0 0.0088629098353786798 0.0020610461001481675 0 0.0091428155771769836 0.0020442000802922277 0 0.0082807638881752469 0.002101244048297814 0 0.0086287530869985102 0.0019066863966165362 0 0.0086334122582082066 0.0021651920083207519 0 0.0086287530869985102 0.0019066863966165362 0 0.0086334122582082066 0.0021651920083207519 0 0.0090337666902206015 0.0022451381409361103 0 0.0091428155771769836 0.0020442000802922277 0 0.0091362288191951767 0.0022820425572939551 0 0.0090337666902206015 0.0022451381409361103 0 0.0087518627079566005 0.0019892110860055519 0 0.0090116504489347864 0.002244628548927445 0 0.0088629098353786798 0.0020610461001481675 0 0.0091428155771769836 0.0020442000802922277 0 0.0090337666902206015 0.0022451381409361103 0 0.0092537867216908199 0.0018858754638001087 0 0.0091488235651942616 0.0022739895536401174 0 0.0093668997747493286 0.0017102980819403775 0 0.0094069005557692442 0.0021412158228662267 0 0.0091362288191951767 0.0022820425572939551 0 0.0093668997747493286 0.0017102980819403775 0 0.0096754120489032282 0.0020289556528720535 0 0.0094069005557692442 0.0021412158228662267 0 0.0098520129599986746 0.0015666349678559578 0 0.0093668997747493286 0.0017102980819403775 0 0.0096754120489032282 0.0020289556528720535 0 0.010111315884540582 0.0020305106273430336 0 0.0098520129599986746 0.0015666349678559578 0 0.0096754120489032282 0.0020289556528720535 0 0.0096754120489032282 0.0020289556528720535 0 0.0098271962755387375 0.0025157517981239594 0 0.0095214435280666955 0.0023419889292206814 0 0.010111315884540582 0.0020305106273430336 0 0.0096754120489032282 0.0020289556528720535 0 0.0098271962755387375 0.0025157517981239594 0 0.0098271962755387375 0.0025157517981239594 0 0.0092950493235885653 0.0026287050324574741 0 0.0095214435280666955 0.0023419889292206814 0 0.012625543751541457 -0.000511466592716645 0 0.0086363191093834137 0.0027827416017520597 0 0.0098154745766267423 0.002211614951157315 0 0.0092753255749781546 0.0023585003529122267 0 0.0094315800702071476 0.0027630696252774825 0 0.012625543751541457 -0.000511466592716645 0 0.011310970569737797 0.00060407040969881552 0 0.0092950493235885653 0.0026287050324574741 0 0.009285449363623452 0.002374516679016806 0 0.009089275719808141 0.0024739737722532986 0 0.009285449363623452 0.002374516679016806 0 0.0091362288191951767 0.0022820425572939551 0 0.009089275719808141 0.0024739737722532986 0 0.0092950493235885653 0.0026287050324574741 0 0.009285449363623452 0.002374516679016806 0 0.0095214435280666955 0.0023419889292206814 0 0.009285449363623452 0.002374516679016806 0 0.0095214435280666955 0.0023419889292206814 0 0.0094069005557692442 0.0021412158228662267 0 0.0096754120489032282 0.0020289556528720535 0 0.0095214435280666955 0.0023419889292206814 0 0.0094069005557692442 0.0021412158228662267 0 0.009285449363623452 0.002374516679016806 0 0.0094069005557692442 0.0021412158228662267 0 0.0091362288191951767 0.0022820425572939551 0 0.0090337666902206015 0.0022451381409361103 0 0.0089147584271623472 0.0024236556521174653 0 0.0087891077507262164 0.0023005890715283475 0 0.0091362288191951767 0.0022820425572939551 0 0.0090337666902206015 0.0022451381409361103 0 0.0089147584271623472 0.0024236556521174653 0 0.0091362288191951767 0.0022820425572939551 0 0.0089147584271623472 0.0024236556521174653 0 0.009089275719808141 0.0024739737722532986 0 0.0086334122582082066 0.0021651920083207519 0 0.0090337666902206015 0.0022451381409361103 0 0.0087891077507262164 0.0023005890715283475 0 0.0086334122582082066 0.0021651920083207519 0 0.0087891077507262164 0.0023005890715283475 0 0.0085202705987551149 0.0024121057874155831 0 0.0089147584271623472 0.0024236556521174653 0 0.0087891077507262164 0.0023005890715283475 0 0.0085202705987551149 0.0024121057874155831 0 0.0088431142655860905 0.0025877509478847657 0 0.0085202705987551149 0.0024121057874155831 0 0.0085434136083250324 0.0027085432697036859 0 0.0089147584271623472 0.0024236556521174653 0 0.0088431142655860905 0.0025877509478847657 0 0.0085202705987551149 0.0024121057874155831 0 0.0086363191093834137 0.0027827416017520597 0 0.0091569699510935815 0.0025014188017750015 0 0.0092753255749781546 0.0023585003529122267 0 0.0088431142655860905 0.0025877509478847657 0 0.0090393820550338927 0.0027133323319346978 0 0.0092950493235885653 0.0026287050324574741 0 0.009089275719808141 0.0024739737722532986 0 0.0088431142655860905 0.0025877509478847657 0 0.0089147584271623472 0.0024236556521174653 0 0.009089275719808141 0.0024739737722532986 0 0.0088431142655860905 0.0025877509478847657 0 0.0088431142655860905 0.0025877509478847657 0 0.0090393820550338927 0.0027133323319346978 0 0.0088091099737691719 0.0027643175200140384 0 0.0090393820550338927 0.0027133323319346978 0 0.0088091099737691719 0.0027643175200140384 0 0.0089030686677377853 0.0028772481594494352 0 0.0090393820550338927 0.0027133323319346978 0 0.0090902875948853518 0.0028777726065818557 0 0.0089030686677377853 0.0028772481594494352 0 0.0088431142655860905 0.0025877509478847657 0 0.0086677346484911513 0.0027681202804233232 0 0.0085434136083250324 0.0027085432697036859 0 0.0088431142655860905 0.0025877509478847657 0 0.0088091099737691719 0.0027643175200140384 0 0.0086677346484911513 0.0027681202804233232 0 0.0088091099737691719 0.0027643175200140384 0 0.0086677346484911513 0.0027681202804233232 0 0.0087549792543169629 0.0028553892156758238 0 0.0086278314926501211 0.0028533084185960057 0 0.008652838742549112 0.0028434440892909888 0 0.0086107986866600459 0.0028706931638482389 0 0.0086278314926501211 0.0028533084185960057 0 0.0085990908722574731 0.0028641194992843322 0 0.0085872662016329877 0.0028545302205082029 0 0.0087549792543169629 0.0028553892156758238 0 0.0088351626912139374 0.0030272144609715815 0 0.0085872662016329877 0.0028545302205082029 0 0.0088839944670440069 0.0026858255736991691 0 0.0085936610952678742 0.002869740124756587 0 0.0086677346484911513 0.0027681202804233232 0 0.0087549792543169629 0.0028553892156758238 0 0.0085872662016329877 0.0028545302205082029 0 0.0088091099737691719 0.0027643175200140384 0 0.0087549792543169629 0.0028553892156758238 0 0.0089030686677377853 0.0028772481594494352 0 0.0087549792543169629 0.0028553892156758238 0 0.0088351626912139374 0.0030272144609715815 0 0.0089030686677377853 0.0028772481594494352 0 0.0086278314926501211 0.0028533084185960057 0 0.0085990908722574731 0.0028641194992843322 0 0.0086107986866600459 0.0028706931638482389 0 0.0085990908722574731 0.0028641194992843322 0 0.0085605216921121365 0.0028827338898123026 0 0.0086107986866600459 0.0028706931638482389 0 0.0090902875948853518 0.0028777726065818557 0 0.008992135561328142 0.0029863063957957718 0 0.0091320695159346609 0.0031522469582757288 0 0.0090902875948853518 0.0028777726065818557 0 0.0089030686677377853 0.0028772481594494352 0 0.008992135561328142 0.0029863063957957718 0 0.0088351626912139374 0.0030272144609715815 0 0.008992135561328142 0.0029863063957957718 0 0.0090207124047601613 0.0031083185377809878 0 0.0088351626912139374 0.0030272144609715815 0 0.0089030686677377853 0.0028772481594494352 0 0.008992135561328142 0.0029863063957957718 0 0.0088839944670440069 0.0026858255736991691 0 0.0090502612996135167 0.0010836369093224726 0 0.008992135561328142 0.0029863063957957718 0 0.0091320695159346609 0.0031522469582757288 0 0.0090207124047601613 0.0031083185377809878 0 0.0090902875948853518 0.0028777726065818557 0 0.0094315800702071476 0.0027630696252774825 0 0.0091320695159346609 0.0031522469582757288 0 0.01338039901470843 -0.0021605596099452244 0 0.013484129526627737 -0.00033829717742336408 0 0.012507791161461706 -0.00074528837684275696 0 0.011310970569737797 0.00060407040969881552 0 0.0104670582486072 -0.00053075581674363165 0 0.014339449939053051 -0.0011574798320123246 0 0.01338039901470843 -0.0021605596099452244 0 0.013484129526627737 -0.00033829717742336408 0 0.014339449939053051 -0.0011574798320123246 0 0.01338039901470843 -0.0021605596099452244 0 0.014842554519960154 -0.0023700673160728554 0 0.014257828202002408 -0.0035778187293804276 0 0.01338039901470843 -0.0021605596099452244 0 0.014842554519960154 -0.0023700673160728554 0 0.0090393820550338927 0.0027133323319346978 0 0.0090902875948853518 0.0028777726065818557 0 0.0094315800702071476 0.0027630696252774825 0 0.0092753255749781546 0.0023585003529122267 0 0.0090393820550338927 0.0027133323319346978 0 0.0094315800702071476 0.0027630696252774825 0 0.0075300064091880625 0.0025598078142372283 0 0.0077268516887210904 0.0024647533219329955 0 0.0076799627455504255 0.0026669933945166324 0 0.0077268516887210904 0.0024647533219329955 0 0.0078901843840893052 0.0026402077733731627 0 0.0076799627455504255 0.0026669933945166324 0 0.0074817572127316044 0.0022781550951519606 0 0.0077268516887210904 0.0024647533219329955 0 0.0078047635480562394 0.002239208465478463 0 0.0077268516887210904 0.0024647533219329955 0 0.0078047635480562394 0.002239208465478463 0 0.0081154716547909393 0.0024177639906975039 0 0.0080249098684325882 0.0021814797724106156 0 0.0078047635480562394 0.002239208465478463 0 0.0081154716547909393 0.0024177639906975039 0 0.0081297774426801455 0.0023543188396960963 0 0.007916144461520367 0.0028757208466873726 0 0.0077268516887210904 0.0024647533219329955 0 0.0081154716547909393 0.0024177639906975039 0 0.0078901843840893052 0.0026402077733731627 0 0.0081923737628909251 0.0026296435926253673 0 0.0081154716547909393 0.0024177639906975039 0 0.0079499470307161126 0.0026648118716023263 0 0.0082807638881752469 0.002101244048297814 0 0.0080249098684325882 0.0021814797724106156 0 0.0081154716547909393 0.0024177639906975039 0 0.0082807638881752469 0.002101244048297814 0 0.0086334122582082066 0.0021651920083207519 0 0.0085202705987551149 0.0024121057874155831 0 0.0082807638881752469 0.002101244048297814 0 0.0081154716547909393 0.0024177639906975039 0 0.0085202705987551149 0.0024121057874155831 0 0.0081923737628909251 0.0026296435926253673 0 0.0085202705987551149 0.0024121057874155831 0 0.0083954593122211839 0.0027154362608783848 0 0.0085258076706585303 0.0023186520034509921 0 0.0084927143409171003 0.0029723319967838893 0 0.0081923737628909251 0.0026296435926253673 0 0.0081154716547909393 0.0024177639906975039 0 0.0085202705987551149 0.0024121057874155831 0 0.0083954593122211839 0.0027154362608783848 0 0.008319085972610352 0.0029791544962829582 0 0.0081985339276791046 0.0028086878109115422 0 0.0081923737628909251 0.0026296435926253673 0 0.0083954593122211839 0.0027154362608783848 0 0.0081985339276791046 0.0028086878109115422 0 0.0086677346484911513 0.0027681202804233232 0 0.0085434136083250324 0.0027085432697036859 0 0.0085872662016329877 0.0028545302205082029 0 0.0084927143409171003 0.0029723319967838893 0 0.0078759157383881898 0.0016111947978312124 0 0.0085434136083250324 0.0027085432697036859 0 0.0085872662016329877 0.0028545302205082029 0 0.0085396710128265649 0.0028964684824647415 0 0.0085605216921121365 0.0028827338898123026 0 0.0085426471886018499 0.0028901633032117876 0 0.0086107986866600459 0.0028706931638482389 0 0.0085990908722574731 0.0028641194992843322 0 0.0085872662016329877 0.0028545302205082029 0 0.0085605216921121365 0.0028827338898123026 0 0.0085872662016329877 0.0028545302205082029 0 0.0085605216921121365 0.0028827338898123026 0 0.0085396710128265649 0.0028964684824647415 0 0.0081917037940378561 0.0018060749162728987 0 0.0078759157383881898 0.0016111947978312124 0 0.0085605216921121365 0.0028827338898123026 0 0.0085427222668143787 0.0028747840691420085 0 0.0085426471886018499 0.0028901633032117876 0 0.0078759157383881898 0.0016111947978312124 0 0.0078200385955749362 -0.00096999905407269026 0 0.0078592914770837432 -0.0003270798726421277 0 0.0073006783378083704 -0.00042871400378469257 0 0.007842836288732332 -0.00024250213073273095 0 0.0078759157383881898 0.0016111947978312124 0 0.0077299664689983085 0.0012218573270468937 0 0.0073006783378083704 -0.00042871400378469257 0 0.0072044432437536731 -0.00028015874910867789 0 0.007842836288732332 -0.00024250213073273095 0 0.008319085972610352 0.0029791544962829582 0 0.0080439872670659135 0.0029329869282704083 0 0.0081985339276791046 0.0028086878109115422 0 0.0064663155742467867 -0.0021837368649961749 0 0.0078200385955749362 -0.00096999905407269026 0 0.0081923737628909251 0.0026296435926253673 0 0.0081985339276791046 0.0028086878109115422 0 0.0079499470307161126 0.0026648118716023263 0 0.0080439872670659135 0.0029329869282704083 0 0.0081985339276791046 0.0028086878109115422 0 0.0079499470307161126 0.0026648118716023263 0 0.007916144461520367 0.0028757208466873726 0 0.007144391367858543 0.001346580926952304 0 0.0073006783378083704 -0.00042871400378469257 0 0.0072044432437536731 -0.00028015874910867789 0 0.0067682233093158475 -0.00051895419385547428 0 0.0080439872670659135 0.0029329869282704083 0 0.0079499470307161126 0.0026648118716023263 0 0.0077698883462977352 0.0028781980537668705 0 0.0077299664689983085 0.0012218573270468937 0 0.007144391367858543 0.001346580926952304 0 0.0072044432437536731 -0.00028015874910867789 0 0.0067682233093158475 -0.00051895419385547428 0 0.0065991468418967374 -0.00031279900978609543 0 0.0064663155742467867 -0.0021837368649961749 0 0.0064411875198664469 -0.0020746544703253967 0 0.007144391367858543 0.001346580926952304 0 0.0064411875198664469 -0.0020746544703253967 0 0.0065044928092819242 -0.00035207098513536435 0 0.0068021515726357021 -0.00044494318105557071 0 0.0065867756508905129 -0.00016943033189673558 0 0.0064831100074947056 -0.00049766847802684624 0 0.0065044928092819242 -0.00035207098513536435 0 0.0068021515726357021 -0.00044494318105557071 0 0.006705627105362961 0.001088452027609704 0 0.007144391367858543 0.001346580926952304 0 0.0075730342523004967 0.0028191169468576491 0 0.0076940459674500186 0.0028414236660875697 0 0.0076799627455504255 0.0026669933945166324 0 0.0078901843840893052 0.0026402077733731627 0 0.0076940459674500186 0.0028414236660875697 0 0.0076799627455504255 0.0026669933945166324 0 0.0075730342523004967 0.0028191169468576491 0 0.0075300064091880625 0.0025598078142372283 0 0.0076799627455504255 0.0026669933945166324 0 0.0061016290707323782 -0.0038815162351065052 0 0.0060401292014975686 -0.0038574701085424623 0 0.0059417689778717706 -0.0040362021537046324 0 0.0062218509053958383 -0.0041559434964253336 0 0.0061104522970985104 -0.0041994464727723923 0 0.0059417689778717706 -0.0040362021537046324 0 0.0060913711546936207 -0.0040134827681445988 0 0.0059638103749020382 -0.0040318946896946402 0 0.0062254049593594976 -0.0043054729778252915 0 0.0062218509053958383 -0.0041559434964253336 0 0.0061104522970985104 -0.0041994464727723923 0 0.0061104522970985104 -0.0041994464727723923 0 0.0060194610439534184 -0.0041927669835595373 0 0.0059417689778717706 -0.0040362021537046324 0 0.0061104522970985104 -0.0041994464727723923 0 0.0060194610439534184 -0.0041927669835595373 0 0.0060765323025304329 -0.0043094735691128587 0 0.0061016290707323782 -0.0038815162351065052 0 0.0060750797381341707 -0.0038518216456447296 0 0.0060401292014975686 -0.0038574701085424623 0 0.0060579248169571323 -0.003831070855825151 0 0.0060750797381341707 -0.0038518216456447296 0 0.0060401292014975686 -0.0038574701085424623 0 0.0060579248169571323 -0.003831070855825151 0 0.0060401292014975686 -0.0038574701085424623 0 0.0060709326188839851 -0.0038346016663833847 0 0.0060401292014975686 -0.0038574701085424623 0 0.0058181523217128673 -0.0039461217363285454 0 0.0058687953712432987 -0.0039616891236547505 0 0.0060401292014975686 -0.0038574701085424623 0 0.0060709326188839851 -0.0038346016663833847 0 0.0061107950701887771 -0.0037727526864140522 0 0.0060899918921550281 -0.0038524910282163073 0 0.0060579248169571323 -0.003831070855825151 0 0.0060709326188839851 -0.0038346016663833847 0 0.006111258634941147 -0.0038451443004508395 0 0.0057797142595394698 -0.003887848955425743 0 0.0060899918921550281 -0.0038524910282163073 0 0.0060709326188839851 -0.0038346016663833847 0 0.0061117451941978644 -0.0038170506579343791 0 0.0060709326188839851 -0.0038346016663833847 0 0.0061117451941978644 -0.0038170506579343791 0 0.0061107950701887771 -0.0037727526864140522 0 0.0058687953712432987 -0.0039616891236547505 0 0.0059417689778717706 -0.0040362021537046324 0 0.0057943719317938448 -0.0041412112071895508 0 0.0060401292014975686 -0.0038574701085424623 0 0.0058687953712432987 -0.0039616891236547505 0 0.0059417689778717706 -0.0040362021537046324 0 0.0060194610439534184 -0.0041927669835595373 0 0.0059417689778717706 -0.0040362021537046324 0 0.0059159004815169903 -0.0042367993685594628 0 0.0059417689778717706 -0.0040362021537046324 0 0.0057943719317938448 -0.0041412112071895508 0 0.0059159004815169903 -0.0042367993685594628 0 0.0058181523217128673 -0.0039461217363285454 0 0.0058687953712432987 -0.0039616891236547505 0 0.0056855378784166771 -0.0040359891725322231 0 0.0057266693890039083 -0.0039765834034618955 0 0.0059391755944432226 -0.0041806484979225404 0 0.0057797142595394698 -0.003887848955425743 0 0.006964260687414122 -0.0035954748775810196 0 0.0057943719317938448 -0.0041412112071895508 0 0.0054837087762666208 -0.004147478021655591 0 0.0057410980541103716 -0.0043135990417666912 0 0.0058687953712432987 -0.0039616891236547505 0 0.0057943719317938448 -0.0041412112071895508 0 0.0054837087762666208 -0.004147478021655591 0 0.0058181523217128673 -0.0039461217363285454 0 0.0056766189676912609 -0.0039665536105835276 0 0.0056855378784166771 -0.0040359891725322231 0 0.0061117451941978644 -0.0038170506579343791 0 0.0061107950701887771 -0.0037727526864140522 0 0.0061911980813862105 -0.0038068864223460056 0 0.0061107950701887771 -0.0037727526864140522 0 0.0061911980813862105 -0.0038068864223460056 0 0.0062538302471988787 -0.0037280763792513589 0 0.0060899918921550281 -0.0038524910282163073 0 0.0061911980813862105 -0.0038068864223460056 0 0.0062792758133713754 -0.0038437752563898588 0 0.0060899918921550281 -0.0038524910282163073 0 0.0061117451941978644 -0.0038170506579343791 0 0.0061911980813862105 -0.0038068864223460056 0 0.0083390426692285958 -0.0020995316941818509 0 0.0085180891007489642 -0.0019170212212530236 0 0.0087044559802979156 -0.0020843459374895955 0 0.0085180891007489642 -0.0019170212212530236 0 0.0082675221350683465 -0.0017444238545360488 0 0.0086173492584959519 -0.0016939642199445199 0 0.0083390426692285958 -0.0020995316941818509 0 0.0085180891007489642 -0.0019170212212530236 0 0.0082675221350683465 -0.0017444238545360488 0 0.0061911980813862105 -0.0038068864223460056 0 0.0062792758133713754 -0.0038437752563898588 0 0.0062538302471988787 -0.0037280763792513589 0 0.0078200385955749362 -0.00096999905407269026 0 0.006964260687414122 -0.0035954748775810196 0 0.0078200385955749362 -0.00096999905407269026 0 0.0087310268825904567 0.0003706166802205144 0 0.007115750374628799 -0.0047491197397034769 0 0.0070335060349202587 -0.0043123759673879564 0 0.0079229831980239841 -0.0046443558962185735 0 0.0070335060349202587 -0.0043123759673879564 0 0.0079229831980239841 -0.0046443558962185735 0 0.0082755956208806492 -0.0037987372824079967 0 0.006964260687414122 -0.0035954748775810196 0 0.0082466660838152479 -0.0031983980058366769 0 0.006964260687414122 -0.0035954748775810196 0 0.0059391755944432226 -0.0041806484979225404 0 0.0056274322073400487 -0.004792674741587951 0 0.0056392897806240815 -0.0047727190384120278 0 0.0056912524071681932 -0.0047791907607520143 0 0.0056274322073400487 -0.004792674741587951 0 0.0056392897806240815 -0.0047727190384120278 0 0.0056251496776786192 -0.004756995016969 0 0.0059391755944432226 -0.0041806484979225404 0 0.0080264436633646664 -0.0057884657767933237 0 0.0056392897806240815 -0.0047727190384120278 0 0.0056373807432841625 -0.0047620540997874291 0 0.0056912524071681932 -0.0047791907607520143 0 0.0056392897806240815 -0.0047727190384120278 0 0.0056373807432841625 -0.0047620540997874291 0 0.0056251496776786192 -0.004756995016969 0 0.0056373807432841625 -0.0047620540997874291 0 0.0056329129156611531 -0.0047582872489963183 0 0.0056294951113009086 -0.0047507969239696003 0 0.0056329129156611531 -0.0047582872489963183 0 0.0056224709262872171 -0.0047524142671585652 0 0.0056294951113009086 -0.0047507969239696003 0 0.0056329129156611531 -0.0047582872489963183 0 0.0056224709262872171 -0.0047524142671585652 0 0.0056068073923368272 -0.00475215419708995 0 0.0056224709262872171 -0.0047524142671585652 0 0.0056068073923368272 -0.00475215419708995 0 0.0056296325003055633 -0.004758392570789219 0 0.0068951297789332849 -0.0071676990559309296 0 0.0069038776181514546 -0.0072343457841267216 0 0.0073065414291339399 -0.0071631864151108331 0 0.0056224709262872171 -0.0047524142671585652 0 0.0056296325003055633 -0.004758392570789219 0 0.0056294951113009086 -0.0047507969239696003 0 0.0056296325003055633 -0.004758392570789219 0 0.0056294951113009086 -0.0047507969239696003 0 0.0056557185596636615 -0.0047427420457309775 0 0.0056373807432841625 -0.0047620540997874291 0 0.0056294951113009086 -0.0047507969239696003 0 0.0056251496776786192 -0.004756995016969 0 0.0056557185596636615 -0.0047427420457309775 0 0.0057489129571950421 -0.0045310004810983073 0 0.0055527243538274146 -0.0044460780943910358 0 0.0056371562462542036 -0.0047139237367451571 0 0.0055985936234228522 -0.0046420422460625712 0 0.0056294951113009086 -0.0047507969239696003 0 0.0056557185596636615 -0.0047427420457309775 0 0.0056251496776786192 -0.004756995016969 0 0.0056557185596636615 -0.0047427420457309775 0 0.0057489129571950421 -0.0045310004810983073 0 0.0058810588273243321 -0.0046786450570643632 0 0.0059391755944432226 -0.0041806484979225404 0 0.0055985936234228522 -0.0046420422460625712 0 0.0054837087762666208 -0.004147478021655591 0 0.0055527243538274146 -0.0044460780943910358 0 0.0057410980541103716 -0.0043135990417666912 0 0.0057489129571950421 -0.0045310004810983073 0 0.0055527243538274146 -0.0044460780943910358 0 0.0057410980541103716 -0.0043135990417666912 0 0.0057410980541103716 -0.0043135990417666912 0 0.0059159004815169903 -0.0042367993685594628 0 0.0059027173529441306 -0.004427454339807812 0 0.0057943719317938448 -0.0041412112071895508 0 0.0057410980541103716 -0.0043135990417666912 0 0.0059159004815169903 -0.0042367993685594628 0 0.0059159004815169903 -0.0042367993685594628 0 0.0059027173529441306 -0.004427454339807812 0 0.0060765323025304329 -0.0043094735691128587 0 0.0057489129571950421 -0.0045310004810983073 0 0.0057410980541103716 -0.0043135990417666912 0 0.0059027173529441306 -0.004427454339807812 0 0.0059027173529441306 -0.004427454339807812 0 0.0058810588273243321 -0.0046786450570643632 0 0.0060630182658042153 -0.0045322200085284835 0 0.0057489129571950421 -0.0045310004810983073 0 0.0059027173529441306 -0.004427454339807812 0 0.0058810588273243321 -0.0046786450570643632 0 0.0062398702494258851 -0.0046346488653510815 0 0.006103587872120053 -0.0047754789955881645 0 0.0060630182658042153 -0.0045322200085284835 0 0.006103587872120053 -0.0047754789955881645 0 0.0058810588273243321 -0.0046786450570643632 0 0.0060630182658042153 -0.0045322200085284835 0 0.0062398702494258851 -0.0046346488653510815 0 0.0062018612679641712 -0.004475101873509863 0 0.0060630182658042153 -0.0045322200085284835 0 0.0062018612679641712 -0.004475101873509863 0 0.0060630182658042153 -0.0045322200085284835 0 0.0060765323025304329 -0.0043094735691128587 0 0.0059027173529441306 -0.004427454339807812 0 0.0060630182658042153 -0.0045322200085284835 0 0.0060765323025304329 -0.0043094735691128587 0 0.0060194610439534184 -0.0041927669835595373 0 0.0059159004815169903 -0.0042367993685594628 0 0.0060765323025304329 -0.0043094735691128587 0 0.0062254049593594976 -0.0043054729778252915 0 0.0062018612679641712 -0.004475101873509863 0 0.0060765323025304329 -0.0043094735691128587 0 0.0062254049593594976 -0.0043054729778252915 0 0.0061104522970985104 -0.0041994464727723923 0 0.0060765323025304329 -0.0043094735691128587 0 0.011971508836833395 -0.0045923671117473405 0 0.013108740009034262 -0.0054500361685825057 0 0.011856611797928565 -0.0025600826202798943 0 0.012823822594182027 -0.0024330817195057277 0 0.012458594772845159 -0.0033611648115526426 0 0.011839590235037892 -0.0066566410514465307 0 0.012282892549164169 -0.0062536147107028414 0 0.01313675824753458 -0.0064774385712220838 0 0.011839590235037892 -0.0066566410514465307 0 0.012282892549164169 -0.0062536147107028414 0 0.011815870569327742 -0.0059327809165750419 0 0.011839590235037892 -0.0066566410514465307 0 0.011176526263642596 -0.0062998948107014525 0 0.011815870569327742 -0.0059327809165750419 0 0.012282892549164169 -0.0062536147107028414 0 0.012958382221957341 -0.006299747175685896 0 0.01263200049951659 -0.0060442082457501569 0 0.012282892549164169 -0.0062536147107028414 0 0.012958382221957341 -0.006299747175685896 0 0.01313675824753458 -0.0064774385712220838 0 0.013154216030250122 -0.0064915138927388863 0 0.013853857826087713 -0.0060313314310956375 0 0.014754326886401744 -0.006196767829650938 0 0.012823822594182027 -0.0024330817195057277 0 0.013379820449018753 -0.0029759246141227917 0 0.012458594772845159 -0.0033611648115526426 0 0.013432754588486886 -0.0063550171707820874 0 0.01409111287161135 -0.0070129744977251883 0 0.014754326886401744 -0.006196767829650938 0 0.013108740009034262 -0.0054500361685825057 0 0.014639835280112807 -0.0062879552521085697 0 0.012958382221957341 -0.006299747175685896 0 0.013289881940637752 -0.006138064104721546 0 0.013154216030250122 -0.0064915138927388863 0 0.012958382221957341 -0.006299747175685896 0 0.013289881940637752 -0.006138064104721546 0 0.013321194670071085 -0.0059678440381620325 0 0.013194310032489753 -0.0056329881601832645 0 0.013108740009034262 -0.0054500361685825057 0 0.013289881940637752 -0.006138064104721546 0 0.013154216030250122 -0.0064915138927388863 0 0.013853857826087713 -0.0060313314310956375 0 0.013108740009034262 -0.0054500361685825057 0 0.014594682268132316 -0.0029332153826404834 0 0.014594682268132316 -0.0029332153826404834 0 0.013079076143868187 -0.0018009453431724204 0 0.014339449939053051 -0.0011574798320123246 0 0.014456972112952545 6.6924598546156606e-05 0 0.013484129526627737 -0.00033829717742336408 0 0.013079076143868187 -0.0018009453431724204 0 0.0104670582486072 -0.00053075581674363165 0 0.011856611797928565 -0.0025600826202798943 0 0.012458594772845159 -0.0033611648115526426 0 0.01154216857763315 -0.0037419797646891851 0 0.0090502612996135167 0.0010836369093224726 0 0.0087310268825904567 0.0003706166802205144 0 0.0092007128560605469 -0.002019095928799489 0 0.0090719610589679086 -0.0020745419937482582 0 0.0088813308443635164 -0.0018897400224342667 0 0.0090719610589679086 -0.0020745419937482582 0 0.0087044559802979156 -0.0020843459374895955 0 0.0088813308443635164 -0.0018897400224342667 0 0.0092007128560605469 -0.002019095928799489 0 0.0088813308443635164 -0.0018897400224342667 0 0.0089660031512371167 -0.00165129012698327 0 0.0104670582486072 -0.00053075581674363165 0 0.0090502612996135167 0.0010836369093224726 0 0.0104670582486072 -0.00053075581674363165 0 0.0099247027852884129 -0.0040129211584231887 0 0.0085180891007489642 -0.0019170212212530236 0 0.0087044559802979156 -0.0020843459374895955 0 0.0086803309931850186 -0.0018964189395223121 0 0.0087044559802979156 -0.0020843459374895955 0 0.0088813308443635164 -0.0018897400224342667 0 0.0086803309931850186 -0.0018964189395223121 0 0.0088813308443635164 -0.0018897400224342667 0 0.0086803309931850186 -0.0018964189395223121 0 0.0086173492584959519 -0.0016939642199445199 0 0.0085180891007489642 -0.0019170212212530236 0 0.0086803309931850186 -0.0018964189395223121 0 0.0086173492584959519 -0.0016939642199445199 0 0.0079229831980239841 -0.0046443558962185735 0 0.0087310703619593658 -0.0045379739373038151 0 0.0082755956208806492 -0.0037987372824079967 0 0.0088813308443635164 -0.0018897400224342667 0 0.0086173492584959519 -0.0016939642199445199 0 0.0089660031512371167 -0.00165129012698327 0 0.0082466660838152479 -0.0031983980058366769 0 0.0099247027852884129 -0.0040129211584231887 0 0.0099247027852884129 -0.0040129211584231887 0 0.0080264436633646664 -0.0057884657767933237 0 0.011856611797928565 -0.0025600826202798943 0 0.01154216857763315 -0.0037419797646891851 0 0.010897581844559906 -0.0026894932586551839 0 0.011839590235037892 -0.0066566410514465307 0 0.010647542093537502 -0.0068063184027927883 0 0.011176526263642596 -0.0062998948107014525 0 0.011971508836833395 -0.0045923671117473405 0 0.0099247027852884129 -0.0040129211584231887 0 0.010647542093537502 -0.0068063184027927883 0 0.011176526263642596 -0.0062998948107014525 0 0.010611987923195723 -0.0058576483145349554 0 0.011176526263642596 -0.0062998948107014525 0 0.010611987923195723 -0.0058576483145349554 0 0.011815870569327742 -0.0059327809165750419 0 0.010647542093537502 -0.0068063184027927883 0 0.010611987923195723 -0.0058576483145349554 0 0.010039866834682321 -0.0058039167091608638 0 0.0098045686102963166 -0.0068684541889965896 0 0.0080264436633646664 -0.0057884657767933237 0 0.010611987923195723 -0.0058576483145349554 0 0.011034510067516446 -0.0054503895426101529 0 0.010039866834682321 -0.0058039167091608638 0 0.0087018052566688441 -0.0082659559935342221 0 0.0077749545544180711 -0.0086499235829987572 0 0.0078074753694503058 -0.0078787658711896875 0 0.010611987923195723 -0.0058576483145349554 0 0.011034510067516446 -0.0054503895426101529 0 0.011570762814892986 -0.0056808799166132703 0 0.0056373807432841625 -0.0047620540997874291 0 0.0056329129156611531 -0.0047582872489963183 0 0.0056912524071681932 -0.0047791907607520143 0 0.0061077127893000033 -0.0061351311472455788 0 0.0080264436633646664 -0.0057884657767933237 0 0.0069038776181514546 -0.0072343457841267216 0 0.0077749545544180711 -0.0086499235829987572 0 0.0078074753694503058 -0.0078787658711896875 0 0.0056329129156611531 -0.0047582872489963183 0 0.0056068073923368272 -0.00475215419708995 0 0.0056912524071681932 -0.0047791907607520143 0 0.0079214331604990831 -0.007102116178320292 0 0.0078074753694503058 -0.0078787658711896875 0 0.0073065414291339399 -0.0071631864151108331 0 0.0069038776181514546 -0.0072343457841267216 0 0.0078074753694503058 -0.0078787658711896875 0 0.0073065414291339399 -0.0071631864151108331 0 0.0087018052566688441 -0.0082659559935342221 0 0.0086463286525646221 -0.0074272924539442418 0 0.0096255197525224167 -0.00788128768771903 0 0.0087018052566688441 -0.0082659559935342221 0 0.0078074753694503058 -0.0078787658711896875 0 0.0086463286525646221 -0.0074272924539442418 0 0.0079214331604990831 -0.007102116178320292 0 0.0078074753694503058 -0.0078787658711896875 0 0.0086463286525646221 -0.0074272924539442418 0 0.01272865307195226 -0.0088426212860305709 0 0.012718914126156151 -0.0088308470704875491 0 0.01272681557496984 -0.008781908852893313 0 0.0094920671903952793 -0.0067645678361234005 0 0.0086463286525646221 -0.0074272924539442418 0 0.0096255197525224167 -0.00788128768771903 0 0.011029436939572763 -0.0080824580714920352 0 0.011755288589447516 -0.0070827171039430934 0 0.012049715886300561 -0.0050943753020642477 0 0.012418954483181179 -0.0053590712151178645 0 0.012799088284546444 -0.0052091708457812575 0 0.011755288589447516 -0.0070827171039430934 0 0.011763726496524669 -0.0058534652116715739 0 0.010611987923195723 -0.0058576483145349554 0 0.011570762814892986 -0.0056808799166132703 0 0.012358075134270298 -0.0060094357444542409 0 0.010611987923195723 -0.0058576483145349554 0 0.012515493165405754 -0.0056912371188281193 0 0.011815870569327742 -0.0059327809165750419 0 0.012046828141162867 -0.0050904676247554943 0 0.011570762814892986 -0.0056808799166132703 0 0.01191343163983013 -0.0055761198938831646 0 0.011034510067516446 -0.0054503895426101529 0 0.012046828141162867 -0.0050904676247554943 0 0.011570762814892986 -0.0056808799166132703 0 0.0098045686102963166 -0.0068684541889965896 0 0.011755288589447516 -0.0070827171039430934 0 0.010717137003713257 -0.0058605931331771029 0 0.012468193302333019 -0.0058355391476462527 0 0.011570762814892986 -0.0056808799166132703 0 0.01191343163983013 -0.0055761198938831646 0 0.012128933985448488 -0.0057622680799226042 0 0.012049715886300561 -0.0050943753020642477 0 0.012095031330461593 -0.0054800259880583638 0 0.012418954483181179 -0.0053590712151178645 0 0.012046828141162867 -0.0050904676247554943 0 0.01191343163983013 -0.0055761198938831646 0 0.012095031330461593 -0.0054800259880583638 0 0.011570762814892986 -0.0056808799166132703 0 0.012128933985448488 -0.0057622680799226042 0 0.012358075134270298 -0.0060094357444542409 0 0.012095031330461593 -0.0054800259880583638 0 0.012418954483181179 -0.0053590712151178645 0 0.012343034576273507 -0.0056295444648673939 0 0.012343034576273507 -0.0056295444648673939 0 0.012317917717907335 -0.0058152323936902593 0 0.012128933985448488 -0.0057622680799226042 0 0.012343034576273507 -0.0056295444648673939 0 0.012317917717907335 -0.0058152323936902593 0 0.012441309884744527 -0.005863925662575601 0 0.012095031330461593 -0.0054800259880583638 0 0.012343034576273507 -0.0056295444648673939 0 0.012128933985448488 -0.0057622680799226042 0 0.01191343163983013 -0.0055761198938831646 0 0.012095031330461593 -0.0054800259880583638 0 0.012128933985448488 -0.0057622680799226042 0 0.012515493165405754 -0.0056912371188281193 0 0.012258941869311722 -0.0059531431187488998 0 0.011815870569327742 -0.0059327809165750419 0 0.012317917717907335 -0.0058152323936902593 0 0.012441309884744527 -0.005863925662575601 0 0.012358075134270298 -0.0060094357444542409 0 0.012317917717907335 -0.0058152323936902593 0 0.012128933985448488 -0.0057622680799226042 0 0.012358075134270298 -0.0060094357444542409 0 0.012515493165405754 -0.0056912371188281193 0 0.01263200049951659 -0.0060442082457501569 0 0.012422263671469485 -0.0059872167841534931 0 0.012282892549164169 -0.0062536147107028414 0 0.01263200049951659 -0.0060442082457501569 0 0.012422263671469485 -0.0059872167841534931 0 0.012515493165405754 -0.0056912371188281193 0 0.012422263671469485 -0.0059872167841534931 0 0.012258941869311722 -0.0059531431187488998 0 0.012282892549164169 -0.0062536147107028414 0 0.012258941869311722 -0.0059531431187488998 0 0.011815870569327742 -0.0059327809165750419 0 0.012282892549164169 -0.0062536147107028414 0 0.012422263671469485 -0.0059872167841534931 0 0.012258941869311722 -0.0059531431187488998 0 0.012949061901357967 -0.0055821607364950898 0 0.013502401827888241 -0.0053496764776777249 0 0.014199013522478909 -0.0060563239820551574 0 0.013853857826087713 -0.0060313314310956375 0 0.013321194670071085 -0.0059678440381620325 0 0.014679902761263927 -0.0055983591029615037 0 0.012515493165405754 -0.0056912371188281193 0 0.013321194670071085 -0.0059678440381620325 0 0.014679902761263927 -0.0055983591029615037 0 0.012441309884744527 -0.005863925662575601 0 0.012949061901357967 -0.0055821607364950898 0 0.014199013522478909 -0.0060563239820551574 0 0.012517737110741396 -0.0059041996203991459 0 0.014287559978687503 -0.0058921901906352457 0 0.012441309884744527 -0.005863925662575601 0 0.012358075134270298 -0.0060094357444542409 0 0.014225322510069749 -0.0060007569461814955 0 0.012468193302333019 -0.0058355391476462527 0 0.014287559978687503 -0.0058921901906352457 0 0.013289881940637752 -0.006138064104721546 0 0.013853857826087713 -0.0060313314310956375 0 0.013321194670071085 -0.0059678440381620325 0 0.012958382221957341 -0.006299747175685896 0 0.01263200049951659 -0.0060442082457501569 0 0.013321194670071085 -0.0059678440381620325 0 0.012515493165405754 -0.0056912371188281193 0 0.01263200049951659 -0.0060442082457501569 0 0.013321194670071085 -0.0059678440381620325 0 0.012343034576273507 -0.0056295444648673939 0 0.012441309884744527 -0.005863925662575601 0 0.012949061901357967 -0.0055821607364950898 0 0.012418954483181179 -0.0053590712151178645 0 0.012343034576273507 -0.0056295444648673939 0 0.012949061901357967 -0.0055821607364950898 0 0.012418954483181179 -0.0053590712151178645 0 0.012949061901357967 -0.0055821607364950898 0 0.012799088284546444 -0.0052091708457812575 0 0.012949061901357967 -0.0055821607364950898 0 0.013502401827888241 -0.0053496764776777249 0 0.012799088284546444 -0.0052091708457812575 0 0.012049715886300561 -0.0050943753020642477 0 0.012799088284546444 -0.0052091708457812575 0 0.013275974808587979 -0.004594527475107817 0 0.012718914126156151 -0.0088308470704875491 0 0.01272681557496984 -0.008781908852893313 0 0.012686557593941664 -0.0088126387788952862 0 0.013502401827888241 -0.0053496764776777249 0 0.012799088284546444 -0.0052091708457812575 0 0.013275974808587979 -0.004594527475107817 0 0.011755288589447516 -0.0070827171039430934 0 0.01295811665966231 -0.0066679448532695473 0 0.014786810921162789 -0.0075752450016174089 0 0.01295811665966231 -0.0066679448532695473 0 0.014520737849819165 -0.0040891502539722579 0 0.013275974808587979 -0.004594527475107817 0 0.014297916381124621 -0.0053190135248246196 0 0.014520737849819165 -0.0040891502539722579 0 0.014297916381124621 -0.0053190135248246196 0 0.014998246595971453 -0.0050629146822518496 0 0.013502401827888241 -0.0053496764776777249 0 0.013275974808587979 -0.004594527475107817 0 0.014297916381124621 -0.0053190135248246196 0 0.019001519316774833 -0.0067408856936678422 0 0.018944811345820101 -0.0065722502232589798 0 0.018782484872535841 -0.0066575634575243405 0 0.018944811345820101 -0.0065722502232589798 0 0.01879752421737696 -0.0065035568215189854 0 0.018782484872535841 -0.0066575634575243405 0 0.014786810921162789 -0.0075752450016174089 0 0.01680983607382433 -0.0057192438878420271 0 0.01704560042113833 -0.0058962036648933219 0 0.017157094680285596 -0.0061304672979360384 0 0.014326865026649151 -0.0059105244844646137 0 0.017003731100741489 -0.0058782377807704272 0 0.014287559978687503 -0.0058921901906352457 0 0.014297916381124621 -0.0053190135248246196 0 0.014998246595971453 -0.0050629146822518496 0 0.015485464725802986 -0.0060590664670404446 0 0.016124999158946496 -0.005710606210651472 0 0.014679902761263927 -0.0055983591029615037 0 0.015403742352069393 -0.0060440813078248739 0 0.017146197372852303 -0.0062034200797974164 0 0.014287559978687503 -0.0058921901906352457 0 0.018944811345820101 -0.0065722502232589798 0 0.01887719513186065 -0.0064047548268124279 0 0.01879752421737696 -0.0065035568215189854 0 0.01680983607382433 -0.0057192438878420271 0 0.017146197372852303 -0.0062034200797974164 0 0.016124999158946496 -0.005710606210651472 0 0.015403742352069393 -0.0060440813078248739 0 0.016316473633614478 -0.0061121966595423134 0 0.017118071427462245 -0.0060263980626359005 0 0.017182945941822136 -0.0061627655949533389 0 0.018263910395709057 -0.0062491049078010844 0 0.017146197372852303 -0.0062034200797974164 0 0.017003731100741489 -0.0058782377807704272 0 0.017003731100741489 -0.0058782377807704272 0 0.017276922009768814 -0.0052367639291566763 0 0.014297916381124621 -0.0053190135248246196 0 0.015485464725802986 -0.0060590664670404446 0 0.014199013522478909 -0.0060563239820551574 0 0.013502401827888241 -0.0053496764776777249 0 0.014297916381124621 -0.0053190135248246196 0 0.014199013522478909 -0.0060563239820551574 0 0.014679902761263927 -0.0055983591029615037 0 0.014754326886401744 -0.006196767829650938 0 0.015403742352069393 -0.0060440813078248739 0 0.013853857826087713 -0.0060313314310956375 0 0.014679902761263927 -0.0055983591029615037 0 0.014754326886401744 -0.006196767829650938 0 0.014594682268132316 -0.0029332153826404834 0 0.016109882655068842 -0.0046210215572860371 0 0.01409111287161135 -0.0070129744977251883 0 0.014754326886401744 -0.006196767829650938 0 0.015150438206756069 -0.0065968960331327956 0 0.014754326886401744 -0.006196767829650938 0 0.015150438206756069 -0.0065968960331327956 0 0.015403742352069393 -0.0060440813078248739 0 0.016109882655068842 -0.0046210215572860371 0 0.017276922009768814 -0.0052367639291566763 0 0.015150438206756069 -0.0065968960331327956 0 0.015403742352069393 -0.0060440813078248739 0 0.016316473633614478 -0.0061121966595423134 0 0.017096430488040566 -0.00269271208669825 0 0.017235741243431621 -0.0026518391515931053 0 0.017213365301631606 -0.0027618201563863092 0 0.017096430488040566 -0.00269271208669825 0 0.017213365301631606 -0.0027618201563863092 0 0.017130668904073158 -0.0028920022552293883 0 0.017213365301631606 -0.0027618201563863092 0 0.017344219449783028 -0.0028173089379783835 0 0.017130668904073158 -0.0028920022552293883 0 0.014339449939053051 -0.0011574798320123246 0 0.014456972112952545 6.6924598546156606e-05 0 0.015533382225883153 -0.00098955033914545094 0 0.016940955136247098 -0.0027480820076871177 0 0.017096430488040566 -0.00269271208669825 0 0.017130668904073158 -0.0028920022552293883 0 0.014594682268132316 -0.0029332153826404834 0 0.016413780106495194 -0.0017480466106065333 0 0.018670801233100623 -0.0057524217316166056 0 0.018560859029788133 -0.0059299150754249085 0 0.018459686454926873 -0.0056778836045102195 0 0.0186399754489276 -0.005549419367729869 0 0.018459686454926873 -0.0056778836045102195 0 0.018422126623743814 -0.0053831045642315292 0 0.018670801233100623 -0.0057524217316166056 0 0.0186399754489276 -0.005549419367729869 0 0.018459686454926873 -0.0056778836045102195 0 0.018670801233100623 -0.0057524217316166056 0 0.0186399754489276 -0.005549419367729869 0 0.018906621332782841 -0.0056780613300422625 0 0.018670801233100623 -0.0057524217316166056 0 0.018906621332782841 -0.0056780613300422625 0 0.018780353746386015 -0.0059209661199348881 0 0.019072502398124549 -0.0060742217278093869 0 0.018906621332782841 -0.0056780613300422625 0 0.018780353746386015 -0.0059209661199348881 0 0.019072502398124549 -0.0060742217278093869 0 0.018780353746386015 -0.0059209661199348881 0 0.018807599463728696 -0.0060603119358312385 0 0.017276922009768814 -0.0052367639291566763 0 0.018191822364634836 -0.0041179573048628591 0 0.017235741243431621 -0.0026518391515931053 0 0.017213365301631606 -0.0027618201563863092 0 0.017344219449783028 -0.0028173089379783835 0 0.019072502398124549 -0.0060742217278093869 0 0.018807599463728696 -0.0060603119358312385 0 0.018906493693302981 -0.0061507372247403278 0 0.018807599463728696 -0.0060603119358312385 0 0.01867024581863657 -0.0060165504140301902 0 0.018602683397868108 -0.0061441347886503784 0 0.018780353746386015 -0.0059209661199348881 0 0.018807599463728696 -0.0060603119358312385 0 0.01867024581863657 -0.0060165504140301902 0 0.018670801233100623 -0.0057524217316166056 0 0.018780353746386015 -0.0059209661199348881 0 0.018560859029788133 -0.0059299150754249085 0 0.018780353746386015 -0.0059209661199348881 0 0.01867024581863657 -0.0060165504140301902 0 0.018560859029788133 -0.0059299150754249085 0 0.01867024581863657 -0.0060165504140301902 0 0.018560859029788133 -0.0059299150754249085 0 0.018602683397868108 -0.0061441347886503784 0 0.0185570448058637 -0.0062661168375337034 0 0.018571349218509208 -0.0063336640086813639 0 0.018451834398742879 -0.0063239416076519891 0 0.018807599463728696 -0.0060603119358312385 0 0.018602683397868108 -0.0061441347886503784 0 0.018906493693302981 -0.0061507372247403278 0 0.0185570448058637 -0.0062661168375337034 0 0.018822455164048745 -0.0062893826833625615 0 0.018732853427477072 -0.0063284623831890967 0 0.018637849221708917 -0.0062055749104276631 0 0.018494371469298544 -0.0060044125777938386 0 0.018593465993478542 -0.0062888332074169445 0 0.018756654442746476 -0.0061974478779928399 0 0.018571349218509208 -0.0063336640086813639 0 0.018660636107553415 -0.006387265600345084 0 0.018609757206146851 -0.0064035245873854006 0 0.0185570448058637 -0.0062661168375337034 0 0.018571349218509208 -0.0063336640086813639 0 0.018732853427477072 -0.0063284623831890967 0 0.018571349218509208 -0.0063336640086813639 0 0.018660636107553415 -0.006387265600345084 0 0.018687733368311036 -0.0063864803628153801 0 0.018660636107553415 -0.006387265600345084 0 0.018654015454230406 -0.0064280404888163167 0 0.018683865730012926 -0.0063828339707126943 0 0.018609757206146851 -0.0064035245873854006 0 0.018616261448193585 -0.0064665016338709622 0 0.018527862413169893 -0.0064256018820567137 0 0.018609757206146851 -0.0064035245873854006 0 0.018654015454230406 -0.0064280404888163167 0 0.018616261448193585 -0.0064665016338709622 0 0.018660636107553415 -0.006387265600345084 0 0.018609757206146851 -0.0064035245873854006 0 0.018654015454230406 -0.0064280404888163167 0 0.018654015454230406 -0.0064280404888163167 0 0.018616261448193585 -0.0064665016338709622 0 0.018692184448438481 -0.0065037464257684443 0 0.018571349218509208 -0.0063336640086813639 0 0.018527862413169893 -0.0064256018820567137 0 0.018451834398742879 -0.0063239416076519891 0 0.018571349218509208 -0.0063336640086813639 0 0.018609757206146851 -0.0064035245873854006 0 0.018527862413169893 -0.0064256018820567137 0 0.017118071427462245 -0.0060263980626359005 0 0.018263910395709057 -0.0062491049078010844 0 0.018790859587140024 -0.0060213378875149338 0 0.017146197372852303 -0.0062034200797974164 0 0.018756654442746476 -0.0061974478779928399 0 0.01887719513186065 -0.0064047548268124279 0 0.018683865730012926 -0.0063828339707126943 0 0.01879752421737696 -0.0065035568215189854 0 0.017161072002590167 -0.0056646544803075245 0 0.017363910316399573 -0.0060901382802804657 0 0.018165252973132744 -0.0057444371611181794 0 0.017003731100741489 -0.0058782377807704272 0 0.018494371469298544 -0.0060044125777938386 0 0.017276922009768814 -0.0052367639291566763 0 0.018494371469298544 -0.0060044125777938386 0 0.018494371469298544 -0.0060044125777938386 0 0.018756654442746476 -0.0061974478779928399 0 0.018727265550486493 -0.0062202699757552236 0 0.018756654442746476 -0.0061974478779928399 0 0.018683865730012926 -0.0063828339707126943 0 0.018692184448438481 -0.0065037464257684443 0 0.01879752421737696 -0.0065035568215189854 0 0.018654015454230406 -0.0064280404888163167 0 0.018683865730012926 -0.0063828339707126943 0 0.018692184448438481 -0.0065037464257684443 0 0.018692184448438481 -0.0065037464257684443 0 0.018782484872535841 -0.0066575634575243405 0 0.018585497321619793 -0.0065783526562719656 0 0.018692184448438481 -0.0065037464257684443 0 0.01879752421737696 -0.0065035568215189854 0 0.018782484872535841 -0.0066575634575243405 0 0.018598982980325179 -0.0068053694186892008 0 0.018782484872535841 -0.0066575634575243405 0 0.018585497321619793 -0.0065783526562719656 0 0.018395991593119589 -0.006786416621944175 0 0.018598982980325179 -0.0068053694186892008 0 0.018585497321619793 -0.0065783526562719656 0 0.018527862413169893 -0.0064256018820567137 0 0.018585497321619793 -0.0065783526562719656 0 0.018360626395872146 -0.0064729068172451722 0 0.018616261448193585 -0.0064665016338709622 0 0.018527862413169893 -0.0064256018820567137 0 0.018585497321619793 -0.0065783526562719656 0 0.018616261448193585 -0.0064665016338709622 0 0.018692184448438481 -0.0065037464257684443 0 0.018585497321619793 -0.0065783526562719656 0 0.018395991593119589 -0.006786416621944175 0 0.018360626395872146 -0.0064729068172451722 0 0.018156721004180872 -0.0066896117389459997 0 0.018395991593119589 -0.006786416621944175 0 0.018585497321619793 -0.0065783526562719656 0 0.018360626395872146 -0.0064729068172451722 0 0.018360626395872146 -0.0064729068172451722 0 0.018156721004180872 -0.0066896117389459997 0 0.018074592388644777 -0.0063753529599273355 0 0.018156721004180872 -0.0066896117389459997 0 0.018074592388644777 -0.0063753529599273355 0 0.017830992926140009 -0.0066483747943556718 0 0.018074592388644777 -0.0063753529599273355 0 0.017802624265727807 -0.0062062576517384338 0 0.018063975438108244 -0.0060945046583232064 0 0.018074592388644777 -0.0063753529599273355 0 0.018289112502407976 -0.0061585610046231455 0 0.018063975438108244 -0.0060945046583232064 0 0.018360626395872146 -0.0064729068172451722 0 0.018289112502407976 -0.0061585610046231455 0 0.018451834398742879 -0.0063239416076519891 0 0.0185570448058637 -0.0062661168375337034 0 0.018289112502407976 -0.0061585610046231455 0 0.018451834398742879 -0.0063239416076519891 0 0.018360626395872146 -0.0064729068172451722 0 0.018074592388644777 -0.0063753529599273355 0 0.018289112502407976 -0.0061585610046231455 0 0.018637849221708917 -0.0062055749104276631 0 0.018288748410040488 -0.0061662780666077921 0 0.018527862413169893 -0.0064256018820567137 0 0.018360626395872146 -0.0064729068172451722 0 0.018451834398742879 -0.0063239416076519891 0 0.017427831945101942 -0.0068286149010768921 0 0.017605783780634689 -0.0064385007518965951 0 0.017830992926140009 -0.0066483747943556718 0 0.017605783780634689 -0.0064385007518965951 0 0.017830992926140009 -0.0066483747943556718 0 0.017802624265727807 -0.0062062576517384338 0 0.018074592388644777 -0.0063753529599273355 0 0.017830992926140009 -0.0066483747943556718 0 0.017802624265727807 -0.0062062576517384338 0 0.017605783780634689 -0.0064385007518965951 0 0.017802624265727807 -0.0062062576517384338 0 0.017563794846100975 -0.0061492302514794921 0 0.017378219295170742 -0.0063380265589029258 0 0.017605783780634689 -0.0064385007518965951 0 0.017563794846100975 -0.0061492302514794921 0 0.01740266717543975 -0.0059011180449997586 0 0.017563794846100975 -0.0061492302514794921 0 0.017645037334241349 -0.0058646763896295188 0 0.017802624265727807 -0.0062062576517384338 0 0.017563794846100975 -0.0061492302514794921 0 0.017645037334241349 -0.0058646763896295188 0 0.017802624265727807 -0.0062062576517384338 0 0.017931271107935135 -0.0058485726138798105 0 0.018063975438108244 -0.0060945046583232064 0 0.017802624265727807 -0.0062062576517384338 0 0.017645037334241349 -0.0058646763896295188 0 0.017931271107935135 -0.0058485726138798105 0 0.017645037334241349 -0.0058646763896295188 0 0.017931271107935135 -0.0058485726138798105 0 0.017775458083158013 -0.0055838689179991624 0 0.017645037334241349 -0.0058646763896295188 0 0.017775458083158013 -0.0055838689179991624 0 0.017474087274546416 -0.0055049691604670834 0 0.01740266717543975 -0.0059011180449997586 0 0.017645037334241349 -0.0058646763896295188 0 0.017474087274546416 -0.0055049691604670834 0 0.018560859029788133 -0.0059299150754249085 0 0.018289112502407976 -0.0061585610046231455 0 0.018242138088627909 -0.0058716141116396002 0 0.018560859029788133 -0.0059299150754249085 0 0.018602683397868108 -0.0061441347886503784 0 0.018289112502407976 -0.0061585610046231455 0 0.017931271107935135 -0.0058485726138798105 0 0.018242138088627909 -0.0058716141116396002 0 0.018063975438108244 -0.0060945046583232064 0 0.018289112502407976 -0.0061585610046231455 0 0.018242138088627909 -0.0058716141116396002 0 0.018063975438108244 -0.0060945046583232064 0 0.017931271107935135 -0.0058485726138798105 0 0.018242138088627909 -0.0058716141116396002 0 0.01816586620043046 -0.0055851887384619795 0 0.017931271107935135 -0.0058485726138798105 0 0.017775458083158013 -0.0055838689179991624 0 0.01816586620043046 -0.0055851887384619795 0 0.018560859029788133 -0.0059299150754249085 0 0.018242138088627909 -0.0058716141116396002 0 0.018459686454926873 -0.0056778836045102195 0 0.018242138088627909 -0.0058716141116396002 0 0.01816586620043046 -0.0055851887384619795 0 0.018459686454926873 -0.0056778836045102195 0 0.01816586620043046 -0.0055851887384619795 0 0.018459686454926873 -0.0056778836045102195 0 0.018422126623743814 -0.0053831045642315292 0 0.018422126623743814 -0.0053831045642315292 0 0.018175693108330403 -0.0053324974187936042 0 0.018220740762146685 -0.0050941245920493265 0 0.01816586620043046 -0.0055851887384619795 0 0.018422126623743814 -0.0053831045642315292 0 0.018175693108330403 -0.0053324974187936042 0 0.017775458083158013 -0.0055838689179991624 0 0.01816586620043046 -0.0055851887384619795 0 0.017954685855324282 -0.0053462346934698979 0 0.01816586620043046 -0.0055851887384619795 0 0.018175693108330403 -0.0053324974187936042 0 0.017954685855324282 -0.0053462346934698979 0 0.018175693108330403 -0.0053324974187936042 0 0.017954685855324282 -0.0053462346934698979 0 0.01795430044292258 -0.0050803636518212281 0 0.018175693108330403 -0.0053324974187936042 0 0.01795430044292258 -0.0050803636518212281 0 0.018220740762146685 -0.0050941245920493265 0 0.01795430044292258 -0.0050803636518212281 0 0.017696333241291069 -0.0051093146244689074 0 0.017910321019517839 -0.0047520196476484927 0 0.01795430044292258 -0.0050803636518212281 0 0.018072512621798119 -0.0049193097048631637 0 0.017910321019517839 -0.0047520196476484927 0 0.01795430044292258 -0.0050803636518212281 0 0.018072512621798119 -0.0049193097048631637 0 0.018220740762146685 -0.0050941245920493265 0 0.018072512621798119 -0.0049193097048631637 0 0.018260695243293365 -0.0048578636540312324 0 0.018220740762146685 -0.0050941245920493265 0 0.018260695243293365 -0.0048578636540312324 0 0.018431151590391846 -0.005069969884519584 0 0.018220740762146685 -0.0050941245920493265 0 0.018260695243293365 -0.0048578636540312324 0 0.018431151590391846 -0.005069969884519584 0 0.0185189720576848 -0.0047497633852156065 0 0.018422126623743814 -0.0053831045642315292 0 0.018431151590391846 -0.005069969884519584 0 0.018220740762146685 -0.0050941245920493265 0 0.017775458083158013 -0.0055838689179991624 0 0.017474087274546416 -0.0055049691604670834 0 0.017696333241291069 -0.0051093146244689074 0 0.017775458083158013 -0.0055838689179991624 0 0.017954685855324282 -0.0053462346934698979 0 0.017696333241291069 -0.0051093146244689074 0 0.017954685855324282 -0.0053462346934698979 0 0.01795430044292258 -0.0050803636518212281 0 0.017696333241291069 -0.0051093146244689074 0 0.017474087274546416 -0.0055049691604670834 0 0.017696333241291069 -0.0051093146244689074 0 0.017373318148891485 -0.0050375698214256233 0 0.017696333241291069 -0.0051093146244689074 0 0.017373318148891485 -0.0050375698214256233 0 0.017695095875304639 -0.0047623195706144143 0 0.017373318148891485 -0.0050375698214256233 0 0.017695095875304639 -0.0047623195706144143 0 0.017515056985711368 -0.0045160801323172453 0 0.017277787826641456 -0.0049145851953320508 0 0.017373318148891485 -0.0050375698214256233 0 0.017416859469241215 -0.0048734002700448996 0 0.017368533265463316 -0.004995701268428283 0 0.017474936621061057 -0.0047026981087829453 0 0.017695095875304639 -0.0047623195706144143 0 0.017743419335224907 -0.0044834106152411828 0 0.017515056985711368 -0.0045160801323172453 0 0.017696333241291069 -0.0051093146244689074 0 0.017695095875304639 -0.0047623195706144143 0 0.017910321019517839 -0.0047520196476484927 0 0.017695095875304639 -0.0047623195706144143 0 0.017743419335224907 -0.0044834106152411828 0 0.017910321019517839 -0.0047520196476484927 0 0.017757976231709618 -0.0041422957146691249 0 0.017743419335224907 -0.0044834106152411828 0 0.017881351910855062 -0.004358413936449609 0 0.017757976231709618 -0.0041422957146691249 0 0.017743419335224907 -0.0044834106152411828 0 0.017515056985711368 -0.0045160801323172453 0 0.017632122455991207 -0.0044039563484228857 0 0.017474936621061057 -0.0047026981087829453 0 0.017345761007832167 -0.0045971153274743885 0 0.017304971473713945 -0.004770264194148323 0 0.017416859469241215 -0.0048734002700448996 0 0.017277787826641456 -0.0049145851953320508 0 0.017304971473713945 -0.004770264194148323 0 0.017416859469241215 -0.0048734002700448996 0 0.018108702934158925 -0.0045885600887193394 0 0.018062030369207293 -0.0041272706707564171 0 0.0185189720576848 -0.0047497633852156065 0 0.018087421625208978 -0.0041095799811066312 0 0.018122676896463717 -0.0040137402460751082 0 0.018260695243293365 -0.0048578636540312324 0 0.018108702934158925 -0.0045885600887193394 0 0.0185189720576848 -0.0047497633852156065 0 0.018072512621798119 -0.0049193097048631637 0 0.018260695243293365 -0.0048578636540312324 0 0.018108702934158925 -0.0045885600887193394 0 0.018072512621798119 -0.0049193097048631637 0 0.018108702934158925 -0.0045885600887193394 0 0.017910321019517839 -0.0047520196476484927 0 0.018108702934158925 -0.0045885600887193394 0 0.017910321019517839 -0.0047520196476484927 0 0.017881351910855062 -0.004358413936449609 0 0.017743419335224907 -0.0044834106152411828 0 0.017910321019517839 -0.0047520196476484927 0 0.017881351910855062 -0.004358413936449609 0 0.017903364097707843 -0.0041759457470518582 0 0.017881351910855062 -0.004358413936449609 0 0.018062030369207293 -0.0041272706707564171 0 0.017903364097707843 -0.0041759457470518582 0 0.017757976231709618 -0.0041422957146691249 0 0.017881351910855062 -0.004358413936449609 0 0.018108702934158925 -0.0045885600887193394 0 0.017881351910855062 -0.004358413936449609 0 0.018062030369207293 -0.0041272706707564171 0 0.017839131841064219 -0.0040907826948913305 0 0.018062030369207293 -0.0041272706707564171 0 0.01772262142796004 -0.0039696081205781181 0 0.01772262142796004 -0.0039696081205781181 0 0.01762988194227234 -0.0036080875352333609 0 0.017240698114609074 -0.0036086256670904595 0 0.018062030369207293 -0.0041272706707564171 0 0.01772262142796004 -0.0039696081205781181 0 0.01762988194227234 -0.0036080875352333609 0 0.018062030369207293 -0.0041272706707564171 0 0.01762988194227234 -0.0036080875352333609 0 0.017763359682615842 -0.0032450117754288044 0 0.01762988194227234 -0.0036080875352333609 0 0.017543648867540035 -0.0032078754623734353 0 0.017240698114609074 -0.0036086256670904595 0 0.01762988194227234 -0.0036080875352333609 0 0.017543648867540035 -0.0032078754623734353 0 0.017763359682615842 -0.0032450117754288044 0 0.017543648867540035 -0.0032078754623734353 0 0.016612069422573227 -0.0032177980390480599 0 0.017240698114609074 -0.0036086256670904595 0 0.016612069422573227 -0.0032177980390480599 0 0.017240698114609074 -0.0036086256670904595 0 0.016740772065420934 -0.0040005563980409792 0 0.017699135578993316 -0.0039737866052054795 0 0.017000069024697983 -0.0038365152526624027 0 0.017633219887048732 -0.0040067019778438793 0 0.01772262142796004 -0.0039696081205781181 0 0.017555706363207954 -0.0037618840723264318 0 0.01772262142796004 -0.0039696081205781181 0 0.017240698114609074 -0.0036086256670904595 0 0.016740772065420934 -0.0040005563980409792 0 0.017133558879597232 -0.0039108997469282959 0 0.01742830038864366 -0.0039118349502559645 0 0.017229492790620603 -0.003567298370956512 0 0.017000069024697983 -0.0038365152526624027 0 0.016998150888008993 -0.0039559495738591063 0 0.01742830038864366 -0.0039118349502559645 0 0.017555706363207954 -0.0037618840723264318 0 0.017229492790620603 -0.003567298370956512 0 0.013711556172039608 -0.00094171079149233945 0 0.012625543751541457 -0.000511466592716645 0 0.017133558879597232 -0.0039108997469282959 0 0.016748564807214848 -0.0034305687115758817 0 0.017229492790620603 -0.003567298370956512 0 0.014257828202002408 -0.0035778187293804276 0 0.015524320014499852 -0.0038298347210875736 0 0.014842554519960154 -0.0023700673160728554 0 0.015524320014499852 -0.0038298347210875736 0 0.015823438142409149 -0.0025029592200596271 0 0.014842554519960154 -0.0023700673160728554 0 0.012625543751541457 -0.000511466592716645 0 0.016998150888008993 -0.0039559495738591063 0 0.016612069422573227 -0.0032177980390480599 0 0.015524320014499852 -0.0038298347210875736 0 0.015823438142409149 -0.0025029592200596271 0 0.016612069422573227 -0.0032177980390480599 0 0.016740772065420934 -0.0040005563980409792 0 0.015524320014499852 -0.0038298347210875736 0 0.016612069422573227 -0.0032177980390480599 0 0.015823438142409149 -0.0025029592200596271 0 0.016598924032490133 -0.0020742349507578794 0 0.015823438142409149 -0.0025029592200596271 0 0.014842554519960154 -0.0023700673160728554 0 0.015533382225883153 -0.00098955033914545094 0 0.014339449939053051 -0.0011574798320123246 0 0.014842554519960154 -0.0023700673160728554 0 0.015533382225883153 -0.00098955033914545094 0 0.016413780106495194 -0.0017480466106065333 0 0.016951399475097686 -0.0025831627992752839 0 0.017344219449783028 -0.0028173089379783835 0 0.017130668904073158 -0.0028920022552293883 0 0.017308620333240002 -0.0030197527604590895 0 0.015823438142409149 -0.0025029592200596271 0 0.015533382225883153 -0.00098955033914545094 0 0.016598924032490133 -0.0020742349507578794 0 0.018191822364634836 -0.0041179573048628591 0 0.018109794331173139 -0.0041315056588195195 0 0.017344219449783028 -0.0028173089379783835 0 0.017478967794233795 -0.0029712758843702357 0 0.017308620333240002 -0.0030197527604590895 0 0.0186399754489276 -0.005549419367729869 0 0.018906621332782841 -0.0056780613300422625 0 0.018728978812170317 -0.0052448213320310183 0 0.0186399754489276 -0.005549419367729869 0 0.018422126623743814 -0.0053831045642315292 0 0.018728978812170317 -0.0052448213320310183 0 0.018422126623743814 -0.0053831045642315292 0 0.018431151590391846 -0.005069969884519584 0 0.018728978812170317 -0.0052448213320310183 0 0.018122676896463717 -0.0040137402460751082 0 0.018109794331173139 -0.0041315056588195195 0 0.018431151590391846 -0.005069969884519584 0 0.0185189720576848 -0.0047497633852156065 0 0.018728978812170317 -0.0052448213320310183 0 0.017543648867540035 -0.0032078754623734353 0 0.017763359682615842 -0.0032450117754288044 0 0.017478967794233795 -0.0029712758843702357 0 0.017502692402597119 -0.0031447601003959983 0 0.016951399475097686 -0.0025831627992752839 0 0.017543648867540035 -0.0032078754623734353 0 0.016612069422573227 -0.0032177980390480599 0 0.016598924032490133 -0.0020742349507578794 0 0.017543648867540035 -0.0032078754623734353 0 0.017478967794233795 -0.0029712758843702357 0 0.017308620333240002 -0.0030197527604590895 0 
</DataArray>
</PointData>
<CellData Scalars="region_id,cross_section_updated," Vectors="" Tensors="stress,">
<DataArray type="Float64" Name="region_id" format="ascii">
5 5 5 5 5 6 5 5 5 6 5 5 5 5 5 5 6 5 5 5 6 5 5 5 5 5 5 5 5 5 6 5 5 5 5 5 6 5 5 5 5 6 5 5 6 5 5 5 5 5 5 5 5 6 5 5 5 5 5 5 5 5 5 5 5 5 5 5 5 5 5 5 5 5 5 5 6 5 5 5 5 5 6 6 5 5 5 5 5 5 5 5 5 5 6 5 5 5 5 5 5 5 5 5 5 5 5 5 5 5 5 5 5 6 5 5 5 5 5 5 6 5 5 5 5 5 5 5 5 5 5 5 5 5 5 6 5 5 5 5 5 5 6 5 6 5 5 5 5 5 5 6 5 5 5 5 6 5 5 5 5 5 5 5 5 5 5 6 5 5 5 5 6 5 5 5 5 5 5 5 5 5 5 6 5 5 6 5 5 5 5 5 5 5 5 5 5 5 5 6 5 5 5 5 5 5 5 5 5 5 5 5 5 5 5 6 5 6 5 5 6 5 5 6 5 6 5 5 6 5 5 5 5 5 5 5 5 6 5 5 5 5 5 6 5 6 6 5 5 5 5 5 5 5 5 5 5 5 5 6 5 6 5 5 5 5 5 5 5 5 5 5 5 5 5 5 5 6 5 5 5 5 6 5 5 5 6 5 5 6 5 5 5 5 5 6 5 5 5 5 5 5 6 5 5 5 5 5 6 5 5 5 5 5 5 5 5 5 5 5 5 6 5 5 6 5 5 5 5 5 5 5 5 5 5 6 5 6 5 5 5 5 5 5 5 6 5 5 5 5 5 5 5 5 5 5 5 5 6 5 6 5 5 5 5 5 5 5 6 5 5 6 5 5 6 5 5 5 5 5 6 5 5 5 5 6 5 5 5 6 5 6 5 5 5 5 5 5 5 5 5 5 5 5 5 5 5 5 5 5 5 6 5 5 5 5 5 5 5 5 5 5 5 5 5 6 5 5 5 5 5 6 5 5 5 5 5 6 5 6 5 6 5 5 5 5 5 5 5 5 5 5 5 5 5 5 5 5 5 5 5 5 5 5 5 5 5 5 5 5 5 5 5 5 5 5 5 5 5 5 5 5 6 5 5 5 6 5 5 5 6 5 6 5 5 5 5 6 5 5 6 5 5 5 5 5 5 5 5 5 5 5 5 5 5 5 5 5 5 6 5 5 6 5 5 6 5 5 5 5 5 5 5 5 6 5 5 6 5 5 5 5 5 5 5 5 5 5 5 5 5 5 5 5 6 5 5 5 5 5 5 6 5 5 5 5 5 5 5 6 5 5 5 6 5 5 5 5 6 5 5 5 6 5 5 5 5 5 5 6 5 5 5 5 5 5 5 5 5 5 6 5 5 5 6 5 5 5 5 5 5 5 5 5 5 5 5 6 5 5 5 5 5 6 5 5 5 5 5 5 5 5 5 6 6 5 6 5 5 5 5 5 5 5 6 5 5 5 6 5 6 6 5 5 5 6 5 6 6 5 5 5 5 6 5 5 5 5 5 5 5 5 6 5 5 5 6 5 5 5 5 6 5 5 6 5 5 5 5 5 6 5 5 5 5 5 5 5 5 5 5 5 5 5 5 5 5 5 5 5 5 5 5 6 5 5 5 5 5 5 5 5 5 5 5 5 5 5 5 5 5 5 5 5 5 6 5 5 5 5 5 5 5 5 5 5 5 5 5 5 5 5 6 5 5 5 6 5 5 5 6 5 5 5 5 5 6 5 5 5 5 6 5 5 5 5 5 5 5 6 5 5 5 5 5 6 5 5 6 5 5 5 5 5 5 5 5 5 5 5 5 5 5 5 5 5 5 5 5 5 5 5 6 5 5 5 5 5 5 5 6 5 5 5 5 6 5 5 5 5 5 5 5 5 5 5 5 5 5 5 5 5 6 5 6 5 5 5 5 5 5 5 5 5 5 5 5 5 5 5 5 6 6 5 5 6 5 5 5 5 5 6 6 5 6 6 6 5 6 5 5 5 5 5 6 5 5 5 5 6 5 6 5 6 6 5 5 6 5 6 5 5 6 5 5 5 5 5 6 5 5 5 6 5 5 5 6 5 5 5 5 5 5 5 6 6 5 6 5 5 6 6 5 5 6 5 6 5 5 5 6 5 5 6 5 6 6 6 5 5 5 5 6 5 5 5 5 5 5 6 5 5 5 6 5 5 6 5 5 5 5 6 5 5 5 5 5 5 5 5 5 5 5 6 5 5 5 5 5 6 5 5 5 5 5 5 6 6 5 5 5 6 5 5 5 5 5 5 5 5 5 5 6 5 5 5 5 6 6 5 6 5 5 6 6 5 5 5 5 5 5 6 5 5 5 5 6 5 6 5 5 5 6 5 5 5 5 5 5 5 5 5 5 5 5 5 6 5 5 5 5 5 5 5 5 5 5 5 5 5 5 5 5 5 5 5 5 5 6 5 5 5 5 5 5 5 5 6 6 5 5 5 5 5 5 5 5 5 5 5 5 5 5 5 5 5 5 5 6 5 5 5 5 6 5 5 6 5 5 5 5 5 5 5 5 5 5 5 5 5 5 6 5 5 6 5 5 5 5 5 5 5 5 5 5 5 6 5 5 5 5 6 5 5 5 5 5 5 5 5 6 6 5 5 5 5 6 5 5 5 5 6 5 5 5 5 5 5 5 5 5 5 5 6 5 5 5 5 5 5 6 5 5 5 6 5 5 5 5 5 5 5 5 5 5 6 6 5 6 5 5 5 5 5 5 5 5 5 5 5 5 5 5 5 5 5 5 5 5 5 5 5 5 5 5 5 5 6 5 5 5 5 5 6 5 5 5 5 6 5 5 5 5 5 5 6 5 5 5 5 5 5 5 6 5 5 5 5 5 5 5 5 5 5 5 5 5 5 5 5 5 5 5 5 6 6 5 5 5 5 5 5 5 5 5 5 5 5 6 5 5 5 5 5 5 5 5 5 5 5 5 5 5 5 5 5 5 5 5 5 5 5 6 5 5 5 5 6 5 6 6 5 5 5 5 6 5 5 6 5 5 5 5 5 5 5 5 5 5 5 5 5 5 6 5 5 6 5 5 5 5 5 6 5 5 5 5 5 5 5 5 5 5 5 5 5 5 5 5 5 5 5 5 5 5 5 6 5 5 5 5 5 5 5 5 5 5 5 5 5 5 5 5 5 6 5 6 5 5 5 5 6 5 5 5 5 5 5 5 6 5 5 5 5 5 5 5 5 5 6 5 6 5 5 6 6 5 5 5 5 5 5 6 5 5 5 5 5 5 6 5 5 6 5 5 5 5 5 5 5 5 5 5 5 5 5 5 5 5 5 5 5 5 5 5 5 5 5 5 5 5 5 5 5 5 6 5 5 5 5 6 5 5 5 6 6 5 5 5 5 5 5 5 5 5 5 5 5 6 5 5 5 5 5 5 5 5 5 5 5 5 5 5 6 5 5 5 6 5 5 5 5 6 5 5 5 5 5 5 5 5 5 5 5 5 5 5 5 5 6 5 5 5 5 5 6 5 6 5 6 5 5 6 5 5 5 5 5 5 5 6 5 6 5 5 5 5 6 5 5 5 5 6 6 5 5 5 6 5 5 6 5 5 5 5 5 5 5 5 5 5 5 6 5 6 5 5 5 6 6 5 5 5 5 6 5 5 5 5 5 5 5 5 5 5 5 6 5 5 5 5 6 5 5 5 5 5 5 5 5 5 5 5 5 5 6 5 5 5 5 5 5 5 5 5 5 6 5 5 5 6 5 5 5 6 5 5 6 5 6 5 6 5 5 5 6 5 5 5 5 6 5 6 5 5 5 5 6 5 5 5 5 6 5 5 5 5 5 5 5 5 5 5 5 5 6 5 5 5 6 5 5 5 5 6 5 5 6 5 5 5 5 5 5 5 5 5 5 5 5 5 5 5 5 5 5 5 5 5 6 5 5 5 5 5 5 5 5 5 5 5 5 5 5 5 5 5 5 5 5 5 5 5 5 5 5 5 5 5 5 5 5 5 6 5 5 5 5 5 5 5 5 5 5 5 5 5 5 6 5 5 5 5 5 5 6 5 5 5 6 5 5 5 5 5 5 5 5 5 5 5 5 5 5 5 5 5 5 5 5 5 5 6 5 5 5 5 6 5 5 5 5 5 5 6 5 5 5 5 5 5 5 5 5 5 5 5 5 5 6 5 5 5 5 5 5 5 5 5 6 6 5 5 5 5 5 5 5 5 6 5 5 5 5 6 5 5 5 5 6 5 6 5 5 5 5 6 5 5 5 5 5 5 5 5 5 5 5 5 5 5 5 5 5 6 5 5 5 5 5 5 5 5 6 6 5 5 5 5 5 5 6 5 5 6 5 5 6 6 6 5 5 6 6 5 6 6 5 5 6 5 5 5 5 6 5 5 5 6 5 6 5 5 5 5 5 5 5 6 5 5 5 6 5 5 6 5 5 5 5 5 5 5 5 6 6 5 5 5 5 5 6 5 5 5 5 5 6 5 5 5 5 5 6 5 5 5 5 6 5 5 5 5 5 6 5 6 5 5 5 5 5 6 5 5 5 5 5 5 5 5 5 6 6 5 5 6 5 6 5 5 5 5 5 5 5 5 5 5 6 5 5 6 5 5 5 6 5 5 5 5 5 5 5 5 5 5 5 5 5 5 5 5 5 5 5 5 5 6 5 6 5 5 5 5 5 5 5 5 5 5 6 6 5 5 5 5 5 6 5 5 5 5 5 5 5 5 5 6 6 5 5 5 5 6 5 5 5 5 5 6 5 5 5 5 5 5 6 5 6 6 5 5 5 5 5 5 5 5 5 5 5 5 5 6 5 5 6 5 5 6 5 5 6 5 5 5 5 5 5 5 5 5 6 5 5 6 5 5 5 5 6 5 6 5 5 5 5 5 5 5 5 6 5 5 6 5 5 5 5 5 5 5 5 5 5 5 6 5 5 5 5 6 5 5 5 6 5 5 5 5 6 5 5 5 5 5 5 5 5 5 6 5 5 5 6 5 6 5 5 6 5 5 5 5 5 5 5 5 5 5 5 6 5 5 5 5 5 5 5 5 5 5 6 5 5 5 5 5 5 5 5 6 5 5 5 6 5 5 6 5 6 5 6 5 5 5 6 5 5 5 5 5 5 5 5 5 5 6 5 5 5 5 6 5 6 5 5 5 5 5 5 5 6 5 5 5 5 5 5 5 6 5 5 5 5 6 5 5 5 5 5 5 5 5 5 5 5 5 5 5 5 6 5 5 6 5 6 5 5 5 6 5 5 6 5 5 5 6 6 6 5 5 6 6 5 5 6 5 6 5 5 5 6 5 6 5 5 6 5 5 6 5 6 5 5 5 6 5 6 5 5 6 6 5 5 5 6 5 6 5 5 6 6 6 5 5 5 5 5 5 5 6 6 5 6 5 6 6 5 6 5 5 6 5 5 5 5 5 6 5 5 6 5 5 5 5 5 5 5 5 5 5 5 5 5 5 5 6 5 5 5 5 5 5 5 5 5 5 5 5 5 5 5 5 5 5 5 5 5 5 5 5 5 5 5 5 5 5 5 5 5 5 5 5 5 5 5 5 5 5 5 5 6 6 5 5 5 6 5 5 5 5 5 5 5 5 6 5 5 5 5 5 6 5 5 5 5 5 5 5 5 5 5 6 5 6 5 5 5 6 5 5 5 6 5 5 5 6 5 6 5 5 5 5 5 5 5 5 5 5 5 5 5 5 5 5 5 5 6 5 5 5 5 5 5 5 6 5 5 6 6 5 5 5 5 6 5 5 5 5 5 5 6 5 5 6 5 5 5 5 5 5 5 6 5 5 5 5 5 5 5 5 5 5 5 5 6 5 5 5 6 5 5 5 5 5 5 6 5 5 5 5 5 5 5 5 5 5 5 5 5 5 5 5 5 6 6 5 6 5 6 5 5 5 5 5 5 5 5 6 5 5 5 6 6 5 6 5 6 5 6 5 5 5 5 6 5 5 5 6 5 6 6 5 5 6 5 5 5 6 6 5 6 5 5 6 6 5 5 6 6 5 5 5 5 5 5 5 6 5 6 5 5 5 5 5 5 6 5 5 5 5 5 5 5 5 5 5 5 5 5 5 5 5 5 6 5 6 6 5 5 6 5 5 5 5 5 5 5 5 5 5 5 5 5 5 5 5 5 5 5 5 5 6 5 5 6 5 6 5 5 5 6 5 5 5 5 5 5 5 5 6 5 5 6 6 5 5 6 5 5 5 5 5 5 6 5 5 5 5 5 6 5 5 5 5 5 6 6 5 6 6 5 6 5 6 6 5 5 6 6 6 5 5 5 5 5 5 5 5 6 5 5 5 5 6 5 6 5 5 6 5 5 6 5 5 5 5 5 5 5 5 5 5 5 5 6 6 5 5 5 6 5 5 5 5 5 5 5 5 5 5 5 5 5 6 5 5 5 5 5 5 6 5 5 5 5 5 5 6 5 5 6 5 5 5 5 5 5 5 6 5 5 5 6 6 5 5 6 5 5 5 5 5 5 5 5 5 5 5 5 5 5 5 5 5 5 5 5 5 5 6 5 6 5 5 6 5 5 6 5 5 5 5 6 5 5 6 5 5 5 5 6 6 5 5 6 5 5 5 5 5 6 5 5 5 6 5 5 6 5 5 6 5 5 6 5 5 5 5 5 5 5 5 5 5 5 5 5 5 5 5 5 5 6 5 5 5 5 5 5 5 5 5 6 5 6 5 5 5 5 5 5 5 5 5 5 5 5 5 6 5 5 6 5 6 5 5 5 5 5 5 6 5 5 5 5 5 6 5 6 5 6 5 5 5 5 5 5 5 5 5 6 5 5 5 5 5 5 5 5 5 5 5 5 5 5 5 5 5 5 5 5 5 5 5 5 5 5 6 5 5 5 5 5 5 5 5 5 5 6 5 5 5 6 5 5 5 5 5 5 5 5 5 6 5 5 5 6 5 6 5 5 5 5 5 5 5 5 5 5 6 6 5 5 5 5 6 5 5 6 5 5 5 5 5 6 6 5 5 5 5 6 5 5 6 5 5 5 5 5 5 5 5 5 5 5 5 5 5 5 5 5 6 5 6 5 6 6 5 5 5 5 6 5 5 5 5 5 5 6 5 5 5 5 5 5 5 5 6 5 5 6 5 6 5 5 5 5 5 5 5 5 5 5 5 5 5 5 5 5 5 5 5 5 5 6 5 5 6 6 5 5 5 5 6 5 5 5 5 5 6 5 5 6 5 5 6 5 6 5 5 5 5 5 5 5 5 6 5 5 5 5 5 5 6 6 5 5 5 5 6 5 5 6 5 5 6 5 5 5 5 5 5 5 5 5 5 5 5 5 5 5 5 5 5 5 6 5 5 5 5 5 5 5 5 5 5 5 6 6 5 5 5 5 5 5 6 5 5 5 5 5 5 5 5 5 5 5 6 5 5 6 5 5 5 5 5 5 5 5 6 5 5 6 5 5 5 5 5 6 5 6 5 5 6 5 6 5 5 6 5 5 5 5 5 5 5 5 5 5 5 5 5 5 6 6 5 5 5 5 6 5 5 5 5 5 5 5 5 5 6 5 5 5 5 5 6 5 5 5 5 5 5 5 5 5 5 6 5 5 5 5 5 6 5 5 5 6 5 5 5 5 5 5 5 5 5 5 5 5 5 6 6 5 5 5 5 5 5 5 5 5 6 5 6 5 5 5 6 5 5 5 6 5 5 5 5 5 5 5 6 6 5 5 5 5 6 5 5 6 5 5 5 5 5 6 5 5 5 5 5 5 5 6 5 5 5 5 6 5 5 5 5 6 5 6 5 6 5 6 5 5 6 6 5 5 5 6 5 5 5 6 5 5 5 5 5 5 5 5 5 5 6 5 5 5 5 6 5 5 5 6 5 5 5 5 5 6 5 5 5 5 5 5 5 5 5 5 5 5 5 5 5 5 5 5 5 6 5 5 5 5 5 5 5 5 5 5 5 5 5 5 5 5 5 5 5 5 5 5 5 5 5 5 5 5 5 6 5 5 5 6 5 5 5 6 5 6 5 5 5 6 6 5 5 5 6 5 6 5 5 6 6 5 6 5 5 5 5 6 5 5 5 6 6 5 5 5 5 6 5 6 5 5 5 5 6 5 5 5 5 6 5 5 5 5 5 5 5 6 5 5 5 6 5 5 5 5 5 5 5 5 5 5 5 5 5 5 5 5 6 5 5 5 6 5 5 5 6 5 5 5 6 5 5 5 6 5 5 5 6 5 6 5 6 5 5 6 5 5 6 5 5 6 6 5 5 6 5 5 5 6 5 6 6 5 6 5 5 5 5 6 6 5 5 5 5 6 5 5 5 6 5 5 6 5 6 5 5 5 5 6 6 5 5 5 5 5 5 5 5 5 5 5 6 6 5 5 6 6 6 5 5 6 5 5 5 5 6 5 6 5 5 5 5 5 6 5 5 5 6 5 5 5 5 6 6 5 5 6 6 5 5 5 5 5 5 5 5 5 5 5 5 5 5 5 5 5 5 5 5 5 5 5 5 5 5 5 5 5 5 5 5 5 5 5 5 5 5 5 5 5 5 5 5 5 5 5 5 5 5 6 5 5 5 5 5 5 6 6 5 6 5 5 5 5 6 5 5 6 5 5 5 5 5 5 5 5 5 5 5 5 5 5 6 5 5 5 5 5 5 6 5 5 5 5 6 5 5 5 5 5 5 5 5 5 5 5 5 5 5 5 5 5 5 5 5 5 5 5 5 5 5 5 5 5 5 5 5 5 5 5 5 5 5 5 5 5 6 5 5 5 6 5 5 5 5 5 5 5 5 5 5 5 5 5 5 5 5 5 5 5 6 5 5 5 5 5 6 5 5 6 6 5 5 5 5 5 5 6 5 5 5 5 5 5 5 5 5 6 5 5 5 5 5 6 5 5 5 5 5 6 6 5 5 5 6 5 5 5 5 5 5 6 5 6 5 5 5 5 5 5 5 6 6 5 5 5 5 5 6 6 6 5 5 5 6 5 5 6 5 6 5 5 5 6 5 5 5 5 6 6 5 5 5 5 5 5 5 5 5 5 5 5 5 5 5 6 5 5 6 5 5 5 5 5 5 5 5 5 5 6 5 5 6 5 5 5 5 6 5 5 5 6 5 5 5 6 5 5 5 5 5 5 5 5 5 5 5 5 6 5 5 5 5 5 5 6 5 5 5 5 5 5 5 5 5 5 6 5 5 5 5 5 6 5 5 5 6 5 5 5 6 5 6 5 6 5 5 5 5 5 6 6 5 5 5 5 5 5 5 5 5 5 5 5 5 5 5 5 5 5 5 5 5 5 6 6 5 5 5 6 5 6 5 5 5 6 5 5 5 5 6 5 5 5 5 5 5 5 5 5 6 5 6 5 5 6 5 5 5 5 5 5 5 5 5 6 6 5 5 5 5 5 5 6 6 5 5 5 5 5 5 5 5 5 5 5 5 5 5 5 6 5 5 6 5 5 5 5 5 5 5 5 5 5 6 6 5 5 5 5 5 6 5 5 6 5 5 5 6 6 6 5 6 5 5 5 5 6 5 6 5 5 5 6 5 5 6 5 6 5 6 5 5 5 5 6 6 5 5 6 5 5 5 6 6 5 5 5 6 5 5 5 5 6 5 5 5 5 6 5 5 5 6 5 5 6 5 5 5 5 5 5 5 5 5 6 5 5 6 5 5 5 5 5 6 5 5 5 5 6 5 5 6 5 5 5 6 5 5 5 5 5 5 6 5 5 5 5 5 5 5 5 5 5 5 5 5 6 5 5 5 5 5 5 5 5 5 5 5 5 5 5 5 5 5 5 5 5 6 5 5 5 5 5 5 6 5 5 5 5 5 5 6 5 5 6 5 5 6 6 5 5 5 5 5 5 6 5 5 6 5 5 5 6 5 5 5 5 6 5 5 5 6 5 6 5 5 5 5 5 5 5 6 6 5 6 5 6 5 5 5 6 5 5 5 5 6 5 5 6 5 6 6 5 5 6 5 5 6 5 6 5 5 6 5 6 5 5 6 5 6 5 5 5 5 5 5 5 5 5 5 6 6 5 5 5 5 5 6 5 5 5 6 5 5 5 5 5 5 5 5 5 5 5 5 5 5 5 6 5 5 5 5 5 5 5 5 5 5 5 5 5 5 5 5 5 5 6 5 5 6 5 5 5 6 5 6 5 5 5 5 5 5 6 5 6 5 6 5 5 5 5 5 6 5 5 5 5 5 5 5 5 5 5 5 5 6 5 5 6 5 5 5 6 6 5 5 5 5 5 6 5 5 5 5 5 5 5 5 6 5 5 5 5 5 5 6 5 5 5 5 5 5 5 5 6 5 5 5 6 5 6 5 5 5 5 5 5 5 5 5 5 5 5 5 5 5 5 5 5 6 5 5 5 5 5 5 5 6 5 5 5 6 5 5 5 5 5 5 5 5 5 5 5 5 6 5 5 5 5 5 5 6 6 5 5 5 6 5 5 5 5 5 5 5 5 5 6 5 5 5 5 5 5 5 5 6 5 5 5 6 5 5 5 5 6 5 5 5 5 5 5 5 5 5 6 5 5 5 5 5 5 5 5 5 5 5 5 5 6 5 5 5 5 5 5 5 5 5 5 6 5 5 5 6 5 5 5 5 5 6 5 6 5 5 5 6 5 5 5 5 5 5 5 5 5 6 5 5 5 5 5 5 5 5 5 5 5 5 5 5 5 5 5 5 5 5 5 5 5 5 5 5 5 5 5 5 5 6 5 5 5 5 5 5 5 5 5 5 5 5 5 5 5 5 5 5 5 5 5 5 5 5 5 5 5 5 5 5 5 5 5 5 5 5 5 6 5 5 5 5 5 5 5 5 5 5 5 5 5 5 5 5 5 5 5 5 5 6 5 6 5 5 5 5 5 5 5 5 5 5 5 5 6 5 6 5 5 5 6 6 5 5 5 5 5 5 5 5 5 5 5 5 5 6 5 5 6 6 5 5 5 5 5 5 6 6 6 5 6 5 5 5 5 5 5 5 5 5 5 5 5 5 5 5 5 5 5 5 5 5 5 5 5 5 5 5 5 5 6 6 5 5 5 5 5 5 5 5 5 5 5 5 6 5 5 6 5 5 5 5 5 6 5 6 6 5 6 5 5 5 5 5 6 6 5 5 6 5 5 5 5 5 5 6 6 5 6 5 5 5 5 5 5 5 5 5 5 5 5 5 6 5 5 5 5 5 5 5 5 5 5 5 5 5 5 5 5 5 6 5 5 5 5 5 5 5 5 6 5 5 5 5 6 5 5 6 5 6 5 6 5 5 5 5 5 6 5 5 5 5 5 5 5 5 5 5 6 5 5 5 5 5 5 5 5 5 5 5 5 5 5 5 5 5 5 5 5 5 5 5 5 6 5 6 5 5 5 5 6 5 6 5 5 5 6 5 5 5 5 6 5 5 6 5 5 5 5 5 5 5 5 5 6 6 5 5 5 5 5 5 6 5 5 5 6 5 5 6 5 5 5 5 5 5 6 5 5 5 5 5 5 6 5 6 5 5 5 6 5 5 5 5 5 5 6 5 6 5 5 5 5 6 5 5 5 5 5 5 5 5 5 5 5 5 6 5 5 5 5 5 6 5 5 5 5 5 5 5 6 5 6 5 5 5 6 6 5 5 5 5 5 5 5 6 5 5 5 5 5 5 5 6 5 5 5 5 6 5 5 5 5 5 5 5 5 5 5 5 5 5 5 5 5 5 6 5 5 5 5 6 5 5 5 5 5 5 6 5 5 5 5 5 5 5 5 5 6 5 6 5 6 5 5 5 5 6 5 5 6 5 5 6 5 5 6 5 5 5 5 6 5 6 5 5 5 6 6 5 5 5 5 5 6 5 6 5 5 6 5 5 6 5 5 5 5 6 5 5 5 5 5 6 5 5 5 5 5 6 5 5 6 5 5 5 5 5 5 5 5 6 5 5 5 6 5 5 5 6 5 5 5 5 5 5 5 5 5 5 5 5 5 5 5 5 5 5 5 5 5 5 5 6 5 5 5 5 5 6 5 5 5 5 5 5 5 5 5 5 5 6 6 5 5 6 5 6 5 5 5 6 5 6 5 6 5 5 6 5 5 5 5 5 6 5 5 5 5 5 5 6 5 5 5 6 5 5 5 6 5 5 5 5 5 5 5 5 5 5 5 5 5 5 5 5 5 5 5 6 5 5 6 5 6 5 6 5 5 5 5 5 5 5 5 6 5 5 5 6 5 5 5 5 5 5 6 5 5 6 5 5 5 5 6 5 5 5 5 5 5 5 6 5 5 5 5 5 5 5 5 5 5 5 6 6 5 6 5 5 5 5 5 5 5 5 5 5 5 5 5 5 5 5 5 5 5 5 5 5 5 5 5 5 5 5 5 5 5 5 5 5 5 5 5 5 5 6 5 5 5 5 5 5 5 5 6 5 5 5 5 5 5 5 5 5 5 5 5 5 6 5 5 5 5 5 5 5 6 5 5 5 5 5 6 5 5 5 6 5 5 5 5 5 6 6 5 5 6 5 5 5 6 5 6 5 5 5 5 5 5 6 5 5 5 5 5 5 5 6 5 5 5 5 5 5 5 5 5 5 5 5 6 5 6 6 5 5 5 5 6 5 5 5 6 6 5 6 6 5 5 5 5 5 6 6 5 5 5 5 5 6 5 5 5 5 6 5 5 6 5 6 5 5 5 5 5 5 5 6 5 5 6 5 6 5 5 5 6 6 5 5 6 5 6 6 5 5 5 5 5 5 6 6 6 5 5 5 5 5 6 6 5 5 5 5 5 5 6 5 5 5 5 6 5 5 5 5 6 5 5 6 5 5 5 5 5 5 5 5 5 5 5 5 5 6 5 6 6 5 5 5 5 5 6 5 6 5 5 5 5 5 5 6 5 5 5 5 5 6 5 5 6 5 5 6 5 5 5 5 5 5 5 5 5 5 5 6 5 5 5 5 5 5 5 5 5 5 5 6 5 5 5 5 6 6 5 5 5 5 5 5 6 5 5 5 6 5 5 5 5 5 5 6 5 5 5 5 5 5 5 5 5 5 5 5 5 5 5 5 6 5 5 5 6 5 5 5 5 5 5 5 5 5 5 5 5 5 5 5 5 5 6 5 5 5 5 5 5 5 6 5 5 5 5 5 5 6 6 5 5 6 5 6 5 5 5 5 5 5 5 5 6 5 5 5 5 5 5 5 5 5 5 5 5 6 6 6 5 5 5 5 5 5 5 5 5 5 5 5 5 5 5 5 5 5 5 5 5 5 5 5 5 5 5 5 5 5 5 5 5 5 5 5 5 5 5 5 5 5 5 5 5 5 5 5 5 5 5 5 5 5 5 5 5 5 5 5 5 5 5 5 6 6 5 5 5 6 5 6 5 5 5 5 5 5 5 5 5 5 5 6 5 5 5 5 5 5 5 5 5 5 6 5 6 5 5 6 5 5 5 6 5 5 5 6 5 5 5 5 6 5 5 5 5 5 5 5 5 5 5 5 5 5 5 5 5 5 5 5 5 5 5 5 5 5 5 5 5 5 5 5 5 5 5 6 6 5 5 5 5 5 5 5 5 5 5 5 5 5 5 6 5 5 5 5 5 5 5 5 5 6 5 5 6 5 5 5 5 5 5 6 5 6 5 5 6 5 5 5 5 6 6 5 5 5 5 5 5 6 5 5 5 6 5 6 5 6 6 5 5 5 5 5 6 5 5 5 5 5 5 6 5 5 5 6 5 6 5 5 6 5 5 6 5 6 5 5 5 5 5 5 5 5 6 5 5 5 5 5 5 5 5 5 5 5 5 5 5 5 5 5 5 5 5 5 5 5 5 5 5 5 5 5 5 5 5 5 5 5 5 5 6 5 5 5 5 5 5 5 5 5 5 5 5 5 5 5 6 5 5 5 5 5 5 5 5 5 5 5 5 5 5 5 5 5 5 5 5 5 5 5 5 5 5 5 5 5 5 5 5 5 5 5 5 5 5 5 5 5 5 5 6 5 5 5 5 5 5 5 5 5 5 5 6 5 5 5 6 5 6 5 5 5 5 5 5 5 5 5 5 5 5 5 5 5 5 5 5 5 5 5 5 5 5 5 5 5 5 5 5 6 5 5 5 5 5 5 5 6 5 5 5 5 5 5 6 5 5 5 5 5 5 5 5 5 5 5 5 5 5 5 5 5 6 5 5 5 5 5 5 5 5 5 5 5 5 5 5 5 5 5 5 5 5 5 5 5 5 6 6 5 5 5 5 5 5 5 5 5 6 5 5 5 5 6 5 5 6 5 5 5 5 5 5 5 5 5 5 6 5 5 5 5 5 5 5 5 5 5 5 5 5 5 5 5 5 5 5 5 5 5 5 5 5 5 5 5 5 5 5 5 5 5 5 5 5 5 5 5 5 5 5 5 5 5 5 5 5 5 5 6 5 5 5 5 5 5 6 5 6 5 5 5 5 5 5 6 5 5 5 5 5 5 5 5 5 5 5 5 5 6 5 5 5 5 5 5 5 5 5 5 5 5 5 5 5 5 5 5 5 5 5 5 5 5 5 5 5 5 5 5 5 5 5 5 5 5 5 5 5 5 5 5 5 5 5 5 5 5 5 6 5 6 5 5 5 5 5 5 5 5 5 5 6 5 5 5 6 5 5 5 5 5 5 6 5 5 5 5 5 6 5 5 6 5 5 5 5 5 5 5 5 5 5 5 5 5 6 6 5 5 5 5 5 5 6 5 5 6 5 6 5 6 6 6 5 5 5 5 5 5 5 5 6 5 5 5 5 5 6 5 5 6 5 5 5 5 6 5 5 5 5 5 5 6 5 5 5 5 5 5 5 5 5 5 5 5 5 6 5 5 5 6 5 5 5 5 5 6 5 6 5 5 5 6 5 6 5 6 6 5 6 5 5 5 5 5 5 5 5 6 6 5 5 5 5 5 5 5 5 5 5 5 6 5 6 5 5 5 5 6 5 5 5 6 5 5 6 5 6 5 6 5 5 6 5 5 5 5 5 5 6 5 5 5 6 5 5 5 5 5 5 5 6 5 5 5 5 5 5 5 5 5 6 5 5 5 5 5 5 5 5 5 5 5 5 5 6 6 5 5 5 6 6 5 5 5 5 5 5 6 6 5 5 5 5 5 5 6 5 6 5 5 6 5 5 5 5 6 5 5 5 5 5 5 5 5 5 5 5 5 5 5 5 5 5 5 5 5 5 5 5 5 5 5 5 6 6 5 6 5 6 5 5 5 5 5 5 5 5 6 5 5 6 5 5 6 5 5 5 5 5 5 5 5 5 5 5 5 5 5 5 5 5 5 5 5 5 5 5 5 5 5 5 5 5 5 5 5 5 6 5 5 5 5 6 5 5 6 5 5 5 5 5 5 5 5 5 6 5 5 5 5 6 5 6 5 5 5 5 5 5 5 5 5 5 5 5 5 5 5 5 5 5 6 5 5 5 5 5 5 5 5 5 6 5 5 5 5 5 5 5 6 5 5 5 5 5 5 5 6 5 6 5 5 5 5 5 5 6 5 5 5 5 6 6 5 5 6 5 6 5 5 6 6 5 5 5 6 5 5 5 5 5 5 6 6 5 5 5 5 5 5 6 5 5 5 5 6 5 5 5 5 5 5 5 5 6 5 5 5 6 5 5 5 5 5 5 5 5 5 5 6 5 5 5 5 5 5 5 5 5 5 5 5 5 5 5 5 5 5 5 5 5 5 5 5 5 5 5 5 5 5 5 5 5 5 5 5 5 5 5 5 5 5 5 5 5 5 5 5 5 5 5 5 5 5 5 5 6 5 5 5 5 5 5 5 5 6 5 5 5 6 5 5 5 6 5 5 5 6 5 6 5 5 5 5 5 5 5 5 5 5 5 5 5 5 5 5 5 5 5 5 5 5 5 5 5 5 5 5 5 5 5 5 5 5 5 5 5 6 5 5 6 5 5 5 5 5 5 5 5 5 5 6 5 5 5 5 5 5 5 6 5 6 5 5 5 5 5 5 5 6 5 5 6 5 5 6 5 5 5 5 5 5 5 5 6 5 5 5 5 5 6 6 5 5 6 5 5 5 6 6 6 5 5 5 5 5 5 5 5 6 6 5 6 5 5 5 6 5 5 5 6 5 5 5 5 6 5 6 5 5 6 5 5 5 5 5 6 5 6 5 5 5 5 5 5 5 5 5 5 6 5 6 5 5 5 5 5 5 5 5 5 5 5 6 5 6 5 5 5 5 6 5 5 5 5 5 6 5 5 6 6 5 5 5 6 6 5 5 5 5 5 5 6 6 5 5 6 5 5 5 6 6 5 5 5 6 5 6 5 5 6 5 5 6 5 5 5 6 5 5 5 6 5 5 5 5 5 5 5 5 5 5 5 5 5 5 6 5 5 5 5 6 5 5 5 6 5 5 5 5 5 5 6 5 5 5 5 5 6 5 5 5 5 5 5 6 6 5 5 5 5 6 5 5 5 5 5 5 5 6 5 6 5 5 5 6 5 5 6 6 5 5 5 6 6 5 5 6 5 5 6 5 6 5 6 5 5 5 5 5 5 5 5 5 5 5 5 5 5 5 5 5 5 5 5 5 5 5 5 5 5 5 5 6 5 5 5 6 5 5 5 5 5 6 6 5 5 5 5 6 5 5 5 5 6 6 6 5 5 6 5 5 5 5 6 6 5 5 5 5 5 6 5 5 5 5 5 6 6 6 5 5 5 5 6 5 5 5 6 6 5 5 5 5 5 5 5 5 5 5 5 5 5 6 5 5 5 5 5 5 6 5 5 5 6 5 5 5 5 5 5 5 6 5 5 5 5 5 5 5 5 5 6 6 5 5 5 6 6 5 5 6 5 5 5 6 5 5 5 5 6 5 6 5 5 5 6 5 6 6 6 5 5 5 5 5 5 5 5 5 5 5 5 5 6 5 5 5 5 6 5 5 5 6 5 6 5 5 5 5 5 5 5 5 5 5 6 5 6 5 5 5 5 5 5 5 5 6 5 5 5 5 5 5 5 5 5 5 5 5 5 5 5 5 6 5 5 5 5 5 5 5 5 6 5 5 6 5 6 5 6 5 5 5 5 5 5 5 6 5 5 6 5 5 5 5 5 6 5 5 5 5 6 5 5 6 5 5 5 5 5 5 6 5 5 5 5 6 5 5 5 5 5 5 5 5 5 5 5 5 5 5 5 5 5 5 5 5 5 5 5 6 5 5 5 6 6 5 5 5 5 5 6 6 5 5 6 5 5 5 5 5 5 5 5 5 5 5 5 6 5 5 6 5 5 5 5 5 5 5 6 5 5 5 5 5 6 5 5 6 5 5 6 5 5 5 5 5 5 5 5 5 5 5 5 6 5 5 5 5 5 5 5 5 5 5 5 5 6 5 5 5 5 5 6 5 5 6 5 5 5 5 5 5 6 5 5 5 6 5 5 5 5 5 5 5 5 5 6 5 6 5 5 5 5 5 5 5 5 6 5 5 5 5 5 5 5 5 5 5 5 5 5 5 5 5 5 5 5 5 5 5 5 5 5 6 5 5 5 5 6 5 6 5 5 5 6 5 5 5 6 5 5 5 5 5 5 5 5 5 5 6 6 6 5 5 5 5 5 5 5 5 5 5 5 6 5 6 5 5 6 5 5 5 5 6 5 6 6 6 5 5 5 5 5 5 5 5 6 6 6 5 6 5 6 5 5 5 5 5 5 5 5 5 5 5 5 6 5 5 5 5 5 5 6 5 5 5 5 5 6 5 6 5 5 6 5 5 6 5 5 6 5 5 5 6 6 6 5 5 5 5 5 5 6 5 5 5 5 5 5 6 5 5 5 6 5 5 5 5 5 5 5 5 5 5 6 5 5 5 5 5 5 5 5 5 5 5 5 5 5 5 5 5 5 5 5 5 5 5 5 5 6 5 5 5 6 5 5 5 6 6 5 5 5 5 6 5 5 5 5 6 5 6 5 5 5 5 5 6 5 5 6 5 6 5 5 6 5 5 5 6 5 6 6 5 5 6 5 5 6 5 6 5 5 5 5 6 5 5 5 6 6 5 5 5 6 5 5 5 5 5 6 5 5 5 5 6 5 5 5 6 5 5 5 5 5 5 5 5 6 5 5 5 5 5 5 5 5 5 6 5 5 5 5 5 5 5 5 5 5 5 5 5 5 5 5 5 5 5 5 5 5 5 5 5 6 5 5 5 5 5 5 5 5 5 5 6 5 5 5 5 5 5 5 5 5 6 5 6 5 5 5 5 5 5 6 5 5 5 6 5 5 5 5 5 6 5 5 5 5 5 5 5 5 5 5 5 5 5 5 5 5 5 5 5 5 5 5 5 6 5 5 5 5 5 5 5 5 5 6 5 5 5 6 5 5 5 5 5 6 5 5 5 5 5 5 5 5 5 5 6 5 5 5 5 6 5 5 5 6 5 5 5 5 6 5 6 5 5 5 5 5 5 5 5 5 5 5 5 5 5 5 5 5 5 5 5 5 5 5 5 5 5 5 5 5 5 5 6 5 5 5 6 5 6 5 5 5 5 5 5 5 5 5 5 5 5 6 5 5 5 5 5 6 5 5 5 5 5 5 5 5 5 5 5 5 5 5 5 5 5 5 5 5 5 5 6 5 5 5 6 5 5 5 6 5 5 5 5 5 5 5 5 5 5 5 5 6 5 5 5 5 5 5 5 5 5 5 6 5 6 5 5 5 5 5 5 5 5 5 5 5 6 5 5 5 6 5 5 5 5 5 5 5 5 5 5 5 5 5 6 5 5 5 5 5 5 5 5 6 5 5 5 6 5 5 5 5 5 5 5 5 5 5 5 5 5 5 5 5 5 6 5 5 5 6 5 6 5 5 5 6 5 5 5 5 5 5 5 5 5 5 5 5 5 5 5 6 5 5 6 5 5 5 5 5 6 5 5 5 5 5 5 5 6 5 5 5 5 5 5 5 5 6 5 5 5 5 5 5 5 5 5 6 5 5 5 5 5 5 5 5 5 5 5 5 5 6 5 5 6 5 5 5 5 6 5 5 5 5 5 5 5 5 5 5 5 5 5 5 5 5 6 5 5 5 6 5 5 5 5 5 5 5 5 5 5 6 5 5 5 5 5 6 5 5 5 5 5 6 5 5 5 5 5 5 5 5 5 5 5 6 5 5 5 5 5 5 5 6 5 5 5 5 5 5 5 5 6 5 5 5 5 5 6 5 5 5 5 5 5 5 5 5 5 5 5 5 5 5 5 5 5 6 6 5 5 5 5 5 5 5 6 5 5 5 5 6 6 5 5 5 5 5 5 5 5 6 5 5 6 5 5 5 5 5 6 6 5 5 5 5 5 5 6 5 5 5 5 5 6 5 6 5 5 6 5 5 6 6 5 5 5 5 6 5 5 5 5 5 5 5 5 5 6 5 5 5 5 5 6 6 5 6 5 5 5 5 5 6 5 5 5 5 5 5 6 5 5 5 5 5 5 5 5 5 6 5 6 5 5 6 5 6 5 5 6 5 5 5 5 5 5 5 6 5 5 5 5 5 5 5 5 5 5 5 5 5 5 5 5 5 5 5 6 5 5 5 5 5 5 5 5 5 5 5 5 5 5 5 5 6 5 5 5 6 5 5 6 5 5 5 5 5 6 5 6 5 5 6 5 5 6 5 6 5 5 5 5 5 5 5 5 6 5 5 5 6 6 5 5 5 5 6 6 5 5 5 5 5 5 5 5 5 5 5 5 6 6 5 5 5 6 5 5 5 6 5 5 5 5 5 5 5 6 5 6 5 5 6 5 5 5 5 5 6 5 5 5 5 6 6 5 5 5 5 5 6 5 5 5 5 5 6 5 5 5 5 5 5 5 5 6 5 5 5 6 6 5 5 5 5 5 5 5 6 5 5 5 5 6 5 6 5 5 5 5 5 6 5 5 5 5 5 5 5 5 5 6 5 5 5 6 5 5 5 5 5 6 5 5 5 5 5 5 5 5 5 5 5 5 5 5 6 5 6 5 5 5 5 5 5 5 5 6 5 5 5 6 5 6 5 6 5 5 6 5 5 5 5 5 5 6 5 5 5 5 5 5 6 5 5 5 5 5 5 5 5 5 5 5 5 5 5 6 6 5 5 5 5 5 5 5 5 6 5 5 5 5 6 5 5 5 6 5 5 5 5 5 5 5 5 5 6 5 5 5 5 6 5 5 5 5 5 5 5 6 5 5 5 5 5 6 5 5 5 6 5 5 5 5 5 5 5 5 5 5 5 5 6 5 5 5 5 5 5 6 5 5 5 5 5 5 5 5 5 5 5 5 6 5 5 6 5 5 5 5 5 5 6 5 6 5 5 5 5 5 5 5 6 5 6 5 5 5 5 5 5 5 5 5 5 5 5 5 5 6 5 5 5 5 5 5 5 5 5 5 5 5 6 5 5 5 5 5 5 5 5 5 6 5 5 5 6 5 5 5 5 5 5 5 5 5 5 6 5 5 5 5 5 5 6 5 5 5 5 6 5 5 5 5 6 5 6 5 6 5 5 6 5 5 6 5 5 6 5 6 6 5 5 6 5 5 5 5 5 6 5 5 5 5 5 5 5 5 5 6 5 5 5 5 5 5 5 6 6 5 5 5 5 5 5 5 5 5 5 5 6 6 5 5 6 6 5 5 6 5 5 5 5 5 5 5 5 5 5 5 6 5 5 6 5 5 5 5 5 5 5 5 5 5 5 5 5 5 5 5 6 5 5 5 5 5 5 5 5 5 6 5 5 6 5 6 6 5 6 5 6 5 5 5 6 6 5 5 5 5 5 5 6 6 5 5 6 5 5 5 6 5 5 5 5 6 5 5 5 5 5 5 5 5 5 6 5 6 5 5 5 5 6 6 5 5 5 5 5 5 5 5 5 5 5 5 5 5 5 5 5 5 5 5 5 6 5 6 5 5 5 5 5 5 5 5 5 5 6 6 5 5 5 5 5 6 5 6 5 5 6 5 6 5 5 6 6 5 5 5 5 6 5 5 6 5 5 5 5 5 5 6 5 5 5 5 5 5 5 6 5 5 5 5 5 5 5 5 5 5 6 6 5 5 5 5 5 5 5 5 5 5 5 6 5 5 6 6 6 6 5 5 5 5 5 5 5 5 5 5 5 5 5 5 5 5 5 5 6 5 5 5 5 5 5 5 5 5 5 5 5 5 5 5 5 5 5 5 5 5 5 5 5 5 5 5 5 5 5 5 5 5 5 5 5 5 5 5 5 5 5 6 5 5 5 5 5 6 5 5 5 6 5 5 5 5 5 5 5 5 5 5 5 5 5 5 5 5 6 5 5 5 6 5 6 5 5 5 6 5 5 5 5 5 6 5 5 6 5 5 5 5 6 5 5 6 5 5 
</DataArray>
<DataArray type="Float64" Name="stress" NumberOfComponents="9" format="ascii">
0.58342285405979055 -918.38504995654148 0 -918.38504995654148 134.03430012136778 0 0 0 0 831.47083441873292 -1446.1914582042591 0 -1446.1914582042591 -1.4739442535828857 0 0 0 0 165.28343004739691 -549.97756878392374 0 -549.97756878392374 -268.57231416744253 0 0 0 0 204.46376674076964 -486.76927994565267 0 -486.76927994565267 -410.28892652505237 0 0 0 0 -409.81085137743503 -336.69193461330724 0 -336.69193461330724 343.61676319479011 0 0 0 0 8.6451197362034691 -11.00533449924076 0 -11.00533449924076 8.526680458418511 0 0 0 0 385.07175222427031 -133.04274242598876 0 -133.04274242598876 -383.27470970825379 0 0 0 0 1705.5900941213258 -263.68881856161715 0 -263.68881856161715 -449.96274592627378 0 0 0 0 -275.77410978196713 -631.74608325154986 0 -631.74608325154986 -55.774242354025773 0 0 0 0 4.5756787862044064 -5.0154515515764189 0 -5.0154515515764189 3.607792474073662 0 0 0 0 -492.68097545671117 -498.72914464383757 0 -498.72914464383757 0.45776149712037295 0 0 0 0 1202.3867768929085 -687.0906153586202 0 -687.0906153586202 -1.2027238720584137 0 0 0 0 384.90423009585356 -152.81375348406982 0 -152.81375348406982 -71.365228631679201 0 0 0 0 -99.332683173834084 -672.80200737109953 0 -672.80200737109953 0.69916125488452963 0 0 0 0 828.92756215953159 -1196.7512424690458 0 -1196.7512424690458 24.068832855940855 0 0 0 0 2802.2666428932134 -1134.2717181965781 0 -1134.2717181965781 -263.87860585285489 0 0 0 0 -2.9416060404211031 -6.9716811555850171 0 -6.9716811555850171 -1.4321511748181877 0 0 0 0 -1865.3186913057334 -560.81728410690903 0 -560.81728410690903 79.926997874223161 0 0 0 0 -447.2132390529132 -485.49435450150577 0 -485.49435450150577 2.3999052585131722 0 0 0 0 1789.1182962212333 -958.16572698091477 0 -958.16572698091477 352.61850003375002 0 0 0 0 -0.48602699861440612 -20.110945854214009 0 -20.110945854214009 -2.6343042852833491 0 0 0 0 1203.7516701735985 -890.5009957530292 0 -890.5009957530292 518.40954236886319 0 0 0 0 -679.15708577213809 -312.07336077884793 0 -312.07336077884793 -69.798194591228821 0 0 0 0 336.30665211623455 257.99014107519179 0 257.99014107519179 -218.50176588313479 0 0 0 0 1544.7146084863052 -786.75026133812207 0 -786.75026133812207 -109.17845356803696 0 0 0 0 1703.973711533381 -639.62149533044612 0 -639.62149533044612 -115.12174815848266 0 0 0 0 1878.4822467460908 -955.75038789697282 0 -955.75038789697282 1378.8147438053347 0 0 0 0 2259.3911424878024 -961.30347111107767 0 -961.30347111107767 31.283624456953476 0 0 0 0 1600.077564907031 -1571.5108999681961 0 -1571.5108999681961 1311.0370803783153 0 0 0 0 -634.12104276401078 -1000.1470802349158 0 -1000.1470802349158 886.07407855492784 0 0 0 0 5.447649217498622 -6.2158096338108493 0 -6.2158096338108493 4.2321164619530975 0 0 0 0 2085.1068176846165 -605.82350105278238 0 -605.82350105278238 -59.301684310170003 0 0 0 0 1790.6961487204171 -888.76797138857546 0 -888.76797138857546 156.98556195906713 0 0 0 0 769.45922726233402 -1657.1217635505855 0 -1657.1217635505855 853.89971201282606 0 0 0 0 2324.6433546184162 -41.670460597650163 0 -41.670460597650163 -177.48835067547043 0 0 0 0 1735.5872542186698 -1272.1908204027422 0 -1272.1908204027422 1231.5950009451808 0 0 0 0 3.0421447144304352 -6.996299899447628 0 -6.996299899447628 -2.3814554099863585 0 0 0 0 1327.5229521531583 -364.69885363480898 0 -364.69885363480898 -132.19244692818029 0 0 0 0 662.84412175280158 -32.273240676313435 0 -32.273240676313435 154.88471856093929 0 0 0 0 819.55440844158875 -895.71643870383559 0 -895.71643870383559 -20.51221261847968 0 0 0 0 828.90716974266252 -956.93118398368824 0 -956.93118398368824 152.23518095257486 0 0 0 0 37.396206660344475 -31.010086258202413 0 -31.010086258202413 14.217095889834383 0 0 0 0 -424.94791263837396 -280.57569527959458 0 -280.57569527959458 -113.01616700337763 0 0 0 0 50.128028198173524 -16.404290010174918 0 -16.404290010174918 -239.37764166790657 0 0 0 0 8.577681922353726 -8.0963041314491733 0 -8.0963041314491733 -24.266402713122702 0 0 0 0 -2.603250259970082 133.63546518363 0 133.63546518363 -162.21125370559275 0 0 0 0 230.93440127688109 121.09797537427937 0 121.09797537427937 -551.80400110769551 0 0 0 0 -332.24554926751807 489.17221345888174 0 489.17221345888174 -530.35700010306027 0 0 0 0 284.78019842031063 -112.89373731737578 0 -112.89373731737578 -422.86997239636185 0 0 0 0 348.74796815033187 89.994094357532958 0 89.994094357532958 -1101.0402766212537 0 0 0 0 707.78180893506578 -570.47210041295511 0 -570.47210041295511 -77.385210838314379 0 0 0 0 725.42959338127366 238.64585147049127 0 238.64585147049127 -151.56476814216148 0 0 0 0 491.7873829654618 -809.3929659122341 0 -809.3929659122341 0.064774024438520428 0 0 0 0 -0.32571745910320971 -0.3107617400899727 0 -0.3107617400899727 -9.2765142212985978 0 0 0 0 344.76788345225941 -481.91436604685259 0 -481.91436604685259 -142.1819581807631 0 0 0 0 710.84839063644904 -604.88622293416665 0 -604.88622293416665 -544.67865344040911 0 0 0 0 -169.11795014952804 135.65792006429365 0 135.65792006429365 -643.37150822263993 0 0 0 0 -470.81812871454167 -4.6229810889362852 0 -4.6229810889362852 100.27537824238971 0 0 0 0 266.31210284802728 -481.74933403336763 0 -481.74933403336763 110.68642910857125 0 0 0 0 512.88888012483221 -689.76855035907101 0 -689.76855035907101 -260.36861999417306 0 0 0 0 150.55209280869531 -657.5098144904623 0 -657.5098144904623 182.90162657345627 0 0 0 0 469.9658053058738 -748.49745644427685 0 -748.49745644427685 140.94713661131755 0 0 0 0 300.02531719331637 -610.42715138910216 0 -610.42715138910216 208.81255512745884 0 0 0 0 147.38654326579717 -632.9937082593583 0 -632.9937082593583 262.61854706913073 0 0 0 0 86.684011400890085 -825.68925415455669 0 -825.68925415455669 426.20009494882106 0 0 0 0 13.830955724843079 -933.93472917843246 0 -933.93472917843246 439.54692807136416 0 0 0 0 129.25049473276886 -860.18659369115448 0 -860.18659369115448 445.10399506469548 0 0 0 0 250.18890434194327 -821.21833559503102 0 -821.21833559503102 145.2552474590899 0 0 0 0 398.79660543779028 -1108.3889652994312 0 -1108.3889652994312 479.76309026298986 0 0 0 0 -77.977951537402987 -149.21964090920937 0 -149.21964090920937 -1.3133945168774517 0 0 0 0 94.988668268055335 -221.03694965191244 0 -221.03694965191244 -292.54686593845327 0 0 0 0 181.20061939586594 -164.94431596459253 0 -164.94431596459253 -160.35600810260803 0 0 0 0 100.31590809524641 -154.88152172392802 0 -154.88152172392802 -87.775536903827742 0 0 0 0 156.50267162686941 -108.87234797744532 0 -108.87234797744532 -54.426694025125471 0 0 0 0 12.561846686312492 -23.997634976767586 0 -23.997634976767586 23.332225415899302 0 0 0 0 52.66921120790721 -4.6924475069863547 0 -4.6924475069863547 14.3677748518312 0 0 0 0 37.61030056003753 -12.480590708412279 0 -12.480590708412279 3.331233693999831 0 0 0 0 19.047487244484728 -66.923629359753249 0 -66.923629359753249 -71.85229699620686 0 0 0 0 -17.079139168647089 -28.65454031945319 0 -28.65454031945319 16.636799407053331 0 0 0 0 -32.985959522457051 -770.35396883469002 0 -770.35396883469002 1901.1649967477315 0 0 0 0 1427.7899792762219 -172.51801122967663 0 -172.51801122967663 -299.50302711634868 0 0 0 0 17.018172194409999 2.4925173582450952 0 2.4925173582450952 -0.015366290437668795 0 0 0 0 12.860299585512479 -3.1573444917841869 0 -3.1573444917841869 -0.80659781986785362 0 0 0 0 13.870473375449194 -6.1123147855268911 0 -6.1123147855268911 2.8063399000717091 0 0 0 0 -2453.9905888187932 -1428.6522038927214 0 -1428.6522038927214 2566.687642754041 0 0 0 0 499.27201977039658 -7.3670740891247988 0 -7.3670740891247988 -133.86730549458662 0 0 0 0 123.24449619077495 67.255336010552128 0 67.255336010552128 -8.9616772692097584 0 0 0 0 485.88988818758298 -144.2900238567272 0 -144.2900238567272 -55.882323257166718 0 0 0 0 239.64422527057104 -257.72694483075247 0 -257.72694483075247 106.31705254554254 0 0 0 0 203.27509505134003 -596.18362525309385 0 -596.18362525309385 607.23172987523867 0 0 0 0 352.5052409423879 -241.63336628916295 0 -241.63336628916295 -43.336994291399606 0 0 0 0 776.48126045270328 -488.20222154296789 0 -488.20222154296789 54.515445391370122 0 0 0 0 2169.2717051224718 500.32719096948313 0 500.32719096948313 1017.0164283084523 0 0 0 0 73.836232921021292 -64.255333271234122 0 -64.255333271234122 54.423394839390312 0 0 0 0 18.783985898047248 -2.766239044667671 0 -2.766239044667671 -2.2741393956988745 0 0 0 0 26.598357790448063 -21.934574887396593 0 -21.934574887396593 45.988778964299854 0 0 0 0 116.53734208694004 -71.01545256629106 0 -71.01545256629106 15.267328377824015 0 0 0 0 99.066593554271094 -48.773965879878233 0 -48.773965879878233 0.14538673756396747 0 0 0 0 40.023149094932705 -204.45459826057322 0 -204.45459826057322 59.719498410428059 0 0 0 0 80.481648935296107 -337.79907612632087 0 -337.79907612632087 408.21099236369264 0 0 0 0 170.40648033480829 -410.1959924301409 0 -410.1959924301409 -127.80293647982398 0 0 0 0 208.76228312187595 -303.38648249505059 0 -303.38648249505059 -60.629111429745535 0 0 0 0 256.80401570455433 -118.96458715319386 0 -118.96458715319386 -132.57937950897758 0 0 0 0 184.53373221667425 -245.69112930281335 0 -245.69112930281335 -141.40596792433644 0 0 0 0 61.263205819341238 -327.84574438784978 0 -327.84574438784978 -182.15344363035547 0 0 0 0 74.498729339862621 -140.84765260666245 0 -140.84765260666245 -165.78594758878535 0 0 0 0 129.58560039888835 -325.98932704265462 0 -325.98932704265462 -271.0748067907648 0 0 0 0 33.767570886505382 -334.08242844217466 0 -334.08242844217466 -164.70939794185688 0 0 0 0 -48.323339577003935 -454.29447106655243 0 -454.29447106655243 -266.42226205932275 0 0 0 0 48.863186753181708 -415.5150891837543 0 -415.5150891837543 -347.9740176282794 0 0 0 0 -67.304547705247387 -603.05944175002151 0 -603.05944175002151 -458.3545130379598 0 0 0 0 58.635145354512133 -304.06862096242185 0 -304.06862096242185 -384.98209547047736 0 0 0 0 -9.0447539627748483 -281.71093186959115 0 -281.71093186959115 -95.772674405219732 0 0 0 0 10.64262196619336 -5.3632411515093708 0 -5.3632411515093708 -3.4961431951532589 0 0 0 0 222.43488421251095 -377.84894706673367 0 -377.84894706673367 397.12689252570271 0 0 0 0 25.978323876962349 -263.26218131145151 0 -263.26218131145151 -126.45053645344524 0 0 0 0 367.88721882014943 -257.46001531734328 0 -257.46001531734328 0.39485822392452974 0 0 0 0 165.06725408033526 -200.69743387717881 0 -200.69743387717881 294.10689827891474 0 0 0 0 387.84896219132133 -380.35024040778444 0 -380.35024040778444 153.58157037089768 0 0 0 0 -28.478395590584114 -864.40067519331751 0 -864.40067519331751 1076.4478172619929 0 0 0 0 3.0931381104010285 -3.1221978528394914 0 -3.1221978528394914 -1.648360570068057 0 0 0 0 231.9834252701221 -649.0992270414954 0 -649.0992270414954 -0.035729467017517891 0 0 0 0 354.41609004768088 -353.73217637558628 0 -353.73217637558628 444.85417844906624 0 0 0 0 61.082693415264657 -581.24364760301978 0 -581.24364760301978 22.270541455277908 0 0 0 0 -80.48944286357073 -1125.2437915828305 0 -1125.2437915828305 -41.565240906135386 0 0 0 0 79.045476217695978 -395.06840784864653 0 -395.06840784864653 -1218.0070213501658 0 0 0 0 -54.459398266317294 -459.49095067288727 0 -459.49095067288727 -346.90540054961093 0 0 0 0 -221.29445067341294 -633.20761754024716 0 -633.20761754024716 -500.60091385347187 0 0 0 0 -248.77375028220558 -407.876365766464 0 -407.876365766464 -174.32776343512887 0 0 0 0 -56.503665534608444 -115.1562224004756 0 -115.1562224004756 -200.29196407847485 0 0 0 0 -414.40472994492302 -329.5207874881321 0 -329.5207874881321 -203.69511480641813 0 0 0 0 332.49841762198048 -590.94677941016198 0 -590.94677941016198 -304.42924026906257 0 0 0 0 313.23842479814721 -11.036105766867877 0 -11.036105766867877 -920.95316657355579 0 0 0 0 -4.0319881028299278 -739.87442350794299 0 -739.87442350794299 -43.287835466006072 0 0 0 0 -153.0737997239994 -1143.4320491399449 0 -1143.4320491399449 -262.50199456218411 0 0 0 0 31.081578631847819 -20.865527237675344 0 -20.865527237675344 12.387435746426718 0 0 0 0 20.237337375649076 -199.13939771697369 0 -199.13939771697369 -472.22985975839583 0 0 0 0 201.06477078856051 -365.97410126676039 0 -365.97410126676039 -652.95894110566587 0 0 0 0 231.51766885854886 -166.13064185102485 0 -166.13064185102485 43.252285278369527 0 0 0 0 724.89369458911824 -470.84831486538678 0 -470.84831486538678 -376.43468394264346 0 0 0 0 234.94982480223553 -603.87806014738453 0 -603.87806014738453 -311.05618497015803 0 0 0 0 -877.126231035003 -47.193490338433094 0 -47.193490338433094 126.59665666042565 0 0 0 0 -6.6380552113889166 -5.9895851739235582 0 -5.9895851739235582 -6.3411878292191801 0 0 0 0 -13.608821152054929 -878.87144305358606 0 -878.87144305358606 -409.84464115518495 0 0 0 0 13.006524295429386 -8.4920792969118217 0 -8.4920792969118217 3.43284475741725 0 0 0 0 -1207.2844573644688 -198.14623493896215 0 -198.14623493896215 -755.96856712616864 0 0 0 0 358.60752407917607 -17.181244748269819 0 -17.181244748269819 -921.46760522691375 0 0 0 0 -1377.412602178425 -1895.7520572397516 0 -1895.7520572397516 683.38580262801952 0 0 0 0 345.83583527089468 -313.64977239368545 0 -313.64977239368545 -358.48693302836182 0 0 0 0 460.04330850842234 -554.34578192269964 0 -554.34578192269964 -292.24418190833967 0 0 0 0 -16.015490702760871 -99.121689271049036 0 -99.121689271049036 -462.50541565366802 0 0 0 0 19.350280407457774 -12.872775417035037 0 -12.872775417035037 5.5019036691465075 0 0 0 0 -205.17249226761487 -498.89986055745794 0 -498.89986055745794 -590.94520754771656 0 0 0 0 -190.11552442769153 -1014.8936802995695 0 -1014.8936802995695 -540.70186891466801 0 0 0 0 -253.58799574390287 -400.00039932749132 0 -400.00039932749132 -283.11195048178462 0 0 0 0 -219.31611944551241 -322.12509950989897 0 -322.12509950989897 -451.01037336349691 0 0 0 0 9.417739070992468 -4.8780255198144857 0 -4.8780255198144857 0.92864986048866172 0 0 0 0 -223.08373865498288 -558.18236495495512 0 -558.18236495495512 6.033123716202681 0 0 0 0 -286.63117953829351 -472.82594070991036 0 -472.82594070991036 -80.011372152301192 0 0 0 0 -90.180478992976077 -676.52425949884969 0 -676.52425949884969 -226.09354108847765 0 0 0 0 -112.29863915896203 -579.87722749398199 0 -579.87722749398199 -263.59749525171355 0 0 0 0 11.566099328374548 -439.65036303965644 0 -439.65036303965644 -283.66187906408959 0 0 0 0 -119.61262786421139 -347.0742392182583 0 -347.0742392182583 -267.11386870257138 0 0 0 0 -17.254251438043866 -334.65474719210579 0 -334.65474719210579 -350.30703086538779 0 0 0 0 -136.64962905388529 -393.76287710441284 0 -393.76287710441284 -455.69820601332867 0 0 0 0 -37.969835230011086 -285.41043305028506 0 -285.41043305028506 -421.94700667319557 0 0 0 0 -231.70810246785913 -305.51999394441395 0 -305.51999394441395 -529.31211625841024 0 0 0 0 21.070047891965373 -14.928530101817742 0 -14.928530101817742 7.6777474500985718 0 0 0 0 -249.82632668436781 -502.84493963237401 0 -502.84493963237401 -626.80546569968737 0 0 0 0 -127.25296741299098 -350.85614733462899 0 -350.85614733462899 -472.73214959264078 0 0 0 0 -190.41140365277488 -222.98218759626616 0 -222.98218759626616 -294.12921219785494 0 0 0 0 -212.565346370724 -292.79265602452324 0 -292.79265602452324 -512.10327365470948 0 0 0 0 0.15725485478940016 -0.88967007754953187 0 -0.88967007754953187 -0.63458116879085225 0 0 0 0 -123.9123430609543 -187.08693872232834 0 -187.08693872232834 62.67834390947246 0 0 0 0 -113.74083497806714 -277.71568733926142 0 -277.71568733926142 -76.843281024252065 0 0 0 0 -17.074473670752923 -249.44070006372385 0 -249.44070006372385 -288.90126758660335 0 0 0 0 -69.09110077876494 -163.47560591940692 0 -163.47560591940692 -277.21434006821437 0 0 0 0 -73.334399324652622 -180.68495954866194 0 -180.68495954866194 -330.71959054319541 0 0 0 0 -21.041510866170711 -152.1039605483723 0 -152.1039605483723 -315.62615875419942 0 0 0 0 45.931475376943126 -205.23526819428662 0 -205.23526819428662 7.7239724403075343 0 0 0 0 -148.20569644283751 -246.1379215965917 0 -246.1379215965917 -244.66217464249348 0 0 0 0 -189.42566489792262 -144.90352652334968 0 -144.90352652334968 4.629416681073053 0 0 0 0 20.68841763639648 -245.24415692560342 0 -245.24415692560342 -378.04348075906455 0 0 0 0 14.078089075931899 -10.020801232335241 0 -10.020801232335241 4.810382821242321 0 0 0 0 -213.93981089788394 -435.99865425793644 0 -435.99865425793644 -448.52935906458879 0 0 0 0 -164.71777956913547 -498.87569644142764 0 -498.87569644142764 -975.1334854622437 0 0 0 0 18.859061449760773 -13.204684446292891 0 -13.204684446292891 6.6074949105510541 0 0 0 0 -217.54795722790732 -421.14351196128882 0 -421.14351196128882 -546.84261411877924 0 0 0 0 -175.35532111778593 -493.58149345789116 0 -493.58149345789116 -702.70630141369111 0 0 0 0 -170.14527308150855 -178.13527045983278 0 -178.13527045983278 -301.62458194941064 0 0 0 0 -250.04412140978684 -224.6721056801598 0 -224.6721056801598 -277.70142442817814 0 0 0 0 -316.51124806268126 -508.98355414619436 0 -508.98355414619436 -596.8006800261046 0 0 0 0 -144.1371547228191 -235.64145359012036 0 -235.64145359012036 -296.08430662839964 0 0 0 0 -190.96799074379123 -220.02293534058481 0 -220.02293534058481 55.996838438622945 0 0 0 0 -184.08211147506518 -109.93581049769818 0 -109.93581049769818 1.2443448422927759 0 0 0 0 -157.77265658631586 -143.71058437961346 0 -143.71058437961346 31.319857015460002 0 0 0 0 -96.691616702399187 -64.469902204604296 0 -64.469902204604296 -25.04309866935364 0 0 0 0 15.625063479632445 -217.83955267264582 0 -217.83955267264582 54.202671169354289 0 0 0 0 2.9907561632389843 -203.25991536303991 0 -203.25991536303991 207.46797165218049 0 0 0 0 0.0041323792127911929 1.3198684562361791 0 1.3198684562361791 1.0955800440619399 0 0 0 0 -6.5384174673490634 -50.921979572334749 0 -50.921979572334749 -160.90311110112088 0 0 0 0 20.884452639629671 4.8698772076349996 0 4.8698772076349996 -82.340575771013391 0 0 0 0 -3.3876557253588544 -103.63593277901145 0 -103.63593277901145 -272.87247382544956 0 0 0 0 -139.22646289887052 -235.38265546568073 0 -235.38265546568073 -274.5335345092135 0 0 0 0 -350.40604329163398 -150.30796062103218 0 -150.30796062103218 -227.76382078095048 0 0 0 0 63.645629553837352 -409.7789854019029 0 -409.7789854019029 -246.76064037448214 0 0 0 0 55.249191223098023 -142.78637407540009 0 -142.78637407540009 -374.39085153857491 0 0 0 0 -247.30775114073913 -245.43493056359875 0 -245.43493056359875 -115.48231900989776 0 0 0 0 -57.112361023173435 -111.03935879572782 0 -111.03935879572782 -115.66544072170291 0 0 0 0 -48.314233142756166 -74.752584499896784 0 -74.752584499896784 -107.80348184639297 0 0 0 0 -56.350729714140471 -88.848516877482325 0 -88.848516877482325 -46.47588820994315 0 0 0 0 60.443723365457117 -9.4377357999564992 0 -9.4377357999564992 -110.75159717032147 0 0 0 0 -164.24802479459504 -30.741642117002812 0 -30.741642117002812 63.520368703633721 0 0 0 0 400.70334987156093 -538.52349297136243 0 -538.52349297136243 512.5522322164652 0 0 0 0 0.35183086460165214 -110.57343778744325 0 -110.57343778744325 604.42157831219811 0 0 0 0 -11.270618901017443 -20.148760447581267 0 -20.148760447581267 -15.852636151841978 0 0 0 0 86.255763475443018 -92.56309065305868 0 -92.56309065305868 -16.6419212795372 0 0 0 0 11.437905089158654 -25.441805224850739 0 -25.441805224850739 -5.8428270389232182 0 0 0 0 68.82994110990694 -8.3937507601112884 0 -8.3937507601112884 -42.706811055536491 0 0 0 0 15.847143668956051 -16.236527395003577 0 -16.236527395003577 -1.3904819360795955 0 0 0 0 8.627240422154216 -1.9316051621116088 0 -1.9316051621116088 0.35754965956137852 0 0 0 0 351.75082191331239 -88.765128411336264 0 -88.765128411336264 -188.11799868239723 0 0 0 0 42.388093732137349 -1.441491895908257 0 -1.441491895908257 -8.9734365452877682 0 0 0 0 14.807065798010072 -22.880668192996751 0 -22.880668192996751 -3.8993031859278631 0 0 0 0 72.758205129501221 9.9175419391094692 0 9.9175419391094692 -51.693109119627479 0 0 0 0 1.4351536437461618 -6.604962459187405 0 -6.604962459187405 -1.0607136528793362 0 0 0 0 -42.050806272192858 -171.39107936711662 0 -171.39107936711662 -276.8645024537218 0 0 0 0 65.536756672969204 -26.572725328069282 0 -26.572725328069282 -237.99009173415106 0 0 0 0 10.325417216920968 -16.107999060138148 0 -16.107999060138148 1.128212981487863 0 0 0 0 89.874058487504954 -249.07079720591719 0 -249.07079720591719 654.21659426079714 0 0 0 0 445.97096410531958 186.54089619983961 0 186.54089619983961 -335.17775821569739 0 0 0 0 -307.96349924260721 -141.39012020218252 0 -141.39012020218252 66.696764449210605 0 0 0 0 -275.46691547507453 -251.42230227931532 0 -251.42230227931532 -111.02227735224733 0 0 0 0 -308.57423861875759 -181.32843999367014 0 -181.32843999367014 -119.20637924708535 0 0 0 0 -506.22805203289317 -298.19484015256967 0 -298.19484015256967 -116.28186615593353 0 0 0 0 -487.94849345506009 -292.10332275688052 0 -292.10332275688052 -182.57292237285219 0 0 0 0 -436.29557766658036 -269.27403289572339 0 -269.27403289572339 -137.32825641395175 0 0 0 0 9.3569785714972085 -13.794851548364463 0 -13.794851548364463 -3.1767091550114657 0 0 0 0 495.8824054302313 119.59055245221771 0 119.59055245221771 -264.31143907114892 0 0 0 0 -219.62658059442401 -218.06282560790987 0 -218.06282560790987 -116.09684176188966 0 0 0 0 120.24070317960286 174.33948688312012 0 174.33948688312012 -104.47923441288003 0 0 0 0 346.84225895270902 -47.401217047962291 0 -47.401217047962291 84.178218393852148 0 0 0 0 512.50872983849331 231.37982004783407 0 231.37982004783407 -68.771407649383946 0 0 0 0 7.3507034644408193 -10.57966751740107 0 -10.57966751740107 -5.0421934032073921 0 0 0 0 138.05750509596044 -214.90034945236286 0 -214.90034945236286 -392.60942620813512 0 0 0 0 12.312606008740588 -5.97955635154229 0 -5.97955635154229 1.8428691976699199 0 0 0 0 5.6582566626663606 -2.0425505908170214 0 -2.0425505908170214 0.37288593882198739 0 0 0 0 463.51303633816133 135.84339398600696 0 135.84339398600696 -201.9904487243366 0 0 0 0 166.51237804401171 -265.07831158567478 0 -265.07831158567478 49.361195257555664 0 0 0 0 -59.265714554643637 -246.69042079970495 0 -246.69042079970495 127.94255744085785 0 0 0 0 -98.68291441429119 -51.139324630265492 0 -51.139324630265492 50.666303845526272 0 0 0 0 -142.86152331410904 -83.684921845955614 0 -83.684921845955614 33.380677628465492 0 0 0 0 -138.27345363020504 -108.24875654879816 0 -108.24875654879816 63.181997596157089 0 0 0 0 -150.06449944929204 -190.16725567899437 0 -190.16725567899437 13.176737749312451 0 0 0 0 -156.49322650808608 -260.45622977866697 0 -260.45622977866697 -168.32474102999549 0 0 0 0 -110.17892282632238 -125.46369478239467 0 -125.46369478239467 -111.30927771018105 0 0 0 0 12.772076405544794 -292.19505530132847 0 -292.19505530132847 -287.73222958119823 0 0 0 0 82.221095521443203 92.893203244236247 0 92.893203244236247 -32.403522742802124 0 0 0 0 52.279045248109469 -280.92246939146753 0 -280.92246939146753 -344.09734645107437 0 0 0 0 13.258005866470896 -6.8097759221675647 0 -6.8097759221675647 2.2967896680336182 0 0 0 0 31.879467087772355 -140.72931606730344 0 -140.72931606730344 -275.45233268232005 0 0 0 0 6.3122536575733079 -3.0967122600808805 0 -3.0967122600808805 0.9793430803557257 0 0 0 0 873.8301812722093 -26.750273799621937 0 -26.750273799621937 -411.16593655323868 0 0 0 0 548.1029848391845 -560.37799707596059 0 -560.37799707596059 65.651242380668918 0 0 0 0 -18.315593409533903 -104.42872220917889 0 -104.42872220917889 196.35976919123641 0 0 0 0 -136.60367090578205 -187.48818812648577 0 -187.48818812648577 164.42975264134293 0 0 0 0 188.64834043825613 -92.57542622496112 0 -92.57542622496112 68.819966745028069 0 0 0 0 0.61898372877658403 -485.68510563899645 0 -485.68510563899645 108.03311853924242 0 0 0 0 69.15126542089638 -254.69394974750594 0 -254.69394974750594 -191.22312970915755 0 0 0 0 312.68515817040316 -485.31923002098119 0 -485.31923002098119 -95.43075082256928 0 0 0 0 17.851188727549015 -178.12381058947358 0 -178.12381058947358 -402.51661612344105 0 0 0 0 18.729702908695572 -196.6609153492372 0 -196.6609153492372 -12.25356903138163 0 0 0 0 75.46279298223817 -320.61028171243379 0 -320.61028171243379 412.83731015215017 0 0 0 0 246.82667141807906 -708.65537450840384 0 -708.65537450840384 215.69605647074843 0 0 0 0 99.964697703569982 -560.56590326508649 0 -560.56590326508649 92.674088721261796 0 0 0 0 12.402922985558689 -199.49768036890327 0 -199.49768036890327 -190.03665121737504 0 0 0 0 725.46634016236385 -382.88774923897654 0 -382.88774923897654 -179.15250973771617 0 0 0 0 2.9892029476152686 -3.2420301998530334 0 -3.2420301998530334 1.6156736643804379 0 0 0 0 -506.8187217166851 -192.21912971555685 0 -192.21912971555685 25.575541489019997 0 0 0 0 -7.1797828950238909 -182.10603843777517 0 -182.10603843777517 10.844176790255005 0 0 0 0 -121.42703830346363 -44.583656708927265 0 -44.583656708927265 -67.459037069689657 0 0 0 0 -519.20754324564768 -490.71129704740997 0 -490.71129704740997 -21.89252597276095 0 0 0 0 5.6702178507474486 -6.9941074831763359 0 -6.9941074831763359 4.297425997005675 0 0 0 0 424.50609304248064 -680.75225654899077 0 -680.75225654899077 644.70306291465749 0 0 0 0 119.67669636275241 -36.38384055583083 0 -36.38384055583083 148.66609331316067 0 0 0 0 453.27286325592286 -509.55359134701212 0 -509.55359134701212 165.45809071527628 0 0 0 0 -0.99226871412019335 -6.7650538312198378 0 -6.7650538312198378 4.4598205278853982 0 0 0 0 848.99382732764934 -487.5038909947416 0 -487.5038909947416 89.957572424407772 0 0 0 0 1423.1936879305576 -363.4897161411136 0 -363.4897161411136 33.657317314631655 0 0 0 0 7.2926606291316318 -4.5280760638142965 0 -4.5280760638142965 -5.8974608719376675 0 0 0 0 36.01310598647251 -10.204840840604447 0 -10.204840840604447 24.774922851454903 0 0 0 0 736.23792723021324 -965.79196095253428 0 -965.79196095253428 507.26159372530401 0 0 0 0 770.40810935070112 -306.11464502370654 0 -306.11464502370654 82.351094610865403 0 0 0 0 1.9725473964062985 -676.87678870393574 0 -676.87678870393574 -476.0360272132848 0 0 0 0 40.949014416590217 -98.302864396346195 0 -98.302864396346195 -542.58955242402953 0 0 0 0 -0.74237305333249992 -1.7085523685004631 0 -1.7085523685004631 -1.3175447248294745 0 0 0 0 383.13340653713385 -1060.4940396293532 0 -1060.4940396293532 -89.97544716012635 0 0 0 0 -27.507238945494464 7.4813756254206965 0 7.4813756254206965 21.119593637014532 0 0 0 0 -136.15137350853729 -366.60144965343989 0 -366.60144965343989 -261.985565775758 0 0 0 0 727.79842469966729 -575.88555704791031 0 -575.88555704791031 -369.62162807154164 0 0 0 0 -123.14910362399678 -11.314224817111608 0 -11.314224817111608 104.24516259163647 0 0 0 0 -253.58245198735403 -816.67697007803895 0 -816.67697007803895 -128.67696630873979 0 0 0 0 4.0049413760899313 -4.3387591377422652 0 -4.3387591377422652 1.2870736545084469 0 0 0 0 898.14890783296141 -568.75164650050283 0 -568.75164650050283 -487.47065608678531 0 0 0 0 -192.05323460098589 -175.82573922736992 0 -175.82573922736992 -231.67447877954191 0 0 0 0 -306.5583342455684 -271.30831047499123 0 -271.30831047499123 -297.78514709007504 0 0 0 0 -107.87776724021387 -279.26594409866266 0 -279.26594409866266 -473.1290370291681 0 0 0 0 167.95859717649728 -387.72194641412261 0 -387.72194641412261 460.162674112893 0 0 0 0 0.53167881826507823 -0.80006134872849799 0 -0.80006134872849799 -0.025896509932761269 0 0 0 0 445.94542867309065 -565.27597543357479 0 -565.27597543357479 -54.441942760946404 0 0 0 0 192.88821392046884 -461.42801231067824 0 -461.42801231067824 180.63452327738742 0 0 0 0 458.8338490744718 -452.56810367507205 0 -452.56810367507205 178.54817415730031 0 0 0 0 -338.65872501156241 -518.52415640626418 0 -518.52415640626418 -11.902358964747691 0 0 0 0 -327.60296722140629 -136.33944308140781 0 -136.33944308140781 22.361721807677895 0 0 0 0 190.39216453443805 -657.96186970088092 0 -657.96186970088092 -386.94617058063159 0 0 0 0 488.72683311406581 -345.02893073940686 0 -345.02893073940686 -163.90557820341201 0 0 0 0 -495.84676734255481 -476.13396935822311 0 -476.13396935822311 24.200829586319742 0 0 0 0 -490.65230281541153 -396.49695146399972 0 -396.49695146399972 -194.25414846264084 0 0 0 0 -530.04523131540554 -289.47579185534232 0 -289.47579185534232 -200.48662280650751 0 0 0 0 -502.61336920908434 -349.19160740919597 0 -349.19160740919597 -82.240038766685757 0 0 0 0 -761.52040168368694 -406.95769383601873 0 -406.95769383601873 6.2247812508212519 0 0 0 0 2.8980050778737194 -3.5526252666344078 0 -3.5526252666344078 1.2906294272038252 0 0 0 0 122.73642715583992 -107.50656248334462 0 -107.50656248334462 -1.6867330647146446 0 0 0 0 124.96170575001452 -103.62378436530526 0 -103.62378436530526 1.5849460511035431 0 0 0 0 6.4357453787791457 -8.2816724283546534 0 -8.2816724283546534 3.8540346137021402 0 0 0 0 -621.78167463193677 -435.48331526566108 0 -435.48331526566108 -188.9700556074755 0 0 0 0 207.55384226372917 -329.39948880256816 0 -329.39948880256816 147.42293179433545 0 0 0 0 936.48333677928167 -191.09730352066708 0 -191.09730352066708 -41.51045164504103 0 0 0 0 398.22955547692254 -92.766405200565714 0 -92.766405200565714 -42.434117393584529 0 0 0 0 195.74046228215229 -308.09690833599961 0 -308.09690833599961 23.312761052629867 0 0 0 0 409.53580781672622 -368.55840237356119 0 -368.55840237356119 39.950403285540233 0 0 0 0 194.73892230030106 -359.84129144440158 0 -359.84129144440158 79.96896368464877 0 0 0 0 34.267630416121392 -331.91867515333252 0 -331.91867515333252 120.7396210881725 0 0 0 0 11.961577891139314 -165.19058730634788 0 -165.19058730634788 143.12675334667074 0 0 0 0 90.148712150668871 -215.58570268935 0 -215.58570268935 -95.8796807653016 0 0 0 0 1.0908969735034191 -1.666615753915579 0 -1.666615753915579 -0.098507331111744811 0 0 0 0 41.301338669407414 -86.237305875405582 0 -86.237305875405582 -397.63673099701737 0 0 0 0 0.55638911641668187 -0.44400789886676506 0 -0.44400789886676506 -0.0034475105999456357 0 0 0 0 41.064365204441856 -242.48541088207958 0 -242.48541088207958 28.394497602189404 0 0 0 0 -0.44950477225211216 -321.15313188039545 0 -321.15313188039545 -52.042127290196731 0 0 0 0 44.755344921097276 -273.98650195704204 0 -273.98650195704204 9.5903696143623165 0 0 0 0 -0.014410517318538041 -294.53431954227699 0 -294.53431954227699 123.85558145455184 0 0 0 0 192.41907619473727 -278.70828549281697 0 -278.70828549281697 78.876350472708509 0 0 0 0 170.96082886095974 -319.0026262600577 0 -319.0026262600577 79.810789318719713 0 0 0 0 45.112702135618747 -305.94505879046301 0 -305.94505879046301 237.80755234215212 0 0 0 0 1.220615018881162 -1.4633229817947466 0 -1.4633229817947466 1.0072765745006365 0 0 0 0 43.663415212215114 -356.02920089118277 0 -356.02920089118277 -341.08136408220889 0 0 0 0 0.20660682312882273 -264.03739820952092 0 -264.03739820952092 78.578502504676635 0 0 0 0 -8.0036062866311113 -215.6706595984424 0 -215.6706595984424 79.982078248237485 0 0 0 0 9.5556485827964934 -311.66078928574575 0 -311.66078928574575 103.51676114351903 0 0 0 0 35.572072095697877 -196.5243277047357 0 -196.5243277047357 43.44375568556643 0 0 0 0 -91.39866172146867 -216.68981481383162 0 -216.68981481383162 50.273152107520673 0 0 0 0 -9.6071853558896692 -264.77271884198717 0 -264.77271884198717 86.939150139986964 0 0 0 0 -137.6703269546997 -102.52915555599793 0 -102.52915555599793 -3.0404731618546066 0 0 0 0 -443.23742727580975 -33.424054973918828 0 -33.424054973918828 60.250160329764185 0 0 0 0 -120.14301356619035 102.26904553452596 0 102.26904553452596 32.945596406636469 0 0 0 0 -73.774892329088289 -138.09587375127444 0 -138.09587375127444 -62.048411799176392 0 0 0 0 156.40310558346391 -367.29960277843566 0 -367.29960277843566 626.0797180549398 0 0 0 0 -4.3366509240961051 -1.4115919758312714 0 -1.4115919758312714 4.077514250102972 0 0 0 0 169.26816507900367 -268.12269762084907 0 -268.12269762084907 486.4502400610836 0 0 0 0 -3.9076555330911305 -2.302047275348972 0 -2.302047275348972 3.4092973678418517 0 0 0 0 -35.156775335606653 -475.7030168896963 0 -475.7030168896963 -71.499684582435293 0 0 0 0 439.46504926721536 -450.58593256606582 0 -450.58593256606582 381.17791572057831 0 0 0 0 364.21040460657969 -372.80002839688314 0 -372.80002839688314 315.61482904477816 0 0 0 0 272.10024705340038 -315.07756738215903 0 -315.07756738215903 348.75104815264058 0 0 0 0 313.1010107146576 -447.52979773063998 0 -447.52979773063998 545.03866283837851 0 0 0 0 652.60968656134355 -700.73634817514358 0 -700.73634817514358 502.65906606532826 0 0 0 0 139.34711751089344 -437.07142775927241 0 -437.07142775927241 998.96598633492977 0 0 0 0 3.3228537932859581 -2.1390522667283136 0 -2.1390522667283136 0.49362445507043962 0 0 0 0 664.12515113828704 -575.00647995265876 0 -575.00647995265876 567.37188938262989 0 0 0 0 -538.08304882828816 16.962739081534892 0 16.962739081534892 27.806235931926494 0 0 0 0 -1.0930615904096896 -0.9333337598415028 0 -0.9333337598415028 1.8144139593253499 0 0 0 0 -503.19503424558934 -110.63181973718838 0 -110.63181973718838 -13.286855512364127 0 0 0 0 -509.13996598753147 -70.771314733286999 0 -70.771314733286999 117.80884995438964 0 0 0 0 -1.1096269531901788 -4.744424055760831 0 -4.744424055760831 11.040446612740581 0 0 0 0 -680.45705878730951 -29.47159500853013 0 -29.47159500853013 174.43165982154096 0 0 0 0 -666.2816055635667 32.173536827735916 0 32.173536827735916 8.0078453501482727 0 0 0 0 -424.31579158576642 14.229505521507235 0 14.229505521507235 -78.461282848825704 0 0 0 0 -561.04564127967024 -156.09824986919557 0 -156.09824986919557 -34.78042435039788 0 0 0 0 -314.40422666628729 14.298730814806731 0 14.298730814806731 -62.943626986401796 0 0 0 0 -0.57862385411771555 -2.1979800976967852 0 -2.1979800976967852 4.2960456645264671 0 0 0 0 336.69918943932862 -287.10572792110815 0 -287.10572792110815 46.399711637622204 0 0 0 0 -816.08007555280346 -66.400483310878371 0 -66.400483310878371 90.620662606910628 0 0 0 0 -253.92265304234024 -11.845539775868019 0 -11.845539775868019 -110.97545047902986 0 0 0 0 -42.519620042432507 -640.23386584314449 0 -640.23386584314449 -130.95522712408888 0 0 0 0 -0.55603252546856652 -2.2143743020927573 0 -2.2143743020927573 3.2424646353684423 0 0 0 0 -5.967098138127767 6.7163603924136623 0 6.7163603924136623 7.5286934024243237 0 0 0 0 -9.8060003584905644 -1.5167348417780886 0 -1.5167348417780886 -4.9122884822179458 0 0 0 0 -309.14385448734265 -6.308231716094042 0 -6.308231716094042 -8.4627512199022021 0 0 0 0 -6.0173812965593925 -0.021532791089221348 0 -0.021532791089221348 3.4867851381883597 0 0 0 0 -15.487140407909465 -3.0268940465211926 0 -3.0268940465211926 -4.7963045033829985 0 0 0 0 -10.14734305151714 -7.6794669725447875 0 -7.6794669725447875 3.9999836669851376 0 0 0 0 -17.910680612310898 2.1077651364864778 0 2.1077651364864778 -2.0681099454523064 0 0 0 0 58.745691372016154 -214.01012857212118 0 -214.01012857212118 485.22434879748289 0 0 0 0 1002.8426790713638 -726.66489419566278 0 -726.66489419566278 -94.920802689410266 0 0 0 0 -12.366386784076894 4.0697108441631826 0 4.0697108441631826 -1.616750006654911 0 0 0 0 -29.522975901101745 -0.98958667610258999 0 -0.98958667610258999 11.610906931176942 0 0 0 0 3.8319491011861828 -9.2424647628795356 0 -9.2424647628795356 16.218445582369895 0 0 0 0 -12.939594044350088 9.9716257162381225 0 9.9716257162381225 16.80821180057319 0 0 0 0 -6.1649907391692977 -28.033297842746833 0 -28.033297842746833 27.364945989197167 0 0 0 0 -11.623819531530899 -32.64949654416705 0 -32.64949654416705 99.180538654038173 0 0 0 0 -31.373340307127364 -1.999099823373399 0 -1.999099823373399 4.900159184995573 0 0 0 0 36.145182540327369 -3.8510053174541099 0 -3.8510053174541099 8.6643351617042299 0 0 0 0 2.521257017760945 -21.233409567155832 0 -21.233409567155832 8.0683471814845689 0 0 0 0 8.015221523863147 12.855540526472396 0 12.855540526472396 54.352882889877947 0 0 0 0 -24.106353990049683 1.7829786412421527 0 1.7829786412421527 312.00659682242622 0 0 0 0 119.37541273459647 -299.64464930778377 0 -299.64464930778377 299.96236828735528 0 0 0 0 67.050104811067285 -175.76156539680505 0 -175.76156539680505 91.526340741513195 0 0 0 0 98.721136441764429 -91.207023515827132 0 -91.207023515827132 33.683732691246405 0 0 0 0 205.67813876761875 -108.14882325445819 0 -108.14882325445819 -24.475462578804581 0 0 0 0 225.19401771354023 -260.36577787840088 0 -260.36577787840088 90.964436984710119 0 0 0 0 8.989530060313939 -10.441665986294332 0 -10.441665986294332 4.615732121110085 0 0 0 0 -63.231907728400984 -75.015608945295298 0 -75.015608945295298 27.592402422622399 0 0 0 0 81.037449239556736 -113.89431448204414 0 -113.89431448204414 61.023586946021169 0 0 0 0 27.777407617608333 -13.518332375159389 0 -13.518332375159389 -34.056630717794178 0 0 0 0 -471.83362080759616 -360.62205679947419 0 -360.62205679947419 -205.15727837426493 0 0 0 0 -492.49718317719089 -381.97617054723651 0 -381.97617054723651 -175.55088790682566 0 0 0 0 -597.32607983395428 -335.04159557740968 0 -335.04159557740968 -108.40105020188275 0 0 0 0 -694.70843048565439 -344.24758990603732 0 -344.24758990603732 -121.35095729973364 0 0 0 0 -603.99020952432329 -273.08228840965785 0 -273.08228840965785 -235.99650198525887 0 0 0 0 -579.59965024889607 -297.48337655593605 0 -297.48337655593605 -110.3436632894045 0 0 0 0 273.41287568857661 108.96184900304706 0 108.96184900304706 132.65858120615303 0 0 0 0 315.4688811614933 -34.595477524558873 0 -34.595477524558873 11.10298213425267 0 0 0 0 345.16400927756331 49.061739352437144 0 49.061739352437144 93.269051075656535 0 0 0 0 419.45944938701723 9.3050136621768615 0 9.3050136621768615 54.094706834570388 0 0 0 0 4.9712548216138401 -7.7072096168481323 0 -7.7072096168481323 -3.2569990845702677 0 0 0 0 549.2447581456945 131.47735902353998 0 131.47735902353998 37.013122124388246 0 0 0 0 -704.40128413585262 -374.26354636164979 0 -374.26354636164979 -214.12503177886174 0 0 0 0 -620.10505969991937 -310.91850049704408 0 -310.91850049704408 -308.08610153908012 0 0 0 0 -594.54749754436125 -329.26252180518986 0 -329.26252180518986 -317.46499396976287 0 0 0 0 1030.7259529824751 -29.241261613111874 0 -29.241261613111874 56.419485193582659 0 0 0 0 1.8562225102538505 -3.3589562278488287 0 -3.3589562278488287 -1.0232564642805215 0 0 0 0 -1091.0047773202205 -735.53842892662124 0 -735.53842892662124 -46.443774266230321 0 0 0 0 -78.537730888107035 -723.71129489574378 0 -723.71129489574378 -89.937118519632349 0 0 0 0 -123.30945793688079 -209.5086640543841 0 -209.5086640543841 -84.070729334896441 0 0 0 0 -816.25541016099305 -301.48444122518413 0 -301.48444122518413 -24.117147656194902 0 0 0 0 -25.678132826127694 -6.6964281325417687 0 -6.6964281325417687 4.0624863386465222 0 0 0 0 -8.3191811485433504 -10.928422495418445 0 -10.928422495418445 0.94237614344510234 0 0 0 0 -112.35590852269524 -228.10278726816796 0 -228.10278726816796 -376.94205733706985 0 0 0 0 7.2270249495003185 -12.7967839722196 0 -12.7967839722196 5.4399906920593253 0 0 0 0 -56.369857330140803 -29.344571784051368 0 -29.344571784051368 15.575398667937407 0 0 0 0 1.4123020593279421 -3.1435460081222999 0 -3.1435460081222999 0.9232935553548316 0 0 0 0 -104.88238574997013 -174.51619485232641 0 -174.51619485232641 308.7654108185161 0 0 0 0 218.83516599229915 -658.98557633363362 0 -658.98557633363362 285.9740009225161 0 0 0 0 738.31190190814777 -264.55011637609095 0 -264.55011637609095 422.14634973684406 0 0 0 0 143.92647368266626 -422.65492898825323 0 -422.65492898825323 494.13701720302197 0 0 0 0 183.11623426067672 -174.87565575954432 0 -174.87565575954432 162.96548185354914 0 0 0 0 42.922820296087593 1.8174697824561008 0 1.8174697824561008 91.494578688223555 0 0 0 0 234.76389678420855 -254.35028350254356 0 -254.35028350254356 284.14140032648174 0 0 0 0 585.26323399243302 -423.45417090591673 0 -423.45417090591673 75.567194651346654 0 0 0 0 320.49835480249749 -426.1882289871246 0 -426.1882289871246 343.72200925420839 0 0 0 0 350.44058145092276 -332.46170234691181 0 -332.46170234691181 269.41315400465282 0 0 0 0 452.61208959889336 -464.27120435302277 0 -464.27120435302277 341.07789260554091 0 0 0 0 508.63155189991448 -525.17843686533433 0 -525.17843686533433 149.42713480011844 0 0 0 0 492.93928328646143 -439.86548003966982 0 -439.86548003966982 146.06271838314569 0 0 0 0 1000.0716317447368 -722.66825117546523 0 -722.66825117546523 302.66850582785992 0 0 0 0 457.04934897118159 -598.54622057640233 0 -598.54622057640233 644.35725722055031 0 0 0 0 369.33443829575117 -295.08187823707385 0 -295.08187823707385 -36.747589635739132 0 0 0 0 615.86517829016884 -441.67305355342341 0 -441.67305355342341 23.145215904618453 0 0 0 0 435.19303993186622 -445.86145119216781 0 -445.86145119216781 102.95682365708672 0 0 0 0 481.94511076325034 -447.69977351516764 0 -447.69977351516764 35.164721483890389 0 0 0 0 428.0748527735177 -425.84645875451679 0 -425.84645875451679 52.443636330270238 0 0 0 0 471.13317065450246 -441.60281312088227 0 -441.60281312088227 51.161986712398175 0 0 0 0 313.16486782198263 -544.88072100768386 0 -544.88072100768386 96.94749749643438 0 0 0 0 573.2113288904867 -485.77065931489904 0 -485.77065931489904 180.15734801167127 0 0 0 0 573.90079612743625 -545.33938937345931 0 -545.33938937345931 155.35850555527577 0 0 0 0 696.92298520324766 -502.33571531349116 0 -502.33571531349116 181.50130287320826 0 0 0 0 555.93207412973788 -631.46119776410569 0 -631.46119776410569 412.27574953875774 0 0 0 0 372.36719964582153 -462.42483295780585 0 -462.42483295780585 257.70254895454491 0 0 0 0 372.72398889981878 -410.39684219558313 0 -410.39684219558313 174.78603894791013 0 0 0 0 408.1558487238508 -435.19911999227497 0 -435.19911999227497 186.99377627359172 0 0 0 0 343.23763300799328 -318.72611024299476 0 -318.72611024299476 -5.2155083223105976 0 0 0 0 136.48941181987175 -224.51976713198383 0 -224.51976713198383 339.90211198797988 0 0 0 0 197.13431267198757 -299.98281257328381 0 -299.98281257328381 367.89719034300106 0 0 0 0 220.82003894257832 -223.80374559953134 0 -223.80374559953134 234.12095757963107 0 0 0 0 172.81808640585223 -121.822367927708 0 -121.822367927708 75.194648316000894 0 0 0 0 83.812887008796679 -120.83349757206815 0 -120.83349757206815 266.88021141257559 0 0 0 0 329.16758827568992 -301.00883671868814 0 -301.00883671868814 67.269612508531281 0 0 0 0 208.8338311518346 -175.28031776902253 0 -175.28031776902253 169.54705283502881 0 0 0 0 52.736508245958248 -239.1633616402014 0 -239.1633616402014 426.40072394465824 0 0 0 0 -10.29983098233788 -226.47557172818597 0 -226.47557172818597 788.31750704102342 0 0 0 0 -71.023696510645095 -460.09127591074503 0 -460.09127591074503 970.36722952415948 0 0 0 0 1.1097776805514172 -2.0288612643760757 0 -2.0288612643760757 0.1051343351982954 0 0 0 0 114.70384033866139 -364.60826427455686 0 -364.60826427455686 317.64613195823767 0 0 0 0 4.8288468223220207 105.67365922661276 0 105.67365922661276 4.1817541319469456 0 0 0 0 -1.9228456488708616 -58.380379509193517 0 -58.380379509193517 375.59391734546443 0 0 0 0 -1.7255176636956833 -2.4697197107883184 0 -2.4697197107883184 3.645138290578906 0 0 0 0 -333.08663367916051 -598.31985964439264 0 -598.31985964439264 250.50766949025274 0 0 0 0 283.84382682398791 -433.03670117537877 0 -433.03670117537877 -166.11583504699956 0 0 0 0 -1.3618612095306162 -139.40005201267741 0 -139.40005201267741 -389.54325935384986 0 0 0 0 0.9084738465544433 -1.8193277224693318 0 -1.8193277224693318 0.10563452118084093 0 0 0 0 24.561188860570837 -294.5157820134209 0 -294.5157820134209 402.79856137451861 0 0 0 0 2.0126174495957514 -3.8025251384317471 0 -3.8025251384317471 -0.12432492260656858 0 0 0 0 -91.261214037498576 -206.34032260352615 0 -206.34032260352615 331.49288418025299 0 0 0 0 106.1687428506666 -136.20731811254973 0 -136.20731811254973 235.41058786220492 0 0 0 0 160.19471177256492 -351.26236821674684 0 -351.26236821674684 876.84426314487246 0 0 0 0 491.77247308859114 -139.71292295997773 0 -139.71292295997773 -459.18337988816893 0 0 0 0 4.1992679581190373 -2.3031444663845875 0 -2.3031444663845875 0.4421593429663504 0 0 0 0 -129.04244813560217 -124.09974845096531 0 -124.09974845096531 234.98392962584512 0 0 0 0 -6.9967447706803796 -155.41220052022527 0 -155.41220052022527 51.169656894033324 0 0 0 0 7.5189424696664844 -4.4944318675902828 0 -4.4944318675902828 0.59390417047813138 0 0 0 0 -92.868744226643685 -237.08558511648789 0 -237.08558511648789 202.058430119685 0 0 0 0 -104.29464744091092 -137.90252243639043 0 -137.90252243639043 222.68457786421095 0 0 0 0 600.55304888134197 -754.63232595805812 0 -754.63232595805812 -564.14258615932886 0 0 0 0 436.70988838893845 -475.58966432042143 0 -475.58966432042143 156.32996404880396 0 0 0 0 118.48191978565592 -83.302256891316574 0 -83.302256891316574 -172.94553232127146 0 0 0 0 5.9249805461804499 -75.501495398764746 0 -75.501495398764746 540.93353927267708 0 0 0 0 -101.46448073673309 -177.16477621846525 0 -177.16477621846525 339.43470720613914 0 0 0 0 -46.83790959930775 -411.35941933132835 0 -411.35941933132835 496.40100098606126 0 0 0 0 36.42673262344033 -450.01675801597594 0 -450.01675801597594 317.72193676855386 0 0 0 0 -5.7060989163874183 -512.93743397976596 0 -512.93743397976596 701.02926929472233 0 0 0 0 27.508736645984754 -302.69861154439604 0 -302.69861154439604 219.03879967873399 0 0 0 0 68.743480991262913 -179.82202949026578 0 -179.82202949026578 439.24097249474835 0 0 0 0 672.14502650636496 -628.62989738255965 0 -628.62989738255965 890.12367853371939 0 0 0 0 526.55674808278127 -853.33529253997585 0 -853.33529253997585 824.53326986397087 0 0 0 0 70.128369707985257 -246.22257284412808 0 -246.22257284412808 947.83795184371229 0 0 0 0 167.31675057015036 -550.62073619160469 0 -550.62073619160469 522.6227811054905 0 0 0 0 157.74113995372227 -500.21928452759425 0 -500.21928452759425 486.47689525949681 0 0 0 0 473.52980735353776 -632.1560001709413 0 -632.1560001709413 419.02570007151735 0 0 0 0 2.2634482354042191 -5.099853396350241 0 -5.099853396350241 6.4031665578793735 0 0 0 0 988.36241718087513 -378.53549902412806 0 -378.53549902412806 196.33016112075347 0 0 0 0 285.51198253482471 24.367468649502371 0 24.367468649502371 -28.724816469732104 0 0 0 0 -1.1613644904980731 -3.4614940111161374 0 -3.4614940111161374 1.4703700931898318 0 0 0 0 110.92433212598553 -391.2855318554175 0 -391.2855318554175 249.81164618761386 0 0 0 0 284.15146200765594 -460.30141812436705 0 -460.30141812436705 267.71581715759385 0 0 0 0 -0.48018458261927321 -0.52400674191616048 0 -0.52400674191616048 -0.014656621207009835 0 0 0 0 9.3245536576141603 -428.01266203336127 0 -428.01266203336127 430.79813604940591 0 0 0 0 219.05612147534703 -448.82595824503551 0 -448.82595824503551 217.25838089845274 0 0 0 0 63.828292779900949 -522.23782634462441 0 -522.23782634462441 465.27321268104606 0 0 0 0 13.391985552658298 -541.94020039015686 0 -541.94020039015686 570.12640681883204 0 0 0 0 -1.9431542730890214 -436.48797814517593 0 -436.48797814517593 626.57907747978061 0 0 0 0 21.2636091678105 -452.81343068548267 0 -452.81343068548267 476.83937635377697 0 0 0 0 16.59020708566095 -524.95984447292085 0 -524.95984447292085 515.49351034354731 0 0 0 0 77.567247764833155 -551.90804782615942 0 -551.90804782615942 528.79987689229529 0 0 0 0 8.4654293701132985 -6.2892226108897162 0 -6.2892226108897162 -4.5113029216319305 0 0 0 0 31.094829707406461 -43.641226683357672 0 -43.641226683357672 207.08319323830619 0 0 0 0 39.723344975336659 -210.39681777559872 0 -210.39681777559872 305.12051511040045 0 0 0 0 1.9865592861327883 -0.96212427197147576 0 -0.96212427197147576 -1.0662900777538766 0 0 0 0 58.407349537690607 -102.2353291877962 0 -102.2353291877962 322.39358190062558 0 0 0 0 91.187500480191375 -98.407926523004789 0 -98.407926523004789 322.42952384804084 0 0 0 0 68.464930754438683 -102.85532715057616 0 -102.85532715057616 298.19309766173683 0 0 0 0 166.79762559317169 -200.69475180920108 0 -200.69475180920108 341.84144599875435 0 0 0 0 27.910350958874915 -146.40690647025258 0 -146.40690647025258 362.35958263398334 0 0 0 0 81.578202021999459 -148.7869943347614 0 -148.7869943347614 327.00047088197243 0 0 0 0 -29.528874146853923 -116.78943896805322 0 -116.78943896805322 355.64259970990588 0 0 0 0 7.2192936832725536 -285.9128393588162 0 -285.9128393588162 524.76458460603681 0 0 0 0 -45.68186333864287 -21.239574250007536 0 -21.239574250007536 423.94434848097717 0 0 0 0 257.25508903171794 -328.79727704934157 0 -328.79727704934157 374.56311014148923 0 0 0 0 681.2981715609294 -664.80334230195012 0 -664.80334230195012 604.19483990146728 0 0 0 0 234.58937807770781 -328.74991475152638 0 -328.74991475152638 612.53170796645009 0 0 0 0 -62.042140354657022 -267.10783344988704 0 -267.10783344988704 834.87846643666853 0 0 0 0 94.412580257052468 -219.04840617313039 0 -219.04840617313039 290.46728555961818 0 0 0 0 114.82584312541258 150.93651607444872 0 150.93651607444872 -105.72226543760917 0 0 0 0 10.406797658411961 38.956862751600056 0 38.956862751600056 443.45251105473289 0 0 0 0 6.7923618206211813 -6.4273470741704486 0 -6.4273470741704486 -5.2403598352624705 0 0 0 0 -101.50210049955786 -51.249038884858237 0 -51.249038884858237 69.023916799366816 0 0 0 0 -21.88575430529454 -78.30813301589933 0 -78.30813301589933 16.769273002303635 0 0 0 0 -94.69620638606284 97.371102935855561 0 97.371102935855561 -54.817361790494033 0 0 0 0 156.38421667435614 -174.72876195646586 0 -174.72876195646586 109.50606332655479 0 0 0 0 -92.668115632609158 -18.248125665743302 0 -18.248125665743302 231.28809740864745 0 0 0 0 42.490906153325341 11.012194207408356 0 11.012194207408356 67.89068187446901 0 0 0 0 9.0591438687856112 -4.2455037579456416 0 -4.2455037579456416 -7.5674446293911046 0 0 0 0 167.11503443318361 209.42929121631187 0 209.42929121631187 -164.73833474457024 0 0 0 0 162.16717237949058 -184.79234917690709 0 -184.79234917690709 -10.997502224960044 0 0 0 0 -47.308662692921644 -88.083816999538612 0 -88.083816999538612 256.90887625474534 0 0 0 0 -59.118790099137186 -23.977554391224203 0 -23.977554391224203 -36.050193024608234 0 0 0 0 -54.98651641982724 -135.66906670136586 0 -135.66906670136586 36.360163283889051 0 0 0 0 12.741990296759468 -34.083406389402626 0 -34.083406389402626 -161.04249959974914 0 0 0 0 -57.271204255230259 -2.829861546909342 0 -2.829861546909342 26.569426569193638 0 0 0 0 1.3544502888633261 -3.635456328676085 0 -3.635456328676085 11.869403253977261 0 0 0 0 -55.904513372439396 2.4334057713394941 0 2.4334057713394941 43.443078574920946 0 0 0 0 24.092930208178586 66.810158901741488 0 66.810158901741488 79.091560816963465 0 0 0 0 -51.171145076144967 0.10891117832829877 0 0.10891117832829877 24.268584304849355 0 0 0 0 0.70010253721596882 -1.3798449309808802 0 -1.3798449309808802 3.9074662766171926 0 0 0 0 333.90666140999019 -30.157064233440906 0 -30.157064233440906 -31.375484370017148 0 0 0 0 107.83357184801571 -38.772969588941123 0 -38.772969588941123 -11.286880688043311 0 0 0 0 48.920533691481978 -52.355288068617028 0 -52.355288068617028 25.769074196243309 0 0 0 0 113.05801276990678 -101.47466132103273 0 -101.47466132103273 -8.952057271679223 0 0 0 0 0.42312015735042507 -0.71388185521311698 0 -0.71388185521311698 0.92570637155026958 0 0 0 0 -41.056540167250205 0.71315668887882566 0 0.71315668887882566 13.087243473746639 0 0 0 0 133.1024144232706 -79.057674158477766 0 -79.057674158477766 -40.46621813285492 0 0 0 0 -127.41896663842999 -53.136370709269613 0 -53.136370709269613 67.112353157912366 0 0 0 0 1.254962767995238 -2.5603428534733155 0 -2.5603428534733155 1.5634534584494872 0 0 0 0 -40.463687867384579 -13.034229425894864 0 -13.034229425894864 -145.31922552928154 0 0 0 0 -89.078754563561233 -17.273336843675224 0 -17.273336843675224 53.100875998363335 0 0 0 0 -54.323711414348509 -43.021641201754392 0 -43.021641201754392 72.401994169258614 0 0 0 0 10.635856355605938 -100.44388402306686 0 -100.44388402306686 97.336617569384543 0 0 0 0 -15.758464757534966 -34.317835512687452 0 -34.317835512687452 26.97812081873235 0 0 0 0 44.676334496165509 -77.900653793962192 0 -77.900653793962192 56.406275878247925 0 0 0 0 0.58869136072934225 0.87609251056106174 0 0.87609251056106174 -0.092341406014017746 0 0 0 0 -4.7052943841117667 9.8286768352681975 0 9.8286768352681975 -61.956913553247631 0 0 0 0 45.26910677901742 -75.838110014506242 0 -75.838110014506242 39.991851842394681 0 0 0 0 62.015039141762827 -56.024806128522869 0 -56.024806128522869 61.363331341804951 0 0 0 0 101.39812045477447 -17.587609374098747 0 -17.587609374098747 46.026669161312384 0 0 0 0 117.35788457725721 -76.302246154287786 0 -76.302246154287786 37.278447526440232 0 0 0 0 55.655452460632659 -83.390553645182081 0 -83.390553645182081 105.99078999647099 0 0 0 0 44.761300466558168 -35.576557255862895 0 -35.576557255862895 8.4832268288100749 0 0 0 0 6.7231100558637991 -30.63439241020842 0 -30.63439241020842 55.912614942893015 0 0 0 0 2.9203183831341448 -10.271952285830594 0 -10.271952285830594 -30.378290121340484 0 0 0 0 7.3337116467912438 17.385231070433271 0 17.385231070433271 19.14740067067396 0 0 0 0 1.6694310839080515 -1.6731463040849377 0 -1.6731463040849377 1.1049416336998881 0 0 0 0 -3.9470637991762487 -2.0779515892372729 0 -2.0779515892372729 -4.1019355423521802 0 0 0 0 -36.790299419542862 -50.086379272433533 0 -50.086379272433533 22.379263831058779 0 0 0 0 -25.961879940812651 -4.5664963737335711 0 -4.5664963737335711 52.865432545457224 0 0 0 0 1.2370147647738534 -8.8648583092857507 0 -8.8648583092857507 17.21458775737112 0 0 0 0 -28.953417220589472 -13.612433694226638 0 -13.612433694226638 25.543806705807583 0 0 0 0 -23.75316920431942 -88.045721448719632 0 -88.045721448719632 298.71808442472775 0 0 0 0 -10.073898564449337 -22.931436678391037 0 -22.931436678391037 206.15335164428598 0 0 0 0 -8.3777331847604728 -96.113350293757406 0 -96.113350293757406 351.26693330972194 0 0 0 0 -108.46158759833634 -21.559587649959212 0 -21.559587649959212 475.26110817367771 0 0 0 0 -23.603832394801429 -346.09142670373603 0 -346.09142670373603 679.32641069101192 0 0 0 0 -52.745930284210772 -269.06426868582685 0 -269.06426868582685 498.15037330743144 0 0 0 0 66.011971823969361 -239.61536649054869 0 -239.61536649054869 252.49165674193318 0 0 0 0 39.29746990041167 -185.30051993186589 0 -185.30051993186589 172.92439802168337 0 0 0 0 74.221262172373827 -57.830903326046609 0 -57.830903326046609 84.810944599182676 0 0 0 0 29.921405854147451 -250.5618021810842 0 -250.5618021810842 -14.821478774909338 0 0 0 0 28.227642277379346 -94.108305304712303 0 -94.108305304712303 19.709915598501539 0 0 0 0 -1.2349413710683734 -0.47821891998432875 0 -0.47821891998432875 0.47411464174897233 0 0 0 0 69.299376144670532 -176.44521411708774 0 -176.44521411708774 -17.052521390277889 0 0 0 0 79.2579787048453 -26.827924486246047 0 -26.827924486246047 -267.13375572872246 0 0 0 0 -113.96166865827809 65.96192646371378 0 65.96192646371378 -18.111827518070641 0 0 0 0 -1.1037960893590935 -40.810154617625813 0 -40.810154617625813 158.20704975402543 0 0 0 0 13.652966008350631 -88.623564515535691 0 -88.623564515535691 149.36737879116117 0 0 0 0 -2.5307600561673098 -0.77881122463855945 0 -0.77881122463855945 0.021641847012816129 0 0 0 0 -27.201841777368827 8.7067297893499926 0 8.7067297893499926 2.2634164319588308 0 0 0 0 -42.421271413359136 -9.8325655645085135 0 -9.8325655645085135 39.814269230950231 0 0 0 0 -48.15718699217723 -12.808962222778632 0 -12.808962222778632 40.773017962173981 0 0 0 0 -40.753107533309958 -13.620447899173996 0 -13.620447899173996 33.391537125893592 0 0 0 0 -28.162331567589717 -20.23222948775765 0 -20.23222948775765 32.132063638839099 0 0 0 0 -25.818774276980548 -34.671311708902067 0 -34.671311708902067 52.70779025965976 0 0 0 0 -0.51324288687828812 -16.464588862052324 0 -16.464588862052324 34.019796852506261 0 0 0 0 -23.965279568350525 -28.3548963349308 0 -28.3548963349308 46.73839565232538 0 0 0 0 6.0500859567255247 -20.344036799794594 0 -20.344036799794594 19.691599061921806 0 0 0 0 -4.0013250594200827 -8.0563010885736333 0 -8.0563010885736333 8.4832552558829448 0 0 0 0 -2.97505893982526 -3.5280405562444059 0 -3.5280405562444059 3.5377788403748696 0 0 0 0 -0.50284608246874996 -9.5680423920852036 0 -9.5680423920852036 28.464132450691977 0 0 0 0 8.0639128932228914 -13.66659386721452 0 -13.66659386721452 -0.76296464774805162 0 0 0 0 5.7866442140948493 -23.491414535301374 0 -23.491414535301374 23.942637792693859 0 0 0 0 25.703525095865189 0.29189202748875687 0 0.29189202748875687 10.154955290660837 0 0 0 0 57.777903468493605 29.768780484944728 0 29.768780484944728 20.653646322001805 0 0 0 0 9.7142406577040674 -73.972640812398254 0 -73.972640812398254 136.02896937724836 0 0 0 0 0.45437400907394476 86.861152411607691 0 86.861152411607691 184.46374096463569 0 0 0 0 56.791829777568296 -16.503125233427966 0 -16.503125233427966 -14.863531256438364 0 0 0 0 9.1234381277554348 -43.770909462303052 0 -43.770909462303052 -12.375014325025404 0 0 0 0 -2.7273176881931818 -12.827062566911167 0 -12.827062566911167 3.2834499683420044 0 0 0 0 -31.894336184835993 -23.609123040601844 0 -23.609123040601844 20.585303503988371 0 0 0 0 -11.862650598501205 -16.57920830997773 0 -16.57920830997773 19.780638907671801 0 0 0 0 -3.0681847855448723 -15.927828362141099 0 -15.927828362141099 1.697295994214528 0 0 0 0 -1.2760828474658439 -3.4103710222639876 0 -3.4103710222639876 5.7562564502376361 0 0 0 0 22.276223096814647 20.106019706892312 0 20.106019706892312 -64.367661988145301 0 0 0 0 0.25133940089763485 -5.33490408143237 0 -5.33490408143237 16.025311833590919 0 0 0 0 2.2436372150563102 -6.1250902546178692 0 -6.1250902546178692 5.5896085474529391 0 0 0 0 -39.446058081812225 -16.82025180389428 0 -16.82025180389428 24.436795102507972 0 0 0 0 9.0957014637087923 -11.059553636697601 0 -11.059553636697601 19.409644644885248 0 0 0 0 -34.035766841065197 -20.738123723643184 0 -20.738123723643184 59.132942856869704 0 0 0 0 -3.7371693729418638 -18.439637633527155 0 -18.439637633527155 11.145474891273187 0 0 0 0 -2.7096435885760002 -12.384970314968086 0 -12.384970314968086 10.260370652827987 0 0 0 0 -4.6895883873039423 -18.508573148968026 0 -18.508573148968026 13.725466475576273 0 0 0 0 -0.36435369309540988 -11.629478080515128 0 -11.629478080515128 11.292020494651776 0 0 0 0 -55.51055970172456 -1.2049204995992113 0 -1.2049204995992113 180.05000082444803 0 0 0 0 72.622584624492447 -92.942077210104799 0 -92.942077210104799 8.7539036085117914 0 0 0 0 -17.63593199603929 -50.650399679052953 0 -50.650399679052953 -11.060020539784091 0 0 0 0 -118.68196866707876 -148.18441225874176 0 -148.18441225874176 1092.24322183195 0 0 0 0 0.48989988232239057 -1.1647938677228922 0 -1.1647938677228922 6.8834556398291156 0 0 0 0 389.76549904146304 -593.64911759328993 0 -593.64911759328993 632.32684806086945 0 0 0 0 23.131565636263986 268.7958853177438 0 268.7958853177438 491.52516041456875 0 0 0 0 -7.9153659104194958 -393.74595712757491 0 -393.74595712757491 579.41934822745498 0 0 0 0 66.414273988833884 -569.00536152700988 0 -569.00536152700988 949.13554022239327 0 0 0 0 230.57581081246099 -345.32773262569481 0 -345.32773262569481 765.5118886725877 0 0 0 0 43.753114427338005 -261.79517941951644 0 -261.79517941951644 1154.8468357617203 0 0 0 0 136.11417404307576 -395.68816225988849 0 -395.68816225988849 806.90834885244794 0 0 0 0 -44.822079015044437 25.420525250035325 0 25.420525250035325 145.30789448071073 0 0 0 0 0.56187250816647349 -3.2322006839031729 0 -3.2322006839031729 2.3797247631598033 0 0 0 0 137.76887923335198 -335.67463645471503 0 -335.67463645471503 701.46448563182093 0 0 0 0 113.85219913414039 -68.447099244735909 0 -68.447099244735909 117.87860372594196 0 0 0 0 199.2533377912041 -427.51938209963237 0 -427.51938209963237 688.15487140086861 0 0 0 0 0.81196788614721527 -5.7265837503375092 0 -5.7265837503375092 2.064953727094033 0 0 0 0 68.591088611401574 -48.170208878706603 0 -48.170208878706603 -54.648162965798292 0 0 0 0 -2.5756027499010088 -11.126423548002322 0 -11.126423548002322 9.6390890558375304 0 0 0 0 5.835967774677556 74.387484702687289 0 74.387484702687289 73.999221246068373 0 0 0 0 7.3878439902910031 -17.068356428415953 0 -17.068356428415953 0.28597351478114597 0 0 0 0 6.3664109103592352 -6.6391158839242248 0 -6.6391158839242248 2.210983460441752 0 0 0 0 22.021001517779951 -25.859268051375182 0 -25.859268051375182 -39.618413475725788 0 0 0 0 5.288299522959278 5.0446210821348814 0 5.0446210821348814 15.730828844234225 0 0 0 0 4.0485038587817712 -4.0830348423489493 0 -4.0830348423489493 1.6145248866084403 0 0 0 0 -69.543982716073515 -180.24513441620434 0 -180.24513441620434 973.32046233850861 0 0 0 0 -9.6314953191576933 -201.44511457039152 0 -201.44511457039152 900.96279394035719 0 0 0 0 54.135613597274642 -162.49591944563144 0 -162.49591944563144 394.66927173539301 0 0 0 0 -0.0012125253269914538 -60.819335483163513 0 -60.819335483163513 23.929424640879233 0 0 0 0 40.278205524606165 -28.248973539596875 0 -28.248973539596875 -93.898669539199773 0 0 0 0 1.3684917419070644 -0.92578407046820255 0 -0.92578407046820255 1.5024881605058757 0 0 0 0 -4.0688299229877884 -41.810147379261281 0 -41.810147379261281 23.272977142725722 0 0 0 0 1.6587433922395576 21.810166893551894 0 21.810166893551894 23.29973565804022 0 0 0 0 -29.484414696566091 -185.38223106005694 0 -185.38223106005694 918.10898234904926 0 0 0 0 -73.399455919425236 -87.985150659174678 0 -87.985150659174678 1490.2594587414305 0 0 0 0 0.20683908309001708 -294.76594489389436 0 -294.76594489389436 985.16100740714683 0 0 0 0 -106.51494600988372 -189.70679439080413 0 -189.70679439080413 947.68152102097383 0 0 0 0 -82.462591842861002 -283.23505811787595 0 -283.23505811787595 835.87355612578131 0 0 0 0 -26.824965901218093 -128.97683728490892 0 -128.97683728490892 756.74451961636919 0 0 0 0 76.296138538917148 -315.25053268613419 0 -315.25053268613419 700.80414022970854 0 0 0 0 -71.961481842074136 -350.50921113275444 0 -350.50921113275444 901.30999730267195 0 0 0 0 -129.81105569388455 -298.91410807458533 0 -298.91410807458533 857.38682517284042 0 0 0 0 -98.171460331966955 -193.92576067583946 0 -193.92576067583946 594.9579105519033 0 0 0 0 -274.73898690340138 -261.18769062011052 0 -261.18769062011052 901.92452152315627 0 0 0 0 -34.13454914814065 -539.62513128679802 0 -539.62513128679802 1092.5032307739712 0 0 0 0 -176.73600553987126 -25.123615320219869 0 -25.123615320219869 -0.87688232790151233 0 0 0 0 -136.58056651962033 -182.42426755278075 0 -182.42426755278075 596.98811379851236 0 0 0 0 10.475708418520298 -133.50802426378482 0 -133.50802426378482 168.21258609777715 0 0 0 0 -0.010855097552848747 -276.52374511209496 0 -276.52374511209496 551.93016101492708 0 0 0 0 -47.477341766229074 -236.70471439377161 0 -236.70471439377161 160.32479746064291 0 0 0 0 -429.8932389788024 -190.24758409931155 0 -190.24758409931155 117.70382372427048 0 0 0 0 -54.20082860399566 -168.43462184201186 0 -168.43462184201186 7.2917871258850937 0 0 0 0 -172.99270134158724 -246.33808837915649 0 -246.33808837915649 110.56102208172115 0 0 0 0 -0.98206570244254543 -5.3467915483697226 0 -5.3467915483697226 13.138068020537801 0 0 0 0 -29.119697314758014 -140.23517061322059 0 -140.23517061322059 129.49170476450308 0 0 0 0 -160.88638491393067 -372.97302526711519 0 -372.97302526711519 233.10664819183148 0 0 0 0 -298.23569545446662 11.577085371324756 0 11.577085371324756 -64.53859182027918 0 0 0 0 245.91020621381176 -353.36889203805003 0 -353.36889203805003 14.405337924657942 0 0 0 0 259.69873422371165 -738.23995470945556 0 -738.23995470945556 515.7015978786203 0 0 0 0 -85.281503807556874 -349.21627878261734 0 -349.21627878261734 83.893738976596069 0 0 0 0 415.3800505708914 -513.1791888197522 0 -513.1791888197522 -169.31403122249685 0 0 0 0 235.7100639345299 -309.56038512105806 0 -309.56038512105806 -165.47404059688057 0 0 0 0 64.659594414784806 -101.69933092556403 0 -101.69933092556403 -239.9307225326711 0 0 0 0 309.65029479621444 -268.50476059623543 0 -268.50476059623543 -486.60403084213112 0 0 0 0 104.93946897136266 -230.67134712248526 0 -230.67134712248526 126.56771153013688 0 0 0 0 188.47205478271644 -422.56347177787211 0 -422.56347177787211 180.75863686116918 0 0 0 0 13.023417810371029 -394.08357909066649 0 -394.08357909066649 391.34424959547323 0 0 0 0 147.98389745534041 -405.63688526645774 0 -405.63688526645774 51.545557259456473 0 0 0 0 160.8447965692103 -345.6130153638469 0 -345.6130153638469 158.27288741441407 0 0 0 0 112.04667880322268 -482.22578913407688 0 -482.22578913407688 630.70597046311741 0 0 0 0 331.43335439440852 -568.176032335542 0 -568.176032335542 276.67034682719441 0 0 0 0 132.67740886740648 -488.05575382897041 0 -488.05575382897041 412.46342787457138 0 0 0 0 376.00445329006834 -490.44480513637473 0 -490.44480513637473 604.09108613429362 0 0 0 0 654.24674516866071 -666.4498630697999 0 -666.4498630697999 485.57396965366206 0 0 0 0 248.22558661452786 -295.02663027121753 0 -295.02663027121753 1146.3670925728979 0 0 0 0 -0.36697060642689472 -2.9611296267882921 0 -2.9611296267882921 6.4060570820330227 0 0 0 0 -804.40222335848011 26.643656071679288 0 26.643656071679288 831.69279860850588 0 0 0 0 335.90991761669517 -225.1339569187833 0 -225.1339569187833 62.197168786595284 0 0 0 0 48.919448909404309 -52.407281155776218 0 -52.407281155776218 75.507235951072289 0 0 0 0 309.14176529526412 -68.602580443820443 0 -68.602580443820443 -59.718550217949087 0 0 0 0 159.05765312931544 -230.46065973464829 0 -230.46065973464829 217.35071130779397 0 0 0 0 62.467494092878042 -23.933531723028864 0 -23.933531723028864 32.163778228268711 0 0 0 0 102.9844596621123 -86.793575518786184 0 -86.793575518786184 18.075107050415681 0 0 0 0 66.192724288473983 -39.287431055983689 0 -39.287431055983689 -61.261738000754121 0 0 0 0 44.126311922151217 -5.4257318239651795 0 -5.4257318239651795 -32.540856638570403 0 0 0 0 102.21657044995547 13.619830443151002 0 13.619830443151002 -36.826748958577809 0 0 0 0 21.769479490249068 15.515756891632918 0 15.515756891632918 -44.556659674131879 0 0 0 0 33.976090001673583 -22.21355631086044 0 -22.21355631086044 -20.534291787434995 0 0 0 0 67.742912414880266 -87.688631642215114 0 -87.688631642215114 -45.910180230861442 0 0 0 0 7.38102105865255 -2.8061361681502603 0 -2.8061361681502603 67.312048039113506 0 0 0 0 158.05521554558072 -127.31274856757955 0 -127.31274856757955 -167.29598820214596 0 0 0 0 -129.65414509065886 -206.0848384511155 0 -206.0848384511155 6.9664776411664207 0 0 0 0 -29.167152520031109 -21.988607997703717 0 -21.988607997703717 -9.5441306886265167 0 0 0 0 50.732766769404407 -3.8666447028845141 0 -3.8666447028845141 34.211200467096205 0 0 0 0 44.587876284233062 -21.543070758682006 0 -21.543070758682006 20.868653629418986 0 0 0 0 -240.027755487783 -118.83789340655858 0 -118.83789340655858 -41.71958666489536 0 0 0 0 2.0347793532743115 -0.59384959084931666 0 -0.59384959084931666 -0.38217057252398945 0 0 0 0 67.987011597969286 -58.483511654125323 0 -58.483511654125323 67.232495680800639 0 0 0 0 -15.1843760626316 -31.031181809113605 0 -31.031181809113605 9.9527790728570835 0 0 0 0 -83.545889624598203 -23.881312464087387 0 -23.881312464087387 64.346033642188559 0 0 0 0 -25.96303840345908 -16.296471986194732 0 -16.296471986194732 -9.7302027077173321 0 0 0 0 -32.713134021789301 -64.675863851369286 0 -64.675863851369286 102.04765341162602 0 0 0 0 41.163696435531392 -112.59824132620281 0 -112.59824132620281 127.66595991017675 0 0 0 0 -38.584588431745942 -14.223283926927252 0 -14.223283926927252 53.80666150318757 0 0 0 0 473.17248862011911 -428.50042610835862 0 -428.50042610835862 110.7652410904775 0 0 0 0 -133.44842652635634 49.220039910069318 0 49.220039910069318 46.969894229901001 0 0 0 0 1.274503744162967 1.6580313166278557 0 1.6580313166278557 5.3732405348636121 0 0 0 0 -104.03899229812305 -243.81696580341304 0 -243.81696580341304 210.07193105258284 0 0 0 0 -72.633591037832957 -17.901590219261379 0 -17.901590219261379 99.995451697988756 0 0 0 0 -29.452687882323517 -161.83167381532439 0 -161.83167381532439 -90.779986611854838 0 0 0 0 0.54321210398029507 -91.686789975851752 0 -91.686789975851752 -104.33488736444633 0 0 0 0 -18.1231936969765 -12.68452131483911 0 -12.68452131483911 -7.473154177050624 0 0 0 0 -39.929087727054139 -84.552993250988948 0 -84.552993250988948 79.340902511836248 0 0 0 0 -70.926104719081195 -306.07838631510822 0 -306.07838631510822 -365.38960898121513 0 0 0 0 62.275671734150819 -21.132203161902908 0 -21.132203161902908 -247.39647593555856 0 0 0 0 -162.74590076897948 -314.0412903971519 0 -314.0412903971519 -450.45430325524285 0 0 0 0 -1.9009764612537765 -175.84690946245883 0 -175.84690946245883 -545.14230839611992 0 0 0 0 -29.939117869007532 -287.50395221177314 0 -287.50395221177314 -480.83682895395759 0 0 0 0 -1005.0716001819819 1086.4011318704761 0 1086.4011318704761 -303.70627512240208 0 0 0 0 -0.98735187659218271 -3.1088343614904446 0 -3.1088343614904446 -12.362369669246561 0 0 0 0 -1688.2733887563572 -390.76493668670992 0 -390.76493668670992 25.665289305106853 0 0 0 0 434.46908818279621 45.185354447977488 0 45.185354447977488 -719.2830934119047 0 0 0 0 -840.87129487048151 -83.327693457657006 0 -83.327693457657006 -39.689195134564216 0 0 0 0 -1069.0875360472164 -876.42191396278758 0 -876.42191396278758 1496.6637101632496 0 0 0 0 -78.662437946162754 -762.2157818552223 0 -762.2157818552223 -1003.0287032242741 0 0 0 0 -0.79092912285739203 -8.7469719274315665 0 -8.7469719274315665 -22.430889116266172 0 0 0 0 -105.20107410378296 -300.25853832817393 0 -300.25853832817393 -56.233329796294129 0 0 0 0 -234.52013793590231 -169.09821423273206 0 -169.09821423273206 -61.874202288119704 0 0 0 0 -7.0851224673784543 -5.2019244097273898 0 -5.2019244097273898 -3.1117190637277687 0 0 0 0 115.87988844567735 75.885694421729568 0 75.885694421729568 -55.294057174587579 0 0 0 0 -1010.9658719462968 -578.84206549162627 0 -578.84206549162627 375.88532712800952 0 0 0 0 -337.5066897220313 -462.850030642825 0 -462.850030642825 -241.50128258261293 0 0 0 0 -88.256433855967771 -298.47827874603809 0 -298.47827874603809 -335.93846783048866 0 0 0 0 -129.58475194794664 -286.1865745696723 0 -286.1865745696723 -250.76350121853773 0 0 0 0 -448.71374391756581 -708.77151894405506 0 -708.77151894405506 -576.67233829994075 0 0 0 0 -698.17823069241058 -322.18988003499726 0 -322.18988003499726 -259.32540205041187 0 0 0 0 -593.17858473830711 -518.24115199339394 0 -518.24115199339394 -145.85596777999854 0 0 0 0 -489.54568830368407 -401.58147638082846 0 -401.58147638082846 10.987088550009503 0 0 0 0 -446.9612575740357 -421.733650165168 0 -421.733650165168 -38.12332872004481 0 0 0 0 -519.64514904471071 -428.42816077489806 0 -428.42816077489806 -37.500116270402941 0 0 0 0 -224.18678244022885 -338.98295456475535 0 -338.98295456475535 -110.95433907089318 0 0 0 0 -421.60129654710727 -366.02701745893319 0 -366.02701745893319 71.087841028504045 0 0 0 0 -268.73851739921429 -210.86718302460395 0 -210.86718302460395 -61.358102386264363 0 0 0 0 -696.67076856080894 -402.29953772532735 0 -402.29953772532735 73.513709339197703 0 0 0 0 -475.52232389969504 -54.86387433543814 0 -54.86387433543814 156.80544974500299 0 0 0 0 -410.51171459899615 -552.73196929127357 0 -552.73196929127357 -179.31979881200277 0 0 0 0 -292.21918969511171 -301.35983845496594 0 -301.35983845496594 103.96687632561952 0 0 0 0 -248.64777699844853 -355.18527431163966 0 -355.18527431163966 -2.1422210442115102 0 0 0 0 -145.98921057790812 -150.74003963363884 0 -150.74003963363884 -469.83733283718539 0 0 0 0 -118.8691802322528 -262.02836797563714 0 -262.02836797563714 -263.56444443929286 0 0 0 0 309.93822689064837 -175.50316987847327 0 -175.50316987847327 -531.7398621916218 0 0 0 0 -791.01661541993599 -281.43997074397612 0 -281.43997074397612 -294.52155265497277 0 0 0 0 -1.089077184447016 -3.5020562238311328 0 -3.5020562238311328 -8.5332076797756287 0 0 0 0 -156.37239382468033 22.550494011686169 0 22.550494011686169 35.384642060045735 0 0 0 0 -9.8612516254434013 12.555608250590012 0 12.555608250590012 -9.9068167013683706 0 0 0 0 81.661324818476714 11.389036947542991 0 11.389036947542991 -49.381798171059927 0 0 0 0 -62.22195443378223 107.58828054906007 0 107.58828054906007 14.261561348226678 0 0 0 0 -1484.7103025768483 168.55098324324354 0 168.55098324324354 781.81582607733435 0 0 0 0 -252.98699879945161 -372.85580235291127 0 -372.85580235291127 136.72279353212798 0 0 0 0 -301.86711866250334 -317.63740521290038 0 -317.63740521290038 209.19211406179966 0 0 0 0 -0.76736453752995404 -5.7016503836217751 0 -5.7016503836217751 -10.064641816693879 0 0 0 0 -1443.2055584130067 -141.07404239867719 0 -141.07404239867719 -2.6567895952484832 0 0 0 0 705.00576556141641 -173.21094377547979 0 -173.21094377547979 -537.31438449305278 0 0 0 0 290.68149476838516 117.53095002610462 0 117.53095002610462 -18.67277929053671 0 0 0 0 371.53162817028715 -446.30617273376811 0 -446.30617273376811 -522.85134109325736 0 0 0 0 -0.78050221468951519 -5.4485688719927623 0 -5.4485688719927623 -26.680387642859777 0 0 0 0 -17.767182627954753 20.167936339712469 0 20.167936339712469 -33.472649369468854 0 0 0 0 -15.405554191806004 -8.4769226505159168 0 -8.4769226505159168 -50.754374751624709 0 0 0 0 10.414324073957687 25.394465659766865 0 25.394465659766865 -48.952800481458553 0 0 0 0 17.161254368922528 39.771917847880104 0 39.771917847880104 -34.403344720612949 0 0 0 0 10.458692074018984 11.29181726133848 0 11.29181726133848 -42.37388752761035 0 0 0 0 10.561462926969057 5.1993153357829556 0 5.1993153357829556 -53.885298429086106 0 0 0 0 4.9871960418640811 2.6598631662122898 0 2.6598631662122898 -38.724675505873165 0 0 0 0 2.4573343625688722 -4.9672867897543256 0 -4.9672867897543256 -51.907424769960926 0 0 0 0 -695.70197818579334 -1071.6469402114838 0 -1071.6469402114838 -964.58144961680955 0 0 0 0 80.023301134999201 -430.88571545582636 0 -430.88571545582636 -457.38964076209959 0 0 0 0 -421.35241446865984 -476.52792816414149 0 -476.52792816414149 -292.773831903467 0 0 0 0 -190.65926487996694 -208.88127881797027 0 -208.88127881797027 17.279329089444218 0 0 0 0 -884.49395101033224 488.65673655538012 0 488.65673655538012 756.71759035118521 0 0 0 0 379.32739663351822 239.34739138184068 0 239.34739138184068 -73.91588318495269 0 0 0 0 -44.784102993344277 18.068334686392973 0 18.068334686392973 111.03462294667315 0 0 0 0 16.871237640121763 -21.746130945201912 0 -21.746130945201912 -92.193304445281683 0 0 0 0 0.87187362792497081 -5.8428616482149813 0 -5.8428616482149813 -37.268184932598849 0 0 0 0 -8.3517712583734465 -20.274130276128744 0 -20.274130276128744 -19.749366992865362 0 0 0 0 -0.36119126583713523 -13.823497715706775 0 -13.823497715706775 4.1865016096228409 0 0 0 0 -0.74576754133522627 -23.130341564656192 0 -23.130341564656192 -58.302489380793304 0 0 0 0 -782.32037228412094 -888.69884209324618 0 -888.69884209324618 -651.08964910900431 0 0 0 0 6.060663501622912 -67.164721777438899 0 -67.164721777438899 -576.14076901847147 0 0 0 0 -112.59337072280323 -118.14060599741515 0 -118.14060599741515 -191.9675769155765 0 0 0 0 -68.264577487338101 -326.81835716267415 0 -326.81835716267415 -629.19668814039323 0 0 0 0 21.127965354615299 -146.35136030389913 0 -146.35136030389913 -479.25247719258914 0 0 0 0 -125.20881236982314 -218.22701436226635 0 -218.22701436226635 -388.09970779352079 0 0 0 0 -63.373480072128586 -136.66971594497409 0 -136.66971594497409 -405.68477294472768 0 0 0 0 -45.083976252393768 59.48621682394969 0 59.48621682394969 3.1749911534772082 0 0 0 0 -1.3180101224570535 -99.656554108261844 0 -99.656554108261844 -33.242813834933258 0 0 0 0 -78.944470220914809 -172.35051962664147 0 -172.35051962664147 100.33804063513162 0 0 0 0 -74.532734925676777 17.426711025778786 0 17.426711025778786 -191.04051167598664 0 0 0 0 -12.068983942673185 -467.14511854576824 0 -467.14511854576824 -1056.0187230647662 0 0 0 0 -97.001683403406787 17.610077737903339 0 17.610077737903339 -216.40087868460614 0 0 0 0 -129.50296467673888 -83.835686038410131 0 -83.835686038410131 61.79485671663133 0 0 0 0 47.672758460659679 58.64626481380219 0 58.64626481380219 -68.381720867037075 0 0 0 0 -5.4315771299248894 -3.1038788327902296 0 -3.1038788327902296 -1.953808871383437 0 0 0 0 1.0911401840966235 0.51066121532242548 0 0.51066121532242548 -0.89504431452084798 0 0 0 0 -30.343042624954251 -11.03932332138902 0 -11.03932332138902 39.358549696580667 0 0 0 0 56.749913597919658 27.8363382561447 0 27.8363382561447 11.652607025287807 0 0 0 0 -1.2950909995009425 -1.6574216439762051 0 -1.6574216439762051 -1.0841827414089966 0 0 0 0 90.39855268014071 10.266011116211757 0 10.266011116211757 -19.685787571963374 0 0 0 0 -21.528257725025469 28.867242126993006 0 28.867242126993006 -19.31921812735709 0 0 0 0 5.0428117362644116 -17.235825682455015 0 -17.235825682455015 -17.509384186752868 0 0 0 0 10.926932315018348 -28.531005524513603 0 -28.531005524513603 1.4723640315378361 0 0 0 0 -8.9715073573897826 -21.21677881119831 0 -21.21677881119831 9.0111099955756799 0 0 0 0 -12.419378018118962 -8.5276363468675775 0 -8.5276363468675775 -4.1225772314347005 0 0 0 0 -4.4642895930590001 -6.5147299382122128 0 -6.5147299382122128 -3.1770289741195721 0 0 0 0 -3.1671556720102672 -4.3810615865659202 0 -4.3810615865659202 7.6967382933762565 0 0 0 0 2.2507167282787606 -8.302707217036648 0 -8.302707217036648 -9.334144976187531 0 0 0 0 -6.2491749452268195 -4.0918520031271086 0 -4.0918520031271086 -1.1750826803900907 0 0 0 0 -5.9629114107246082 -6.3164844783685083 0 -6.3164844783685083 0.52312184658734751 0 0 0 0 -19.889583823602152 -15.342727177459892 0 -15.342727177459892 189.04156775089814 0 0 0 0 1.595792503595419 -1.912103977086467 0 -1.912103977086467 -0.68908405753287738 0 0 0 0 -13.013472645197908 -27.238782801950038 0 -27.238782801950038 110.48112757304534 0 0 0 0 -19.338348848581518 -71.955343571124104 0 -71.955343571124104 89.494809097208872 0 0 0 0 33.740421302227332 -52.332690041857859 0 -52.332690041857859 123.68913889257601 0 0 0 0 -76.171911031960917 2.5584387718517974 0 2.5584387718517974 411.14357404261955 0 0 0 0 24.239414655923611 -58.131949782848096 0 -58.131949782848096 -76.006198264850354 0 0 0 0 0.68435982810035512 0.08554560896229102 0 0.08554560896229102 0.18366740736972176 0 0 0 0 48.698077733561149 32.78954143669921 0 32.78954143669921 165.58649706689539 0 0 0 0 -41.536623301864893 -92.736578440089033 0 -92.736578440089033 171.79949449381161 0 0 0 0 34.510761368277599 -165.64150395571232 0 -165.64150395571232 194.69310340353331 0 0 0 0 31.674161144248501 -140.5806370058508 0 -140.5806370058508 26.569785015962111 0 0 0 0 -10.130855893640444 -8.074346209695161 0 -8.074346209695161 0.16640523753930569 0 0 0 0 -15.413630068869679 7.3261168008139066 0 7.3261168008139066 33.436100291140065 0 0 0 0 -5.2155928098618602 -7.0934818198753922 0 -7.0934818198753922 -5.6038454159204392 0 0 0 0 -2.2288776581208367 -3.1939242853209358 0 -3.1939242853209358 -4.6377056528908724 0 0 0 0 -12.342567186445647 -16.742070268562539 0 -16.742070268562539 -3.1449148017394393 0 0 0 0 -4.8572439379005283 -9.02931452822137 0 -9.02931452822137 -11.936636937553466 0 0 0 0 -5.9813068792046664 -17.080646060729173 0 -17.080646060729173 -15.509653002001869 0 0 0 0 -6.0521331567215384 -12.787171424886765 0 -12.787171424886765 -18.958436261596944 0 0 0 0 -3.9011461738918527 -2.6421627316969012 0 -2.6421627316969012 -8.0111009476914852 0 0 0 0 -3.7518014480592683 -8.3956424557545688 0 -8.3956424557545688 -23.182374924479518 0 0 0 0 -3.7671022570033159 -6.7117441117603001 0 -6.7117441117603001 -4.399382903147206 0 0 0 0 -5.5432062519612373 -7.9219621880874911 0 -7.9219621880874911 -1.9946183767738148 0 0 0 0 -2.784659163401912 -7.1781414946945077 0 -7.1781414946945077 -3.0255956215278275 0 0 0 0 -5.0382169013324543 -8.1447900830700384 0 -8.1447900830700384 -3.3101028298988231 0 0 0 0 -9.7523282359034056 -2.8453556770527939 0 -2.8453556770527939 -32.599342837511358 0 0 0 0 31.335988354556321 -19.35192915784819 0 -19.35192915784819 55.031371371054774 0 0 0 0 -4.8426035201919149 -79.463838954981156 0 -79.463838954981156 -13.861869022855899 0 0 0 0 9.0973399456051993 5.923619069740198 0 5.923619069740198 125.55879786951482 0 0 0 0 31.555139725393019 -67.303055486936501 0 -67.303055486936501 -6.0341517854594713 0 0 0 0 -1.4667076658500591 -1.07366515517203 0 -1.07366515517203 1.0453785374832876 0 0 0 0 -31.159717907685263 30.389209463843144 0 30.389209463843144 -2.3073795136406261 0 0 0 0 -14.783255052818276 17.631505085597382 0 17.631505085597382 32.809888176239838 0 0 0 0 10.114899812113435 14.548958432345898 0 14.548958432345898 30.225720692098548 0 0 0 0 -2.7694531098989503 -5.694496931308219 0 -5.694496931308219 0.11131778236191181 0 0 0 0 -24.565402798569266 16.427807671418577 0 16.427807671418577 39.738712817019405 0 0 0 0 -205.42267826806346 -182.11770284556587 0 -182.11770284556587 46.524715022034798 0 0 0 0 -121.35202306932842 5.502114488852385 0 5.502114488852385 31.746048352139724 0 0 0 0 15.147017211088112 -16.128492826636538 0 -16.128492826636538 -2.3101185743939112 0 0 0 0 11.66612611094024 -13.475426658148081 0 -13.475426658148081 -11.277788619329442 0 0 0 0 -43.573472227029015 -64.688727145977964 0 -64.688727145977964 8.9434492347027117 0 0 0 0 9.4584133827811456 -31.297429278378786 0 -31.297429278378786 -11.031742033479077 0 0 0 0 2.8174189387209481 -29.881127652761279 0 -29.881127652761279 -2.818884043662365 0 0 0 0 -0.74329871557711158 -33.080259211399607 0 -33.080259211399607 -12.109856084658077 0 0 0 0 1.917903883222607 -23.516171700080122 0 -23.516171700080122 -17.09636919411605 0 0 0 0 -11.256164842743601 -28.525569790462214 0 -28.525569790462214 -17.689066137918417 0 0 0 0 4.2928824623028703 -19.143359763406853 0 -19.143359763406853 -1.934976291002287 0 0 0 0 5.6732443994794721 -10.516873718053063 0 -10.516873718053063 -18.435740318397656 0 0 0 0 -24.890974473295501 -29.540446683608025 0 -29.540446683608025 11.526638454368367 0 0 0 0 -1.4495981983641855 -3.9215777943517267 0 -3.9215777943517267 -0.8425057101086928 0 0 0 0 0.5951138525197166 -15.143910571929155 0 -15.143910571929155 -19.896303305126821 0 0 0 0 -5.5175958869549504 -25.387272804186068 0 -25.387272804186068 -11.870753112834791 0 0 0 0 -0.99018036470715742 -12.18756101850537 0 -12.18756101850537 -0.69426312005756508 0 0 0 0 -15.742381704283758 -15.52928138594763 0 -15.52928138594763 1.0711700895941796 0 0 0 0 -49.286736505363933 -50.71261665178838 0 -50.71261665178838 -1.7264206452737199 0 0 0 0 -1.2295167198462877 -30.662519025339861 0 -30.662519025339861 -27.385224940853277 0 0 0 0 1.4902444860773301 -15.128546081848953 0 -15.128546081848953 10.547051954168808 0 0 0 0 4.8260557703397353 -16.044903132052696 0 -16.044903132052696 -21.477703713615483 0 0 0 0 11.359913794536098 -9.5550770085243801 0 -9.5550770085243801 1.3853651968893743 0 0 0 0 31.508684490649102 -76.28187263604741 0 -76.28187263604741 -107.40095379902777 0 0 0 0 -21.940471424437419 -34.278439045034247 0 -34.278439045034247 -58.901651437889086 0 0 0 0 15.790483797209163 -0.79303649879875593 0 -0.79303649879875593 -73.338510146824774 0 0 0 0 2.8823755724393791 -22.19955110844208 0 -22.19955110844208 -27.216904304017056 0 0 0 0 101.98218116014323 -43.95463772268522 0 -43.95463772268522 -70.212080658595369 0 0 0 0 23.210286437482864 -30.853471649748826 0 -30.853471649748826 -33.112625789757658 0 0 0 0 7.0033690113775577 -13.701213783342325 0 -13.701213783342325 1.2004365003524811 0 0 0 0 63.06399353227971 -31.865872859301817 0 -31.865872859301817 -16.707561380120751 0 0 0 0 42.131301469864638 -15.532355829375728 0 -15.532355829375728 -11.337551269210991 0 0 0 0 13.557441000781328 -3.8739254547545272 0 -3.8739254547545272 -8.7073080148695112 0 0 0 0 7.043995526127695 -9.8197441330412563 0 -9.8197441330412563 2.6575212851796124 0 0 0 0 3.8038014992544049 -14.695228266938102 0 -14.695228266938102 -9.1717681488225935 0 0 0 0 -46.223868661527376 -136.4309932240667 0 -136.4309932240667 -44.911883166956159 0 0 0 0 -33.278133367104601 -48.237102574401433 0 -48.237102574401433 -61.315599183091763 0 0 0 0 1.3274232070966718 -27.033738961674089 0 -27.033738961674089 -12.88116975860612 0 0 0 0 13.465961863204448 -9.2682337358808873 0 -9.2682337358808873 -4.1475691258670366 0 0 0 0 -0.70688290044927271 -58.373591123667211 0 -58.373591123667211 -10.739601359906374 0 0 0 0 3.9399636529196869 -4.031124307482969 0 -4.031124307482969 -14.058720128544905 0 0 0 0 -7.5789956268090464 -21.026169267739533 0 -21.026169267739533 80.947477313804484 0 0 0 0 22.946729257280822 -34.632784720195559 0 -34.632784720195559 -17.455260228078259 0 0 0 0 25.70347870823025 -32.862614093473894 0 -32.862614093473894 -16.347595476194329 0 0 0 0 23.572576437007228 -49.872142825794072 0 -49.872142825794072 8.4283496718235256 0 0 0 0 -5.7205222678979482 -26.867083838034453 0 -26.867083838034453 -19.062232847976404 0 0 0 0 9.9897331756001222 -29.07603116148357 0 -29.07603116148357 4.9105748516885797 0 0 0 0 41.886615498406172 -37.588919589777106 0 -37.588919589777106 -21.773270065774341 0 0 0 0 -0.8837189072437468 -30.108270848343636 0 -30.108270848343636 25.32537170047101 0 0 0 0 14.674725215098576 -21.798847831293401 0 -21.798847831293401 5.8261148693788565 0 0 0 0 -10.275539182446664 -50.427659790859252 0 -50.427659790859252 -37.71979724830635 0 0 0 0 35.565699387334462 -34.817281007477504 0 -34.817281007477504 -109.48110761873204 0 0 0 0 0.29680181934352845 0.70858230473505657 0 0.70858230473505657 -0.4132030273630285 0 0 0 0 18.043217027268838 -21.463321753577475 0 -21.463321753577475 0.37712218948126974 0 0 0 0 16.597901921268203 -25.674254911562457 0 -25.674254911562457 -9.9740159444681922 0 0 0 0 30.478615181076748 -38.375141286435792 0 -38.375141286435792 -29.812704864954867 0 0 0 0 2.8662361026945291 -47.806870412959142 0 -47.806870412959142 -27.008169952334356 0 0 0 0 1.0384361766000723 0.33018812317064139 0 0.33018812317064139 -4.8466170060654061 0 0 0 0 -5.0246377709063381 -24.194212181412695 0 -24.194212181412695 -33.441581657436473 0 0 0 0 18.816618674318306 -40.284736422359856 0 -40.284736422359856 -39.143792732756992 0 0 0 0 28.020892427724903 -39.396535086285439 0 -39.396535086285439 -20.732108372439143 0 0 0 0 18.289578178999363 -52.042167796076683 0 -52.042167796076683 -19.047012769602588 0 0 0 0 11.648748829502438 -43.329003784825545 0 -43.329003784825545 -21.60069327151723 0 0 0 0 11.809157649899134 -37.048949710915167 0 -37.048949710915167 -16.924201160476514 0 0 0 0 15.364642207263387 -47.124394059164842 0 -47.124394059164842 -22.720960100694356 0 0 0 0 5.5223031980131054 -46.302307881687739 0 -46.302307881687739 -19.875809050523458 0 0 0 0 45.73088636801549 -39.2946527826889 0 -39.2946527826889 -36.557667155665513 0 0 0 0 4.4458655320968319 -17.737158579820516 0 -17.737158579820516 18.334315482565216 0 0 0 0 -2.0525151506008115 -48.415602861671687 0 -48.415602861671687 -34.540002683119383 0 0 0 0 0.47841227161440258 -3.6902559736618699 0 -3.6902559736618699 4.8598194895714126 0 0 0 0 22.662791884446051 -28.284893013857072 0 -28.284893013857072 -92.692599009601736 0 0 0 0 13.82912753121127 -18.668577529061849 0 -18.668577529061849 -10.709857054622262 0 0 0 0 3.9285155911347829 -41.521332974658435 0 -41.521332974658435 -14.421686559810041 0 0 0 0 35.943518972402671 -22.497657920697748 0 -22.497657920697748 -11.2318032998337 0 0 0 0 36.552471658651484 12.298709348899138 0 12.298709348899138 -2.7451819970474389 0 0 0 0 1.9196039598487324 -7.4575251516784533 0 -7.4575251516784533 -1.4606172070902446 0 0 0 0 -150.77749195147044 -18.323075096761841 0 -18.323075096761841 94.931291162822163 0 0 0 0 42.63908000192896 2.6600842982124959 0 2.6600842982124959 -25.770830601903981 0 0 0 0 -132.81725980854753 -43.396449179087085 0 -43.396449179087085 113.61133931784934 0 0 0 0 -17.122362599562621 -77.769280241273918 0 -77.769280241273918 -55.328047194449027 0 0 0 0 48.47066186748998 -165.90447959130597 0 -165.90447959130597 49.610509851641837 0 0 0 0 -18.08838388516233 -72.78697178339462 0 -72.78697178339462 -79.993667871520302 0 0 0 0 2.8490923858769293 -24.264695492589617 0 -24.264695492589617 16.663315411113068 0 0 0 0 -6.6202677001494976 -26.496142273978727 0 -26.496142273978727 16.490547225721144 0 0 0 0 9.1653925396094564 -59.902052943292802 0 -59.902052943292802 -1.0680599751940463 0 0 0 0 -29.992158195542288 -45.255885280844723 0 -45.255885280844723 45.508822213904978 0 0 0 0 48.958956455576597 -0.37246418449048235 0 -0.37246418449048235 -57.16619510919827 0 0 0 0 -1.1533885092444507 -4.4468180708608358 0 -4.4468180708608358 -3.0030848228132037 0 0 0 0 55.850280374535942 -52.163522269038367 0 -52.163522269038367 16.790306983275514 0 0 0 0 -20.488060273310111 -80.813143418057734 0 -80.813143418057734 64.593686255832836 0 0 0 0 3.5550689637821051 -120.33351445347125 0 -120.33351445347125 23.749001083846451 0 0 0 0 7.1682751794724027 -84.250882610303961 0 -84.250882610303961 -46.980844717030777 0 0 0 0 6.4762665112430113 -73.717769185255747 0 -73.717769185255747 16.914870513994401 0 0 0 0 3.8368542450270979 -59.777674943132524 0 -59.777674943132524 -8.1488564117989881 0 0 0 0 -24.590478642217931 -64.612879050390802 0 -64.612879050390802 15.539814798511543 0 0 0 0 11.736679682799149 -45.775098292716848 0 -45.775098292716848 5.6905371163265954 0 0 0 0 7.4786529793564114 -44.474113802811189 0 -44.474113802811189 7.3847034218460976 0 0 0 0 -9.7803819615255634 -38.121553481549 0 -38.121553481549 3.6002553423213612 0 0 0 0 -13.626699928196771 -23.174300639409722 0 -23.174300639409722 -25.057794483346925 0 0 0 0 -6.4031394280045788 -43.61869488689166 0 -43.61869488689166 0.70632583494170831 0 0 0 0 -31.218743310702848 -30.23785367518758 0 -30.23785367518758 3.8419535049142723 0 0 0 0 -11.872131353644363 -53.210201238518948 0 -53.210201238518948 25.58012069918459 0 0 0 0 -6.243968962575309 -38.104424911281967 0 -38.104424911281967 -34.995715504308464 0 0 0 0 16.261990619687708 -19.264759741093812 0 -19.264759741093812 -41.116254946725462 0 0 0 0 -6.3399180054554733 -22.516494942214667 0 -22.516494942214667 0.38920077321694713 0 0 0 0 -6.9253112516962574 -38.768698175440477 0 -38.768698175440477 -41.793439491805657 0 0 0 0 -6.0690721989551548 -19.524472208368739 0 -19.524472208368739 5.1633984160850694 0 0 0 0 -7.0302077291999012 -22.891406832204666 0 -22.891406832204666 -6.6993626006806153 0 0 0 0 -11.022871801047586 -30.939459806279046 0 -30.939459806279046 -36.915719920827542 0 0 0 0 13.32703447777952 -37.848991118234295 0 -37.848991118234295 24.116294925753856 0 0 0 0 -10.247924233467643 -29.273010206627546 0 -29.273010206627546 20.979695098910518 0 0 0 0 43.787365910888184 3.8767941785627045 0 3.8767941785627045 57.226247839480493 0 0 0 0 97.845261615992058 27.905628363092546 0 27.905628363092546 60.166810785856796 0 0 0 0 -27.71532906050561 -24.338742524603731 0 -24.338742524603731 58.795885859319242 0 0 0 0 38.058295625785831 -14.304954899576842 0 -14.304954899576842 52.515905566251604 0 0 0 0 37.390597949182848 -12.74741585276206 0 -12.74741585276206 49.47364036514773 0 0 0 0 45.849462314421544 -25.445146878460946 0 -25.445146878460946 52.94417134449759 0 0 0 0 4.5146880128072127 -24.874993531906988 0 -24.874993531906988 2.0323013015823506 0 0 0 0 116.32302796331351 5.072051020397339 0 5.072051020397339 46.813299621193437 0 0 0 0 126.06834199646255 38.177988067371189 0 38.177988067371189 47.292596069979481 0 0 0 0 -31.12695290670672 -42.242840598582006 0 -42.242840598582006 -126.87879657154008 0 0 0 0 -36.450311845292163 -35.132634995063199 0 -35.132634995063199 -17.093565073755599 0 0 0 0 -3.0506061338620611 -5.5295409796683588 0 -5.5295409796683588 -5.0363348474518652 0 0 0 0 9.2928922711726045 -53.702442337855246 0 -53.702442337855246 -27.343841175827038 0 0 0 0 10.402102882979989 -19.804820432794621 0 -19.804820432794621 19.995822084216805 0 0 0 0 7.140320044971304 -120.34625668492299 0 -120.34625668492299 -88.388740028798566 0 0 0 0 -23.8440211238958 -95.700313059382097 0 -95.700313059382097 -126.89935242052161 0 0 0 0 -59.520850436369074 -8.9191755901338183 0 -8.9191755901338183 51.670072883875036 0 0 0 0 4.9096822853545063 -6.697510681117218 0 -6.697510681117218 1.1951775216760012 0 0 0 0 -3.6661034318713064 -35.549995249578387 0 -35.549995249578387 1.0968941243190784 0 0 0 0 -5.704009296692675 -19.686908076691907 0 -19.686908076691907 46.960727717756527 0 0 0 0 -34.929867801525688 39.94507702921328 0 39.94507702921328 -270.31755850132322 0 0 0 0 -61.003364019064577 9.4567262250391337 0 9.4567262250391337 -239.86486818220874 0 0 0 0 -61.136588518557886 -28.267534952973648 0 -28.267534952973648 -215.02186296744912 0 0 0 0 -24.014717336423928 -80.742901688092388 0 -80.742901688092388 -154.07431704459304 0 0 0 0 53.537997835752321 -155.06642850826756 0 -155.06642850826756 -168.20042553476378 0 0 0 0 31.182906738373276 -75.054262777881377 0 -75.054262777881377 -195.89690963157045 0 0 0 0 7.4158568882630789 -33.64570756885405 0 -33.64570756885405 -265.30471116030822 0 0 0 0 82.713200878570206 -22.577995086972805 0 -22.577995086972805 -416.97653036136762 0 0 0 0 138.88425136907608 -286.54606646136381 0 -286.54606646136381 -692.03503662540606 0 0 0 0 -75.133731028006878 -98.970423756851233 0 -98.970423756851233 -33.300433516356861 0 0 0 0 56.699084193576709 58.427604007596528 0 58.427604007596528 -433.51430516882101 0 0 0 0 -1.3907702809641194 -11.296300436444412 0 -11.296300436444412 -0.84989571765677852 0 0 0 0 -43.416221458290238 -47.778855283424491 0 -47.778855283424491 27.377400610639597 0 0 0 0 -107.62960850537638 -107.40543011323098 0 -107.40543011323098 -2.941998668044107 0 0 0 0 -61.909135896654334 -68.615347456094241 0 -68.615347456094241 28.216030421463074 0 0 0 0 -54.989223294578551 -73.946531569945364 0 -73.946531569945364 4.9395355157903396 0 0 0 0 -49.22536668687826 -72.816244403933524 0 -72.816244403933524 4.6925507282285253 0 0 0 0 -72.305292902194196 -81.467377006265451 0 -81.467377006265451 16.119363719597459 0 0 0 0 -44.018480556247596 -117.09669683106313 0 -117.09669683106313 -67.582094171484641 0 0 0 0 -42.075954626896419 -108.97754005980096 0 -108.97754005980096 -34.719531392234785 0 0 0 0 -78.631623761670198 -101.27096363081364 0 -101.27096363081364 -9.1481652565603326 0 0 0 0 -82.277480463901156 -149.4250699981385 0 -149.4250699981385 -61.107905767057673 0 0 0 0 -47.86753291630157 -195.24586187589375 0 -195.24586187589375 -117.66135384629888 0 0 0 0 -95.047784158610739 -108.17753230191738 0 -108.17753230191738 -98.180701212018903 0 0 0 0 -45.979990408624872 -238.38311230506952 0 -238.38311230506952 -811.4165042268869 0 0 0 0 -165.83513169741491 -230.81173650595883 0 -230.81173650595883 -181.43421324943483 0 0 0 0 239.56628315441776 576.24228342730203 0 576.24228342730203 -549.26488580789737 0 0 0 0 -20.64826989615176 -100.34497126951374 0 -100.34497126951374 -59.251184673747048 0 0 0 0 22.689802960492671 -140.46861851666836 0 -140.46861851666836 37.174443515526036 0 0 0 0 -9.6374768798996229 284.61494828848663 0 284.61494828848663 140.37365667986887 0 0 0 0 39.87884997711808 -8.3138071273097012 0 -8.3138071273097012 6.6145182948603178 0 0 0 0 25.226392156560905 21.16699477479051 0 21.16699477479051 -52.631391237388016 0 0 0 0 28.935153265148983 -128.95616896578395 0 -128.95616896578395 -97.679149360268639 0 0 0 0 6.1331317988242731 -2.4168205442751827 0 -2.4168205442751827 -0.059437923173206286 0 0 0 0 -39.366229245995783 -26.155106396844531 0 -26.155106396844531 -28.422826880181674 0 0 0 0 32.493152338316577 -82.719156544941143 0 -82.719156544941143 -17.417138595286815 0 0 0 0 -21.178285107707779 -98.247693417182745 0 -98.247693417182745 -15.273739785770886 0 0 0 0 91.249710573756602 -20.869689642238882 0 -20.869689642238882 -119.52364049716562 0 0 0 0 -56.576627122136415 -53.87025534177701 0 -53.87025534177701 -0.15459921863657655 0 0 0 0 -1.8829485313472105 -65.834984203360364 0 -65.834984203360364 1.0489113407020341 0 0 0 0 -17.388731693819864 -19.019771557193508 0 -19.019771557193508 12.947882601831225 0 0 0 0 -7.5523163957986981 -39.476899184621288 0 -39.476899184621288 -60.417535825145023 0 0 0 0 8.1989378554254984 -16.330881360870393 0 -16.330881360870393 7.0273933067508167 0 0 0 0 -1.3103308938218134 -15.990900680462612 0 -15.990900680462612 17.193323232094933 0 0 0 0 -44.852806563401828 3.3294605370683712 0 3.3294605370683712 48.578557947577792 0 0 0 0 -52.379709995235316 -44.014757632969122 0 -44.014757632969122 12.438173767995067 0 0 0 0 -16.03212292297394 -24.536335123746539 0 -24.536335123746539 56.292684779818956 0 0 0 0 -38.229524271358969 -42.268378830020083 0 -42.268378830020083 44.618511830003627 0 0 0 0 -40.156236993527273 -14.549920672070584 0 -14.549920672070584 52.462975249829469 0 0 0 0 -22.99456134592765 -31.088225317260367 0 -31.088225317260367 63.888108373808791 0 0 0 0 -29.028052419191226 -23.90093368980888 0 -23.90093368980888 57.018270893662702 0 0 0 0 -33.117475418373942 -47.70113287793356 0 -47.70113287793356 28.241386754394526 0 0 0 0 -35.995737971043127 -51.911087254435188 0 -51.911087254435188 41.045231992466142 0 0 0 0 -30.390925816551317 -35.642550978787767 0 -35.642550978787767 26.482711940654553 0 0 0 0 -65.778734743624227 -63.41734649411228 0 -63.41734649411228 29.84501778986305 0 0 0 0 -38.75936018145876 -64.549552090262296 0 -64.549552090262296 -8.0165254169992295 0 0 0 0 -44.117743773778784 -60.113101494902367 0 -60.113101494902367 5.1866277370645548 0 0 0 0 -31.266454184995382 -71.297860910788586 0 -71.297860910788586 -78.656369757100038 0 0 0 0 -20.332897440843226 -23.937288593138874 0 -23.937288593138874 10.142664518825768 0 0 0 0 -45.188012140781211 -58.214022293639573 0 -58.214022293639573 3.5047344712074846 0 0 0 0 -62.180515837011626 -34.884197451108776 0 -34.884197451108776 13.969392196549961 0 0 0 0 -62.190107674643514 -29.972897685291173 0 -29.972897685291173 127.17591448871281 0 0 0 0 -50.645458274666453 -91.912716407556218 0 -91.912716407556218 52.246761788097501 0 0 0 0 2.9210054416715536 -19.183015694923455 0 -19.183015694923455 0.39509843983030191 0 0 0 0 5.4933193691249471 -20.249190134665696 0 -20.249190134665696 -27.779756036190179 0 0 0 0 -35.964916134849773 -61.127484841405931 0 -61.127484841405931 -30.423291056395101 0 0 0 0 -15.959372817545955 -50.461838693678146 0 -50.461838693678146 -25.042724589307909 0 0 0 0 26.937366884347284 -78.634424893383766 0 -78.634424893383766 -37.507445637289493 0 0 0 0 16.362058727751133 -18.364969124695541 0 -18.364969124695541 1.5628077783169281 0 0 0 0 78.547934439673554 19.733468110910962 0 19.733468110910962 -59.088816558087274 0 0 0 0 29.307783494907198 -31.379692119539868 0 -31.379692119539868 -9.7433246306973729 0 0 0 0 1.4270592302829641 1.0902593576658433 0 1.0902593576658433 -7.4030367838273108 0 0 0 0 12.258624261670775 -30.81771785177807 0 -30.81771785177807 -3.9185348966930178 0 0 0 0 278.0246838007879 -193.92049052125731 0 -193.92049052125731 -298.89802911139759 0 0 0 0 748.49731132600573 106.97097983016101 0 106.97097983016101 -188.41884858003687 0 0 0 0 -76.281288808553654 -161.00227584544882 0 -161.00227584544882 -83.920711286191363 0 0 0 0 -253.78127736502938 -138.93667159095457 0 -138.93667159095457 292.31819129165888 0 0 0 0 -18.231190411432181 43.121332807175349 0 43.121332807175349 415.88471930495507 0 0 0 0 -26.766483227795106 -91.576106345430162 0 -91.576106345430162 114.16862600047261 0 0 0 0 -34.016685721209797 17.899539196484511 0 17.899539196484511 93.40256133863295 0 0 0 0 4.0885244145756587 106.46976666523187 0 106.46976666523187 99.971007239520986 0 0 0 0 -5.8161025567314937 -17.835677404467788 0 -17.835677404467788 133.55944420376909 0 0 0 0 40.629862180503551 -273.59774970246508 0 -273.59774970246508 -206.08717610395979 0 0 0 0 -30.726316266074718 -3.5868527869015452 0 -3.5868527869015452 -89.484176787944307 0 0 0 0 15.052378003521881 -21.016990223346056 0 -21.016990223346056 15.790046774002803 0 0 0 0 -117.85320592983044 101.65478516089115 0 101.65478516089115 -211.19586511145462 0 0 0 0 21.801314640702515 -25.438537700777122 0 -25.438537700777122 -7.2143257861702565 0 0 0 0 11.066445586366171 -42.196918328058018 0 -42.196918328058018 10.145265592626629 0 0 0 0 -30.188218361490186 48.642046567638914 0 48.642046567638914 -9.2257696047909121 0 0 0 0 -2.8795229358130427 -18.642120400524739 0 -18.642120400524739 -16.062955868496029 0 0 0 0 -18.192987075599376 -16.634008427870867 0 -16.634008427870867 -20.609070566408718 0 0 0 0 -32.766810444751172 -50.633736283702092 0 -50.633736283702092 23.256139877616079 0 0 0 0 -66.879045642293931 -78.309064303624837 0 -78.309064303624837 25.242855406988383 0 0 0 0 -39.853009391837986 -54.375351808745108 0 -54.375351808745108 21.576583899164689 0 0 0 0 16.832104729284765 -68.853011579856684 0 -68.853011579856684 -13.867660803886793 0 0 0 0 -21.283943422527955 -98.180397640024239 0 -98.180397640024239 -0.12337545993068488 0 0 0 0 -130.27783563693811 -110.25048553708439 0 -110.25048553708439 5.2745011403076205 0 0 0 0 62.955531839692412 -1.0004501599296418 0 -1.0004501599296418 -4.1729151058061689 0 0 0 0 -109.12379437131858 -16.04765461082161 0 -16.04765461082161 -30.497813603782561 0 0 0 0 30.115668080907199 -9.1282328821762349 0 -9.1282328821762349 -140.24763616574637 0 0 0 0 126.79996042890707 -42.98586747158879 0 -42.98586747158879 -152.91697384881263 0 0 0 0 3.4482817290478636 -0.63573274036522154 0 -0.63573274036522154 0.49063110698952883 0 0 0 0 140.02481972542955 -93.116460326492415 0 -93.116460326492415 -76.21633167211985 0 0 0 0 16.695949170461972 -65.170443505336152 0 -65.170443505336152 -17.158663293212157 0 0 0 0 66.73813197596246 -108.80726397287026 0 -108.80726397287026 5.2851612485319492 0 0 0 0 94.99963428171759 -187.15105362686518 0 -187.15105362686518 193.66715587412 0 0 0 0 1.1731178725120159 -2.5780226057543771 0 -2.5780226057543771 5.9060009660801711 0 0 0 0 206.53247148511946 -127.40461040002447 0 -127.40461040002447 -73.354230416933206 0 0 0 0 -36.509547236735671 95.738957879838381 0 95.738957879838381 198.91933729802827 0 0 0 0 135.68344325668295 -52.391818006650283 0 -52.391818006650283 -145.5529591103853 0 0 0 0 158.40534110969747 -55.805679029301018 0 -55.805679029301018 -145.64637889942605 0 0 0 0 -49.60786652780007 -2.7819202644948291 0 -2.7819202644948291 15.345545692007363 0 0 0 0 -48.920439095142683 12.494674269833467 0 12.494674269833467 47.548048327669676 0 0 0 0 -47.903259455066291 4.4210261003390769 0 4.4210261003390769 19.244652692435011 0 0 0 0 -216.79052173265882 -50.744896159968448 0 -50.744896159968448 102.2488729903198 0 0 0 0 2.9960257096084177 -9.4521953493280151 0 -9.4521953493280151 22.479052307397644 0 0 0 0 2.2743900420463632 -6.6166699995037419 0 -6.6166699995037419 16.503523729941314 0 0 0 0 -146.14866567902936 -34.647819778087978 0 -34.647819778087978 82.516354333641175 0 0 0 0 -218.73868001539813 -207.38260273365222 0 -207.38260273365222 163.77593319723383 0 0 0 0 177.73953857941524 -73.224893776283352 0 -73.224893776283352 -60.111377146793529 0 0 0 0 -167.52281771138223 -7.3223768577663577 0 -7.3223768577663577 19.847423680491374 0 0 0 0 2.1963110210333667 -3.8622553632826708 0 -3.8622553632826708 6.5795060235819989 0 0 0 0 42.278905335988384 -5.3704449681317783 0 -5.3704449681317783 -52.452098795956772 0 0 0 0 273.82308084677788 -107.92750337760663 0 -107.92750337760663 -45.40029732720609 0 0 0 0 -30.032985747267958 25.576104075475087 0 25.576104075475087 176.4038146221792 0 0 0 0 165.57749673012495 -151.21441579017733 0 -151.21441579017733 108.50392393436778 0 0 0 0 7.6403896912103164 -11.062478945044333 0 -11.062478945044333 16.566312384121275 0 0 0 0 -65.359137546247439 -114.07015883915619 0 -114.07015883915619 67.578182535278756 0 0 0 0 -95.764700846737469 44.815349610984413 0 44.815349610984413 220.9982172078453 0 0 0 0 -54.793600700155366 189.8091711175814 0 189.8091711175814 555.33500784779972 0 0 0 0 -58.122590928396676 -123.59242306325086 0 -123.59242306325086 -186.3167683409265 0 0 0 0 -41.198058769805357 -268.31510362248991 0 -268.31510362248991 90.677023153062692 0 0 0 0 -118.27067297194117 -15.529963634860678 0 -15.529963634860678 224.82555420790595 0 0 0 0 313.45660819640034 -175.94826381994244 0 -175.94826381994244 132.99125028964045 0 0 0 0 82.187640670352266 -54.454261177968874 0 -54.454261177968874 75.460559663577442 0 0 0 0 -14.544232363849005 -213.6250797490884 0 -213.6250797490884 496.59422184002688 0 0 0 0 -245.54110468981526 -13.496275276853339 0 -13.496275276853339 378.67780747449069 0 0 0 0 181.11997286036058 -225.81713118974176 0 -225.81713118974176 153.32415759985815 0 0 0 0 0.0072659170416216057 1.1851052177404853 0 1.1851052177404853 1.0731597158971589 0 0 0 0 158.75943599145467 582.36685584272379 0 582.36685584272379 -223.86128147018462 0 0 0 0 -149.86154945395538 -174.59265884344859 0 -174.59265884344859 859.68748877455073 0 0 0 0 48.743160112549958 -29.425929832716065 0 -29.425929832716065 358.21264814710048 0 0 0 0 33.206229855819402 -104.5894088367977 0 -104.5894088367977 426.7544433568728 0 0 0 0 103.62695835491832 -80.391397961258008 0 -80.391397961258008 251.99998434792724 0 0 0 0 42.886366510545486 -125.87631996441814 0 -125.87631996441814 412.91417401020044 0 0 0 0 -0.059594856128171614 1.3267588967830619 0 1.3267588967830619 6.6034350615142188 0 0 0 0 -239.49614352673962 134.95342561316647 0 134.95342561316647 -42.847399594857052 0 0 0 0 431.7481458975526 171.18081497888488 0 171.18081497888488 130.64590744888847 0 0 0 0 -29.94668927724706 162.92575899258372 0 162.92575899258372 611.96574026280723 0 0 0 0 -3.9091541532788803 1.7798706494349545 0 1.7798706494349545 16.529879028766828 0 0 0 0 -165.68246067337532 -14.854376577512085 0 -14.854376577512085 314.94420987704143 0 0 0 0 41.526635311260179 -326.46584577925751 0 -326.46584577925751 683.61959735922528 0 0 0 0 -62.131334616307868 -65.214982290886837 0 -65.214982290886837 97.063476573861408 0 0 0 0 -137.96938795268943 -51.830259065864084 0 -51.830259065864084 319.4403727773024 0 0 0 0 147.84826812062238 163.54829184807022 0 163.54829184807022 -96.586746219560155 0 0 0 0 -98.549406761179853 -22.576101632285827 0 -22.576101632285827 -79.058882649063889 0 0 0 0 -119.8688175429852 332.6837842982859 0 332.6837842982859 -353.17670850886498 0 0 0 0 -105.11556533236899 83.594448111074598 0 83.594448111074598 -110.5573859874421 0 0 0 0 -4.8279015673397225 -28.902762336648266 0 -28.902762336648266 -13.585384289748617 0 0 0 0 83.986731880948355 -3.9978922973241424 0 -3.9978922973241424 2.584249575589638 0 0 0 0 -2.2868335692438002 -19.846619158246881 0 -19.846619158246881 -4.5275453452484271 0 0 0 0 3.7671144607499087 -4.197968197649999 0 -4.197968197649999 -0.50257423096040554 0 0 0 0 -11.314646829981939 86.722903303994826 0 86.722903303994826 -312.1788385969121 0 0 0 0 3.0134683708087806 -3.5227416615268368 0 -3.5227416615268368 -0.17443086206231229 0 0 0 0 115.83966892403259 136.46465895308211 0 136.46465895308211 -296.8229334385469 0 0 0 0 -508.59974241560121 -609.48946866567712 0 -609.48946866567712 115.77929767186288 0 0 0 0 327.03924922770238 711.01451091088529 0 711.01451091088529 -1662.5732110201134 0 0 0 0 106.98261646092578 49.586939064880426 0 49.586939064880426 173.09221176514984 0 0 0 0 49.063472718647972 165.0956898129989 0 165.0956898129989 -56.714674274822755 0 0 0 0 138.29265946381747 -35.946295851029959 0 -35.946295851029959 -14.672829005081439 0 0 0 0 104.60620197698881 -89.80958825162088 0 -89.80958825162088 12.385437604600156 0 0 0 0 471.30586353213221 -261.44677872825696 0 -261.44677872825696 89.091435341346369 0 0 0 0 4.7710222219466232 -221.52488551860006 0 -221.52488551860006 -133.7315964031659 0 0 0 0 123.87933346437057 -102.71496392114864 0 -102.71496392114864 -222.45564761517744 0 0 0 0 43.899201957159676 -146.90801637373443 0 -146.90801637373443 -101.49160301111988 0 0 0 0 127.01972812325403 -150.87054322288532 0 -150.87054322288532 -274.74964439498581 0 0 0 0 -17.836162415849685 -142.61504203880395 0 -142.61504203880395 33.796598606193584 0 0 0 0 54.261515981037519 -107.89478491667614 0 -107.89478491667614 -238.51765242501642 0 0 0 0 160.72228429760435 -262.87378321983851 0 -262.87378321983851 -56.576772662730946 0 0 0 0 -11.240754369136994 -202.31413729792257 0 -202.31413729792257 94.4731028199094 0 0 0 0 -11.985791836785211 -181.21769791324732 0 -181.21769791324732 221.1802220101381 0 0 0 0 -134.91861712216632 -121.78391100963381 0 -121.78391100963381 138.5309767991057 0 0 0 0 -26.240274858202611 -106.538631477124 0 -106.538631477124 -116.25831170830315 0 0 0 0 -118.77967222440202 10.693035614682231 0 10.693035614682231 177.2333750004891 0 0 0 0 -117.22985731564404 -114.33326730677436 0 -114.33326730677436 129.94575894356967 0 0 0 0 -124.36957633355996 -96.771073544970477 0 -96.771073544970477 351.74465334045817 0 0 0 0 110.36787960942092 -375.44793517839207 0 -375.44793517839207 510.99449628013463 0 0 0 0 -105.54906945354742 0.39652881868460099 0 0.39652881868460099 291.24996577298771 0 0 0 0 -50.802608258702094 -64.521281403629473 0 -64.521281403629473 330.90651452447855 0 0 0 0 4.2160134017540258 62.467489893371749 0 62.467489893371749 607.66904480855783 0 0 0 0 153.71750365539629 284.24335450830404 0 284.24335450830404 -287.70464931148308 0 0 0 0 -147.63868230026128 17.110152562599978 0 17.110152562599978 350.88622863554792 0 0 0 0 -0.58624584784141121 -1.0083048414705011 0 -1.0083048414705011 2.935459333187616 0 0 0 0 -153.46574754530593 66.020439026355234 0 66.020439026355234 273.71313693934007 0 0 0 0 -138.85834342623639 55.075739177085779 0 55.075739177085779 223.07204883398845 0 0 0 0 -131.12581774729915 -11.32794172042486 0 -11.32794172042486 302.85069304521312 0 0 0 0 -284.2901342995101 -179.1760530601714 0 -179.1760530601714 85.509405412155502 0 0 0 0 -149.4011785126122 -175.93149635308282 0 -175.93149635308282 75.925508248590631 0 0 0 0 1.4901623031926619 -3.4665087784366477 0 -3.4665087784366477 5.5415298484164026 0 0 0 0 53.940385055720981 44.148611999145942 0 44.148611999145942 9.0309461266879225 0 0 0 0 109.74978160462342 2.2932091372331342 0 2.2932091372331342 -40.321590301173273 0 0 0 0 -299.96147222763966 -62.701563255147221 0 -62.701563255147221 60.493947019669577 0 0 0 0 -144.46326588621741 -69.211519869671974 0 -69.211519869671974 80.835173943196423 0 0 0 0 -0.078585546528508132 -5.19278844412122 0 -5.19278844412122 14.721491723389178 0 0 0 0 -97.965268199186539 -99.911618233452828 0 -99.911618233452828 83.594463150069714 0 0 0 0 0.64010598379536532 -110.46100844053581 0 -110.46100844053581 56.451158167958056 0 0 0 0 114.72196722670469 -61.769654600369677 0 -61.769654600369677 -53.2286458052331 0 0 0 0 -1.5253033596673049 -6.8033361861853336 0 -6.8033361861853336 -75.377106218758854 0 0 0 0 -331.20613166761177 8.0740604574857571 0 8.0740604574857571 -74.239748787367716 0 0 0 0 -102.76164031727967 -12.518571663922557 0 -12.518571663922557 -3.9174424550219555 0 0 0 0 -1.8530810729337048 -1.5490371369658185 0 -1.5490371369658185 2.289445033706798 0 0 0 0 -112.79601818411174 -65.85165580229841 0 -65.85165580229841 -38.628892453441949 0 0 0 0 -276.94528068353611 -96.457158346578581 0 -96.457158346578581 68.894795260632236 0 0 0 0 -113.72266529031913 -33.654505260132282 0 -33.654505260132282 99.921011830248233 0 0 0 0 28.575107074944754 -200.60240890369278 0 -200.60240890369278 96.637945577705977 0 0 0 0 -82.545164774783188 -16.454482668717901 0 -16.454482668717901 -1.3882640019510291 0 0 0 0 -298.30834517163748 -41.775499076018605 0 -41.775499076018605 77.888283717453305 0 0 0 0 -181.25280413396831 -111.54264931789658 0 -111.54264931789658 64.862849403605651 0 0 0 0 0.014327649512786422 -0.6275078027372416 0 -0.6275078027372416 6.943918383134843 0 0 0 0 8.1860522392453277 18.014147892801702 0 18.014147892801702 751.33299387749867 0 0 0 0 204.91308082242904 -131.93326036807048 0 -131.93326036807048 -84.053783586185091 0 0 0 0 -197.88634316239768 12.955319609174694 0 12.955319609174694 14.463802839469281 0 0 0 0 354.41847964309272 -290.68243193806484 0 -290.68243193806484 73.19666674862674 0 0 0 0 99.437446785312204 -307.76904889750767 0 -307.76904889750767 176.23192572150583 0 0 0 0 280.12831904481936 -445.08802031274445 0 -445.08802031274445 231.67495509234141 0 0 0 0 241.39156284367346 -268.53440498225245 0 -268.53440498225245 121.39644298888516 0 0 0 0 155.66158324454955 -342.25462644301842 0 -342.25462644301842 128.436733585404 0 0 0 0 191.2934682645282 -433.5810182739533 0 -433.5810182739533 319.12681768236871 0 0 0 0 -69.499045440003101 -115.27979984368721 0 -115.27979984368721 404.32940753800267 0 0 0 0 33.56120108054165 -185.19825600455806 0 -185.19825600455806 125.23100909881168 0 0 0 0 98.672188736889439 -142.9387601972403 0 -142.9387601972403 -319.66050858112067 0 0 0 0 -110.49791188835297 -9.5999961380748573 0 -9.5999961380748573 32.377673177743418 0 0 0 0 45.676184083655244 -101.98769366599663 0 -101.98769366599663 -11.795544776665338 0 0 0 0 -141.28244492255544 -193.59199747004186 0 -193.59199747004186 -320.23169754219998 0 0 0 0 -30.545911496456029 -47.210562990896051 0 -47.210562990896051 -468.48467362516749 0 0 0 0 -185.43849088462957 -135.83194010930856 0 -135.83194010930856 -216.97817533027774 0 0 0 0 -171.97417482740639 -66.403717947236146 0 -66.403717947236146 -92.449360017981235 0 0 0 0 -74.43544003959687 -10.250189925285667 0 -10.250189925285667 -133.31556120731148 0 0 0 0 -223.84426232395163 -16.172366943616908 0 -16.172366943616908 6.3699365593711264 0 0 0 0 1.1208069185470322 -0.96191740256898584 0 -0.96191740256898584 -7.3405150422583887 0 0 0 0 2.7409124310301536 -13.453840354398277 0 -13.453840354398277 11.440365904326164 0 0 0 0 36.455996774413507 -66.395816024811211 0 -66.395816024811211 -91.03576420929312 0 0 0 0 32.070469569065608 -30.458071944238327 0 -30.458071944238327 -8.6834351448633242 0 0 0 0 -265.62270530906972 -84.429235517869529 0 -84.429235517869529 12.249197919125436 0 0 0 0 -202.88627805083161 -65.981176392400812 0 -65.981176392400812 -82.737352686413942 0 0 0 0 48.723595060095249 -35.454572613834898 0 -35.454572613834898 -18.381929405521078 0 0 0 0 -60.10863211339165 -10.912298193390598 0 -10.912298193390598 58.653320690082182 0 0 0 0 -13.618853986001341 -65.588404412064847 0 -65.588404412064847 -31.237728040413003 0 0 0 0 -13.516250866254268 -23.511715319058567 0 -23.511715319058567 -0.67375358806202712 0 0 0 0 -6.0862256666350731 -20.691136732033556 0 -20.691136732033556 -65.597413720890472 0 0 0 0 6.0388713179527258 -18.926303966663909 0 -18.926303966663909 -65.716624714237696 0 0 0 0 -310.70358946112538 -304.99776328316602 0 -304.99776328316602 -385.99097366217757 0 0 0 0 78.679633947918774 71.935359925397279 0 71.935359925397279 -72.032187647532737 0 0 0 0 -0.67579132934834973 1.0395954319910885 0 1.0395954319910885 -2.0951198612477384 0 0 0 0 16.913035911158659 -54.425152718657046 0 -54.425152718657046 6.4011784996910137 0 0 0 0 -101.75109602812154 -158.89632890534631 0 -158.89632890534631 -522.07192805660998 0 0 0 0 70.077233638687176 3.1162264573704306 0 3.1162264573704306 -397.97262451117058 0 0 0 0 -62.247060662950389 -314.9265679996206 0 -314.9265679996206 -445.915066310562 0 0 0 0 11.263329918145246 -190.99449924847977 0 -190.99449924847977 -288.15197155351052 0 0 0 0 -126.76700694983447 -267.35738178363135 0 -267.35738178363135 -305.25537269452343 0 0 0 0 -229.11738229398543 -138.43230609873717 0 -138.43230609873717 -360.81729511950107 0 0 0 0 -169.54809679586469 -195.06194204178428 0 -195.06194204178428 -343.83365500495347 0 0 0 0 -181.69779727763671 -244.85426696539616 0 -244.85426696539616 -448.78349268470402 0 0 0 0 -142.33546489191576 -290.08294974997443 0 -290.08294974997443 -477.86419893596394 0 0 0 0 -89.17962621562765 -279.77909776301385 0 -279.77909776301385 -494.48561635988335 0 0 0 0 -99.425946403946 -236.12191571839867 0 -236.12191571839867 -561.91715004766775 0 0 0 0 -81.812895932620449 -194.29455042957306 0 -194.29455042957306 -463.22487678781772 0 0 0 0 201.70630983286173 -120.38746323246869 0 -120.38746323246869 -158.89988166844705 0 0 0 0 -40.838143484368629 -166.7398026306364 0 -166.7398026306364 9.8713801316648642 0 0 0 0 133.50109653052277 -110.43922493328409 0 -110.43922493328409 205.73223310029061 0 0 0 0 93.135428266497911 -60.943623253314399 0 -60.943623253314399 201.64952182589332 0 0 0 0 124.34349344484508 -40.05006264583244 0 -40.05006264583244 -48.765777354803504 0 0 0 0 20.112318106410385 55.649485109726811 0 55.649485109726811 -55.012634406426514 0 0 0 0 -36.932677775141201 -49.113839602187909 0 -49.113839602187909 259.98181757137718 0 0 0 0 -40.198157287974027 173.78363172073659 0 173.78363172073659 139.73579292600152 0 0 0 0 28.865780903392988 -168.75465495336533 0 -168.75465495336533 -504.09478890893661 0 0 0 0 -426.30305457179929 -377.61837730995103 0 -377.61837730995103 -287.74684392853305 0 0 0 0 -3.8069670650816079 -1.2707450212428233 0 -1.2707450212428233 4.5042025815901674 0 0 0 0 -42.787158105071285 -272.56526778448006 0 -272.56526778448006 -392.73562508715804 0 0 0 0 -4.5744375322537962 -318.71863559741723 0 -318.71863559741723 -337.79284789351004 0 0 0 0 62.680002192835673 19.457906430106959 0 19.457906430106959 -115.08811088750372 0 0 0 0 -16.86801528867727 -34.118688497585026 0 -34.118688497585026 30.087208200653549 0 0 0 0 12.805334231884714 -19.612585768459887 0 -19.612585768459887 14.832425299081329 0 0 0 0 21.147572458063223 7.8829002250809026 0 7.8829002250809026 -297.28547027836976 0 0 0 0 2.6656798494457945 -2.7199932017805715 0 -2.7199932017805715 -5.025528487239157 0 0 0 0 4.0988941274767754 -4.0708929999739709 0 -4.0708929999739709 -4.9268384252924236 0 0 0 0 -67.803665577975153 -272.18854902595456 0 -272.18854902595456 -167.83575297060452 0 0 0 0 -47.816925236475072 -162.16623475618326 0 -162.16623475618326 -204.29981193802632 0 0 0 0 -113.86006882692163 -242.91954190169236 0 -242.91954190169236 -11.576479937786644 0 0 0 0 -1.8349866776989074 -202.10216957428565 0 -202.10216957428565 -364.66512497525764 0 0 0 0 2.3873882701959701 -14.270476537496146 0 -14.270476537496146 11.649549294031026 0 0 0 0 21.763478781092999 -15.383733248474527 0 -15.383733248474527 -66.596995860891184 0 0 0 0 -64.19878799453727 -314.45369909106375 0 -314.45369909106375 -204.92794386993967 0 0 0 0 7.4397920940692188 -7.5032239531491669 0 -7.5032239531491669 -0.027139028283997391 0 0 0 0 4.1512621626061446 -48.275376655135005 0 -48.275376655135005 -105.71334147545713 0 0 0 0 -27.223609623491939 -13.386832505628263 0 -13.386832505628263 -3.9830869318248006 0 0 0 0 -5.2173845306169824 -63.445711806494728 0 -63.445711806494728 -56.675525121861938 0 0 0 0 25.014545129386534 -201.21250288499868 0 -201.21250288499868 -284.03050093583352 0 0 0 0 26.066196875089418 -180.15556086709103 0 -180.15556086709103 -175.13517438977578 0 0 0 0 12.977858745576668 -20.433985791334635 0 -20.433985791334635 -208.78920934366033 0 0 0 0 14.661814548249822 -290.16894089527705 0 -290.16894089527705 -308.16038320943335 0 0 0 0 0.85282407707563834 -221.14189951887965 0 -221.14189951887965 -224.71532757533168 0 0 0 0 8.1703493723543943 -264.46135082869841 0 -264.46135082869841 -201.15003759985302 0 0 0 0 -63.528328104652246 -190.3723770992483 0 -190.3723770992483 -144.67441012751078 0 0 0 0 -93.817960107851832 -45.970126412634272 0 -45.970126412634272 210.355534317001 0 0 0 0 -0.19347047873452539 -148.34275449107008 0 -148.34275449107008 -124.52307486631435 0 0 0 0 0.71472690696828067 -190.36807865963783 0 -190.36807865963783 -132.06491424749402 0 0 0 0 9.0927399956563022 -188.36530163600764 0 -188.36530163600764 -83.046436027816526 0 0 0 0 7.3300614089932168 -15.407670751489249 0 -15.407670751489249 22.267971066772176 0 0 0 0 21.548478495493328 -49.41158370242556 0 -49.41158370242556 63.900489656960417 0 0 0 0 -105.80030499070654 -159.3315786473047 0 -159.3315786473047 -29.931416119172354 0 0 0 0 4.8106779546331069 -10.532944154308566 0 -10.532944154308566 16.456116875873164 0 0 0 0 -398.27264537504743 -263.49744098194333 0 -263.49744098194333 -67.496257556857017 0 0 0 0 -36.546117208661599 -128.92050507933072 0 -128.92050507933072 -115.64393124994967 0 0 0 0 376.53086257293762 -136.97536660179503 0 -136.97536660179503 19.983187451152048 0 0 0 0 330.18488856748809 -343.67586680149088 0 -343.67586680149088 -97.007040950029477 0 0 0 0 7.6245907104093931 -75.806321039208342 0 -75.806321039208342 14.453786723663939 0 0 0 0 2.4805732749586227 -4.2545196172432327 0 -4.2545196172432327 6.2538332567067272 0 0 0 0 1490.4535495762466 -144.35619955722905 0 -144.35619955722905 -42.260937500126602 0 0 0 0 427.34240049992331 -94.088262975707948 0 -94.088262975707948 1.4846333783243608 0 0 0 0 -101.94696340910741 -338.92697034108824 0 -338.92697034108824 -92.258153451599355 0 0 0 0 -634.34981199786125 -81.840622067046752 0 -81.840622067046752 188.9519644502343 0 0 0 0 -350.99809908991119 -457.53278334774723 0 -457.53278334774723 590.82841789117629 0 0 0 0 -175.47365745661955 -281.28216234324645 0 -281.28216234324645 -49.240953157211607 0 0 0 0 -126.9098353616846 -278.55734085532049 0 -278.55734085532049 -51.591056848137669 0 0 0 0 -40.71613545769651 -300.67996624573607 0 -300.67996624573607 -133.33093796108733 0 0 0 0 9.9869865346008737 -267.47423746457571 0 -267.47423746457571 -209.66757581812999 0 0 0 0 75.001897663400086 -367.47899484867321 0 -367.47899484867321 -154.59383438966324 0 0 0 0 -90.886819855320937 -442.19665479367359 0 -442.19665479367359 255.88851265806079 0 0 0 0 -177.98001828857741 -574.40535263265792 0 -574.40535263265792 235.45958575681288 0 0 0 0 -475.53785419012274 -688.9462045835844 0 -688.9462045835844 752.37708830044721 0 0 0 0 177.13262689284602 -891.10904281176045 0 -891.10904281176045 489.56242705342811 0 0 0 0 -555.24126976674233 -394.05651445969306 0 -394.05651445969306 524.8154970367209 0 0 0 0 -249.68818692456807 -574.20336531604698 0 -574.20336531604698 561.25098454609906 0 0 0 0 -112.08730568362262 -699.40081066605489 0 -699.40081066605489 581.19457670703014 0 0 0 0 -53.048540646137553 -406.23414393052553 0 -406.23414393052553 379.64732672307127 0 0 0 0 776.41642555337239 -272.44097438170866 0 -272.44097438170866 301.57807366112411 0 0 0 0 -193.25116890396384 -219.24846831417835 0 -219.24846831417835 -56.054815498153403 0 0 0 0 -384.46718621402579 -367.61712510924599 0 -367.61712510924599 -170.43995826862738 0 0 0 0 16.674409264687711 -180.97030227788491 0 -180.97030227788491 416.09541497156533 0 0 0 0 -366.41840403049173 -452.84959752766508 0 -452.84959752766508 232.05665836440312 0 0 0 0 -1.6303968121531369 -1.7884647240143536 0 -1.7884647240143536 -0.023364964536704669 0 0 0 0 -216.05500938332989 -429.29600556982314 0 -429.29600556982314 -715.22532116923321 0 0 0 0 -357.77664084449498 -430.11287041754076 0 -430.11287041754076 -414.83447821249138 0 0 0 0 -238.00529094792 -260.4279573386857 0 -260.4279573386857 -213.46967926518846 0 0 0 0 -161.86069461845182 -282.38341213460626 0 -282.38341213460626 -154.68858211925362 0 0 0 0 -162.23354775257758 -320.63768126114155 0 -320.63768126114155 -308.95479770989914 0 0 0 0 -31.575742858403828 -327.98086740732651 0 -327.98086740732651 -209.85718324708796 0 0 0 0 -53.316349698932754 -225.19275050924261 0 -225.19275050924261 -284.20534697307266 0 0 0 0 -55.736824623025313 -300.7260262774862 0 -300.7260262774862 43.86078257049121 0 0 0 0 -24.00322187724305 -349.72933416611886 0 -349.72933416611886 -182.04252073933185 0 0 0 0 11.20775587092794 -270.29697434930813 0 -270.29697434930813 -0.33454649780469481 0 0 0 0 378.27744539963169 -407.41179722676679 0 -407.41179722676679 16.212021427103764 0 0 0 0 -48.983111199988343 -338.67115310224108 0 -338.67115310224108 320.84025287232362 0 0 0 0 191.09564493365906 -674.30616999516496 0 -674.30616999516496 368.88781619571591 0 0 0 0 -197.99859196335819 -333.07529448435162 0 -333.07529448435162 180.75438880446745 0 0 0 0 -618.19520364564596 108.45994738522495 0 108.45994738522495 73.173160849390115 0 0 0 0 -451.89980547357118 -338.06803992886307 0 -338.06803992886307 55.327633123353735 0 0 0 0 199.22791933332337 -297.73802706625975 0 -297.73802706625975 222.4214531029221 0 0 0 0 -1.9173977183409008 -1.7378867830126126 0 -1.7378867830126126 -0.41811545492296887 0 0 0 0 -70.461751666989585 -27.523650647015529 0 -27.523650647015529 -32.262857346023338 0 0 0 0 -5.2123915900562423 -5.1463296412994595 0 -5.1463296412994595 -2.8743798345413012 0 0 0 0 285.37849099122104 -197.16804933726416 0 -197.16804933726416 37.249335729655286 0 0 0 0 457.21229325753666 -76.459962579870989 0 -76.459962579870989 67.812923761440288 0 0 0 0 -118.09482692083839 -390.10956299575628 0 -390.10956299575628 -57.376864202065917 0 0 0 0 136.82947516004788 3.1837950723020185 0 3.1837950723020185 -336.26121662190417 0 0 0 0 1.1240786342793001 -1.7096463349309516 0 -1.7096463349309516 3.1973865845187888 0 0 0 0 107.76493521610246 366.76172299036079 0 366.76172299036079 448.33052767581421 0 0 0 0 160.46160371854421 -180.85367207229774 0 -180.85367207229774 362.35364999722879 0 0 0 0 182.41928968428692 136.58061635722515 0 136.58061635722515 108.07634405792851 0 0 0 0 141.03633363498921 -167.40961608605494 0 -167.40961608605494 328.95027688566552 0 0 0 0 -21.580478657298954 -16.556428434687405 0 -16.556428434687405 -1.3115566169944941 0 0 0 0 29.308682533945102 -73.057851267758451 0 -73.057851267758451 -207.8377631751564 0 0 0 0 -364.14597337801752 42.292096647803191 0 42.292096647803191 -4.6497465574284433 0 0 0 0 -1.8886918259218533 -2.5260554021520818 0 -2.5260554021520818 -3.8882712948839924 0 0 0 0 -433.78061885895022 -100.38266998326071 0 -100.38266998326071 253.39159680029115 0 0 0 0 -122.15094801425585 -81.87398643789129 0 -81.87398643789129 191.66746320193306 0 0 0 0 -313.65506264495343 198.22519278366963 0 198.22519278366963 169.04696554299881 0 0 0 0 -141.92207704925386 -249.65269108590655 0 -249.65269108590655 -130.23507548208454 0 0 0 0 -93.011571792751056 -125.05319790990688 0 -125.05319790990688 103.88174268915827 0 0 0 0 -147.5451707015236 -109.49582140212442 0 -109.49582140212442 114.8953952170923 0 0 0 0 -33.218445555539802 -89.507754730166198 0 -89.507754730166198 59.461384444966825 0 0 0 0 -36.917430853725705 103.10603544138628 0 103.10603544138628 300.23473003919935 0 0 0 0 -47.667749437787279 -36.582384931180059 0 -36.582384931180059 9.4496549022478575 0 0 0 0 3.1833281556711199 -8.4725992814929381 0 -8.4725992814929381 4.0206199369742777 0 0 0 0 43.628589476662455 -1.3720166573148163 0 -1.3720166573148163 -46.594254772564454 0 0 0 0 -5.2883114092192471 -5.0752678219284491 0 -5.0752678219284491 0.95602512403687001 0 0 0 0 -36.067621611873619 -36.819847703340201 0 -36.819847703340201 1.8747919181350881 0 0 0 0 -12.040919335675426 -31.813229586263333 0 -31.813229586263333 -48.488625529495039 0 0 0 0 -11.698577349201585 -16.609821252034571 0 -16.609821252034571 2.7972367935805043 0 0 0 0 13.876320427202572 -6.3382511117525464 0 -6.3382511117525464 -6.7385533311776484 0 0 0 0 90.052570809173631 -42.82908150831463 0 -42.82908150831463 52.441659472762694 0 0 0 0 -1.6543653468979755 -80.777011419715564 0 -80.777011419715564 80.058245795558832 0 0 0 0 195.32936912321384 -241.10652166367618 0 -241.10652166367618 152.61947710919412 0 0 0 0 134.16581675552879 -89.640850402751312 0 -89.640850402751312 -26.304103834103444 0 0 0 0 -16.585963206263841 34.839440349333017 0 34.839440349333017 -2.0347225560926745 0 0 0 0 -32.533954828675633 36.41411790708662 0 36.41411790708662 -53.870465173225966 0 0 0 0 -4.0089134259518318 -2.3972745375069735 0 -2.3972745375069735 0.1104364815159613 0 0 0 0 -186.20558319339762 -174.25521520337315 0 -174.25521520337315 -158.12004477135406 0 0 0 0 -57.989317034396663 -169.34701456154835 0 -169.34701456154835 -305.15752066920686 0 0 0 0 -97.72856748332174 -400.29253646817938 0 -400.29253646817938 -878.4370875095774 0 0 0 0 -467.63820722054879 -559.66946544119673 0 -559.66946544119673 -343.71124307573882 0 0 0 0 -189.4091500845534 -37.669461769324698 0 -37.669461769324698 -619.07729823660156 0 0 0 0 -252.76127359838392 -140.99194096296287 0 -140.99194096296287 145.6353628230554 0 0 0 0 -6.9118786558115062 -3.8262366221772481 0 -3.8262366221772481 -2.2074769863371984 0 0 0 0 41.230022854309937 18.578001370597121 0 18.578001370597121 -64.509285520583035 0 0 0 0 89.455290973419324 -53.266741777581046 0 -53.266741777581046 -49.939405245193711 0 0 0 0 -18.638769338882796 -10.925960290141809 0 -10.925960290141809 -2.3092369088510392 0 0 0 0 -109.23167898521569 -212.63661737392431 0 -212.63661737392431 -156.92672606721135 0 0 0 0 -27.30534597370206 -56.703886247807532 0 -56.703886247807532 45.324642592771852 0 0 0 0 -47.882131123580621 -329.73539705151416 0 -329.73539705151416 -384.2935356264752 0 0 0 0 55.605476539280062 -194.29889117233415 0 -194.29889117233415 -227.51412651857572 0 0 0 0 50.541692861785123 -268.13292688399633 0 -268.13292688399633 -1128.2555587575271 0 0 0 0 -44.075111615478818 -459.6544959189996 0 -459.6544959189996 -497.79370297955575 0 0 0 0 -85.697018453149212 -503.24491399084764 0 -503.24491399084764 -437.63136710604522 0 0 0 0 -46.405911558209482 -472.9723621533285 0 -472.9723621533285 -559.68400364894478 0 0 0 0 -142.27654228522988 -409.63455726881512 0 -409.63455726881512 -234.97981272025208 0 0 0 0 -67.323122348694596 -285.01730323346601 0 -285.01730323346601 -264.02834923131195 0 0 0 0 17.482568404706399 -509.73123196907181 0 -509.73123196907181 -136.32862041497538 0 0 0 0 145.37788011495286 34.515924840262414 0 34.515924840262414 -37.314691543235313 0 0 0 0 -397.69409994555826 -624.74934778504939 0 -624.74934778504939 -505.91564475644191 0 0 0 0 8.5639935561848688 -328.99530206760664 0 -328.99530206760664 -375.15565301408424 0 0 0 0 91.819062248960108 376.82793145261167 0 376.82793145261167 -157.7456454935766 0 0 0 0 253.93313286831471 81.039020524491207 0 81.039020524491207 -3.3831355392721889 0 0 0 0 125.94939909750792 -49.098523366196787 0 -49.098523366196787 -54.355199353347416 0 0 0 0 361.87317911603168 62.39166974697946 0 62.39166974697946 -412.50493923792965 0 0 0 0 -268.94214391967216 -500.50185597940845 0 -500.50185597940845 -1386.8905061890073 0 0 0 0 7.4876588234983501 -313.68407018033759 0 -313.68407018033759 -54.625557354979037 0 0 0 0 -185.03022603952559 -27.555344862077618 0 -27.555344862077618 -465.92327940917312 0 0 0 0 -1172.4137953685531 -945.43899337338644 0 -945.43899337338644 -503.5068500538946 0 0 0 0 -81.652227115599089 -323.63403106835904 0 -323.63403106835904 -970.95296958309518 0 0 0 0 -98.426957375806523 -385.68670518515864 0 -385.68670518515864 -435.26236899756896 0 0 0 0 -241.62087229057943 -419.60227385382495 0 -419.60227385382495 -127.16998803364913 0 0 0 0 -95.832298070999968 -536.86727654614515 0 -536.86727654614515 -517.76405463420633 0 0 0 0 -502.67087283074943 -753.1689307843244 0 -753.1689307843244 -551.05525953151391 0 0 0 0 -113.51527015936881 -184.70669232970067 0 -184.70669232970067 2.5995763855280529 0 0 0 0 -854.46155377483228 158.2432064710365 0 158.2432064710365 -141.3689516308059 0 0 0 0 -84.52838797113418 259.50471626442595 0 259.50471626442595 485.2430600833577 0 0 0 0 -263.71592433572732 -246.29293600849542 0 -246.29293600849542 88.579606876672187 0 0 0 0 -92.395093519076909 -51.486236974305939 0 -51.486236974305939 -21.076083669106083 0 0 0 0 0.50207669946795619 -1.2770107601869736 0 -1.2770107601869736 1.624720697471858 0 0 0 0 -77.378151779419568 -268.88501186948633 0 -268.88501186948633 -148.99733950037398 0 0 0 0 -162.24312332472073 -286.85028559791499 0 -286.85028559791499 -55.920597888194607 0 0 0 0 -51.513862576659449 -137.79018570667176 0 -137.79018570667176 -65.076989127163984 0 0 0 0 -33.941589464441677 93.666713440976991 0 93.666713440976991 342.39445283531313 0 0 0 0 14.308321741202846 -8.9830551116812636 0 -8.9830551116812636 -2.3939141302770466 0 0 0 0 130.99194844606245 -34.844151242403314 0 -34.844151242403314 -234.07406257769981 0 0 0 0 -69.1290250261045 12.233201530789302 0 12.233201530789302 -5.6092507645271326 0 0 0 0 -12.108392906739027 -9.3435015569484676 0 -9.3435015569484676 0.68660289919716888 0 0 0 0 -2.6621895914378086 -3.6269695871924625 0 -3.6269695871924625 -0.53553492439124462 0 0 0 0 -0.53750783831232951 -7.1316286936110416 0 -7.1316286936110416 2.6597724135211038 0 0 0 0 -134.00191764033298 -9.5749929538887955 0 -9.5749929538887955 50.881778784882954 0 0 0 0 -54.570544537189562 -111.20003332417218 0 -111.20003332417218 15.633749052289204 0 0 0 0 -81.159154353605118 -85.31239404579901 0 -85.31239404579901 79.195617111016873 0 0 0 0 -211.70455535522433 275.60681451182131 0 275.60681451182131 184.46933092664767 0 0 0 0 -81.881790379833546 10.961729930033471 0 10.961729930033471 341.58672084544014 0 0 0 0 8.1369919079261308 23.371589667165608 0 23.371589667165608 16.617990773602742 0 0 0 0 -51.17359351455525 -3.6660567369917771 0 -3.6660567369917771 49.37831042050675 0 0 0 0 40.563663374829048 9.5094244156125569 0 9.5094244156125569 -16.096408232093381 0 0 0 0 9.7659662571513763 -33.521769771455183 0 -33.521769771455183 2.1861184966437577 0 0 0 0 11.13312803026929 -49.928024350212581 0 -49.928024350212581 67.78496097167681 0 0 0 0 -77.935849952868011 1.7564443595192643 0 1.7564443595192643 130.82885682746928 0 0 0 0 -8.6819711459429527 25.718537530541653 0 25.718537530541653 -190.32550388353047 0 0 0 0 -6.9366228913613099 -13.307042274343573 0 -13.307042274343573 1.5354045581889331 0 0 0 0 -219.60291987888922 252.61423685645786 0 252.61423685645786 -170.78251602789715 0 0 0 0 187.5230767176854 -289.96721191175948 0 -289.96721191175948 -128.68131886043921 0 0 0 0 -266.36204289356465 -123.97152705878034 0 -123.97152705878034 68.254727567138616 0 0 0 0 -63.623712159882416 -0.48441184885450639 0 -0.48441184885450639 0.26563430728492676 0 0 0 0 52.17776258262893 -121.92566170752616 0 -121.92566170752616 52.622211414713092 0 0 0 0 -219.05383094758781 48.653368519679134 0 48.653368519679134 39.890448380967428 0 0 0 0 120.24247504711821 -128.6987836569424 0 -128.6987836569424 11.03067296212248 0 0 0 0 -24.733430354057418 -26.388802171809402 0 -26.388802171809402 -43.278485899874795 0 0 0 0 -1.4143278422591266 -13.498846308378688 0 -13.498846308378688 -37.830109594640817 0 0 0 0 -34.283597723078856 -79.325167183180383 0 -79.325167183180383 -49.478254655839919 0 0 0 0 -30.717224846122633 56.882585768951117 0 56.882585768951117 -26.20723996992092 0 0 0 0 -238.67138150462415 117.90781597794194 0 117.90781597794194 18.234745836321963 0 0 0 0 -27.977286719687982 -81.110885537444119 0 -81.110885537444119 119.55463278965499 0 0 0 0 622.26120722998166 -76.362943093743525 0 -76.362943093743525 -43.265686140102844 0 0 0 0 -8.8680464878851808 -14.34918528577164 0 -14.34918528577164 1.6857557865379578 0 0 0 0 -69.140929412453261 -308.72039025726372 0 -308.72039025726372 67.739569700162974 0 0 0 0 -109.29731193104817 42.393116048433512 0 42.393116048433512 39.798726394921687 0 0 0 0 547.05673666017719 -86.111604205081676 0 -86.111604205081676 -56.000869196737767 0 0 0 0 0.034152344189983808 -0.028938150116395889 0 -0.028938150116395889 3.3774017193443342 0 0 0 0 146.07315399859363 -340.59806518412734 0 -340.59806518412734 3.8662813420814928 0 0 0 0 -176.1490227200411 -43.371702333177382 0 -43.371702333177382 98.920192221650723 0 0 0 0 -258.11686855687003 -27.688739677323611 0 -27.688739677323611 97.030200382672774 0 0 0 0 -101.32093645030727 -96.064055810667924 0 -96.064055810667924 14.414574050737428 0 0 0 0 0.8514118135574229 -1.9603900928849924 0 -1.9603900928849924 9.3062773105602759 0 0 0 0 -84.352025775544462 -59.538131940145831 0 -59.538131940145831 -30.191594594289199 0 0 0 0 65.181151017404773 -81.852998061460312 0 -81.852998061460312 21.420849499414544 0 0 0 0 98.671258669626695 -58.201478932105601 0 -58.201478932105601 30.683220773338689 0 0 0 0 8.6854404608129698 -33.186523703265266 0 -33.186523703265266 10.851885161629184 0 0 0 0 114.08474994325115 -54.558072916274796 0 -54.558072916274796 11.759093941218453 0 0 0 0 70.342261368547042 -96.519001548225788 0 -96.519001548225788 22.458957935338731 0 0 0 0 -13.083743752638384 -73.61584714199148 0 -73.61584714199148 34.279417934241792 0 0 0 0 61.46970011380472 -84.327545848216687 0 -84.327545848216687 25.340518311582855 0 0 0 0 34.71142209021491 -84.996175594329543 0 -84.996175594329543 25.615686956316495 0 0 0 0 52.475540896993152 -45.812450716945023 0 -45.812450716945023 7.4783280303381616 0 0 0 0 82.799926591278791 -104.07920068767453 0 -104.07920068767453 43.138934623719251 0 0 0 0 89.337402571001007 -41.018430583160239 0 -41.018430583160239 24.125201808044949 0 0 0 0 28.715257384075812 -86.043312655421687 0 -86.043312655421687 59.648394714895403 0 0 0 0 46.212614759118878 -102.41128955174463 0 -102.41128955174463 74.479042730428773 0 0 0 0 25.194675631555583 -25.208806249140252 0 -25.208806249140252 -6.2972289968563118 0 0 0 0 -40.94914739685737 -20.022719335219335 0 -20.022719335219335 80.036710312917421 0 0 0 0 -0.88325474280554772 0.47073928669006904 0 0.47073928669006904 1.6081971502934778 0 0 0 0 123.89135450400499 -122.84705133360512 0 -122.84705133360512 38.669148633205623 0 0 0 0 106.44394920141349 -159.5233488504673 0 -159.5233488504673 2.2589340989361517 0 0 0 0 58.998773391140276 -120.48315770161844 0 -120.48315770161844 275.53468656583573 0 0 0 0 -11.695576121117483 32.62637669529704 0 32.62637669529704 10.116476245948434 0 0 0 0 -2.0447761051491398 -21.599985048216695 0 -21.599985048216695 -6.3062464237118547 0 0 0 0 0.29172109025262927 -2.037419604252797 0 -2.037419604252797 -0.64212210996974761 0 0 0 0 -106.5397964170952 -36.784049027548463 0 -36.784049027548463 33.657675305021257 0 0 0 0 14.671002023991583 -16.739251550767264 0 -16.739251550767264 0.21102007929492572 0 0 0 0 27.017260520337004 -13.41368406192305 0 -13.41368406192305 -10.543556135049585 0 0 0 0 11.394781604413474 -1.58891156517425 0 -1.58891156517425 -11.555998543747435 0 0 0 0 -27.118564115055051 87.972279161102051 0 87.972279161102051 -10.54213961804453 0 0 0 0 10.765606692526489 33.02225878529589 0 33.02225878529589 -82.801051458904112 0 0 0 0 1.9162968152331885 -2.7588845871947854 0 -2.7588845871947854 4.7058711487605791 0 0 0 0 43.68673537190989 -115.46822525171774 0 -115.46822525171774 24.741870721336454 0 0 0 0 56.658641979451204 -11.067183728579039 0 -11.067183728579039 6.2638877705039704 0 0 0 0 -49.495480230618341 -43.084460752205814 0 -43.084460752205814 -5.0567191162699601 0 0 0 0 -22.391793525363028 -25.039070389702829 0 -25.039070389702829 7.9170625725682839 0 0 0 0 -7.1830164943821728 -18.82788755974434 0 -18.82788755974434 -12.800957218144504 0 0 0 0 -36.058477841062995 -21.267533379705128 0 -21.267533379705128 -7.0018552120163804 0 0 0 0 -18.00753807781075 -29.244905314404605 0 -29.244905314404605 -4.8657794615055536 0 0 0 0 -6.4641678064579935 -13.158661942637174 0 -13.158661942637174 -11.678541143312316 0 0 0 0 -17.027142685859872 -26.075380035688795 0 -26.075380035688795 -11.148460218443688 0 0 0 0 -1.7522125809631675 -6.6854681257513739 0 -6.6854681257513739 5.8954271931494588 0 0 0 0 -18.56422457187 -11.78898827816738 0 -11.78898827816738 6.2111869714644854 0 0 0 0 -3.4543820596954902 -1.3100887476502976 0 -1.3100887476502976 -14.104803503127187 0 0 0 0 -51.33905059715471 4.2869651933688147 0 4.2869651933688147 -9.903773440833902 0 0 0 0 -18.615629878414325 -15.465983543828969 0 -15.465983543828969 -24.969266255902767 0 0 0 0 -2.8162408372804109 -4.826771079346301 0 -4.826771079346301 5.7270305056029116 0 0 0 0 -11.172371788965393 -10.880496235613464 0 -10.880496235613464 4.4833251058626047 0 0 0 0 -21.877356602897635 -201.39704188267206 0 -201.39704188267206 285.02902764478495 0 0 0 0 -25.148600220412845 -28.338800194145733 0 -28.338800194145733 -5.0069893736435915 0 0 0 0 -24.532829661889991 -26.060809216649432 0 -26.060809216649432 3.409141614388318 0 0 0 0 -12.800326489722593 -11.629010949442275 0 -11.629010949442275 -1.9392323858152736 0 0 0 0 -5.1977814362760455 -2.3645547873381361 0 -2.3645547873381361 -1.0436852610130387 0 0 0 0 -19.371959146606969 -31.885982584721205 0 -31.885982584721205 35.09757536988036 0 0 0 0 19.613606121991324 -39.446950172845391 0 -39.446950172845391 13.20775401112769 0 0 0 0 8.991411322977001 -30.091338268174695 0 -30.091338268174695 21.53666798931954 0 0 0 0 -3.326992963442418 -5.7153825699448078 0 -5.7153825699448078 14.574758482848338 0 0 0 0 -27.403505355698144 -37.38253607808474 0 -37.38253607808474 14.896732286422775 0 0 0 0 -61.26114182553647 94.085701484043966 0 94.085701484043966 -44.417398573306855 0 0 0 0 -6.8709165795615235 -9.7661941311122575 0 -9.7661941311122575 -5.7473474586551845 0 0 0 0 -23.494526021688216 -103.47061557194502 0 -103.47061557194502 223.55642565986636 0 0 0 0 45.819175652788545 -167.89632436857391 0 -167.89632436857391 61.604635205992054 0 0 0 0 105.90670670641703 -127.33554999743683 0 -127.33554999743683 226.22500555549823 0 0 0 0 -30.05336984265341 -167.20036904751623 0 -167.20036904751623 603.60084421711508 0 0 0 0 153.28628816556375 -191.34101601287148 0 -191.34101601287148 43.096983769170038 0 0 0 0 28.800931484169269 -80.241966779551149 0 -80.241966779551149 289.1190415266301 0 0 0 0 174.89371814971673 -380.1719603173151 0 -380.1719603173151 445.23542361086402 0 0 0 0 53.50273782521981 -271.25453224151534 0 -271.25453224151534 102.71240414676959 0 0 0 0 212.12743388724994 -160.04686782309636 0 -160.04686782309636 58.62496463507523 0 0 0 0 7.9090565073711332 -166.22786783283118 0 -166.22786783283118 299.64006611848527 0 0 0 0 163.67771440056094 -186.06988050855216 0 -186.06988050855216 157.51287293099449 0 0 0 0 14.74959307464529 -1.9620119306087176 0 -1.9620119306087176 -2.2038325568273098 0 0 0 0 -0.40225697479036171 -46.922185205380629 0 -46.922185205380629 -39.281416844874911 0 0 0 0 -5.0779002887850027 -9.4410333907503627 0 -9.4410333907503627 -5.8864813172886699 0 0 0 0 96.896906763999141 -103.8214327685655 0 -103.8214327685655 64.297372189605085 0 0 0 0 29.974347490586297 32.269679453774188 0 32.269679453774188 -200.1446225331747 0 0 0 0 -193.72459886686192 -125.3168146809212 0 -125.3168146809212 -69.283526972034451 0 0 0 0 1.8962879362056739 -3.0632894635020591 0 -3.0632894635020591 -2.0929293114815835 0 0 0 0 4.6881530901483615 -3.7619257034121389 0 -3.7619257034121389 -2.170226209474178 0 0 0 0 85.148137944364862 -276.38753083803385 0 -276.38753083803385 -283.49786797589059 0 0 0 0 -185.09056815457006 -211.09035297354922 0 -211.09035297354922 -4.0521929635760898 0 0 0 0 243.4240678008573 -296.59554424790713 0 -296.59554424790713 -13.029216758535767 0 0 0 0 140.85552070587437 -170.35335976366696 0 -170.35335976366696 -82.803640640693629 0 0 0 0 1.1928299054316227 -0.41658501844324292 0 -0.41658501844324292 0.14057807479435347 0 0 0 0 564.91351112049961 4.2784443089258275 0 4.2784443089258275 -360.68788572058475 0 0 0 0 331.20582827935505 -128.27386746449974 0 -128.27386746449974 -591.81555347092944 0 0 0 0 -48.113043151912279 -323.24385686813548 0 -323.24385686813548 728.05671424782486 0 0 0 0 178.91772787428636 92.615874924613308 0 92.615874924613308 207.02563070112956 0 0 0 0 88.974240838200785 -130.30300309031736 0 -130.30300309031736 -109.09809911410412 0 0 0 0 -6.6919073223471059 -226.76979755799221 0 -226.76979755799221 -349.05970409437941 0 0 0 0 209.85106905132125 -41.237755085330718 0 -41.237755085330718 -407.18676187689562 0 0 0 0 -60.878657683169877 42.267016380765199 0 42.267016380765199 -42.350843266161974 0 0 0 0 199.81242810304684 -90.343280964894802 0 -90.343280964894802 -369.28077433360158 0 0 0 0 463.28483327578942 -201.16273490592903 0 -201.16273490592903 -325.6640672450776 0 0 0 0 -84.376033922158967 -59.197247828550644 0 -59.197247828550644 35.817027861034148 0 0 0 0 1.1793548343613054 -1.3635631772914039 0 -1.3635631772914039 2.1481817581425702 0 0 0 0 275.14178191938845 68.756620848849707 0 68.756620848849707 87.777565998660975 0 0 0 0 227.07749134924961 -196.25742611502483 0 -196.25742611502483 41.824871138232993 0 0 0 0 509.25194554014524 22.528934965554072 0 22.528934965554072 -44.734019207910023 0 0 0 0 382.79680613828532 16.665441117775117 0 16.665441117775117 -42.225383944867644 0 0 0 0 0.71214009762260844 -0.95678861812007199 0 -0.95678861812007199 1.7810867995682003 0 0 0 0 36.522478157103251 -97.691566859628438 0 -97.691566859628438 71.098800798859884 0 0 0 0 126.83165516356894 -93.853664132360791 0 -93.853664132360791 29.723904741113074 0 0 0 0 113.46518873173045 -13.434304527465429 0 -13.434304527465429 56.595639360940368 0 0 0 0 100.03032256397273 -107.36420650593209 0 -107.36420650593209 103.64798883061303 0 0 0 0 72.660099449210975 -16.539664663090662 0 -16.539664663090662 51.642850416471447 0 0 0 0 345.3291922714161 -140.67501924901262 0 -140.67501924901262 46.767377236108587 0 0 0 0 300.35790679628292 -211.58446171743302 0 -211.58446171743302 -122.0578606769559 0 0 0 0 81.22417181653509 -109.87838085561634 0 -109.87838085561634 32.086289359901457 0 0 0 0 62.167103757445147 -165.18510648369192 0 -165.18510648369192 -64.873625509206249 0 0 0 0 97.359081470654928 -12.681595518595714 0 -12.681595518595714 -52.072104166458303 0 0 0 0 331.57972893535771 -77.950479487959456 0 -77.950479487959456 -42.514436759187447 0 0 0 0 445.60282190239377 96.873457720626902 0 96.873457720626902 -107.31704055432965 0 0 0 0 113.3144772527221 -46.000269490819392 0 -46.000269490819392 -29.369032702772529 0 0 0 0 11.991424304091154 -1.8632773034690935 0 -1.8632773034690935 -0.99198913422398505 0 0 0 0 129.77267401290374 -89.736919788421801 0 -89.736919788421801 -311.90011225920716 0 0 0 0 87.708180700108642 11.406323721763329 0 11.406323721763329 -63.304913216289151 0 0 0 0 232.61005152648795 -297.78553452784399 0 -297.78553452784399 -291.17439516093509 0 0 0 0 277.04733727937673 -31.7073888118166 0 -31.7073888118166 -11.45697412185109 0 0 0 0 399.21117885883359 -180.07788264598275 0 -180.07788264598275 -217.00391987211333 0 0 0 0 434.21731580207415 -180.44157047886983 0 -180.44157047886983 -222.92295399828436 0 0 0 0 -39.710131724281382 48.025437840227823 0 48.025437840227823 -81.766870520994416 0 0 0 0 -58.757259249639901 -186.29879633154451 0 -186.29879633154451 -76.471046388935974 0 0 0 0 202.14822873456433 187.29970061691711 0 187.29970061691711 86.87563380130814 0 0 0 0 289.52632903958875 467.3424309992588 0 467.3424309992588 149.28229620907541 0 0 0 0 4.9855031977308784 -0.64660401835925541 0 -0.64660401835925541 -0.29249271019074996 0 0 0 0 -11.711233175608868 -41.076390500596972 0 -41.076390500596972 16.103024247691792 0 0 0 0 27.273564158535009 -44.602685741854657 0 -44.602685741854657 7.4695011137482652 0 0 0 0 344.35490977886411 -290.81090642278889 0 -290.81090642278889 396.78920956610091 0 0 0 0 19.636915793208782 -24.480787249336601 0 -24.480787249336601 18.92583760406383 0 0 0 0 446.04767600642663 -31.6752123069964 0 -31.6752123069964 -172.52901736555214 0 0 0 0 12.093043297978511 -26.902292733913782 0 -26.902292733913782 18.404721994302236 0 0 0 0 10.569973576668417 -21.518544768921856 0 -21.518544768921856 2.5825661242588467 0 0 0 0 26.977063805313499 -27.931955643319316 0 -27.931955643319316 24.418885155489505 0 0 0 0 21.978358282078261 -124.55462531175726 0 -124.55462531175726 10.942150718154153 0 0 0 0 22.014917741424142 -13.646710435434215 0 -13.646710435434215 10.993963047943907 0 0 0 0 0.24829344060372449 0.65909126571339982 0 0.65909126571339982 -3.0659602357904294 0 0 0 0 -169.10485618426537 47.572307971469854 0 47.572307971469854 22.527310951423715 0 0 0 0 18.220112719998951 -1.8243118044986719 0 -1.8243118044986719 -30.021651711294851 0 0 0 0 -49.396442892038976 -18.260371377647971 0 -18.260371377647971 -39.464572310573203 0 0 0 0 16.452428972616165 -9.0850533594776905 0 -9.0850533594776905 -2.5807863641544984 0 0 0 0 190.13999228013927 -48.616690096896491 0 -48.616690096896491 -72.981186213532055 0 0 0 0 19.815798657281448 -7.3282878554982744 0 -7.3282878554982744 -12.901126043565455 0 0 0 0 20.77658581660944 -3.9436723602193524 0 -3.9436723602193524 -20.114254596086539 0 0 0 0 2.2849664793224704 0.51543633856838511 0 0.51543633856838511 0.14204051868966516 0 0 0 0 40.35253615091824 41.413657284443616 0 41.413657284443616 -27.318672539789986 0 0 0 0 17.465120490129266 36.072936288437631 0 36.072936288437631 10.86664950118211 0 0 0 0 -111.37323701226342 71.531796646995645 0 71.531796646995645 141.71893103073126 0 0 0 0 21.615613170641154 -23.983216355291006 0 -23.983216355291006 4.3016822816098284 0 0 0 0 8.60316881249123 -3.8051350665196289 0 -3.8051350665196289 -0.016586979519956913 0 0 0 0 54.239794409910246 -206.39246653332521 0 -206.39246653332521 10.899744863693059 0 0 0 0 20.451276928654885 -14.351247050652368 0 -14.351247050652368 1.8112901076240888 0 0 0 0 -0.62555248118223972 -22.986786078434307 0 -22.986786078434307 30.226223291974748 0 0 0 0 86.816198111943777 -34.52280025089749 0 -34.52280025089749 -25.948036772737396 0 0 0 0 -0.26992267365494627 -9.6163721686752979 0 -9.6163721686752979 46.254051605108543 0 0 0 0 32.523800764316547 -28.325144520757021 0 -28.325144520757021 -57.957226163634914 0 0 0 0 21.606948174068147 -14.648428976229511 0 -14.648428976229511 -0.45167447730742083 0 0 0 0 -5.466385149218695 -35.41748914649429 0 -35.41748914649429 -5.4083862587358453 0 0 0 0 40.244814682533615 13.740203005279909 0 13.740203005279909 -75.901764909496706 0 0 0 0 36.517539388103614 24.960667696643213 0 24.960667696643213 -80.455643217206671 0 0 0 0 14.95824293566784 -1.4523801874238416 0 -1.4523801874238416 -12.426344882711419 0 0 0 0 9.05583966179843 -8.9791077753177078 0 -8.9791077753177078 -12.92086996035502 0 0 0 0 24.028703817613859 -25.860737496913771 0 -25.860737496913771 -12.62328457946569 0 0 0 0 57.732645741411488 -29.152368624520932 0 -29.152368624520932 -14.073300024290802 0 0 0 0 49.919139491616079 5.6385747431158961 0 5.6385747431158961 -5.2951257754830294 0 0 0 0 17.955357003562312 -11.12166323821566 0 -11.12166323821566 -9.5389633666054578 0 0 0 0 -34.57305802009796 -30.897349450617185 0 -30.897349450617185 8.5895378349705425 0 0 0 0 -10.13360817359353 -33.060734734495327 0 -33.060734734495327 -19.315806429753138 0 0 0 0 -37.8810739001201 -20.12769128418222 0 -20.12769128418222 -24.860466072610507 0 0 0 0 -19.420400828312268 85.099969699796929 0 85.099969699796929 -126.61389978111401 0 0 0 0 -71.10756329695505 -50.340249823682825 0 -50.340249823682825 -9.595054747951508 0 0 0 0 198.45947245115531 -178.95149895331269 0 -178.95149895331269 49.989176994953596 0 0 0 0 -4.9646713118581829 -40.887860828785051 0 -40.887860828785051 11.631344330918182 0 0 0 0 -90.450812090290128 -19.727483689193832 0 -19.727483689193832 10.247096766455797 0 0 0 0 17.394075141454721 -20.317792957985773 0 -20.317792957985773 11.368800344101516 0 0 0 0 115.10312995995264 -760.30678027863723 0 -760.30678027863723 242.46393682625876 0 0 0 0 -418.54546211404158 -517.06350260406907 0 -517.06350260406907 369.05006703198796 0 0 0 0 633.10652323615432 -370.87711155637317 0 -370.87711155637317 -705.37768566471641 0 0 0 0 5.0952409043546254 -4.8057885025323657 0 -4.8057885025323657 2.9008619118616537 0 0 0 0 122.41522864907893 -135.23210808606927 0 -135.23210808606927 -518.15570995427515 0 0 0 0 913.933714879538 -556.77872185847946 0 -556.77872185847946 -304.95837545976246 0 0 0 0 39.310485972320748 -289.74695548588534 0 -289.74695548588534 -286.08893847876425 0 0 0 0 -269.06163198230479 -814.93939551708081 0 -814.93939551708081 -412.71245214792725 0 0 0 0 9.7693736139023173 -9.9906079296842361 0 -9.9906079296842361 6.5243577141984019 0 0 0 0 414.07970845661112 -500.98632248324338 0 -500.98632248324338 -596.37984069332379 0 0 0 0 -361.00776715961911 -610.18633314816361 0 -610.18633314816361 -370.37516612262334 0 0 0 0 4.5528501374203216 -5.2037643221074283 0 -5.2037643221074283 3.7651733689191502 0 0 0 0 -204.57553629183349 -256.9061830127398 0 -256.9061830127398 -92.464897356981965 0 0 0 0 -34.551782013343654 -107.57526266351579 0 -107.57526266351579 -163.88890721975986 0 0 0 0 -86.74138606424458 -221.00777716998437 0 -221.00777716998437 -308.02816478577734 0 0 0 0 -151.64459190639172 -329.00408201059327 0 -329.00408201059327 68.576228994690609 0 0 0 0 40.167973489413271 -323.10429196123732 0 -323.10429196123732 61.861285106306241 0 0 0 0 -98.538145941372932 -223.38084635102587 0 -223.38084635102587 114.40631103800843 0 0 0 0 -80.371092226912879 -220.17389665427072 0 -220.17389665427072 14.936548665370537 0 0 0 0 106.48729836945131 -400.15214717676099 0 -400.15214717676099 -68.270962440587027 0 0 0 0 351.0693627802757 -325.93862615772741 0 -325.93862615772741 -80.222739771987108 0 0 0 0 354.74715973323691 -288.03499965394076 0 -288.03499965394076 -68.002149357716917 0 0 0 0 607.640001547461 -276.56151814113582 0 -276.56151814113582 -90.464416080652882 0 0 0 0 327.62610592416604 -198.73555611221764 0 -198.73555611221764 61.389401046559215 0 0 0 0 136.81721318309064 -286.8591866666593 0 -286.8591866666593 4.7336361201030286 0 0 0 0 133.95223952149536 -318.50937136814355 0 -318.50937136814355 37.52971073327717 0 0 0 0 347.24423478303106 -731.0672274994015 0 -731.0672274994015 181.72400050797296 0 0 0 0 24.125845388314701 -354.2804093083414 0 -354.2804093083414 41.592266047351586 0 0 0 0 279.18983309037867 -651.49435719134544 0 -651.49435719134544 89.670698571841058 0 0 0 0 137.02804244650542 -25.049298614375857 0 -25.049298614375857 -153.9908492064169 0 0 0 0 500.70711966669478 -529.77719953364613 0 -529.77719953364613 96.239201825608689 0 0 0 0 3.5418948557198746 -69.544592969778023 0 -69.544592969778023 32.054051505307143 0 0 0 0 -124.06746517350257 -17.150760301402443 0 -17.150760301402443 51.250090893194283 0 0 0 0 5.2235973075963358 -0.23861089754151976 0 -0.23861089754151976 0.44203105935576481 0 0 0 0 220.93665548757417 -416.36530246531402 0 -416.36530246531402 615.66398367089505 0 0 0 0 104.69786203766853 -131.36445352747796 0 -131.36445352747796 -14.852579306545522 0 0 0 0 601.21195117603202 -488.52694686118593 0 -488.52694686118593 23.327089664006053 0 0 0 0 507.04839290720736 -317.68857345807191 0 -317.68857345807191 -199.15016733762968 0 0 0 0 506.46648001195717 -337.860281331632 0 -337.860281331632 -179.4288597200466 0 0 0 0 411.36424999687006 -306.60911095626943 0 -306.60911095626943 -78.742565858170565 0 0 0 0 403.71501841894133 -273.86876711002515 0 -273.86876711002515 -125.42992323498038 0 0 0 0 471.00353981907756 -223.82868386776136 0 -223.82868386776136 -175.22429362026378 0 0 0 0 301.22063199824095 -251.19813464174877 0 -251.19813464174877 -129.95362700606711 0 0 0 0 480.74473341427074 -288.06766517694814 0 -288.06766517694814 -202.77157359550529 0 0 0 0 526.66856188812199 -316.4589749466918 0 -316.4589749466918 -303.37972688019727 0 0 0 0 649.85221205660491 -238.32755976120643 0 -238.32755976120643 -278.94946263544625 0 0 0 0 656.5063163651721 -247.64164901407275 0 -247.64164901407275 -310.71563659293111 0 0 0 0 548.41384786665003 -111.93589225196047 0 -111.93589225196047 -224.27139175172488 0 0 0 0 353.66525115291051 -175.84985649802138 0 -175.84985649802138 -194.8402286507262 0 0 0 0 666.22358918279679 -107.72295224401387 0 -107.72295224401387 -229.88847289117257 0 0 0 0 593.60443997966286 261.02394980017652 0 261.02394980017652 -96.145950237649231 0 0 0 0 1115.3189102045853 -236.6611585264418 0 -236.6611585264418 -240.42466841857095 0 0 0 0 810.30476421363346 -308.71712790520178 0 -308.71712790520178 -93.795246799378219 0 0 0 0 688.80059650022304 -107.58130772965887 0 -107.58130772965887 -254.40083096289186 0 0 0 0 856.65723064011399 -278.27588516121705 0 -278.27588516121705 -271.26397882926904 0 0 0 0 748.42085481156391 -257.44095749343614 0 -257.44095749343614 -96.815099565745186 0 0 0 0 677.87897707903903 -374.7968078539343 0 -374.7968078539343 -296.34335937104174 0 0 0 0 827.86047316958138 -317.81326150766836 0 -317.81326150766836 -92.689421785114973 0 0 0 0 871.46928449243569 -328.51044203487254 0 -328.51044203487254 -299.73259988272184 0 0 0 0 877.92363638470124 -396.70581439392572 0 -396.70581439392572 -63.031286107718188 0 0 0 0 955.59299519511842 -255.77352694506044 0 -255.77352694506044 -64.120538835428306 0 0 0 0 754.47863546728331 -386.55311010953665 0 -386.55311010953665 174.47246202387032 0 0 0 0 754.03871684610203 -381.22770573893467 0 -381.22770573893467 123.76345822883013 0 0 0 0 -766.56995436031139 -83.210902961558531 0 -83.210902961558531 369.65047991506435 0 0 0 0 -999.85336496424497 -372.5608660660273 0 -372.5608660660273 13.788286234317638 0 0 0 0 795.7556010272674 -309.33930215541113 0 -309.33930215541113 318.78876452599434 0 0 0 0 995.57553430538974 -164.793471160021 0 -164.793471160021 135.28904897133543 0 0 0 0 -2.1453503870298078 -5.9427783039183311 0 -5.9427783039183311 -8.4589537496584626 0 0 0 0 1219.5686104332344 -386.9601236603803 0 -386.9601236603803 -322.26918069493695 0 0 0 0 1073.1165879495675 -553.40928893724595 0 -553.40928893724595 -510.59984622275806 0 0 0 0 -380.61541957642839 -824.24013153586384 0 -824.24013153586384 -216.91660519272773 0 0 0 0 714.90964400240227 -792.28390766172447 0 -792.28390766172447 -633.72748464625693 0 0 0 0 730.04940682983579 -390.76996001561702 0 -390.76996001561702 -400.05796126291534 0 0 0 0 529.06488570393776 -335.49143976759842 0 -335.49143976759842 -204.9945303638051 0 0 0 0 355.31748261839675 -506.1116590871552 0 -506.1116590871552 -329.69572890057043 0 0 0 0 308.9188889053803 -454.79880110437171 0 -454.79880110437171 -53.558581798781233 0 0 0 0 64.281577341240336 -214.71294676043362 0 -214.71294676043362 90.20953100254701 0 0 0 0 192.14615024800514 -286.40917446821913 0 -286.40917446821913 28.247408267836363 0 0 0 0 182.64659299812774 -810.25927166804831 0 -810.25927166804831 -463.61813711870855 0 0 0 0 -266.5823774261371 -247.27939398612762 0 -247.27939398612762 148.55120684923622 0 0 0 0 -1111.4969082678326 -947.54186770928527 0 -947.54186770928527 26.506202896161994 0 0 0 0 -306.11306326327758 -289.78688218538809 0 -289.78688218538809 537.56958488187229 0 0 0 0 0.027204905767348464 -0.93791031614841103 0 -0.93791031614841103 -0.18945903402633846 0 0 0 0 32.110129446686187 -455.24659925347078 0 -455.24659925347078 -851.30468002403541 0 0 0 0 -17.721343056749902 -445.39062766875122 0 -445.39062766875122 -535.65619125284502 0 0 0 0 441.50150078926526 -618.53946686687686 0 -618.53946686687686 -510.43860138150922 0 0 0 0 -168.66432177006936 -321.47752134118673 0 -321.47752134118673 -714.20770427282696 0 0 0 0 -164.46968076838311 -265.46870327780925 0 -265.46870327780925 -492.41731322207852 0 0 0 0 66.839810063032928 -385.46813327079781 0 -385.46813327079781 -564.8246622305378 0 0 0 0 -0.21972647682781599 -2.8103603633110055 0 -2.8103603633110055 -0.054927072556623102 0 0 0 0 -253.9364024531169 -295.79185107664671 0 -295.79185107664671 41.568576820776798 0 0 0 0 -114.82971659301256 -638.92158662588008 0 -638.92158662588008 352.69400226905782 0 0 0 0 326.38151069315245 -253.12249177296803 0 -253.12249177296803 -601.81570466839548 0 0 0 0 5.6444322295635345 -4.1417590550047816 0 -4.1417590550047816 1.8394607199462314 0 0 0 0 127.03785911310024 -743.12918854609234 0 -743.12918854609234 186.5895315359885 0 0 0 0 396.34583818133888 -590.12043424247713 0 -590.12043424247713 68.172976675505197 0 0 0 0 -10.976144613970973 -197.47727552943252 0 -197.47727552943252 -275.93739015091364 0 0 0 0 7.7408575990266399 -121.0388899055597 0 -121.0388899055597 -227.38530313029332 0 0 0 0 -6.1031971001139027 -148.63705402219057 0 -148.63705402219057 -161.40774412024621 0 0 0 0 -33.332489546843135 -199.25098968707061 0 -199.25098968707061 -227.90124411346369 0 0 0 0 -31.319713947664923 -178.28415925664092 0 -178.28415925664092 -252.05587827614727 0 0 0 0 -32.115676156801783 -180.75684198353883 0 -180.75684198353883 -127.59818113517758 0 0 0 0 -57.791181005461112 -240.35499679823079 0 -240.35499679823079 -334.58640789060792 0 0 0 0 -32.505537384618947 -103.9987894387541 0 -103.9987894387541 -171.05956516377591 0 0 0 0 -91.99872651147416 -110.06471819905164 0 -110.06471819905164 -530.69915753838723 0 0 0 0 -127.6728753170828 -283.37500466750862 0 -283.37500466750862 -179.09308540880738 0 0 0 0 -129.03522560490183 -130.02455090585912 0 -130.02455090585912 -19.203088172198477 0 0 0 0 57.623839579027845 -74.980958905671287 0 -74.980958905671287 -100.14012572314823 0 0 0 0 -65.90947878624138 -97.789197288230753 0 -97.789197288230753 -45.188914566053427 0 0 0 0 -77.75061868618468 -161.73361418359764 0 -161.73361418359764 -127.89671378301864 0 0 0 0 -8.5306085924694344 -71.249884368409766 0 -71.249884368409766 -60.249862541502807 0 0 0 0 17.958855545974075 -62.956129194897585 0 -62.956129194897585 -123.68231381764099 0 0 0 0 4.7145472765623708 -32.79467025825943 0 -32.79467025825943 -27.941736674583808 0 0 0 0 119.4463320039722 -123.77492050332876 0 -123.77492050332876 4.388926784470641 0 0 0 0 138.03416252561874 -124.89467959321337 0 -124.89467959321337 -176.75990696466761 0 0 0 0 37.091887208523985 -74.970471574459225 0 -74.970471574459225 -7.9657653699514412 0 0 0 0 7.812438547004966 -26.275778299086284 0 -26.275778299086284 -44.069353972601959 0 0 0 0 61.329789413404797 -30.930335338396617 0 -30.930335338396617 8.0018787781791616 0 0 0 0 145.51020652912848 -219.71143500498147 0 -219.71143500498147 16.064044184306113 0 0 0 0 222.30381036925246 131.3607886581085 0 131.3607886581085 588.39291271887487 0 0 0 0 194.63669903118716 -172.01717913967968 0 -172.01717913967968 256.55588373748469 0 0 0 0 -8.4127468820147158 -16.138875288605036 0 -16.138875288605036 -32.512790764004166 0 0 0 0 61.813240832638257 -48.557949492312218 0 -48.557949492312218 -88.656971058175259 0 0 0 0 218.75893833802184 -64.215931234022719 0 -64.215931234022719 -154.77137667160878 0 0 0 0 192.31450994618717 -11.102392492332001 0 -11.102392492332001 -106.59342515701064 0 0 0 0 49.206640530899676 19.582218498633665 0 19.582218498633665 -30.525806779780396 0 0 0 0 730.26312472413338 -440.94490522920296 0 -440.94490522920296 204.43184690966882 0 0 0 0 87.81062851828392 -282.75040784918383 0 -282.75040784918383 -386.43008550673585 0 0 0 0 -4.8010868945551621 -13.840234763447199 0 -13.840234763447199 -21.997845216405736 0 0 0 0 749.13077573521514 -475.28198312138375 0 -475.28198312138375 144.88557773689536 0 0 0 0 778.99772607867635 -458.19914981710826 0 -458.19914981710826 144.13521036879683 0 0 0 0 754.1641966341158 -334.52494578088408 0 -334.52494578088408 -14.039863489990239 0 0 0 0 1040.4270120540714 -384.91297468514313 0 -384.91297468514313 87.731342676604982 0 0 0 0 739.90968295544531 -418.08583528691747 0 -418.08583528691747 290.04624343851174 0 0 0 0 827.26889351308819 -581.85920905288094 0 -581.85920905288094 264.78918190995319 0 0 0 0 1370.484645066841 -535.07738150482692 0 -535.07738150482692 -50.833493272778924 0 0 0 0 1288.8951191518968 266.93462798943273 0 266.93462798943273 -137.99914820083359 0 0 0 0 1267.3824885926442 -761.08384973671309 0 -761.08384973671309 -508.64854162075244 0 0 0 0 1205.548347155398 -678.05085614256041 0 -678.05085614256041 -63.894519311965269 0 0 0 0 2246.9454597353579 -1163.21443824792 0 -1163.21443824792 132.04283459864382 0 0 0 0 510.95771566898475 -551.37055830680038 0 -551.37055830680038 346.89256899569955 0 0 0 0 200.25635814434645 49.677437718819419 0 49.677437718819419 52.627666930502528 0 0 0 0 345.65686987291701 -49.263869982064534 0 -49.263869982064534 -76.528996780642046 0 0 0 0 19.075706274410706 -8.4828665136365196 0 -8.4828665136365196 5.0738749668188845 0 0 0 0 158.9748286997733 -835.30201814235375 0 -835.30201814235375 1167.4348426748656 0 0 0 0 2518.7710820771499 1535.7679102513903 0 1535.7679102513903 643.87744067433596 0 0 0 0 3456.8734095757045 497.65698025316306 0 497.65698025316306 -417.93905126833124 0 0 0 0 805.87476149497525 585.37149294394112 0 585.37149294394112 197.56195826204566 0 0 0 0 1976.6085231065244 107.58986893807378 0 107.58986893807378 -521.60769051239913 0 0 0 0 1987.6190621808164 281.02859833710318 0 281.02859833710318 -538.73749054695509 0 0 0 0 2041.6282464085434 216.75104441738949 0 216.75104441738949 -462.99442443560838 0 0 0 0 148.91681372521634 -156.17689998435526 0 -156.17689998435526 -133.36338583845281 0 0 0 0 733.51398413357219 -90.832642643596841 0 -90.832642643596841 -89.069436086385394 0 0 0 0 43.8325187945007 -32.568447630736358 0 -32.568447630736358 0.82884520912345749 0 0 0 0 11.357490544681344 -16.518774880132735 0 -16.518774880132735 -29.552755991369423 0 0 0 0 396.74188717674269 94.38440243599689 0 94.38440243599689 85.549926021423744 0 0 0 0 1000.5146085457109 -583.57426121808567 0 -583.57426121808567 -294.94378649864666 0 0 0 0 2218.5416447388416 44.995020351321728 0 44.995020351321728 -517.86000033923415 0 0 0 0 2199.5513535108512 216.72056027366125 0 216.72056027366125 -608.88819463161053 0 0 0 0 2905.1402873418428 -701.57172786663818 0 -701.57172786663818 -613.88845650609437 0 0 0 0 2792.7470068005368 -630.83948464820969 0 -630.83948464820969 -2.896732055094617 0 0 0 0 105.89183709819645 124.32336958083761 0 124.32336958083761 1652.7364675117387 0 0 0 0 162.7848128238611 -59.549678564355418 0 -59.549678564355418 -15.371845892324927 0 0 0 0 -2.0435761088001261 -1.8875743216471932 0 -1.8875743216471932 -7.8241033058448295 0 0 0 0 87.991668168184333 -53.977916880303383 0 -53.977916880303383 11.341275324051821 0 0 0 0 103.48424066851112 -71.643983979269251 0 -71.643983979269251 0.027873228329553967 0 0 0 0 80.065913243715841 -37.384301451286774 0 -37.384301451286774 -13.997929796380049 0 0 0 0 24.897718586442352 -62.919045434387954 0 -62.919045434387954 -0.0094983277849678416 0 0 0 0 -2.3790851665834296 -7.8280193826638396 0 -7.8280193826638396 3.5570912589536086 0 0 0 0 46.782483956871147 -44.527638451720122 0 -44.527638451720122 -57.716581807791954 0 0 0 0 65.282205793428147 -75.634958697894035 0 -75.634958697894035 -5.9451040790354455 0 0 0 0 11.034122125928889 -152.71392095658803 0 -152.71392095658803 48.527096436300781 0 0 0 0 187.39369740056281 -76.315687493854057 0 -76.315687493854057 -85.452232379762791 0 0 0 0 54.527419671419381 -21.342731499247446 0 -21.342731499247446 7.9772387409199439 0 0 0 0 39.19577154822764 -16.253442796129093 0 -16.253442796129093 25.459274036131319 0 0 0 0 60.587496503422905 -38.956472041401206 0 -38.956472041401206 2.8889111459149888 0 0 0 0 107.38268303657969 -73.449870465810818 0 -73.449870465810818 -53.644676181185787 0 0 0 0 511.31028124742443 29.626923032654304 0 29.626923032654304 -489.87490056763636 0 0 0 0 45.578737152427493 -118.98842315603542 0 -118.98842315603542 203.88338831299916 0 0 0 0 20.139860870345728 -0.41560883424244821 0 -0.41560883424244821 130.33013311777904 0 0 0 0 4.52031543076302 -2.1969235464271861 0 -2.1969235464271861 0.43355797200379698 0 0 0 0 64.228619262004941 237.00767312135031 0 237.00767312135031 149.00960430415944 0 0 0 0 18.065513786714291 -38.348873056802404 0 -38.348873056802404 94.373800620007387 0 0 0 0 18.41647468994779 26.504755683185067 0 26.504755683185067 37.583186972100521 0 0 0 0 28.786310773128207 -22.240354340414342 0 -22.240354340414342 -35.620737701145117 0 0 0 0 17.119679187344445 7.7998222441092366 0 7.7998222441092366 -9.9929472388612339 0 0 0 0 17.894588021343225 17.292403655701492 0 17.292403655701492 37.142250128719752 0 0 0 0 21.27476270295665 35.476518619771014 0 35.476518619771014 -2.4896380137215601 0 0 0 0 19.200052364058593 -26.8879865847573 0 -26.8879865847573 8.9567652322148206 0 0 0 0 21.52894486374862 0.64238956410918036 0 0.64238956410918036 -0.12246148795384215 0 0 0 0 35.976846780169581 -20.228873210295205 0 -20.228873210295205 -76.038266016636044 0 0 0 0 16.862892623241351 1.9504584937094478 0 1.9504584937094478 -24.164992999576498 0 0 0 0 15.860672287863053 -15.52521060962863 0 -15.52521060962863 -22.501874960813439 0 0 0 0 45.092931009901804 9.3092069140693638 0 9.3092069140693638 -16.628784771382925 0 0 0 0 20.819593656593497 -15.933585227105141 0 -15.933585227105141 16.492567473665986 0 0 0 0 50.473884352693858 -15.185484362104035 0 -15.185484362104035 16.058080157963559 0 0 0 0 55.853021263101255 -35.545667914535443 0 -35.545667914535443 51.653688155376585 0 0 0 0 59.384473663914832 7.025183848963934 0 7.025183848963934 14.149774150690064 0 0 0 0 14.833927464163921 -6.0955988870488511 0 -6.0955988870488511 3.6688293951641526 0 0 0 0 45.815758934721089 27.475462502949085 0 27.475462502949085 16.698405377843301 0 0 0 0 63.291806496308709 7.5357356563981739 0 7.5357356563981739 3.1574585684138583 0 0 0 0 48.315701349099982 -25.976280827431765 0 -25.976280827431765 55.637448966488591 0 0 0 0 39.255353298431146 -3.4505979166569887 0 -3.4505979166569887 11.498905593904055 0 0 0 0 39.484546410269104 17.706612736747047 0 17.706612736747047 -6.1908937533153221 0 0 0 0 33.005831500617205 11.99202256679564 0 11.99202256679564 4.4977353983922512 0 0 0 0 34.3403915540257 24.937737631582422 0 24.937737631582422 -12.007463185575034 0 0 0 0 -11.04390481617429 -25.044584501953068 0 -25.044584501953068 -1.1717749003582867 0 0 0 0 20.091758719256646 -7.2377439845476346 0 -7.2377439845476346 2.8237086990286286 0 0 0 0 21.917763323858026 -11.862969187448122 0 -11.862969187448122 5.8005560352456129 0 0 0 0 1.9359458913422714 -46.436870606019511 0 -46.436870606019511 1.5936891461533378 0 0 0 0 -24.656185610147077 -39.859675512489048 0 -39.859675512489048 0.91337108773223008 0 0 0 0 -27.430636821070266 -19.877397538553851 0 -19.877397538553851 -0.82419696226133965 0 0 0 0 24.681909485254437 -2.296823021806631 0 -2.296823021806631 0.015497397864237428 0 0 0 0 14.524626607017126 -3.6474045012728311 0 -3.6474045012728311 3.4940933006291743 0 0 0 0 30.658587134232221 -8.3964072698508971 0 -8.3964072698508971 2.3396875340622501 0 0 0 0 3.9113258443137084 -1.3535310224332022 0 -1.3535310224332022 -1.2026927815282704 0 0 0 0 16.726300365517091 18.451052076095948 0 18.451052076095948 -4.9909063149389112 0 0 0 0 17.670906447621292 -4.5654776959729588 0 -4.5654776959729588 2.6434692816692404 0 0 0 0 3.1029413698190638 1.423553687981574 0 1.423553687981574 -2.0632797782118359 0 0 0 0 25.666532465900673 -1.6814909805380012 0 -1.6814909805380012 -16.574276393541368 0 0 0 0 23.487310593256552 -15.825902821939962 0 -15.825902821939962 -8.8399022874364164 0 0 0 0 33.005777174613087 -2.0015026676146448 0 -2.0015026676146448 -0.70687282049601663 0 0 0 0 24.233987613098471 -0.51690780392304703 0 -0.51690780392304703 -2.5161054819757993 0 0 0 0 33.672352500337354 10.116740268550412 0 10.116740268550412 -15.582104307960108 0 0 0 0 25.860715161862117 -5.5107389741660882 0 -5.5107389741660882 -17.770771152630914 0 0 0 0 21.49681684281677 1.8165487480000593 0 1.8165487480000593 -28.285300737799844 0 0 0 0 29.175473472816762 0.96542273432716996 0 0.96542273432716996 -9.2349597707851103 0 0 0 0 60.780594612511052 -17.197985679073625 0 -17.197985679073625 -0.38985498847283395 0 0 0 0 13.394948483277403 -4.6730047105083941 0 -4.6730047105083941 -10.276645580452168 0 0 0 0 27.638451189486013 1.6290555310620718 0 1.6290555310620718 -4.3032102369954401 0 0 0 0 25.097780787311422 -5.7246853106721929 0 -5.7246853106721929 2.7699413008606264 0 0 0 0 34.275416278571356 82.589037479381659 0 82.589037479381659 -44.107377126405481 0 0 0 0 50.097625983849866 -51.56939089835214 0 -51.56939089835214 185.15652675461024 0 0 0 0 10.706712276959095 3.7009321990852158 0 3.7009321990852158 -6.9284838698271045 0 0 0 0 40.998820304062974 -9.271483586730028 0 -9.271483586730028 46.365817728015827 0 0 0 0 36.735113754659324 -1.2909213196359133 0 -1.2909213196359133 67.473871216963744 0 0 0 0 36.590442488764893 2.4923470217117938 0 2.4923470217117938 16.866826220444636 0 0 0 0 55.355253787729453 -62.412809849283803 0 -62.412809849283803 1.207994654311733 0 0 0 0 54.31636584746137 -12.697795923742071 0 -12.697795923742071 1.3712874485443649 0 0 0 0 141.76077300983161 80.920595540930663 0 80.920595540930663 -197.7679470803414 0 0 0 0 0.84800328139317571 46.159485919191866 0 46.159485919191866 14.592997995765472 0 0 0 0 25.556566460636532 -11.03672533408826 0 -11.03672533408826 1.7678258915402694 0 0 0 0 5.092811199747814 7.0620643052722087 0 7.0620643052722087 -5.048070753885284 0 0 0 0 52.142359688747092 -3.7818969853142335 0 -3.7818969853142335 -0.028734568528307136 0 0 0 0 5.2186146810045386 1.9345855522407476 0 1.9345855522407476 -0.38745659745923433 0 0 0 0 138.32866878377536 43.207767513595172 0 43.207767513595172 -117.78036508052901 0 0 0 0 45.106260949767602 51.243712774794403 0 51.243712774794403 30.778754487473634 0 0 0 0 -90.017086176758312 -95.046805567273623 0 -95.046805567273623 94.861645078039146 0 0 0 0 31.64493690362724 -11.872889110294636 0 -11.872889110294636 1.7526727492149803 0 0 0 0 414.54102915355179 -279.84271374972013 0 -279.84271374972013 -237.23515297642007 0 0 0 0 119.89694775749376 502.6130491504955 0 502.6130491504955 11.355350799862141 0 0 0 0 -81.7133158500219 59.19442921558948 0 59.19442921558948 178.85785727848997 0 0 0 0 -3.9642130917788521 0.32336509079780029 0 0.32336509079780029 2.156870668224343 0 0 0 0 -211.52152682885935 141.95923673107609 0 141.95923673107609 161.58895212830794 0 0 0 0 51.176099877928209 -17.123238379304894 0 -17.123238379304894 -10.948234352177678 0 0 0 0 38.960840217230725 -35.526420745540236 0 -35.526420745540236 17.41018764693581 0 0 0 0 4.5465711674335125 -6.5589511462882655 0 -6.5589511462882655 -0.1922876388428989 0 0 0 0 26.969018060583949 5.0199982546264437 0 5.0199982546264437 -76.180580721309525 0 0 0 0 4.3270428825780982 -36.510270844828483 0 -36.510270844828483 20.943403847497393 0 0 0 0 -2.9137147468509141 -0.44917932344560541 0 -0.44917932344560541 -0.60182753088430729 0 0 0 0 35.949782784431591 -31.135825874604052 0 -31.135825874604052 -300.3371737966263 0 0 0 0 135.35423202840593 16.006701444945065 0 16.006701444945065 59.609256115258177 0 0 0 0 131.22338876113372 -100.09375168301631 0 -100.09375168301631 -119.0994828786279 0 0 0 0 -139.74890019248505 -30.743185515912046 0 -30.743185515912046 -30.451789239719801 0 0 0 0 120.92786537347638 42.174097157580945 0 42.174097157580945 -34.105526693158026 0 0 0 0 212.17181350341025 -15.933189920819132 0 -15.933189920819132 -18.676225872313807 0 0 0 0 371.38921341770219 61.955478429325012 0 61.955478429325012 -71.819025950768264 0 0 0 0 -172.12591067791041 -207.11021834143912 0 -207.11021834143912 -146.96728735007491 0 0 0 0 5.5203161483557217 -3.2223703737113993 0 -3.2223703737113993 -3.6798147708011868 0 0 0 0 2.3562389276536959 -2.1407112899853566 0 -2.1407112899853566 -3.714504365646718 0 0 0 0 5.575404997998703 7.9642264079775487 0 7.9642264079775487 -39.314906135017736 0 0 0 0 -175.27041572129019 -260.97227044237661 0 -260.97227044237661 -162.49132901766279 0 0 0 0 -187.43843748759355 -259.66290700803074 0 -259.66290700803074 -157.2728030733997 0 0 0 0 -248.95826319757862 -83.970978176751487 0 -83.970978176751487 43.254767333062773 0 0 0 0 -41.105382440591256 -29.192281255058333 0 -29.192281255058333 -435.25775505158526 0 0 0 0 8.0304902903806035 -4.0747904838481119 0 -4.0747904838481119 -1.8859011752144283 0 0 0 0 -310.34284010603415 -336.23892189609251 0 -336.23892189609251 -202.98293552211908 0 0 0 0 -5.5676372641482885 -64.626328207457846 0 -64.626328207457846 7.0289451335702324 0 0 0 0 27.896724325633841 -5.56889110035263 0 -5.56889110035263 -50.485521746530139 0 0 0 0 -18.518859536486161 -34.89479385444065 0 -34.89479385444065 -2.9560689232093864 0 0 0 0 55.606673535879963 -26.550140328297857 0 -26.550140328297857 -37.362031906919583 0 0 0 0 0.53355712639591824 -2.9189171967265182 0 -2.9189171967265182 -6.8756511262099878 0 0 0 0 -19.867498348147819 -3.9285638598921651 0 -3.9285638598921651 150.90348998556146 0 0 0 0 68.457368167074492 21.491589252435006 0 21.491589252435006 -92.913722239165509 0 0 0 0 26.915724559994487 -72.166950912094762 0 -72.166950912094762 27.581729458092013 0 0 0 0 35.131073814187403 34.515507585725572 0 34.515507585725572 18.78457470810099 0 0 0 0 -4.2976508332167214 -6.9701370312322979 0 -6.9701370312322979 61.22702563369603 0 0 0 0 1.7495797996459181 -0.16899624183832884 0 -0.16899624183832884 -0.56530002182591943 0 0 0 0 3.8716369940630102 8.9688845473574474 0 8.9688845473574474 -34.618087149332496 0 0 0 0 15.248115953625529 -0.13214648619759828 0 -0.13214648619759828 -21.766673039579473 0 0 0 0 209.88356769867551 -18.516641435013298 0 -18.516641435013298 -14.131246872373595 0 0 0 0 5.7421823954715592 -14.362732839866112 0 -14.362732839866112 -11.019068528243224 0 0 0 0 2.7027142023490072 -5.0588480227248072 0 -5.0588480227248072 -8.9074911315086354 0 0 0 0 203.35126260918844 -67.137600285786903 0 -67.137600285786903 -169.04616990820796 0 0 0 0 340.69080916546147 -34.458018259348364 0 -34.458018259348364 -124.65400036285428 0 0 0 0 -13.619654844625984 -24.416552560396667 0 -24.416552560396667 79.519306596099341 0 0 0 0 4.8955292642780819 -210.69014489754522 0 -210.69014489754522 -131.27875489214057 0 0 0 0 -1.9551138393489964 -23.63943893414762 0 -23.63943893414762 30.005585171556959 0 0 0 0 23.974646570855658 -26.010257425178008 0 -26.010257425178008 27.283585416144746 0 0 0 0 -1.1321088580590981 -44.896329168080342 0 -44.896329168080342 18.281698039929324 0 0 0 0 20.825146451198979 -26.35678053890193 0 -26.35678053890193 23.05895096591172 0 0 0 0 222.9599362756453 189.79833563793545 0 189.79833563793545 76.959885919743101 0 0 0 0 207.71137364334572 132.66827499021929 0 132.66827499021929 114.08667428991976 0 0 0 0 121.48089490070925 162.64808257145705 0 162.64808257145705 111.31341764403624 0 0 0 0 -215.1159371719732 132.94115220836829 0 132.94115220836829 134.63586514345479 0 0 0 0 -15.469190677516963 -43.230093847181706 0 -43.230093847181706 22.15752657959456 0 0 0 0 6.8346702320654487 -1.3903634196647339 0 -1.3903634196647339 -0.5084173805872183 0 0 0 0 177.55574093883843 124.0326738080189 0 124.0326738080189 -355.61232442917753 0 0 0 0 309.27625207867823 414.99330188706335 0 414.99330188706335 -53.532148393611351 0 0 0 0 -94.979928469163497 382.26493247145936 0 382.26493247145936 404.73091807628043 0 0 0 0 217.44154866544886 -69.481867163522111 0 -69.481867163522111 46.595153499827575 0 0 0 0 2286.5463070162405 200.79985757358517 0 200.79985757358517 81.524667666104506 0 0 0 0 504.95650691866513 108.40934532065933 0 108.40934532065933 37.425938482450874 0 0 0 0 -888.49345152377282 -203.90355567055485 0 -203.90355567055485 704.90984586306149 0 0 0 0 2681.7710498246561 -1089.1076827808483 0 -1089.1076827808483 336.11671524477606 0 0 0 0 479.14365336779883 222.72242445977645 0 222.72242445977645 1749.025535587276 0 0 0 0 22.46714605381986 -24.066032768848057 0 -24.066032768848057 24.685568621387347 0 0 0 0 18.831043990675049 -26.741676734262235 0 -26.741676734262235 27.590735845987666 0 0 0 0 -161.64035683512088 -306.0404677418145 0 -306.0404677418145 -132.62222222881974 0 0 0 0 -24.745227081832127 -24.190839931587107 0 -24.190839931587107 27.834312947103172 0 0 0 0 30.373083157450608 -31.053382735773681 0 -31.053382735773681 21.515073036375156 0 0 0 0 -10.65889058220273 -73.706760050839875 0 -73.706760050839875 -15.861610683092294 0 0 0 0 13.100004645246827 -20.815015582417345 0 -20.815015582417345 24.031434385522772 0 0 0 0 38.03467902249713 -151.39266093406877 0 -151.39266093406877 -205.86389549754676 0 0 0 0 -55.277851127630129 -41.878195204921212 0 -41.878195204921212 -34.032090989199787 0 0 0 0 -172.31002119427649 -286.20820301588083 0 -286.20820301588083 -218.09426809634897 0 0 0 0 -47.12201931266236 -66.855361290670771 0 -66.855361290670771 -110.19166538758145 0 0 0 0 -282.85936299846981 -254.75954457126863 0 -254.75954457126863 -111.5337540761102 0 0 0 0 56.148591762215347 -129.20849687176087 0 -129.20849687176087 -209.89464837429841 0 0 0 0 1060.5245094620586 -183.51712854858124 0 -183.51712854858124 38.759664880555647 0 0 0 0 1837.579064778387 -430.54108794938293 0 -430.54108794938293 -284.46399985110111 0 0 0 0 1167.0837620296661 -451.02074308680949 0 -451.02074308680949 -567.88739253574386 0 0 0 0 412.00772060625604 -919.67624412836085 0 -919.67624412836085 -224.76454315460978 0 0 0 0 9.1859308840263729 -2.4722894635020971 0 -2.4722894635020971 -6.4142778044192426 0 0 0 0 -290.65922548852086 -488.77817781824524 0 -488.77817781824524 -428.84178419041564 0 0 0 0 304.78775491826491 50.705042855930515 0 50.705042855930515 -478.87169127291418 0 0 0 0 34.411608324854441 -38.391218939650898 0 -38.391218939650898 34.275401073259033 0 0 0 0 465.66034990815228 9.6671651159429075 0 9.6671651159429075 -79.438669996692624 0 0 0 0 1534.2233523225004 390.40331546832022 0 390.40331546832022 -335.51057177515594 0 0 0 0 3128.3829502101262 964.22281751603418 0 964.22281751603418 -343.12936864862422 0 0 0 0 19.208934422335233 -14.135553465547083 0 -14.135553465547083 9.7336835429889987 0 0 0 0 -395.98054581803262 -731.67826380101178 0 -731.67826380101178 298.6724720067723 0 0 0 0 -134.6203287772405 -947.62954326003091 0 -947.62954326003091 459.93170253039716 0 0 0 0 -492.84153378500469 -259.87316993208697 0 -259.87316993208697 -83.540087115543429 0 0 0 0 -498.2895591414308 -351.09264626757795 0 -351.09264626757795 163.25379517116016 0 0 0 0 43.896976268046274 -375.75123776287364 0 -375.75123776287364 116.52626200474333 0 0 0 0 -255.83265708256658 -260.20492691563777 0 -260.20492691563777 178.63820119402953 0 0 0 0 -299.41984357966794 8.8725491704881279 0 8.8725491704881279 -154.58765813065111 0 0 0 0 -60.063592507307476 -204.86849895896012 0 -204.86849895896012 -3.4807043317123316 0 0 0 0 53.122999432947836 -249.81729306497073 0 -249.81729306497073 1.6237762082018889 0 0 0 0 379.68075276380478 -472.31604878617873 0 -472.31604878617873 133.12187956159869 0 0 0 0 512.10165075748228 -1274.1732265468818 0 -1274.1732265468818 484.22697016151915 0 0 0 0 223.60833826174212 -31.389579725300791 0 -31.389579725300791 -170.95179390660633 0 0 0 0 353.71967297637457 -70.43372230035493 0 -70.43372230035493 -161.66193886339897 0 0 0 0 254.39344777705355 -211.70472356123719 0 -211.70472356123719 -43.874510750832997 0 0 0 0 -144.32266982810006 -108.81222302926108 0 -108.81222302926108 32.677864229190163 0 0 0 0 68.333491321357542 -144.09697163816963 0 -144.09697163816963 -65.08587869744224 0 0 0 0 103.75589154666159 -177.18603481196624 0 -177.18603481196624 -252.30273636864149 0 0 0 0 68.334777285406744 -97.168986659223265 0 -97.168986659223265 119.41077063178818 0 0 0 0 83.579514500203004 -199.74937236658297 0 -199.74937236658297 66.747819012627588 0 0 0 0 391.43593071495889 -132.05570124600854 0 -132.05570124600854 -0.38477290825176169 0 0 0 0 133.28612971261282 -144.49332311988837 0 -144.49332311988837 144.52337253557107 0 0 0 0 2.0999114911679051 -1.6134958192018729 0 -1.6134958192018729 0.21862653357336015 0 0 0 0 8.1891407228786193 2.0442426368135784 0 2.0442426368135784 -8.6546882833954442 0 0 0 0 5.6394766290435623 -2.6748356871619876 0 -2.6748356871619876 0.6340381284165737 0 0 0 0 -1.6494868853681055 5.5572733961507765 0 5.5572733961507765 0.32475116820569383 0 0 0 0 -23.928029739381145 -85.326012807168809 0 -85.326012807168809 -98.678243512636982 0 0 0 0 0.5458403929992528 -83.958055419590892 0 -83.958055419590892 -174.05754069935938 0 0 0 0 256.16605874790184 39.662389594497654 0 39.662389594497654 -220.54854864419212 0 0 0 0 119.59815397437978 -7.3684555752024608 0 -7.3684555752024608 -18.607490187307121 0 0 0 0 389.41455338344349 -73.219867854728363 0 -73.219867854728363 -173.82544106361331 0 0 0 0 -467.85308089687805 -130.69001678208406 0 -130.69001678208406 86.004731122309749 0 0 0 0 -116.84846601099662 -412.80003293374284 0 -412.80003293374284 -255.6029047499469 0 0 0 0 408.50669424609964 214.75199640836672 0 214.75199640836672 18.502657889854163 0 0 0 0 -3.6749675649557503 -79.113198883460427 0 -79.113198883460427 -372.2159435722424 0 0 0 0 1.872863682050923 -2.4726832083998858 0 -2.4726832083998858 1.1034194414526155 0 0 0 0 1.8561591687840828 -0.061186488820270224 0 -0.061186488820270224 -4.0441663184321612 0 0 0 0 286.2944082415047 -127.78075689679827 0 -127.78075689679827 -185.11290442397876 0 0 0 0 -223.09825968538735 -263.99276778097192 0 -263.99276778097192 -134.49422592543124 0 0 0 0 0.52695881993804505 -111.2672605690168 0 -111.2672605690168 -286.49655303885083 0 0 0 0 -618.23470996684637 -423.13386937331325 0 -423.13386937331325 -207.33805316018697 0 0 0 0 -286.23769131959489 -185.71753014997012 0 -185.71753014997012 -150.90858444679725 0 0 0 0 -0.048341608471748732 -0.16335609042565569 0 -0.16335609042565569 -0.14816039912886936 0 0 0 0 -138.13501734103011 -223.79960565406145 0 -223.79960565406145 -613.52540958537429 0 0 0 0 30.939505511113452 34.533444640995185 0 34.533444640995185 -66.482747286157974 0 0 0 0 -14.211262131767398 -25.832099521496275 0 -25.832099521496275 -2.5951670010326779 0 0 0 0 23.258419063810379 35.857338109859484 0 35.857338109859484 -31.526126701348403 0 0 0 0 -48.26098079766075 -34.429863011253474 0 -34.429863011253474 -7.6083089155654307 0 0 0 0 -40.78613578702425 9.1044566364107595 0 9.1044566364107595 10.54818933482602 0 0 0 0 13.375076228490798 6.1900479074247414 0 6.1900479074247414 10.695231576188235 0 0 0 0 -67.960404796583134 -51.030115980200208 0 -51.030115980200208 0.57183099051508179 0 0 0 0 25.598193289913979 -12.112039084287971 0 -12.112039084287971 2.0232497846918704 0 0 0 0 8.3646102949876244 -1.1793720041614506 0 -1.1793720041614506 0.71386951931975062 0 0 0 0 1.705924777319082 -0.4296917720741984 0 -0.4296917720741984 1.4001188097738009 0 0 0 0 -1.143100793678741 -7.5387477031435992 0 -7.5387477031435992 16.576738797972212 0 0 0 0 6.5622340982603191 -4.9541221078579838 0 -4.9541221078579838 0.0008692540432093665 0 0 0 0 7.7523631174517504 -3.4976875125648803 0 -3.4976875125648803 -2.1141599109232629 0 0 0 0 3.6471396703814207 -3.7766605892284133 0 -3.7766605892284133 -0.16591217937093461 0 0 0 0 1.7391256134371071 1.3448151113554969 0 1.3448151113554969 0.36097860010278282 0 0 0 0 10.026132684990557 -4.5325893847111729 0 -4.5325893847111729 -2.1236522536928533 0 0 0 0 9.932056091106471 -3.1635230069123281 0 -3.1635230069123281 -0.87788568541873246 0 0 0 0 16.526510320646082 -6.6119204328715568 0 -6.6119204328715568 -0.0027669563637862673 0 0 0 0 19.249819970704607 -2.5035611034691101 0 -2.5035611034691101 -6.4917264339965186 0 0 0 0 -1.3890223119512939 -18.146186677549849 0 -18.146186677549849 -4.3229301865285379 0 0 0 0 4.1302637112441687 0.20301874686524357 0 0.20301874686524357 -0.078522768742459448 0 0 0 0 25.095513301696315 -6.0878700844732521 0 -6.0878700844732521 -5.6168180901076994 0 0 0 0 1.8009600512823454 -21.829466655464785 0 -21.829466655464785 0.014174643172736978 0 0 0 0 -1.0599791977092536 -19.887013109771942 0 -19.887013109771942 -1.1084302470553666 0 0 0 0 3.1123184935631798 -19.880752938985097 0 -19.880752938985097 -9.7748026495028171 0 0 0 0 5.2652826172316054 -24.195014443597756 0 -24.195014443597756 -6.3966006084738183 0 0 0 0 4.9925769666260749 -24.798499000869924 0 -24.798499000869924 -11.587420812287746 0 0 0 0 15.965661550458726 -10.693465269137263 0 -10.693465269137263 -1.306818818606942 0 0 0 0 27.903879461209272 -16.576243362815148 0 -16.576243362815148 -11.153966550520636 0 0 0 0 14.491322269385741 -2.1373429151349654 0 -2.1373429151349654 -1.9521076561646957 0 0 0 0 3.6225708069732825 -3.724393946669732 0 -3.724393946669732 -13.449257269449959 0 0 0 0 10.771709164121603 7.8846806445453694 0 7.8846806445453694 12.598330184504448 0 0 0 0 59.949041873517672 7.7172016650911246 0 7.7172016650911246 -18.203470166412444 0 0 0 0 -5.5554722337874409 -26.768572928798676 0 -26.768572928798676 -2.4794302141999651 0 0 0 0 28.781984780799576 -16.973812069292762 0 -16.973812069292762 -0.010249469181871973 0 0 0 0 3.1577073859425582 -26.848150388104841 0 -26.848150388104841 -3.4480621174079715 0 0 0 0 25.718626545273764 -28.382280026198714 0 -28.382280026198714 0.077288077849516412 0 0 0 0 10.442839339487193 -14.541020460173968 0 -14.541020460173968 -10.266165482142242 0 0 0 0 9.053202658261398 -18.892150826643046 0 -18.892150826643046 8.5179862191180291 0 0 0 0 10.159601653158461 -19.633188628533389 0 -19.633188628533389 -1.994046994670498 0 0 0 0 2.9378515389989843 -23.615571791786351 0 -23.615571791786351 0.62722159326222027 0 0 0 0 9.5824109253026108 -26.00890132902714 0 -26.00890132902714 -5.7598374567751307 0 0 0 0 -2.7654996860974279 -22.731091023662884 0 -22.731091023662884 -6.1852077229996212 0 0 0 0 1.2753783718917475 -11.214772047425868 0 -11.214772047425868 -11.188099957216764 0 0 0 0 3.8768199706796125 -11.618260169515537 0 -11.618260169515537 4.1330426047233928 0 0 0 0 0.43504256584947143 -14.241192316259912 0 -14.241192316259912 -0.84481110236811219 0 0 0 0 33.214904532637775 -7.8202330260428425 0 -7.8202330260428425 -28.205915520611597 0 0 0 0 0.42098039356030981 -1.3662739244444211 0 -1.3662739244444211 -1.8889737585898843 0 0 0 0 44.955937857696654 -12.801589789278296 0 -12.801589789278296 -26.107242506463081 0 0 0 0 9.2002196927293198 -19.041422525425332 0 -19.041422525425332 -4.3809768628125312 0 0 0 0 -0.64305746984214518 -10.357031030352001 0 -10.357031030352001 -2.9439022936230685 0 0 0 0 2.2311848942729284 -14.051311378721948 0 -14.051311378721948 -4.6589763625088381 0 0 0 0 3.6944782176292392 -9.8060119773981569 0 -9.8060119773981569 -4.7327235651187607 0 0 0 0 -0.51139325892190945 -9.0103586817088441 0 -9.0103586817088441 -5.4419155221884807 0 0 0 0 -7.4550379850179525 -7.0204294569848571 0 -7.0204294569848571 -4.5907140065392014 0 0 0 0 8.9595166987119228 -11.758549737591238 0 -11.758549737591238 -8.9411396154391696 0 0 0 0 0.87181591102853417 -12.623444737908358 0 -12.623444737908358 -7.0735400154517265 0 0 0 0 30.493372623029245 -17.87355727380691 0 -17.87355727380691 -11.685198247818334 0 0 0 0 44.561798744765838 -9.3070671344503353 0 -9.3070671344503353 -6.480664279199118 0 0 0 0 35.096887677902032 -29.91114208752515 0 -29.91114208752515 -4.99330586859287 0 0 0 0 -9.4691623827757212 -3.608973883841827 0 -3.608973883841827 31.413285428552626 0 0 0 0 11.611713816328006 -17.929895677574677 0 -17.929895677574677 40.054632249084534 0 0 0 0 24.77827295775478 -64.240376583613397 0 -64.240376583613397 93.499707655966631 0 0 0 0 -0.44973761479812624 -2.2343743015193063 0 -2.2343743015193063 -10.219543411720565 0 0 0 0 109.44307694101053 -56.978427205671323 0 -56.978427205671323 14.809972756753268 0 0 0 0 44.007206305447198 -59.197120660523069 0 -59.197120660523069 -130.60330726664688 0 0 0 0 -0.14705549857197242 -1.1107250834085072 0 -1.1107250834085072 -4.1095497165213146 0 0 0 0 -476.5858390777953 -255.3444706306982 0 -255.3444706306982 -79.603484042741911 0 0 0 0 295.7683192379875 -185.17633447573076 0 -185.17633447573076 -483.38764311013801 0 0 0 0 389.31404620679587 -199.74756154928036 0 -199.74756154928036 -505.34209031001228 0 0 0 0 43.817762582843898 -341.10617089690641 0 -341.10617089690641 -326.66064735985492 0 0 0 0 1.4430129097923461 -0.1437336682471102 0 -0.1437336682471102 -0.80056776169760724 0 0 0 0 -390.48400684188891 -382.56741948753006 0 -382.56741948753006 -474.8466247207507 0 0 0 0 0.56051178097818255 -0.50043104305924402 0 -0.50043104305924402 -1.6635268351486445 0 0 0 0 495.26585147141759 -95.163452085507743 0 -95.163452085507743 -480.81966695080337 0 0 0 0 -96.869202832003793 1.9375397914809582 0 1.9375397914809582 99.363182530592894 0 0 0 0 -64.041346698661528 52.097811830522915 0 52.097811830522915 82.845364469729248 0 0 0 0 -33.245642587220573 -22.256555799154739 0 -22.256555799154739 107.24927007823862 0 0 0 0 -53.506700325574002 39.737830022306298 0 39.737830022306298 70.634981617040467 0 0 0 0 -12.967909135958507 55.0091532086808 0 55.0091532086808 37.599414643234923 0 0 0 0 -25.932398044091315 63.707196384966664 0 63.707196384966664 86.070019980586949 0 0 0 0 36.530183664582182 96.557129888933559 0 96.557129888933559 71.425511446213932 0 0 0 0 -2.7468072792268874 -0.72957128872639032 0 -0.72957128872639032 0.24435476522648969 0 0 0 0 4.3065694170986717 -12.566997115492995 0 -12.566997115492995 -7.9145221207327268 0 0 0 0 1.9816348026938613 -10.853683891105902 0 -10.853683891105902 -8.5326202323467442 0 0 0 0 7.4470607630523027 -6.057239709524076 0 -6.057239709524076 -5.2077932121097206 0 0 0 0 -0.20935161983061334 -9.9851549832892488 0 -9.9851549832892488 -8.3841592386925186 0 0 0 0 3.0270453614284634 -9.6636892978167452 0 -9.6636892978167452 -9.579679969814606 0 0 0 0 2.1629157738461799 -11.118099957906452 0 -11.118099957906452 -9.5361369163583731 0 0 0 0 2.1287705753311457 -10.463350626923784 0 -10.463350626923784 -8.980059051184071 0 0 0 0 -21.123916355754091 68.543897792395001 0 68.543897792395001 82.361237134260591 0 0 0 0 30.388590099605381 -37.782054278791293 0 -37.782054278791293 -114.35959226619161 0 0 0 0 -347.70969344829211 -420.76900585303338 0 -420.76900585303338 -253.89113344950601 0 0 0 0 -27.358508219307396 -173.27651120224255 0 -173.27651120224255 -179.18671652992998 0 0 0 0 -134.75536061242553 -340.95981562809175 0 -340.95981562809175 -437.02988073583401 0 0 0 0 -57.226905802583133 -120.41269881851986 0 -120.41269881851986 -272.70366100159299 0 0 0 0 15.553830987282339 31.842280827984268 0 31.842280827984268 -78.372816934701405 0 0 0 0 10.168929007316155 -4.9527988416366071 0 -4.9527988416366071 -5.1329420631544309 0 0 0 0 -344.43541831818311 -377.05895674765998 0 -377.05895674765998 -104.22911327056772 0 0 0 0 2.0645082164824089 -18.366437590029818 0 -18.366437590029818 -39.230994778929016 0 0 0 0 -294.08499639532079 -207.0160902801581 0 -207.0160902801581 -16.592358861556932 0 0 0 0 -352.36133838900264 -371.17596685571698 0 -371.17596685571698 -143.8880791876054 0 0 0 0 2.0202460829895523 -1.2506141787340432 0 -1.2506141787340432 -5.1385943759748045 0 0 0 0 -243.94001060494656 -246.48782494909574 0 -246.48782494909574 -69.585064520353626 0 0 0 0 171.38131027010877 -16.421226124566601 0 -16.421226124566601 -19.202847578315414 0 0 0 0 57.438862377497571 56.126561128709 0 56.126561128709 -64.815027062773879 0 0 0 0 3.6225338098881572 -1.1829286789324058 0 -1.1829286789324058 0.20390630598387816 0 0 0 0 -25.412890603136475 -19.848499600206196 0 -19.848499600206196 2.5327225520632055 0 0 0 0 -15.028378094950313 -27.267811407509726 0 -27.267811407509726 6.2902575698244618 0 0 0 0 19.699688772852824 -5.2572224001487484 0 -5.2572224001487484 -18.663517594861332 0 0 0 0 -59.43596845932916 -113.5136944740334 0 -113.5136944740334 55.544030637880496 0 0 0 0 9.0092814389138063 -6.2291998199202538 0 -6.2291998199202538 1.6317940189533005 0 0 0 0 -304.01475341242804 -109.52641455080447 0 -109.52641455080447 57.739038815532695 0 0 0 0 121.22594399976606 -27.633955776160292 0 -27.633955776160292 62.040598792082164 0 0 0 0 -73.246489126561301 -73.732402408155394 0 -73.732402408155394 111.936706470442 0 0 0 0 487.33896149159045 198.18944668504764 0 198.18944668504764 -134.45516119970125 0 0 0 0 -766.60967957262346 -322.51314697280759 0 -322.51314697280759 10.778516812861199 0 0 0 0 -693.26086893105003 -264.70044726699416 0 -264.70044726699416 -269.65994840678468 0 0 0 0 76.638201666234636 -107.51522246329841 0 -107.51522246329841 -19.918737483931181 0 0 0 0 49.075012083426373 52.890599014019244 0 52.890599014019244 154.97336914266634 0 0 0 0 7.8106472480003504 -17.913462353120849 0 -17.913462353120849 -27.861805448184896 0 0 0 0 1.1736740462900777 -0.05286153961760931 0 -0.05286153961760931 -0.10656533144698699 0 0 0 0 22.981399902674298 62.847193045582344 0 62.847193045582344 -59.540267757030961 0 0 0 0 57.613256347627384 -36.177665598659587 0 -36.177665598659587 20.083104471934348 0 0 0 0 25.152493847285314 -61.835640896042605 0 -61.835640896042605 71.730572100375866 0 0 0 0 2.8565596301075491 0.3286710424826822 0 0.3286710424826822 -0.087165062883435951 0 0 0 0 18.592479391862071 7.506360666040564 0 7.506360666040564 -65.673848224621906 0 0 0 0 5.3629691838944247 -0.78217632795600167 0 -0.78217632795600167 -0.86228461507518972 0 0 0 0 9.6264972408212088 -10.715704732137965 0 -10.715704732137965 -25.438556362449162 0 0 0 0 10.008914839220324 -7.8056957611188409 0 -7.8056957611188409 -11.791999768485766 0 0 0 0 9.9547485981193802 -6.6498608744528056 0 -6.6498608744528056 -3.9467879145358609 0 0 0 0 3.0564930736854876 -15.144168463193637 0 -15.144168463193637 -10.211132033166905 0 0 0 0 13.619751814391861 -17.996075021369961 0 -17.996075021369961 -16.742558162572095 0 0 0 0 4.336517194163207 -19.713515412449851 0 -19.713515412449851 -15.867151569818816 0 0 0 0 20.962057689754147 -34.668592568224994 0 -34.668592568224994 -3.2825870285232668 0 0 0 0 -6.9866646608498968 -24.542994903280828 0 -24.542994903280828 3.1253227961969969 0 0 0 0 -5.0144679900522533 -10.149242659615993 0 -10.149242659615993 -8.0510778113130073 0 0 0 0 1.8216585708518949 -13.890623492133955 0 -13.890623492133955 -6.0484869960564538 0 0 0 0 0.0010327982720923501 -10.770398125943757 0 -10.770398125943757 -9.9701835271480377 0 0 0 0 -6.1618317898628447 -10.64746358139746 0 -10.64746358139746 -8.7839016064172029 0 0 0 0 -24.477307609804939 -15.907958614376184 0 -15.907958614376184 -0.86376915027358336 0 0 0 0 -2.7942934904731374 -14.821490377715236 0 -14.821490377715236 -14.406116703699809 0 0 0 0 0.62891459804282857 -0.38734284725613577 0 -0.38734284725613577 0.047832308350692188 0 0 0 0 97.539515895811746 65.058442187753826 0 65.058442187753826 37.489403503886024 0 0 0 0 62.193328877023305 7.1053502554059378 0 7.1053502554059378 -19.37029551026535 0 0 0 0 48.198048228459356 -16.536795853988224 0 -16.536795853988224 25.602797876232216 0 0 0 0 22.041733263132983 17.633165065521098 0 17.633165065521098 17.808356320034363 0 0 0 0 72.289829817973384 -23.077169125007458 0 -23.077169125007458 2.1720260590300313 0 0 0 0 38.65376977125652 -19.651442883274285 0 -19.651442883274285 2.1941384742840455 0 0 0 0 45.576745523628233 -41.749045864868094 0 -41.749045864868094 -66.205465144623304 0 0 0 0 -20.809195362294304 17.618183051257802 0 17.618183051257802 45.039504296666564 0 0 0 0 61.287826313134701 -18.059414780906081 0 -18.059414780906081 -94.421000960617675 0 0 0 0 34.10292030571236 6.2080942652683007 0 6.2080942652683007 -54.67670492984962 0 0 0 0 4.4799565658588465 -2.3864606451680537 0 -2.3864606451680537 -2.3280258384482408 0 0 0 0 -16.447633864145246 -38.882494693294575 0 -38.882494693294575 0.15958091599168256 0 0 0 0 25.936754314176824 5.0518565914626379 0 5.0518565914626379 -36.411790481455682 0 0 0 0 27.748493346437499 0.83923701246021665 0 0.83923701246021665 -30.32521127250584 0 0 0 0 40.153622540936567 -3.54028934546659 0 -3.54028934546659 -39.561139846500737 0 0 0 0 -8.79518410213268 -10.626466434412578 0 -10.626466434412578 -7.1766117292827403 0 0 0 0 0.78317706987854763 -12.042452768487237 0 -12.042452768487237 -10.685392373670766 0 0 0 0 61.61692195525994 37.985986704202759 0 37.985986704202759 1.0471486559981713 0 0 0 0 -11.620889327012264 -19.965584343179216 0 -19.965584343179216 -11.486475538122249 0 0 0 0 1.1432364090663949 -1.1079817508930319 0 -1.1079817508930319 1.3028612245512363 0 0 0 0 16.381490117455087 -22.8435622816869 0 -22.8435622816869 -12.381185023369653 0 0 0 0 6.409013478714769 -14.973020411400285 0 -14.973020411400285 -13.987356030011142 0 0 0 0 24.246988429780686 -0.53887570886945468 0 -0.53887570886945468 -16.72132272260933 0 0 0 0 3.7854697878954049 -3.6899784479894535 0 -3.6899784479894535 -0.26733513770973616 0 0 0 0 1.1251001588966574 -14.229645903535129 0 -14.229645903535129 -7.8131255284088184 0 0 0 0 10.327193413749228 -10.843943906191271 0 -10.843943906191271 -15.908244843946704 0 0 0 0 6.5910669411407827 -8.9223617491225724 0 -8.9223617491225724 2.5595716531960377 0 0 0 0 -6.5341681173168809 -18.263121791110734 0 -18.263121791110734 -2.7875669439818012 0 0 0 0 13.120841955979085 -9.3698865159218627 0 -9.3698865159218627 1.9843826199871053 0 0 0 0 42.337229125072099 -0.27196533704773174 0 -0.27196533704773174 -18.437406913100858 0 0 0 0 2.1366874515331533 0.1830122162356993 0 0.1830122162356993 0.066686051012169401 0 0 0 0 22.897960642402268 -23.510241004352793 0 -23.510241004352793 -9.3954721708432771 0 0 0 0 9.060748432562832 -21.256241989609407 0 -21.256241989609407 0.016764784784754738 0 0 0 0 6.0999253149184369 -17.825345358200138 0 -17.825345358200138 -3.2308264316252462 0 0 0 0 21.127878701461071 -11.39044084609867 0 -11.39044084609867 1.5915290250372678 0 0 0 0 16.210124600008385 -15.220954899874414 0 -15.220954899874414 -1.8844407382343888 0 0 0 0 6.2846765580477495 -21.433706099957817 0 -21.433706099957817 0.010617712774546817 0 0 0 0 19.634913413241975 -22.378060664448185 0 -22.378060664448185 -0.0073331714629603084 0 0 0 0 27.716945391490299 -18.260042467187304 0 -18.260042467187304 -8.1415737963761785 0 0 0 0 24.314191174877124 -10.887237534952874 0 -10.887237534952874 -13.146449613825098 0 0 0 0 27.79250153519024 -31.135165494972171 0 -31.135165494972171 -20.860318781727983 0 0 0 0 29.736449140928016 -24.363844933399378 0 -24.363844933399378 9.4359949180216063 0 0 0 0 51.720071649822785 -16.216004849957244 0 -16.216004849957244 0.0018355263819103129 0 0 0 0 14.816799103298763 -25.066634359980526 0 -25.066634359980526 -0.0027891853787878063 0 0 0 0 45.00505248528134 -34.282107482239098 0 -34.282107482239098 -15.676733184387558 0 0 0 0 4.8087587863049777 -0.6394946451197896 0 -0.6394946451197896 -1.1817089343877569 0 0 0 0 -1.2949463935256063 -36.541887691390002 0 -36.541887691390002 -4.3178800036148459 0 0 0 0 89.205891448851617 -6.7473032428815714 0 -6.7473032428815714 -32.982382876172778 0 0 0 0 71.746749800066027 -29.904664504727407 0 -29.904664504727407 -6.3232628740879591 0 0 0 0 72.789348553802483 -1.2239516270528839 0 -1.2239516270528839 -32.287944654126477 0 0 0 0 37.720107967615924 -14.942009902728856 0 -14.942009902728856 2.0422480851068006 0 0 0 0 40.062301336244559 -31.191589398646101 0 -31.191589398646101 -14.735584470166941 0 0 0 0 19.513381186791726 -17.159205303864908 0 -17.159205303864908 0.11299224987058665 0 0 0 0 48.261624277156898 -23.344356454315857 0 -23.344356454315857 -23.306315698853723 0 0 0 0 35.754662827283028 -34.92565283633121 0 -34.92565283633121 -13.699236106083845 0 0 0 0 39.794827232908574 -19.786201436199917 0 -19.786201436199917 3.349277024888579 0 0 0 0 35.739465256597896 -31.485023524985081 0 -31.485023524985081 -10.860278639604076 0 0 0 0 42.576056134913415 -38.92732512647126 0 -38.92732512647126 -5.9533729665345163 0 0 0 0 31.169375247608968 -22.037924637732431 0 -22.037924637732431 -18.758062380185947 0 0 0 0 50.401271010011214 -31.609425100617955 0 -31.609425100617955 -28.724993752111914 0 0 0 0 29.908503397273858 -11.992624666605991 0 -11.992624666605991 2.2531332551801775 0 0 0 0 42.745028809591531 -24.584656303100928 0 -24.584656303100928 -41.935390261376597 0 0 0 0 28.126141924892067 -18.431738380100796 0 -18.431738380100796 -29.63520791297924 0 0 0 0 -28.277065206317275 -25.681230825199236 0 -25.681230825199236 17.562830052018398 0 0 0 0 -27.633343048066308 -25.82027690564064 0 -25.82027690564064 3.9970976977310784 0 0 0 0 -42.549149287799082 -23.017176197252411 0 -23.017176197252411 9.1590131517295958 0 0 0 0 -25.406996955689237 -18.610333370686931 0 -18.610333370686931 -9.7157144441443961 0 0 0 0 -25.439554623649997 -18.780981245482394 0 -18.780981245482394 7.7388167297031032 0 0 0 0 0.10471681375937836 1.6853656913777719 0 1.6853656913777719 -0.11614138663961171 0 0 0 0 73.782032101660661 -5.7406592278830431 0 -5.7406592278830431 -1.9565993694995996 0 0 0 0 -53.394351987619302 -25.908503355727589 0 -25.908503355727589 -0.010909712422608102 0 0 0 0 -87.940348007035936 -10.768897401332651 0 -10.768897401332651 9.4301088359934511 0 0 0 0 37.794348179733788 -19.304122675945109 0 -19.304122675945109 -50.590758767531952 0 0 0 0 -0.79657018740109597 -1.7053065759551593 0 -1.7053065759551593 0.064697193458670199 0 0 0 0 -44.403155668671388 -0.68467835186675075 0 -0.68467835186675075 -15.216616554251232 0 0 0 0 -26.503909570157703 -25.296617130705272 0 -25.296617130705272 -1.0470742139877984 0 0 0 0 -36.059109999934662 -27.472858981574973 0 -27.472858981574973 27.538549159071408 0 0 0 0 18.338660695546423 -17.36094746299932 0 -17.36094746299932 -25.065006567812816 0 0 0 0 12.202226284891367 -37.619213620793744 0 -37.619213620793744 14.284169361548265 0 0 0 0 30.045102581891115 -25.671887839132978 0 -25.671887839132978 -42.999889382039328 0 0 0 0 23.088675317021625 -28.64879461675082 0 -28.64879461675082 -2.0242896392883267 0 0 0 0 31.316578633785184 -23.821520018105275 0 -23.821520018105275 -3.7634029016044224 0 0 0 0 29.371530996508227 -1.5346230390787241 0 -1.5346230390787241 22.843863007377877 0 0 0 0 19.002198696005507 -20.937275832598971 0 -20.937275832598971 10.203506053687306 0 0 0 0 41.398027497119983 -22.518655487432625 0 -22.518655487432625 0.014385559337824816 0 0 0 0 20.983805061850944 -21.798256087800837 0 -21.798256087800837 -6.2810742039364413 0 0 0 0 13.812858159511961 -27.621078734126058 0 -27.621078734126058 -4.2264411760979783 0 0 0 0 8.5762562966601763 -21.470618161423772 0 -21.470618161423772 -10.386859644502692 0 0 0 0 10.043579594648691 -21.511971952113527 0 -21.511971952113527 -9.3166483585828246 0 0 0 0 10.515129103382257 -14.321909043912484 0 -14.321909043912484 3.1907328795659353 0 0 0 0 10.734526789484335 -18.27143196965153 0 -18.27143196965153 0.45944940512708854 0 0 0 0 14.612248292365621 -21.451067219175457 0 -21.451067219175457 0.74885098177037435 0 0 0 0 -1.0188088857157211 -12.832614670443231 0 -12.832614670443231 0.3892346062687011 0 0 0 0 6.8921465881394397 -15.04440777185664 0 -15.04440777185664 -3.9805899341299664 0 0 0 0 15.554016602190003 -12.652256255450496 0 -12.652256255450496 1.9064874251328199 0 0 0 0 21.168788683320599 -13.949080713417061 0 -13.949080713417061 -21.507052413209749 0 0 0 0 12.654703043568588 -21.07289718051652 0 -21.07289718051652 3.9562293231138028 0 0 0 0 13.656083903126273 -2.884816939389566 0 -2.884816939389566 -37.184363667656726 0 0 0 0 3.3651248324782825 -4.6226897541939636 0 -4.6226897541939636 0.55283231702739499 0 0 0 0 -43.907347051102988 -10.777314654496877 0 -10.777314654496877 32.786933452240191 0 0 0 0 24.121220790934785 -3.7906012723296953 0 -3.7906012723296953 19.154146274668165 0 0 0 0 -2.0263743733958925 -4.9727784893235736 0 -4.9727784893235736 -2.230881631221223 0 0 0 0 -21.677091909055889 -9.4378694657661981 0 -9.4378694657661981 26.093483138480224 0 0 0 0 -9.4512605596828507 -17.229146020883491 0 -17.229146020883491 -4.3944319093943705 0 0 0 0 -7.2438703354328027 -10.701233478046561 0 -10.701233478046561 -22.250227431795793 0 0 0 0 -8.8439310175769634 -12.203196489365652 0 -12.203196489365652 0.33804304672090169 0 0 0 0 -0.40359784160673939 -16.308904007500445 0 -16.308904007500445 5.5202063934233347 0 0 0 0 -3.2335305884613117 -13.277205957084686 0 -13.277205957084686 -3.4221136970138559 0 0 0 0 -5.0378124649832898 -18.646374473304604 0 -18.646374473304604 -7.4748194570129272 0 0 0 0 5.9296323435391969 -12.480943899716294 0 -12.480943899716294 0.45666238190324293 0 0 0 0 -4.8004410130322839 -11.40455106994764 0 -11.40455106994764 -6.2156674559799114 0 0 0 0 -8.0857499088110352 -15.035122300969398 0 -15.035122300969398 -3.2351351065717324 0 0 0 0 -19.099121903276682 -25.130276405863697 0 -25.130276405863697 -9.6370761940488592 0 0 0 0 -9.0215532767279001 -16.988804002789038 0 -16.988804002789038 0.97549777750828071 0 0 0 0 -15.075230440829927 -15.785258034632363 0 -15.785258034632363 -5.2793672076443556 0 0 0 0 -25.046651248456328 -20.786958145741664 0 -20.786958145741664 10.805639370939389 0 0 0 0 -12.87383507594329 -13.724367358350236 0 -13.724367358350236 -2.035432506941369 0 0 0 0 -17.872374380192923 -26.545907682477264 0 -26.545907682477264 14.883360186868231 0 0 0 0 -23.45181835351832 -15.335538789246129 0 -15.335538789246129 0.21043880689830985 0 0 0 0 61.349221216480146 -10.689263822244357 0 -10.689263822244357 -18.632471942531993 0 0 0 0 3.7397376140132295 -6.1507119781606718 0 -6.1507119781606718 -5.4821193834710726 0 0 0 0 -7.9051983543176902 -35.588314589624133 0 -35.588314589624133 -15.009988404919568 0 0 0 0 0.51089301091581163 -8.4004041066289403 0 -8.4004041066289403 -5.9594529213577516 0 0 0 0 -1.7531785819410288 -29.274874447743059 0 -29.274874447743059 -8.725503942972864 0 0 0 0 -3.6844604506004544 -13.251862817787014 0 -13.251862817787014 -5.253615324414568 0 0 0 0 -3.0420510250888375 -10.576009499674683 0 -10.576009499674683 -5.3162170994165763 0 0 0 0 -12.112433889577005 -15.531638487744203 0 -15.531638487744203 -5.2523402939186781 0 0 0 0 -6.920531055329775 -15.827972205017431 0 -15.827972205017431 -8.3036229311874195 0 0 0 0 9.1995914749520153 -10.492740346958236 0 -10.492740346958236 -5.0241325689050598 0 0 0 0 -12.470917071641452 -16.118452922473807 0 -16.118452922473807 -2.1743986399742425 0 0 0 0 -1.4747832457204084 -10.609391972459676 0 -10.609391972459676 -2.4360999155242808 0 0 0 0 -15.133691830116732 -7.4950154843791097 0 -7.4950154843791097 -3.6782931965572061 0 0 0 0 0.12429092079401016 -11.392816797448177 0 -11.392816797448177 -8.358543413283769 0 0 0 0 -5.5649852143269527 -10.659662719550397 0 -10.659662719550397 -4.8837255726684816 0 0 0 0 -1.4529434240930641 -11.921235336568277 0 -11.921235336568277 -3.3052712180342496 0 0 0 0 3.1883021342673601 -18.706599318671579 0 -18.706599318671579 -4.8207387883157935 0 0 0 0 -4.2940920019577504 -12.107542079493726 0 -12.107542079493726 -1.1189962139392406 0 0 0 0 15.1244728408019 -21.180559155027368 0 -21.180559155027368 -0.82261489958546008 0 0 0 0 1.6086866961413762 -18.55997589549952 0 -18.55997589549952 -2.0187444351031445 0 0 0 0 5.7137342118310528 -9.5088924747589161 0 -9.5088924747589161 -7.588595756787015 0 0 0 0 11.510481695245208 -17.342023103491549 0 -17.342023103491549 2.8834877931087988 0 0 0 0 16.324679360170194 -19.27634055474482 0 -19.27634055474482 -0.26768026205172646 0 0 0 0 -18.625405661755394 -43.505193179931666 0 -43.505193179931666 32.642658651035163 0 0 0 0 -12.434982415636114 -7.2287825902967597 0 -7.2287825902967597 -4.5732798429962713 0 0 0 0 -2.2631750458164621 -1.8376575128268797 0 -1.8376575128268797 0.29686123768992445 0 0 0 0 19.091712513292805 -16.195016103549278 0 -16.195016103549278 -11.53760186398722 0 0 0 0 1.3859156266717143 -2.4051514649803636 0 -2.4051514649803636 -0.65013682251051819 0 0 0 0 10.549194284741134 -6.6282712502179493 0 -6.6282712502179493 6.2285478991543641 0 0 0 0 2.096661858704465 -12.668770708303782 0 -12.668770708303782 -7.3314471295670955 0 0 0 0 7.4223435447198263 -21.957076041587726 0 -21.957076041587726 -1.9193532551591943 0 0 0 0 11.625852166104689 -8.2181997701724541 0 -8.2181997701724541 -5.2549891821101937 0 0 0 0 4.2014991758456866 -12.652274370158217 0 -12.652274370158217 -4.2444668288126053 0 0 0 0 11.842137619768664 -7.9754818491546757 0 -7.9754818491546757 -13.322267999028554 0 0 0 0 21.55868502788212 -13.581593868814707 0 -13.581593868814707 -18.157048637891421 0 0 0 0 16.441628838633278 -10.091067527067025 0 -10.091067527067025 -24.48590827154112 0 0 0 0 16.243597494478308 -23.368213787985951 0 -23.368213787985951 -8.6204067599901464 0 0 0 0 15.729420533485836 -26.947171258688286 0 -26.947171258688286 -28.758583587186877 0 0 0 0 -17.01413413913906 -19.310017596602847 0 -19.310017596602847 -6.541275337600382 0 0 0 0 27.572606703686688 -21.578184281619542 0 -21.578184281619542 -10.133080003764917 0 0 0 0 0.90742775847002122 -18.015687107864238 0 -18.015687107864238 -10.218885299874103 0 0 0 0 -11.195616970180136 -13.344909627472333 0 -13.344909627472333 -3.2374472560019001 0 0 0 0 -7.7500393734862882 -15.738392337803816 0 -15.738392337803816 -6.470675591903273 0 0 0 0 7.7620109971496127 -12.852105392693236 0 -12.852105392693236 -5.6149156742724529 0 0 0 0 -10.887442262757304 -15.106778193512127 0 -15.106778193512127 -6.6052549827145413 0 0 0 0 8.7539243027991258 -12.44047454730382 0 -12.44047454730382 -6.4414716725976007 0 0 0 0 -12.293944222320228 -14.380060505775404 0 -14.380060505775404 -4.8814428861986698 0 0 0 0 -12.666430484478042 -9.6965919960002793 0 -9.6965919960002793 2.2035332500963705 0 0 0 0 -10.639599828386736 -4.6615512549178675 0 -4.6615512549178675 4.2252292449818469 0 0 0 0 -26.515735171906272 -18.896825717582033 0 -18.896825717582033 -13.850781036126136 0 0 0 0 -28.713735407616241 -11.812717185794781 0 -11.812717185794781 6.2775512694206554 0 0 0 0 0.94081775331742312 -15.175598643371195 0 -15.175598643371195 -9.2955396546379347 0 0 0 0 -21.842914257988014 -10.833042443104205 0 -10.833042443104205 -1.3021026470923971 0 0 0 0 -25.802353866029989 -31.914533688722258 0 -31.914533688722258 13.547605061903596 0 0 0 0 -6.8052805153274676 -25.263142378527846 0 -25.263142378527846 15.812890317622077 0 0 0 0 -28.41148784039251 22.409906307329948 0 22.409906307329948 7.9513160573078494 0 0 0 0 -0.7992350074055139 -35.546784005389782 0 -35.546784005389782 -17.695502064874745 0 0 0 0 -8.9176433712637646 0.019522886696179853 0 0.019522886696179853 4.4933446245736945 0 0 0 0 -12.393054758304061 -9.4105941456846267 0 -9.4105941456846267 -12.895592738197593 0 0 0 0 159.34184262634881 13.393462884324435 0 13.393462884324435 -35.267960131721338 0 0 0 0 3.3644341807815366 -6.0982304464942345 0 -6.0982304464942345 -5.6029891436519108 0 0 0 0 53.695160259051477 -52.086557236977114 0 -52.086557236977114 7.5358620251208777 0 0 0 0 47.946552816795702 -35.765677990617405 0 -35.765677990617405 -11.901139030154809 0 0 0 0 58.163440204611788 -26.851519085690597 0 -26.851519085690597 -4.139561740681529 0 0 0 0 35.840066022133897 -27.833533692202764 0 -27.833533692202764 -2.6287118656437087 0 0 0 0 27.383622006568203 -39.803988182946341 0 -39.803988182946341 22.622543785219023 0 0 0 0 29.649152811748991 -39.238123484328753 0 -39.238123484328753 1.2744990343780955 0 0 0 0 41.651009060572363 -40.299256927922443 0 -40.299256927922443 12.089021214589593 0 0 0 0 38.867302955231935 -14.212704174518876 0 -14.212704174518876 -0.68671049172553467 0 0 0 0 20.845983243538285 -3.8513419773589703 0 -3.8513419773589703 -1.1413514932867201 0 0 0 0 21.408865840371242 -30.13947603055675 0 -30.13947603055675 12.648337479331531 0 0 0 0 7.0430829605816143 -32.85253756108068 0 -32.85253756108068 23.039144637907157 0 0 0 0 6.1277485377686389 -67.396214140630036 0 -67.396214140630036 8.7594893810928625 0 0 0 0 -6.3781769312613505 -43.448914050579333 0 -43.448914050579333 -40.914501320652562 0 0 0 0 8.8794964137596253 -10.180237044820387 0 -10.180237044820387 -12.619240517077742 0 0 0 0 8.0799386131357096 3.6580413950650836 0 3.6580413950650836 -72.335253656241548 0 0 0 0 -0.52127119175206715 -0.15154728013580154 0 -0.15154728013580154 0.019923394663948102 0 0 0 0 1.4207524498683597 -19.616817761216225 0 -19.616817761216225 1.4058842378799454 0 0 0 0 37.915904742873863 11.927961520912504 0 11.927961520912504 7.735046697587677 0 0 0 0 -16.104281611630427 -12.83121165626153 0 -12.83121165626153 25.002368063069298 0 0 0 0 47.805889206538268 -16.621294656875762 0 -16.621294656875762 9.7088217412347149 0 0 0 0 44.851558510302766 -20.435981749029452 0 -20.435981749029452 -35.913617966525635 0 0 0 0 47.63199540515717 -38.180172236168801 0 -38.180172236168801 69.528803026019887 0 0 0 0 100.66189283898166 16.864875485949597 0 16.864875485949597 -32.898235232343723 0 0 0 0 129.68711362288013 -54.101527723585605 0 -54.101527723585605 -10.333854575310397 0 0 0 0 139.32429706843914 9.6196551755274413 0 9.6196551755274413 4.8651278726683813 0 0 0 0 104.85173260128022 -115.17413121950449 0 -115.17413121950449 123.13375267589618 0 0 0 0 54.879124594882569 3.9671759882767219 0 3.9671759882767219 -2.7573198262398364 0 0 0 0 82.929355659315092 -39.405171371020515 0 -39.405171371020515 -38.342798347097414 0 0 0 0 29.95733804405063 -40.569636976109905 0 -40.569636976109905 -36.155735482653654 0 0 0 0 34.337411143585996 -16.356523737387761 0 -16.356523737387761 -22.185462886831374 0 0 0 0 8.730629792707532 -6.0351292170125816 0 -6.0351292170125816 3.7838409246141964 0 0 0 0 12.285267514587304 -14.239063346391049 0 -14.239063346391049 -1.6224355712238321 0 0 0 0 16.560627107724031 -12.449040489032996 0 -12.449040489032996 -1.9833939302698127 0 0 0 0 20.384721760255957 -10.797487059234754 0 -10.797487059234754 -3.6269845085407724 0 0 0 0 20.401641692466001 -10.077727711483021 0 -10.077727711483021 -13.624391731424112 0 0 0 0 30.549955151077938 1.0660549785716285 0 1.0660549785716285 -1.8810932457763556 0 0 0 0 17.546101946525596 -13.758433986819 0 -13.758433986819 -11.214882246444176 0 0 0 0 22.949713117728379 -13.733942143122476 0 -13.733942143122476 -16.911198355850502 0 0 0 0 8.1713911870788252 -26.020869233587291 0 -26.020869233587291 -10.023309391335715 0 0 0 0 14.980453885122188 -33.70107955047024 0 -33.70107955047024 -32.96287777004909 0 0 0 0 4.0802530724729422 -34.374957708367219 0 -34.374957708367219 -26.092764173692558 0 0 0 0 16.298016364494401 -53.098347641327564 0 -53.098347641327564 -51.303368746070191 0 0 0 0 42.16430322634676 -43.850771639773484 0 -43.850771639773484 -52.606667136627948 0 0 0 0 3.9514417456230149 -53.853308631423715 0 -53.853308631423715 -43.688353536208524 0 0 0 0 28.323712365019219 -16.861070863800705 0 -16.861070863800705 -21.557499542252117 0 0 0 0 26.186344413808342 -25.000356041351552 0 -25.000356041351552 -33.70654127108719 0 0 0 0 20.900017473861226 -45.312203643854446 0 -45.312203643854446 -9.1584665639584273 0 0 0 0 8.5546525874274266 -49.94047671715316 0 -49.94047671715316 -10.135709153793869 0 0 0 0 46.358444319333103 -74.728261158358464 0 -74.728261158358464 4.2000442915450549 0 0 0 0 33.566478912151069 -62.861638757058245 0 -62.861638757058245 -6.5299106599486549 0 0 0 0 31.908916761261935 -54.447991830307728 0 -54.447991830307728 10.210727570069139 0 0 0 0 53.370464276471466 -86.395334146505775 0 -86.395334146505775 54.84480254886148 0 0 0 0 76.485029173461953 -74.216502699149714 0 -74.216502699149714 50.994079238051199 0 0 0 0 6.8695562048451393 -70.235351313865976 0 -70.235351313865976 122.99401986290468 0 0 0 0 -11.133792605807685 -38.239971727341981 0 -38.239971727341981 12.498007510672323 0 0 0 0 6.3538610837204033 -66.642724827863276 0 -66.642724827863276 55.50669111157913 0 0 0 0 0.57011955594498431 -62.710460140729992 0 -62.710460140729992 22.727604627296387 0 0 0 0 -8.1542273254344764 -47.685534526346601 0 -47.685534526346601 -2.9789507934401627 0 0 0 0 -6.49705984706452 -37.2304568014697 0 -37.2304568014697 -7.8515560782470857 0 0 0 0 -9.8017833782432717 -45.657715363209718 0 -45.657715363209718 1.1369004337684601 0 0 0 0 -11.691288435584326 -2.4898119261484197 0 -2.4898119261484197 0.03807324141634183 0 0 0 0 0.51122999422102788 -22.531726753832114 0 -22.531726753832114 -8.6346212036923617 0 0 0 0 -0.68638495896266249 -42.792597849000231 0 -42.792597849000231 -1.6613192642180366 0 0 0 0 -5.9401245847293467 -51.42587746072968 0 -51.42587746072968 -0.30508488434861647 0 0 0 0 6.8984343203551362 -60.545241379410527 0 -60.545241379410527 1.8995950059761526 0 0 0 0 -3.2969067775670529 -18.190938107263396 0 -18.190938107263396 -8.4740500127617793 0 0 0 0 3.6273012677756924 -17.512965436844752 0 -17.512965436844752 -5.2700749008326966 0 0 0 0 34.196092528830832 -18.111640106460982 0 -18.111640106460982 -7.990974994687349 0 0 0 0 14.548156121470811 -26.240061566543773 0 -26.240061566543773 -14.938468186475802 0 0 0 0 -3.1246030121701551 -23.50011560328312 0 -23.50011560328312 -10.063179983357259 0 0 0 0 17.474761356096678 -19.575210411197986 0 -19.575210411197986 -7.0106769083649851 0 0 0 0 25.323581018018103 -11.787082139462655 0 -11.787082139462655 -9.1509420898255485 0 0 0 0 23.876177992745625 -17.729724075365993 0 -17.729724075365993 -5.9080250688493834 0 0 0 0 44.681847093962915 -21.078227604182757 0 -21.078227604182757 -16.859347468989654 0 0 0 0 -2.6046772026363154 -17.97672744588164 0 -17.97672744588164 -6.6103851849719319 0 0 0 0 26.902554369793506 -28.1104476739456 0 -28.1104476739456 -14.998601685874746 0 0 0 0 11.917152551855906 -18.337023736752599 0 -18.337023736752599 0.93843964573534322 0 0 0 0 -10.590279521042248 -79.697796713939169 0 -79.697796713939169 -28.042409179408423 0 0 0 0 -1.3102402959229948 -47.852416196899867 0 -47.852416196899867 1.6577029330419464 0 0 0 0 68.865468393425544 -41.792956898405464 0 -41.792956898405464 -29.845004974995391 0 0 0 0 -1.149871050859602 -22.704565998039467 0 -22.704565998039467 -6.9819919076107624 0 0 0 0 -89.875390078366763 -20.561843412871895 0 -20.561843412871895 7.0101983594868216 0 0 0 0 -0.13065745714266086 -28.217452178605527 0 -28.217452178605527 5.9675145255896496 0 0 0 0 -4.3993249652703525 -37.586294336080755 0 -37.586294336080755 -11.47617861425897 0 0 0 0 32.577483741542892 14.316623557173443 0 14.316623557173443 -44.758225035937357 0 0 0 0 13.234049941984267 -17.960567516756782 0 -17.960567516756782 8.1615722781789373 0 0 0 0 -57.994184514944209 -5.5137660339296417 0 -5.5137660339296417 8.9163489730744914 0 0 0 0 89.549944584347031 -22.443855454528602 0 -22.443855454528602 -30.988993327264325 0 0 0 0 11.488759674408357 -16.014055931849725 0 -16.014055931849725 13.750849701533298 0 0 0 0 18.063483324541494 -18.181011708453298 0 -18.181011708453298 0.75060421039233916 0 0 0 0 36.123532279214487 -30.047759621103978 0 -30.047759621103978 -12.64654329156474 0 0 0 0 -3.2509562812500716 -17.978684034847802 0 -17.978684034847802 -4.2857674359244413 0 0 0 0 15.399477628240675 -16.871964774038474 0 -16.871964774038474 4.8103969661387964 0 0 0 0 -1.3891297549139114 -21.785815332197192 0 -21.785815332197192 -4.8369828937710508 0 0 0 0 41.153854593213708 -25.380009259491544 0 -25.380009259491544 -17.621622812730493 0 0 0 0 -12.121620601530594 -32.071180400942467 0 -32.071180400942467 11.125532015095814 0 0 0 0 22.687954071938293 -33.900819969041549 0 -33.900819969041549 -20.161544183403748 0 0 0 0 0.92976369116554558 -17.308639843276968 0 -17.308639843276968 -1.4579495951162471 0 0 0 0 -44.594470965455912 -15.982081088815903 0 -15.982081088815903 38.120777214193367 0 0 0 0 39.392710863996399 -26.620375196898749 0 -26.620375196898749 -15.207627490024606 0 0 0 0 18.27244271988684 -15.447978098111435 0 -15.447978098111435 5.8656203307109536 0 0 0 0 2.3476852536772963 -23.732430222111834 0 -23.732430222111834 -2.0129768716235787 0 0 0 0 20.509041568871908 -9.8037693800961279 0 -9.8037693800961279 11.106636591604911 0 0 0 0 7.48953158545919 -34.873109061401919 0 -34.873109061401919 -25.339955750843728 0 0 0 0 55.905609608005534 -25.976860648069476 0 -25.976860648069476 1.3931610877843923 0 0 0 0 15.532945783357235 -19.258460500707574 0 -19.258460500707574 -13.899393654779246 0 0 0 0 8.8563951789292332 -27.359753285245461 0 -27.359753285245461 4.7788260898487351 0 0 0 0 7.0253361019999545 -12.415611001252906 0 -12.415611001252906 -9.6149381582138815 0 0 0 0 13.744468173197674 -22.602597053390127 0 -22.602597053390127 -5.2817097982515406 0 0 0 0 15.900171083533678 -24.633083632214493 0 -24.633083632214493 10.624100877554156 0 0 0 0 -44.765828849590889 -73.577080011884391 0 -73.577080011884391 -33.888286881677232 0 0 0 0 -25.407297270676509 -65.217110947254696 0 -65.217110947254696 -39.303724781759229 0 0 0 0 -5.4138339088835892 -58.988447228268342 0 -58.988447228268342 -42.693813519512332 0 0 0 0 -16.162252914179589 -46.34080908512351 0 -46.34080908512351 -25.118372813893075 0 0 0 0 12.762268670727053 -34.738360404970081 0 -34.738360404970081 -23.426151222183762 0 0 0 0 -27.845236693647621 -56.229271228834477 0 -56.229271228834477 -14.793456068815431 0 0 0 0 7.6346921179429046 -31.984456204143498 0 -31.984456204143498 -21.217656398705003 0 0 0 0 -2.4213770074464946 -46.235093288818462 0 -46.235093288818462 -23.076556733725738 0 0 0 0 -45.491115189387074 -86.077750837685016 0 -86.077750837685016 -50.618485927407164 0 0 0 0 -45.938048037161025 -68.130534296324186 0 -68.130534296324186 -8.6548387582188298 0 0 0 0 -29.054902143530853 -78.830755394144944 0 -78.830755394144944 -41.968603835044632 0 0 0 0 -28.270455000433714 -69.626670430294325 0 -69.626670430294325 -48.353086627503217 0 0 0 0 -16.783908414010284 -63.683435479993022 0 -63.683435479993022 -39.611967893240944 0 0 0 0 -45.205701764777814 -74.966937863709973 0 -74.966937863709973 -31.065547548911127 0 0 0 0 -45.609509703695267 -71.864152766362167 0 -71.864152766362167 -41.425719236871373 0 0 0 0 -4.0597963725404043 0.51681208049012639 0 0.51681208049012639 22.110897021238543 0 0 0 0 11.901811266106703 -15.730173917077714 0 -15.730173917077714 20.042396924285825 0 0 0 0 -0.90995428447240556 -29.836092070630912 0 -29.836092070630912 -14.991090747760609 0 0 0 0 -48.263430700690151 -53.568741859442525 0 -53.568741859442525 21.154662026532606 0 0 0 0 -38.567616694663911 -48.59801442297703 0 -48.59801442297703 27.442683851830225 0 0 0 0 -66.184682024147378 -96.396330780085918 0 -96.396330780085918 -48.32134298265737 0 0 0 0 -41.051278817346656 -76.202190296113258 0 -76.202190296113258 -46.082813485638326 0 0 0 0 -70.968649333932078 -107.02388182239923 0 -107.02388182239923 -47.159948418076965 0 0 0 0 -70.649776876448868 -89.792501573872869 0 -89.792501573872869 -38.920861926129874 0 0 0 0 12.791162232897765 -16.302443889736793 0 -16.302443889736793 21.163746698921003 0 0 0 0 -94.378957150422821 -104.92475898414887 0 -104.92475898414887 -37.364632298267679 0 0 0 0 -19.228423491145804 -84.091309599763918 0 -84.091309599763918 -53.416885386310241 0 0 0 0 8.6151871608701747 -2.7580132605245105 0 -2.7580132605245105 0.96509817520640695 0 0 0 0 16.017749795542169 -21.49477464950715 0 -21.49477464950715 16.929848940523542 0 0 0 0 -163.75090058021669 -95.670677731870455 0 -95.670677731870455 35.690584031555773 0 0 0 0 -28.189315594030631 -42.61159939692152 0 -42.61159939692152 4.0569854499481153 0 0 0 0 -65.051170595033909 -48.212532431083673 0 -48.212532431083673 -9.7990588666325493 0 0 0 0 -92.10510380585788 -92.048102805295457 0 -92.048102805295457 -8.9700347621037508 0 0 0 0 9.0709954179229602 -18.493831505285947 0 -18.493831505285947 23.188002179029553 0 0 0 0 -9.1203904473845796 -20.665019998974458 0 -20.665019998974458 -0.84612303857284132 0 0 0 0 -33.767001736548536 -48.381553856888786 0 -48.381553856888786 16.858993627451127 0 0 0 0 38.728250611577096 -61.500962518606684 0 -61.500962518606684 17.865048989420757 0 0 0 0 194.39315106432514 11.89841770592102 0 11.89841770592102 -96.874617686698912 0 0 0 0 -75.872754808355239 -101.4227912612223 0 -101.4227912612223 -28.228135429795657 0 0 0 0 -35.008566709082515 -51.902092457959952 0 -51.902092457959952 -36.40701287677075 0 0 0 0 -0.6079601407457611 0.73047415587750919 0 0.73047415587750919 0.72751866493672424 0 0 0 0 -248.73764663275642 -7.4385632571320457 0 -7.4385632571320457 137.74161476809968 0 0 0 0 -45.945275945237881 -5.9109552584523044 0 -5.9109552584523044 63.834706285208085 0 0 0 0 15.488159724599903 -22.172560573289349 0 -22.172560573289349 15.023351126401735 0 0 0 0 -30.744739784192461 -79.649488118994668 0 -79.649488118994668 91.17755135920379 0 0 0 0 1.9144615744808107 2.6864418803379522 0 2.6864418803379522 -0.90027755606570281 0 0 0 0 14.352998953860151 -13.727792097140991 0 -13.727792097140991 7.5593831054211478 0 0 0 0 -8.0981136081791192 8.7178981536708307 0 8.7178981536708307 -9.0401545288259513 0 0 0 0 38.13064895226853 -19.265722479965916 0 -19.265722479965916 -182.71327730864141 0 0 0 0 20.142733765220328 33.863136476902582 0 33.863136476902582 -40.0855770931812 0 0 0 0 -7.5981709249581399 3.9653986292094032 0 3.9653986292094032 31.027119412407046 0 0 0 0 4.78283436202274 -6.6762913145590499 0 -6.6762913145590499 8.3534125175487759 0 0 0 0 74.905250763506046 131.11632718765031 0 131.11632718765031 -24.403214895937708 0 0 0 0 36.038644508847938 -424.77544771950738 0 -424.77544771950738 -9.7444191700706142 0 0 0 0 -63.980473538302249 65.18963675399209 0 65.18963675399209 266.30502031199285 0 0 0 0 -68.75728973668447 26.850033468102993 0 26.850033468102993 33.62424861747877 0 0 0 0 48.268477843026631 -37.315845759940203 0 -37.315845759940203 45.432326521567575 0 0 0 0 -4.949097133732721 -2.9270540938177874 0 -2.9270540938177874 41.688828947169895 0 0 0 0 56.845742318124394 -4.0058272050573578 0 -4.0058272050573578 32.728590493356023 0 0 0 0 -192.39850019981532 146.26391049958511 0 146.26391049958511 184.69355691617966 0 0 0 0 83.790210294708231 15.665361138298977 0 15.665361138298977 -2.7785749137219682 0 0 0 0 298.76495546795559 -23.110482498739657 0 -23.110482498739657 4.2058587146784703 0 0 0 0 180.60770437102474 -92.540526925320592 0 -92.540526925320592 53.340321414562823 0 0 0 0 278.48085144416473 -165.00746830220123 0 -165.00746830220123 31.39462370122601 0 0 0 0 1.0173261023982647 -2.4114949365161618 0 -2.4114949365161618 4.5434805686698638 0 0 0 0 -233.15532363137027 11.608438082965222 0 11.608438082965222 137.5255904126534 0 0 0 0 70.606883073123072 16.115520785490503 0 16.115520785490503 8.5165110755551723 0 0 0 0 -116.49083697747483 -394.52376203522181 0 -394.52376203522181 171.50035875457615 0 0 0 0 4.0087396215965185 -6.3239889469560833 0 -6.3239889469560833 9.1858001985629727 0 0 0 0 66.692031586597295 158.1391880043866 0 158.1391880043866 150.9877326139349 0 0 0 0 244.46507927602215 97.340273612709098 0 97.340273612709098 -167.99917840663329 0 0 0 0 -22.160982885372505 -26.106921477319702 0 -26.106921477319702 -3.2688253267697291 0 0 0 0 -4.6250417496303271 -68.452516739997009 0 -68.452516739997009 93.701961089202086 0 0 0 0 -66.944236079500115 -66.462802290421678 0 -66.462802290421678 44.243411820585607 0 0 0 0 307.64154638600667 55.50064996621586 0 55.50064996621586 12.925752480856318 0 0 0 0 1.0404460537630058 -2.0602997243607053 0 -2.0602997243607053 3.8769684730038989 0 0 0 0 217.36143962039932 -184.92422385262398 0 -184.92422385262398 153.28170269899056 0 0 0 0 132.75431391166421 40.18380000765319 0 40.18380000765319 26.220679706575538 0 0 0 0 194.08753278442236 -97.86516407056115 0 -97.86516407056115 -15.950847224095924 0 0 0 0 68.410839151198843 -2.8777940052050326 0 -2.8777940052050326 -1.4962316610617563 0 0 0 0 85.108541191089898 -56.663382730199373 0 -56.663382730199373 -28.607841229171754 0 0 0 0 70.729645134037128 -1.6124908549991233 0 -1.6124908549991233 -3.4769700912147528 0 0 0 0 31.640100771663128 -59.250518783954249 0 -59.250518783954249 -11.284262516617673 0 0 0 0 25.633773243087489 -107.30866425536988 0 -107.30866425536988 -4.3564406829391373 0 0 0 0 1.3679862292165126 -49.807637911098027 0 -49.807637911098027 -11.005026902625104 0 0 0 0 6.1390019466034573 -55.894312693493703 0 -55.894312693493703 -17.152241897249041 0 0 0 0 44.581589305034868 -44.27198889056308 0 -44.27198889056308 -21.528727220069413 0 0 0 0 39.271974415855766 -20.191531678713773 0 -20.191531678713773 -15.024417764285317 0 0 0 0 4.9097431871705339 -37.625999189267532 0 -37.625999189267532 -11.639833995399385 0 0 0 0 15.776877423093538 -39.58246985342339 0 -39.58246985342339 -12.978090281619188 0 0 0 0 -8.3462046365107199 -30.939984064122655 0 -30.939984064122655 -2.6921881052694516 0 0 0 0 12.087315340554596 -30.335483124021266 0 -30.335483124021266 6.8502423029567581 0 0 0 0 6.4379312267665227 -22.814381365304143 0 -22.814381365304143 1.9946914977517736 0 0 0 0 16.943434209079221 -19.328320542093262 0 -19.328320542093262 11.891883563896968 0 0 0 0 15.18993967373385 -15.329135546489663 0 -15.329135546489663 8.6504349981017441 0 0 0 0 -10.837887780670826 -59.46496666451003 0 -59.46496666451003 -12.524956388231658 0 0 0 0 6.0491591842162187 -13.857707575217095 0 -13.857707575217095 18.025464708132233 0 0 0 0 27.000206567316127 -9.6583527514467278 0 -9.6583527514467278 -5.0193513154954417 0 0 0 0 10.628796090355237 -10.843816528601897 0 -10.843816528601897 6.7207335427068102 0 0 0 0 33.975697611287615 -97.022675384445392 0 -97.022675384445392 -204.08523218805476 0 0 0 0 21.641833375048009 -6.4580853689058131 0 -6.4580853689058131 -5.7394156877949172 0 0 0 0 59.227402445056214 -15.63697533713821 0 -15.63697533713821 -19.439392983866128 0 0 0 0 36.178316830741096 2.2837236806481087 0 2.2837236806481087 8.4750612741281728 0 0 0 0 22.86085425841884 -27.09265098911419 0 -27.09265098911419 -9.8450873660076468 0 0 0 0 35.154972811780681 -20.570977003111693 0 -20.570977003111693 -12.468530474430736 0 0 0 0 13.993093446901185 0.8897269274602877 0 0.8897269274602877 -16.995537268370626 0 0 0 0 32.516941209436482 -29.251219506164489 0 -29.251219506164489 -17.164077541361621 0 0 0 0 12.832668819984832 -4.505675706159721 0 -4.505675706159721 -11.573870798043814 0 0 0 0 27.069298722162785 15.554914883972742 0 15.554914883972742 -15.117716747990926 0 0 0 0 6.3400646693844465 -10.937752414101851 0 -10.937752414101851 26.635363213164965 0 0 0 0 19.235858915333665 -4.245322952807328 0 -4.245322952807328 -22.70205735667696 0 0 0 0 7.2513437074196574 0.36305735703299291 0 0.36305735703299291 -3.9395974392599022 0 0 0 0 6.0583704302313564 -8.2667173001300966 0 -8.2667173001300966 -13.854233227504082 0 0 0 0 2.6036012772606227 -14.167037920235089 0 -14.167037920235089 -37.155088936469838 0 0 0 0 4.3068582236514885 -3.6552752794114696 0 -3.6552752794114696 -0.6420655580243988 0 0 0 0 -4.6268352423494434 -15.648485935447752 0 -15.648485935447752 -4.3488559233555861 0 0 0 0 12.096685287505601 -11.794043962845429 0 -11.794043962845429 5.308188090829649 0 0 0 0 18.662826083996151 -60.854065041941794 0 -60.854065041941794 -32.8900430843496 0 0 0 0 15.813673291432423 -9.0119167772060962 0 -9.0119167772060962 0.56594115128551437 0 0 0 0 35.229928649017438 -73.349295216082282 0 -73.349295216082282 -17.321173754597112 0 0 0 0 22.146156734312171 -7.860852942114434 0 -7.860852942114434 -18.071559254653039 0 0 0 0 -59.325309140460831 -39.565147442888701 0 -39.565147442888701 88.571619071553869 0 0 0 0 27.38126697178069 0.76147468070485047 0 0.76147468070485047 53.298294845626515 0 0 0 0 18.496246912749477 -12.563143355061847 0 -12.563143355061847 -0.64047409050330373 0 0 0 0 48.139554152655364 4.1366483600031643 0 4.1366483600031643 34.464784311978292 0 0 0 0 -7.2452212906013074 -43.895436579165107 0 -43.895436579165107 5.3317517493778723 0 0 0 0 24.486229194842963 -21.590341451694258 0 -21.590341451694258 6.4191922318423167 0 0 0 0 17.546392044204609 -12.036470151624755 0 -12.036470151624755 5.1850569466199836 0 0 0 0 16.825223767337718 -20.696832051549791 0 -20.696832051549791 11.617802469700109 0 0 0 0 2.0628598000085994 0.35388628482313322 0 0.35388628482313322 -3.1932947797901647 0 0 0 0 1.4739718155824519 -20.367266054939115 0 -20.367266054939115 18.839898479431781 0 0 0 0 -6.7341606407412655 -36.373304929183178 0 -36.373304929183178 -0.93237786524696276 0 0 0 0 22.252687102494633 -11.916357385925949 0 -11.916357385925949 24.838455552730011 0 0 0 0 -4.8468911927361322 -19.019136679535734 0 -19.019136679535734 17.963865595744224 0 0 0 0 3.4019026935629881 -22.893125608012269 0 -22.893125608012269 -15.917971863542334 0 0 0 0 0.38976504478341667 -34.007170536311605 0 -34.007170536311605 -24.078310160866408 0 0 0 0 23.666687277893288 -29.387793825586414 0 -29.387793825586414 -3.5693525081733242 0 0 0 0 7.3856416261418651 -8.8721195266023045 0 -8.8721195266023045 0.85475576267241138 0 0 0 0 12.09716379783351 -17.694413854371149 0 -17.694413854371149 5.6300129818049385 0 0 0 0 2.2395054416301718 -22.005150844361197 0 -22.005150844361197 -3.0479163181025797 0 0 0 0 16.97937516105047 -11.327260556875185 0 -11.327260556875185 -2.4555983893392437 0 0 0 0 45.531109437893974 -5.2964329762780835 0 -5.2964329762780835 -26.067052332291496 0 0 0 0 465.69737172069654 -266.81561440658697 0 -266.81561440658697 -795.3330070887896 0 0 0 0 3.2169015899732041 -1.8656627816369387 0 -1.8656627816369387 -8.2685692839495033 0 0 0 0 9.1274212141224638 -15.833420089450485 0 -15.833420089450485 5.168170027502315 0 0 0 0 -799.78542194491729 -441.58170245468136 0 -441.58170245468136 -247.30929143298999 0 0 0 0 -399.18335974038274 -61.649237041720653 0 -61.649237041720653 30.512975161127542 0 0 0 0 -2.5045627848718777 -2.9706814765130929 0 -2.9706814765130929 -0.7070637236056303 0 0 0 0 -4.0697586754744712 -4.2604560792690194 0 -4.2604560792690194 -1.1450067653531946 0 0 0 0 -129.75833033521303 -285.94364102885811 0 -285.94364102885811 -527.02098527090857 0 0 0 0 0.19197050205127653 35.884236873482223 0 35.884236873482223 -234.69818635658157 0 0 0 0 -342.70287651355511 -175.12927946844138 0 -175.12927946844138 60.956943092060101 0 0 0 0 -454.93529557406396 -391.45464782735144 0 -391.45464782735144 -208.2156858764356 0 0 0 0 -557.16601195861926 -364.03992843419837 0 -364.03992843419837 -83.732659402900026 0 0 0 0 -550.13092046410725 -336.18473290023394 0 -336.18473290023394 -110.22732034885121 0 0 0 0 -542.9000132305315 -419.34255933646273 0 -419.34255933646273 -267.65909761554212 0 0 0 0 -1.9981719807494644 -4.5762777019622405 0 -4.5762777019622405 3.1372164322774623 0 0 0 0 32.424552770559785 -24.649771540003712 0 -24.649771540003712 11.450429453539982 0 0 0 0 3.423864474900427 -2.8070136557758882 0 -2.8070136557758882 -0.76665476315645265 0 0 0 0 2.4525387375347236 -142.4770583767131 0 -142.4770583767131 -178.58973745349431 0 0 0 0 -526.49466168465051 -232.35318446864085 0 -232.35318446864085 -184.19879380366183 0 0 0 0 -85.119205007858 -238.89323438320571 0 -238.89323438320571 -213.44391176864156 0 0 0 0 51.699701047779854 -278.90191008111287 0 -278.90191008111287 -240.96400131027622 0 0 0 0 63.769043841330955 -28.497865456652789 0 -28.497865456652789 -79.049195238345419 0 0 0 0 36.106658965402403 -20.592604708406725 0 -20.592604708406725 7.9451108327084512 0 0 0 0 -0.38527478781019298 -1.315409079653648 0 -1.315409079653648 0.81227032327537074 0 0 0 0 54.289264554001079 -46.338293443337534 0 -46.338293443337534 -68.266504380793776 0 0 0 0 63.576319796234202 -13.702385554464854 0 -13.702385554464854 0.89765261848515365 0 0 0 0 27.235083879894319 -29.090678386799482 0 -29.090678386799482 6.7172164102594252 0 0 0 0 49.358613298323235 -35.233952169583063 0 -35.233952169583063 -51.511447027311078 0 0 0 0 23.205047103046581 -49.227718997946795 0 -49.227718997946795 6.8480691731198533 0 0 0 0 35.232570827726249 -53.595087918009085 0 -53.595087918009085 15.90516687706895 0 0 0 0 46.883449442650317 -63.410670711025887 0 -63.410670711025887 -72.687103745622153 0 0 0 0 35.564725772178235 -73.497682837361936 0 -73.497682837361936 -86.165838466047717 0 0 0 0 16.135750208604804 -75.109451510063082 0 -75.109451510063082 -53.718487910736712 0 0 0 0 -69.823419262956349 -130.47930703881502 0 -130.47930703881502 -62.125914282529266 0 0 0 0 3.0894541213631328 -120.31374204228473 0 -120.31374204228473 -112.88133840107912 0 0 0 0 11.778887771475183 -82.806843219594157 0 -82.806843219594157 -71.322077584565704 0 0 0 0 4.94748030724557 -77.085748368255395 0 -77.085748368255395 -60.426085293511278 0 0 0 0 -42.555876859949052 -90.740825337486342 0 -90.740825337486342 -49.721956784691429 0 0 0 0 -41.708792387370153 -116.31025801493757 0 -116.31025801493757 -54.987655636505224 0 0 0 0 -182.13105636844284 -118.54728762707236 0 -118.54728762707236 -14.12136710408231 0 0 0 0 -35.9860336502461 -79.809535697044339 0 -79.809535697044339 -8.580371237598456 0 0 0 0 11.354068269812714 -16.734813354862805 0 -16.734813354862805 15.492223744256421 0 0 0 0 -32.50127496280561 -35.282906869465933 0 -35.282906869465933 6.2532642757723806 0 0 0 0 33.325702137531088 -24.565971578189409 0 -24.565971578189409 -1.9318479621265254 0 0 0 0 -6.0023259660770769 -9.1440539883565712 0 -9.1440539883565712 18.234463192871544 0 0 0 0 -168.13878979444422 -108.82922117348653 0 -108.82922117348653 -20.897875226888573 0 0 0 0 5.2403244524656429 -19.980296438261121 0 -19.980296438261121 15.994937084775302 0 0 0 0 6.0466158094465436 -15.064999558215087 0 -15.064999558215087 16.951611309711112 0 0 0 0 6.5436379110415146 -18.768262713439981 0 -18.768262713439981 7.865262778835131 0 0 0 0 -537.63177686241579 -12.341477020374441 0 -12.341477020374441 164.47323295693786 0 0 0 0 -130.66874142688675 -200.35435321772093 0 -200.35435321772093 -90.353013998614188 0 0 0 0 -76.508672929385597 -163.21249443870602 0 -163.21249443870602 -71.942884780160966 0 0 0 0 -186.461368508953 -280.80138066675863 0 -280.80138066675863 -141.04346679193259 0 0 0 0 -33.633227684638086 -141.48827152011108 0 -141.48827152011108 -128.01885937866609 0 0 0 0 -135.36488440729227 -350.6062676539168 0 -350.6062676539168 113.0021065416804 0 0 0 0 -96.71410399657907 -50.553502127751926 0 -50.553502127751926 138.15575353179884 0 0 0 0 0.085783972172066569 -203.45481421698423 0 -203.45481421698423 -194.08531738243255 0 0 0 0 179.45599366526585 -176.68273160311219 0 -176.68273160311219 -190.07872572091219 0 0 0 0 407.77129240053182 -16.097302956966814 0 -16.097302956966814 -79.240808005986764 0 0 0 0 248.74321174424404 -9.1713461693034333 0 -9.1713461693034333 205.67903365411485 0 0 0 0 141.06511539563871 -302.06193495893058 0 -302.06193495893058 146.68497032499727 0 0 0 0 28.875423878725996 -248.77390514026774 0 -248.77390514026774 165.96210217296903 0 0 0 0 28.420189078685326 -249.69279176929149 0 -249.69279176929149 172.37917832795938 0 0 0 0 -5.5369754369457951 -153.00078152830611 0 -153.00078152830611 117.85009830060881 0 0 0 0 -35.568025218075491 -205.79521057371312 0 -205.79521057371312 294.61099218278832 0 0 0 0 0.84283652641170193 -179.05415933742006 0 -179.05415933742006 213.25256073005585 0 0 0 0 107.11009505052402 -85.353690432278654 0 -85.353690432278654 11.444947006610164 0 0 0 0 97.637466768952436 -233.61625331003233 0 -233.61625331003233 165.39260763351194 0 0 0 0 -13.831149606659892 -41.126297619419347 0 -41.126297619419347 34.809740239885286 0 0 0 0 -12.352146760340219 -8.2643304370771062 0 -8.2643304370771062 2.4521231070763356 0 0 0 0 32.815748726370657 -38.744314553318873 0 -38.744314553318873 37.027818848575407 0 0 0 0 -1.3709971198040876 -120.10723368218532 0 -120.10723368218532 158.10749926560675 0 0 0 0 -1.7924728336536475 -2.7398226001928947 0 -2.7398226001928947 -4.7783737463820373 0 0 0 0 -17.333529658120824 -24.641221214824327 0 -24.641221214824327 47.790867514260754 0 0 0 0 -7.4981526510809715 -9.3292225892793255 0 -9.3292225892793255 0.69867827639200542 0 0 0 0 -1.6706248064510874 -36.93056973486091 0 -36.93056973486091 208.70303904384491 0 0 0 0 -20.877216390115791 -47.225821388838085 0 -47.225821388838085 245.86267024262543 0 0 0 0 -17.718841889232863 -38.31262487289132 0 -38.31262487289132 37.935113954699773 0 0 0 0 0.08791008148831736 -3.6747094139206098 0 -3.6747094139206098 -1.0747329150565292 0 0 0 0 -30.652903651323868 167.57711255457252 0 167.57711255457252 487.08689536053134 0 0 0 0 -62.84740549181879 -238.98097307397984 0 -238.98097307397984 494.9105230822048 0 0 0 0 -20.385523252729854 -299.82008684223013 0 -299.82008684223013 321.63736076239729 0 0 0 0 22.207784863814595 -284.27986156103725 0 -284.27986156103725 191.39975402424898 0 0 0 0 -0.035856688315107021 -259.93701044338377 0 -259.93701044338377 263.64430722016732 0 0 0 0 -13.990424565465332 -113.64219435133259 0 -113.64219435133259 595.04261698648043 0 0 0 0 25.408020352566382 -133.75352642968892 0 -133.75352642968892 584.34342652596388 0 0 0 0 5.2254157337592915 -20.698652409846545 0 -20.698652409846545 -42.829105233912742 0 0 0 0 1.1489833179663265 -0.32594228390793489 0 -0.32594228390793489 -1.2081395144752758 0 0 0 0 -0.0016341713780170007 -30.780790354231154 0 -30.780790354231154 -22.631547738557856 0 0 0 0 -11.47655689730891 -21.609381105154171 0 -21.609381105154171 -0.42606753514701268 0 0 0 0 -3.2640386199904299 -1.5417569577516375 0 -1.5417569577516375 -4.3891160520752841 0 0 0 0 -0.19186657547511032 -7.1110325347180208 0 -7.1110325347180208 -12.659835308340831 0 0 0 0 -5.6681883587152697 -8.0304269872249279 0 -8.0304269872249279 -17.584523356879799 0 0 0 0 -2.7426121490716469 -11.499444341276103 0 -11.499444341276103 -18.41104816844836 0 0 0 0 -0.063930692294619007 -3.3136987174176653 0 -3.3136987174176653 -18.136349380593145 0 0 0 0 -585.59414124142495 -712.79444717035767 0 -712.79444717035767 -535.56812847380206 0 0 0 0 -224.63602162954339 -540.6747925078198 0 -540.6747925078198 -1002.2587813566365 0 0 0 0 -1396.3723712517858 -1166.5093026989871 0 -1166.5093026989871 0.21315930785640971 0 0 0 0 -217.69265126308346 -962.15805616159196 0 -962.15805616159196 -410.1764048373152 0 0 0 0 -0.51812511165553587 -797.77116557290265 0 -797.77116557290265 -708.39051780572481 0 0 0 0 2.2402242793395999 -40.36293634863614 0 -40.36293634863614 -0.012523272325779544 0 0 0 0 -0.85163737571001974 -0.98269921108132507 0 -0.98269921108132507 -5.4651898663999248 0 0 0 0 49.381224191305591 -19.898875641088125 0 -19.898875641088125 -18.638640310709889 0 0 0 0 -4.5323258975622593 -14.24593729096523 0 -14.24593729096523 -14.122771015070612 0 0 0 0 -3.2859653263476503 -26.285479578666127 0 -26.285479578666127 -19.518768723835819 0 0 0 0 0.28357269906155125 -16.308424513510545 0 -16.308424513510545 -30.388864994525647 0 0 0 0 -13.825063835691253 -10.773336397189269 0 -10.773336397189269 -8.8580499404051807 0 0 0 0 -8.6634947754187976 -13.461212869648989 0 -13.461212869648989 -4.9969319096585103 0 0 0 0 -3.862495350651443 -12.290366970995819 0 -12.290366970995819 -20.70171029226276 0 0 0 0 -16.640556674243271 -13.909319525826504 0 -13.909319525826504 -10.367016427109775 0 0 0 0 -13.312846956163412 -17.01676954805589 0 -17.01676954805589 -14.941041121142916 0 0 0 0 -19.901785285415826 -20.035853981960827 0 -20.035853981960827 -14.99042536276238 0 0 0 0 -18.189139435555262 -14.686787164759153 0 -14.686787164759153 -11.966526054726273 0 0 0 0 -7.3739393974317125 -7.9423656629850967 0 -7.9423656629850967 -6.5209209325359438 0 0 0 0 -12.624981503849654 -12.515836363750026 0 -12.515836363750026 0.10743045990310662 0 0 0 0 -18.410694760557817 -17.641462227977172 0 -17.641462227977172 -26.949859054628178 0 0 0 0 -3.3639752341210141 -2.9187864187658619 0 -2.9187864187658619 -1.4804393107209393 0 0 0 0 -15.412537020997434 -12.798307035002388 0 -12.798307035002388 5.2424653116036612 0 0 0 0 -15.662535469271461 -16.49101882753348 0 -16.49101882753348 4.605778924007609 0 0 0 0 -16.95838182965386 -17.849232360549514 0 -17.849232360549514 -2.8026813937976485 0 0 0 0 -13.407217917527305 -14.687446687996271 0 -14.687446687996271 5.4064164205992711 0 0 0 0 -20.18156332789286 -19.466910437360525 0 -19.466910437360525 -9.2116845442681381 0 0 0 0 -8.3770002334556466 -9.1792713456288837 0 -9.1792713456288837 0.66415134218028271 0 0 0 0 -4.5803053602576256 -8.8399501412641257 0 -8.8399501412641257 -10.173973044205923 0 0 0 0 -12.793628910330881 -16.377139760810678 0 -16.377139760810678 -15.415984423219925 0 0 0 0 -9.5764778397200985 -10.101837647981327 0 -10.101837647981327 -6.4617838667899008 0 0 0 0 -11.914459737123245 -16.322012333325901 0 -16.322012333325901 -18.796315937302268 0 0 0 0 -2.8899041242143184 -1.0058939108216691 0 -1.0058939108216691 0.20421641494701248 0 0 0 0 -38.324520158937958 -30.046750055467783 0 -30.046750055467783 -6.3956241388477792 0 0 0 0 -3.5345747498959099 -11.514073440524953 0 -11.514073440524953 -9.3275269702498917 0 0 0 0 -26.271047333124443 -25.998492207716481 0 -25.998492207716481 3.3340867772094498 0 0 0 0 -25.765515468345257 -21.082430920389015 0 -21.082430920389015 -15.454430534973653 0 0 0 0 -60.624753561183752 -36.034987009483302 0 -36.034987009483302 0.0032657936280884314 0 0 0 0 20.489410804151703 -50.198777215978225 0 -50.198777215978225 0.0050960244225279894 0 0 0 0 -16.766284206503769 -40.112084614826017 0 -40.112084614826017 10.752129649782546 0 0 0 0 57.130353474387448 -15.104947330888535 0 -15.104947330888535 -6.7247358192762476 0 0 0 0 -0.51238755694311067 1.1808698738065146 0 1.1808698738065146 1.03114667328677 0 0 0 0 -3.7615985167212784 -8.1005618494455121 0 -8.1005618494455121 2.9828393156603852 0 0 0 0 -21.179576012455072 -47.983237924931018 0 -47.983237924931018 8.9006558761975612 0 0 0 0 -21.972318378884665 -56.194862720500169 0 -56.194862720500169 -56.822970246430486 0 0 0 0 -37.721241109498806 -50.731379466273211 0 -50.731379466273211 -4.0623610979673686 0 0 0 0 -1.0608256113147405 -0.55835518664370909 0 -0.55835518664370909 1.1253894865635203 0 0 0 0 5.9471759841180756 -26.593455059108237 0 -26.593455059108237 13.236814648946165 0 0 0 0 -18.469953298318245 -13.856635788013378 0 -13.856635788013378 6.7235132599441503 0 0 0 0 -18.887107478269172 -9.7620180411422552 0 -9.7620180411422552 27.958310092879401 0 0 0 0 -14.746030613794574 -34.613308172207326 0 -34.613308172207326 -36.367093019616732 0 0 0 0 -18.556485734203932 -17.170217746885683 0 -17.170217746885683 -4.5049458038218866 0 0 0 0 -33.500765889933973 -31.970347292568476 0 -31.970347292568476 -7.7623416863862076 0 0 0 0 -22.383919484673243 -13.45363533681666 0 -13.45363533681666 -42.58613573769253 0 0 0 0 -19.51221394683094 -19.041720321323794 0 -19.041720321323794 -4.0137172094242857 0 0 0 0 -32.258231008986968 -24.839070574019161 0 -24.839070574019161 -1.9687191744378651 0 0 0 0 -28.92713731479671 -16.397291059917734 0 -16.397291059917734 92.881664662381809 0 0 0 0 -88.560238446312724 -26.081923743151492 0 -26.081923743151492 73.393654867397345 0 0 0 0 -82.563530634810775 -37.222303837076311 0 -37.222303837076311 85.899837729506544 0 0 0 0 -20.504189625713479 38.406648154659706 0 38.406648154659706 60.566419992372175 0 0 0 0 -84.130155062552149 35.573643078790525 0 35.573643078790525 87.508827088480757 0 0 0 0 -55.746673233181355 0.62966797693297849 0 0.62966797693297849 123.58251084111271 0 0 0 0 -13.678729323059088 16.674590843920669 0 16.674590843920669 91.836667573694285 0 0 0 0 27.861416019393801 46.998068450252504 0 46.998068450252504 62.171538258102373 0 0 0 0 -13.151219931656669 19.0188057617288 0 19.0188057617288 73.714431692223116 0 0 0 0 -21.850435273845505 -30.324894310482705 0 -30.324894310482705 26.515994708443031 0 0 0 0 -10.462391584806028 -8.4919653335746261 0 -8.4919653335746261 -8.7273814888385459 0 0 0 0 -15.4570811277095 -7.340739058334961 0 -7.340739058334961 5.0334755700857734 0 0 0 0 -3.1835256684971114 -6.5369359805613243 0 -6.5369359805613243 10.057974314898303 0 0 0 0 -15.686058605475409 -19.605715864074227 0 -19.605715864074227 45.132708618599281 0 0 0 0 -21.308679915237008 43.243398586129842 0 43.243398586129842 72.564215342086754 0 0 0 0 353.16403521052416 -171.19727622256505 0 -171.19727622256505 35.397677375387502 0 0 0 0 1.290817752859212 -0.91559920612546364 0 -0.91559920612546364 4.1434842919433379 0 0 0 0 125.2349982602791 140.91463463741093 0 140.91463463741093 98.885443426541315 0 0 0 0 198.68589095503557 -221.63492321360354 0 -221.63492321360354 231.09512897426794 0 0 0 0 -21.317107113408838 -6.4821775099710521 0 -6.4821775099710521 26.997229081265687 0 0 0 0 -232.86677705245529 47.964943983177363 0 47.964943983177363 68.595588201766077 0 0 0 0 -12.283494599683763 -87.1304241859998 0 -87.1304241859998 -184.0753731755849 0 0 0 0 -43.471963218587916 -151.77159958731136 0 -151.77159958731136 -239.36690347207332 0 0 0 0 -332.5077682035917 -122.60322702103986 0 -122.60322702103986 30.563388666185347 0 0 0 0 -130.37624651031933 -70.49721895589704 0 -70.49721895589704 29.648242104976816 0 0 0 0 -139.2240360177675 90.9365635606664 0 90.9365635606664 60.935157625215652 0 0 0 0 -17.583031654161459 -64.317895717704232 0 -64.317895717704232 17.603963688550721 0 0 0 0 -21.50726918552391 -86.321342336465023 0 -86.321342336465023 -43.059033957819565 0 0 0 0 -44.059187768855338 -94.005510034018954 0 -94.005510034018954 -100.3533585049845 0 0 0 0 -25.665157680130505 -55.399351076586754 0 -55.399351076586754 -40.404589140960297 0 0 0 0 -0.11786579830591393 -0.27826456532886823 0 -0.27826456532886823 0.67974103799112129 0 0 0 0 -7.6897012698664184 -92.918947894473149 0 -92.918947894473149 -52.612472475811956 0 0 0 0 89.493288312813092 15.152890002878848 0 15.152890002878848 -5.642321578178553 0 0 0 0 87.421933555509895 -69.550241695455043 0 -69.550241695455043 -31.380546229986066 0 0 0 0 10.519057752804656 -131.02566544363435 0 -131.02566544363435 -41.383761815442654 0 0 0 0 52.319687931427325 -65.774458395368129 0 -65.774458395368129 -17.023858935292083 0 0 0 0 103.82771555201998 -78.718694063051771 0 -78.718694063051771 -40.093123733648099 0 0 0 0 -0.37840017048124253 -0.64953620757477282 0 -0.64953620757477282 -1.1580628114997751 0 0 0 0 89.374063940811538 -34.712656508872442 0 -34.712656508872442 10.505072709638625 0 0 0 0 57.058578176813171 -69.433920563376887 0 -69.433920563376887 -47.08997306018864 0 0 0 0 66.67640743850643 -39.43961760298771 0 -39.43961760298771 34.748619375858652 0 0 0 0 90.673938525134872 -88.624577837814286 0 -88.624577837814286 17.522120488617475 0 0 0 0 30.615969573413167 -52.367571104981835 0 -52.367571104981835 50.102787625281053 0 0 0 0 -68.144239909255703 22.938935828980902 0 22.938935828980902 -3.3675390644129948 0 0 0 0 -0.71153796968732763 -1.7851509710991316 0 -1.7851509710991316 -3.4488298263249249 0 0 0 0 -16.959923868620535 -6.4418580437777564 0 -6.4418580437777564 1.1058527440568469 0 0 0 0 -35.387611356261914 2.5936629018751773 0 2.5936629018751773 28.27079222523389 0 0 0 0 -6.6611255574108839 -4.5953953128286926 0 -4.5953953128286926 -0.82493774527779351 0 0 0 0 14.212811499171949 -69.734995339067609 0 -69.734995339067609 46.405144444143389 0 0 0 0 -9.2142231832149264 -47.946960540748478 0 -47.946960540748478 68.819523490452411 0 0 0 0 9.0176004596105486 -81.975366088841838 0 -81.975366088841838 14.231764286432735 0 0 0 0 -89.650643275363109 -98.835592271587302 0 -98.835592271587302 32.178159829403739 0 0 0 0 -56.395998966665502 -62.260428851404868 0 -62.260428851404868 71.972088147234899 0 0 0 0 -58.503557673819159 -34.462715206988833 0 -34.462715206988833 126.95430008355106 0 0 0 0 -15.515161864524998 -50.439537317855866 0 -50.439537317855866 71.717619262374853 0 0 0 0 -20.506631938168482 -12.447862460527411 0 -12.447862460527411 5.2804023234201551 0 0 0 0 -25.440553778433241 -15.495246142556425 0 -15.495246142556425 48.196586809568544 0 0 0 0 -25.838466968067223 -19.714348348570638 0 -19.714348348570638 30.854696609596431 0 0 0 0 -4.6566529648262076 -36.948164185621863 0 -36.948164185621863 24.213436954487406 0 0 0 0 -20.3216634709473 -15.747180936105202 0 -15.747180936105202 -2.2419852838450396 0 0 0 0 -21.350851975107901 -15.317229890160135 0 -15.317229890160135 3.6110785569835464 0 0 0 0 -49.144528886768967 -21.622611585255072 0 -21.622611585255072 23.267013984601363 0 0 0 0 -10.317190190344263 -11.238174835389145 0 -11.238174835389145 23.726581125356461 0 0 0 0 -8.0086960764588113 -3.4565037549791704 0 -3.4565037549791704 7.5126181933727594 0 0 0 0 -29.757482335104214 -45.141653237771607 0 -45.141653237771607 7.1481211035497836 0 0 0 0 -27.649555699499615 -44.16794878527071 0 -44.16794878527071 1.1113688904079027 0 0 0 0 -21.525165839662805 -37.500212485341763 0 -37.500212485341763 -18.390450913091627 0 0 0 0 -19.852215042297757 -28.617092778447841 0 -28.617092778447841 13.849169618952146 0 0 0 0 -19.35786654765252 -47.538201165505598 0 -47.538201165505598 -3.8260038451298897 0 0 0 0 -27.928451229679922 -47.636510876389366 0 -47.636510876389366 3.7208627839463588 0 0 0 0 -23.60532585468718 -51.51586102571855 0 -51.51586102571855 2.5805062262370484 0 0 0 0 -28.905603834536123 -49.563603369056182 0 -49.563603369056182 9.8716444284727913 0 0 0 0 -38.214940719259175 -51.951818652509246 0 -51.951818652509246 9.3914223282044986 0 0 0 0 -25.193327531100294 -56.974584479143232 0 -56.974584479143232 0.026675871369661763 0 0 0 0 -14.410666527102876 -46.712803065758635 0 -46.712803065758635 3.5904768128020805 0 0 0 0 -144.14883307732816 -23.948386803538597 0 -23.948386803538597 14.892746656249983 0 0 0 0 -72.060328085006404 -58.424878318866831 0 -58.424878318866831 -0.093748213595972629 0 0 0 0 -37.060467455179605 -46.010912146472037 0 -46.010912146472037 -4.303615806329617 0 0 0 0 -62.602815957146959 -44.766649738910928 0 -44.766649738910928 20.48567366230418 0 0 0 0 -87.312470862561895 -10.651915430033114 0 -10.651915430033114 27.452431759949832 0 0 0 0 -50.746676597373153 -27.293037023282523 0 -27.293037023282523 12.641861154404069 0 0 0 0 -28.985630836699784 -6.1666804078158748 0 -6.1666804078158748 27.670305853949685 0 0 0 0 -11.050701918436971 -21.203612277116918 0 -21.203612277116918 40.633108475257359 0 0 0 0 -57.87907333149451 -32.316669878620814 0 -32.316669878620814 43.460988882463425 0 0 0 0 -36.793558453937294 -47.385313303628209 0 -47.385313303628209 29.047840070743405 0 0 0 0 -28.651369241953944 -37.257124504001695 0 -37.257124504001695 19.565839881242482 0 0 0 0 -19.854789074549416 -15.72021045432875 0 -15.72021045432875 3.5347271991082145 0 0 0 0 -24.014523419082252 -18.887325545678323 0 -18.887325545678323 21.972613542940962 0 0 0 0 -19.537093531445436 -13.363215133287255 0 -13.363215133287255 -3.1467933460804014 0 0 0 0 -20.531724422078696 -16.789346360910713 0 -16.789346360910713 18.583460147878213 0 0 0 0 -33.661107341085881 -27.665212166437414 0 -27.665212166437414 46.702493198892626 0 0 0 0 -22.21930151031755 -9.8435980323140946 0 -9.8435980323140946 17.693127554439258 0 0 0 0 -45.216976103876732 -6.5472772861994599 0 -6.5472772861994599 77.37129322392866 0 0 0 0 -18.628808874169408 -15.097801027693095 0 -15.097801027693095 11.792992266222427 0 0 0 0 -22.082841123047814 -14.687977362693786 0 -14.687977362693786 3.2023198159268489 0 0 0 0 -25.455398341633554 -19.603274582048471 0 -19.603274582048471 22.067779251556203 0 0 0 0 -20.664307930230279 -7.8793765730588348 0 -7.8793765730588348 13.200295590679161 0 0 0 0 -26.959759986057179 -19.656164051179076 0 -19.656164051179076 17.12077726458665 0 0 0 0 -29.918550854934438 -15.460703358421597 0 -15.460703358421597 26.220603518042481 0 0 0 0 -24.406999721870193 -15.099047068469616 0 -15.099047068469616 6.1042115842487625 0 0 0 0 -20.53991405893612 -17.740843422063335 0 -17.740843422063335 1.8633289495110148 0 0 0 0 -19.181470272054867 -1.501529056507934 0 -1.501529056507934 19.217285303511744 0 0 0 0 -3.9360981246208553 -1.6983262430353818 0 -1.6983262430353818 10.899943187680975 0 0 0 0 -30.424696082805895 10.745177094722749 0 10.745177094722749 48.028659365978456 0 0 0 0 -29.048840646169992 -20.486001138498978 0 -20.486001138498978 48.261256439112913 0 0 0 0 -28.182732524546736 15.014039380845134 0 15.014039380845134 -8.7762671110976953 0 0 0 0 -29.07418024452636 16.978668353935063 0 16.978668353935063 2.8202634860717808 0 0 0 0 0.10090605311177647 1.4716565068413132 0 1.4716565068413132 -0.23533403572795919 0 0 0 0 0.28813666904601121 -1.1077610291803879 0 -1.1077610291803879 -1.7209770681188417 0 0 0 0 -3.5217441920940473 -1.1276545959249233 0 -1.1276545959249233 0.71209836506022839 0 0 0 0 1.0390833868805203 -2.4595094720862107 0 -2.4595094720862107 -0.0013580943596177663 0 0 0 0 0.7694585627588566 -0.63558716577524166 0 -0.63558716577524166 -1.3512336750555392 0 0 0 0 -127.91245945353603 61.331194275521739 0 61.331194275521739 -29.798589896869089 0 0 0 0 -3.3782898143799684 -27.5458853078635 0 -27.5458853078635 0.0012398026065521281 0 0 0 0 4.8963948367163539 -13.992577198077925 0 -13.992577198077925 8.4329546242515789 0 0 0 0 27.370651382432698 -22.138783274595198 0 -22.138783274595198 -0.00023514351778430864 0 0 0 0 -12.613788026304974 -10.836104955844348 0 -10.836104955844348 10.09616932865174 0 0 0 0 -4.4648634309788235 -5.1953516726030813 0 -5.1953516726030813 -3.7780363618880841 0 0 0 0 4.1409225953066198 -25.149797040605335 0 -25.149797040605335 11.508288390576126 0 0 0 0 -4.3336973128789396 -17.02611561699814 0 -17.02611561699814 15.437253207572212 0 0 0 0 -14.270315489717177 -28.529995062366652 0 -28.529995062366652 4.2297542189935484 0 0 0 0 -13.507261772276848 -10.249742517937676 0 -10.249742517937676 -2.6600073082779403 0 0 0 0 -18.360993203640646 -27.397194451174983 0 -27.397194451174983 19.757468698488083 0 0 0 0 -7.2458106864360161 -19.497918689903599 0 -19.497918689903599 11.776479395201932 0 0 0 0 -10.035005060767446 -14.721826289815922 0 -14.721826289815922 -2.9421532998266784 0 0 0 0 -12.499776966554236 -11.659798853277607 0 -11.659798853277607 7.1039005798811559 0 0 0 0 -7.6090051040737308 -12.139365624236234 0 -12.139365624236234 -3.3506793111937441 0 0 0 0 -12.122399512432324 -11.405539860463506 0 -11.405539860463506 7.585956082993647 0 0 0 0 -4.5875131457214593 -7.1508381234889384 0 -7.1508381234889384 3.6738603914200212 0 0 0 0 -28.716038984261104 -18.329610522778239 0 -18.329610522778239 31.954407677949348 0 0 0 0 -12.506616723988479 -10.226654904048331 0 -10.226654904048331 15.188994603195511 0 0 0 0 -26.342789661590359 -24.503481638847006 0 -24.503481638847006 19.799482908183563 0 0 0 0 -14.399730593213462 -21.235078790687112 0 -21.235078790687112 15.675850724161137 0 0 0 0 -29.527337625942891 -32.786908881535055 0 -32.786908881535055 5.9309383089603216 0 0 0 0 -25.411137782072728 -33.768264801555233 0 -33.768264801555233 6.1568018581892829 0 0 0 0 -27.534205499760901 -20.128785477725614 0 -20.128785477725614 9.4213724309811369 0 0 0 0 -16.540499021131836 -33.165338730061194 0 -33.165338730061194 0.34395089617100894 0 0 0 0 -19.727687971979321 -40.483762628231489 0 -40.483762628231489 -1.2769426797112828 0 0 0 0 -15.684193267922183 -32.549339054156462 0 -32.549339054156462 0.65659538087493274 0 0 0 0 -6.9713703972520307 -41.414160730961157 0 -41.414160730961157 -7.5104532396326249 0 0 0 0 -19.953473691733961 -40.496544582085335 0 -40.496544582085335 -0.25614182457502466 0 0 0 0 -32.956287943787174 -40.884297013362811 0 -40.884297013362811 0.048059883731184527 0 0 0 0 -16.700626127163559 -48.366871616559365 0 -48.366871616559365 -7.5395219409256242 0 0 0 0 -22.12136593410105 -44.849275394139113 0 -44.849275394139113 -4.3676930867513875 0 0 0 0 -38.508537814268493 -60.974293190618482 0 -60.974293190618482 -11.648767635386321 0 0 0 0 24.481782242455665 -55.58978807924359 0 -55.58978807924359 -36.314149779362197 0 0 0 0 -4.0760121347411769 -34.799895111584192 0 -34.799895111584192 -11.230471335036782 0 0 0 0 -8.4471614768172003 -49.281654674325182 0 -49.281654674325182 -16.487421845959034 0 0 0 0 -152.92961783724604 -28.084681733376783 0 -28.084681733376783 -23.473930180232855 0 0 0 0 4.8249402059163806 -1.6629535650787872 0 -1.6629535650787872 -3.7976530959567469 0 0 0 0 -167.34689151485509 -35.777634083482553 0 -35.777634083482553 9.0933251850947272 0 0 0 0 -75.8672544893343 -68.114031591598177 0 -68.114031591598177 -17.575518027617363 0 0 0 0 -95.781710743991425 -93.514581854975404 0 -93.514581854975404 -16.985392779315589 0 0 0 0 -64.493318471992097 -80.62802830018336 0 -80.62802830018336 -20.312048885837612 0 0 0 0 -53.12554409178847 -30.156251146036084 0 -30.156251146036084 0.71795077216779646 0 0 0 0 -88.75376702361973 -17.156129731534747 0 -17.156129731534747 0.45110957727592904 0 0 0 0 -89.954164645358105 -15.758625440284959 0 -15.758625440284959 -0.89205633822712116 0 0 0 0 -87.957306316529866 -14.196019683113263 0 -14.196019683113263 -3.9120293598680291 0 0 0 0 -78.947094857896445 -18.37041108419362 0 -18.37041108419362 -4.4188411763025215 0 0 0 0 -2.5290005267212727 -0.58106443689139553 0 -0.58106443689139553 -0.12675976826477608 0 0 0 0 -55.171481588397 -23.295088225411746 0 -23.295088225411746 1.363521232153289 0 0 0 0 -0.78680958198675555 -18.836781112286126 0 -18.836781112286126 -5.5060448541146059 0 0 0 0 -52.641027581419621 -30.451835230302095 0 -30.451835230302095 0.76527381902269553 0 0 0 0 -50.453420632529742 -9.5263867995709006 0 -9.5263867995709006 -5.1099251849373104 0 0 0 0 -60.509901957542752 -38.079133767158055 0 -38.079133767158055 2.0725655384158017 0 0 0 0 -48.574410551675101 -26.959528888473869 0 -26.959528888473869 1.755125934316311 0 0 0 0 -45.201135881536175 -39.97869620230631 0 -39.97869620230631 2.0869562227162533 0 0 0 0 -30.978432717805845 -38.25783030394814 0 -38.25783030394814 -0.91470936145924497 0 0 0 0 -36.99306011738372 -30.257961871138832 0 -30.257961871138832 0.23819104779977351 0 0 0 0 -40.192234862151963 -32.496804914990207 0 -32.496804914990207 2.5122806237923214 0 0 0 0 -32.367505179569207 -35.586069799973075 0 -35.586069799973075 3.1822031234041788 0 0 0 0 -42.533504700259073 -28.684394317024271 0 -28.684394317024271 -15.579139759065583 0 0 0 0 -45.577752350567607 -25.061913946105051 0 -25.061913946105051 2.0117281458515208 0 0 0 0 -31.976906093183516 -25.314068774853922 0 -25.314068774853922 1.6025024184491485 0 0 0 0 -63.020316593523603 -22.007781555512338 0 -22.007781555512338 26.927453844633419 0 0 0 0 0.89741144143437168 -6.4066962966552907 0 -6.4066962966552907 -0.80781515586231123 0 0 0 0 -35.107066965734703 -40.855613399820868 0 -40.855613399820868 12.154123140579031 0 0 0 0 -10.89736934224311 -31.337289751014396 0 -31.337289751014396 2.9799650182831101 0 0 0 0 -23.739030844796062 -14.702579689476593 0 -14.702579689476593 1.0311663946106195 0 0 0 0 -29.549148910500662 -32.592402917254731 0 -32.592402917254731 23.160259033516922 0 0 0 0 -22.127297273246029 -11.983139181943358 0 -11.983139181943358 -1.5885090755701441 0 0 0 0 -40.883060662905336 -21.446279267264799 0 -21.446279267264799 47.615648005656112 0 0 0 0 -31.54619114909292 -8.4600639724485518 0 -8.4600639724485518 11.389903111266904 0 0 0 0 -49.088694926977041 -16.157044176649833 0 -16.157044176649833 8.297838172838965 0 0 0 0 -19.167855231353315 -41.639666022862002 0 -41.639666022862002 -7.5422642645571614 0 0 0 0 17.526448390155565 -36.546132743853377 0 -36.546132743853377 -9.6184126349207872 0 0 0 0 -37.875711791664799 -76.091842227000598 0 -76.091842227000598 -12.515367000734841 0 0 0 0 5.577058175965 -15.951068707795358 0 -15.951068707795358 0.11612793117903664 0 0 0 0 -146.2560405600525 -59.40215626796271 0 -59.40215626796271 6.0508410091897531 0 0 0 0 -190.61867160032853 38.824571815577656 0 38.824571815577656 3.3375821198987978 0 0 0 0 -101.4191329494206 16.122456361801596 0 16.122456361801596 -11.450089155274327 0 0 0 0 53.593182782424265 6.1413543659564311 0 6.1413543659564311 -80.401229817407511 0 0 0 0 2.9348811216677859 -27.349241082943081 0 -27.349241082943081 -37.596141393791186 0 0 0 0 9.2650284534191059 -15.151457610234274 0 -15.151457610234274 1.3938795697348638 0 0 0 0 -2.9886979289030933 -68.311133711375078 0 -68.311133711375078 10.412798111865413 0 0 0 0 -0.47651813218265104 -0.85262239995117994 0 -0.85262239995117994 -1.4056508980508795 0 0 0 0 -266.03332019214577 -125.67001809048088 0 -125.67001809048088 19.569921104601235 0 0 0 0 -0.61933891889789194 -0.91409851380673501 0 -0.91409851380673501 -1.0656530167963041 0 0 0 0 -20.561570778418172 -96.691622923412069 0 -96.691622923412069 -72.637237706410815 0 0 0 0 -504.36578338400068 -169.49844666134595 0 -169.49844666134595 -44.490112801388022 0 0 0 0 -372.76063386516034 128.127615983336 0 128.127615983336 207.0924694906862 0 0 0 0 112.57560839573853 82.001827798616432 0 82.001827798616432 -17.976778443491412 0 0 0 0 113.19447989750188 -121.38845328195021 0 -121.38845328195021 -9.3730906426876572 0 0 0 0 156.43130241700419 -44.790549946901592 0 -44.790549946901592 1.1653550094051752 0 0 0 0 372.61816191683465 97.039752459702868 0 97.039752459702868 15.478655345796142 0 0 0 0 223.286449526262 -144.924590868839 0 -144.924590868839 114.03551529363722 0 0 0 0 -28.205433771905291 -111.11774186869312 0 -111.11774186869312 233.53235304102418 0 0 0 0 -2.1775485047760696 -2.152434465358823 0 -2.152434465358823 0.39730638136558127 0 0 0 0 143.8983300772743 -0.29610146569393692 0 -0.29610146569393692 -3.6249670700926799 0 0 0 0 148.58127270641126 -35.254037222148327 0 -35.254037222148327 -24.071032479856513 0 0 0 0 5.6774465552880429 -101.63431608470637 0 -101.63431608470637 39.753070054910495 0 0 0 0 87.808350066217827 -75.304679332344676 0 -75.304679332344676 20.437861643149517 0 0 0 0 81.159137674694648 -37.13135093834353 0 -37.13135093834353 4.7031895395339234 0 0 0 0 21.500276466547803 -59.711453557767527 0 -59.711453557767527 -66.301321708859177 0 0 0 0 64.443321624094096 3.0635395122226328 0 3.0635395122226328 13.662002759007009 0 0 0 0 27.047001234452182 -77.888239876163425 0 -77.888239876163425 -7.0226850190847472 0 0 0 0 53.9866964384928 -22.595261374783149 0 -22.595261374783149 6.3422116930159973 0 0 0 0 24.278591132679139 -72.43310008827757 0 -72.43310008827757 -58.919995052492595 0 0 0 0 23.214332655181352 -69.624061829199491 0 -69.624061829199491 -64.394378481141757 0 0 0 0 -527.2701797923728 -8.4376598824019311 0 -8.4376598824019311 46.158316245273454 0 0 0 0 77.86744986029953 -13.1089077608558 0 -13.1089077608558 -15.619948016937997 0 0 0 0 31.435772187076509 -18.759800862682823 0 -18.759800862682823 4.6845933583099395 0 0 0 0 -67.60743526272563 -143.39506472632274 0 -143.39506472632274 -81.332651854972937 0 0 0 0 -48.483307790418621 -79.689322166115744 0 -79.689322166115744 -47.315172515940503 0 0 0 0 -234.13494209160854 -113.33140082172758 0 -113.33140082172758 -14.363823770167073 0 0 0 0 -221.92598712821655 74.236506985709639 0 74.236506985709639 -108.18158912810031 0 0 0 0 -1.3766617771070742 -105.85432228784885 0 -105.85432228784885 -71.839894341101171 0 0 0 0 -216.01380981565308 -104.17126745534188 0 -104.17126745534188 103.59452089162505 0 0 0 0 -186.1536610649473 -241.58129989583676 0 -241.58129989583676 -143.9858585367765 0 0 0 0 -74.383527927163414 -75.209965859858585 0 -75.209965859858585 -98.968889149058668 0 0 0 0 -119.44521009620894 48.645822509910431 0 48.645822509910431 83.213414998579537 0 0 0 0 -13.124801139274496 -11.313129091031442 0 -11.313129091031442 -15.273995879488211 0 0 0 0 53.423204240942141 -42.717291950357321 0 -42.717291950357321 -37.897709756967743 0 0 0 0 26.73615560709186 -15.581445207465094 0 -15.581445207465094 -44.855957488478452 0 0 0 0 -0.32710339157700474 -1.0840207009635066 0 -1.0840207009635066 -3.0289282666299329 0 0 0 0 20.711597191359033 -34.164759789677191 0 -34.164759789677191 3.924576000586967 0 0 0 0 -27.422487596140854 72.886892596641701 0 72.886892596641701 65.704300777666504 0 0 0 0 44.40908652806047 -37.50127583129256 0 -37.50127583129256 -12.799685418474837 0 0 0 0 123.27126119718014 -59.23169435987802 0 -59.23169435987802 -7.0288284699163341 0 0 0 0 58.369767330746981 10.212698630584782 0 10.212698630584782 26.019466055513476 0 0 0 0 292.5972569729347 21.448974268041638 0 21.448974268041638 25.439025319123175 0 0 0 0 110.85715249768691 79.590916737070074 0 79.590916737070074 208.33163670956674 0 0 0 0 214.51762019838498 -197.76195568555704 0 -197.76195568555704 114.41093130403169 0 0 0 0 -65.896628407546814 133.8285005151738 0 133.8285005151738 105.16313678862934 0 0 0 0 98.85077575312971 -109.91755964443109 0 -109.91755964443109 -164.72764888311212 0 0 0 0 -1.247983021374921 0.33483136684486681 0 0.33483136684486681 -0.22728422602764908 0 0 0 0 -57.37599279818096 53.243116442725295 0 53.243116442725295 69.241104027722031 0 0 0 0 -81.408149997994769 -11.58596721509457 0 -11.58596721509457 89.568512343161274 0 0 0 0 -152.02243893720151 32.782977306442262 0 32.782977306442262 67.642378643271513 0 0 0 0 11.442571685479859 -15.001437668565416 0 -15.001437668565416 3.5196706427430371 0 0 0 0 -83.158746003573469 -45.147622935266213 0 -45.147622935266213 12.696716331418429 0 0 0 0 -14.671535267916624 -11.69744019283462 0 -11.69744019283462 27.84658842607314 0 0 0 0 21.807828947610687 -7.4244485140279721 0 -7.4244485140279721 34.894853000820149 0 0 0 0 -61.752818886976456 20.004437385694473 0 20.004437385694473 30.992081697997492 0 0 0 0 -84.925158073444436 -82.704283230212241 0 -82.704283230212241 38.912874102876231 0 0 0 0 27.293586935353233 -7.673723608398177 0 -7.673723608398177 2.0036127630082774 0 0 0 0 -98.977955906520947 -45.267784175664929 0 -45.267784175664929 -6.8357733311349875 0 0 0 0 -77.849520485760877 -82.909153412976593 0 -82.909153412976593 -63.060788507216785 0 0 0 0 -27.896902411992414 -26.648632296966753 0 -26.648632296966753 27.703241931536468 0 0 0 0 -7.2746731998692269 -1.2754386716831618 0 -1.2754386716831618 2.1884218306991627 0 0 0 0 -59.860244742878422 -37.932515280839652 0 -37.932515280839652 -6.8966126673258259 0 0 0 0 -89.339345651838812 -72.135341402969061 0 -72.135341402969061 -31.08225326432148 0 0 0 0 -38.932799840287771 -53.606383798804018 0 -53.606383798804018 -43.435261843089393 0 0 0 0 18.7566786861872 -11.022011905185067 0 -11.022011905185067 1.1858619550784155 0 0 0 0 25.086409487743367 -15.303193337577795 0 -15.303193337577795 -22.739001807272871 0 0 0 0 2.9779104807793431 -0.054652171573849273 0 -0.054652171573849273 -0.44654903341795205 0 0 0 0 -31.203623730718391 -38.224200183567518 0 -38.224200183567518 -13.538059892605816 0 0 0 0 -34.5168784716152 -43.60481260404049 0 -43.60481260404049 -12.733267188885293 0 0 0 0 -31.807311814507557 -29.598216300568311 0 -29.598216300568311 -9.0463669918099185 0 0 0 0 -12.637047458403686 -37.85102348568762 0 -37.85102348568762 -16.738681171082135 0 0 0 0 -41.317257570066431 -37.600780535824015 0 -37.600780535824015 -7.7276714223626186 0 0 0 0 -9.7941386626116582 -14.742565298336558 0 -14.742565298336558 -29.439019153254776 0 0 0 0 26.659765513501043 14.661196158745952 0 14.661196158745952 -5.8118858737107075 0 0 0 0 -27.09618151446557 -26.057398791148444 0 -26.057398791148444 -27.993095921105123 0 0 0 0 -34.26154573450458 -17.449895934543292 0 -17.449895934543292 16.87249853713729 0 0 0 0 109.50506931074415 5.2959381938035222 0 5.2959381938035222 -18.373846125101409 0 0 0 0 0.10707563935979181 -0.33585813508955198 0 -0.33585813508955198 -3.1048018518548588 0 0 0 0 0.26013498415272807 0.36263878253638637 0 0.36263878253638637 -1.4244913987261754 0 0 0 0 62.649483035549565 -1.7036159379385936 0 -1.7036159379385936 -56.437680317911145 0 0 0 0 34.788544298709894 -45.96431103766372 0 -45.96431103766372 -86.089458290834955 0 0 0 0 -39.411974914597522 -70.784789128370903 0 -70.784789128370903 -4.3647131635443657 0 0 0 0 115.23280882781546 -37.084237837076216 0 -37.084237837076216 -36.302265599471866 0 0 0 0 -0.38733189992617145 1.9907375950140604 0 1.9907375950140604 0.27880011510157487 0 0 0 0 34.845786745381247 -43.900585416907234 0 -43.900585416907234 -12.638908429835283 0 0 0 0 22.468939160553418 -40.715368408473296 0 -40.715368408473296 -3.3800483736522438 0 0 0 0 -5.0264237733421826 -6.7737367082620494 0 -6.7737367082620494 -0.45017700927343185 0 0 0 0 14.877023576584179 -35.254138296222663 0 -35.254138296222663 6.8997062958114839 0 0 0 0 16.272714260810062 -41.877612790299281 0 -41.877612790299281 2.3916727023315616 0 0 0 0 -4.2241442939775879 -20.499304913510059 0 -20.499304913510059 13.665614535544591 0 0 0 0 4.2409646439809876 -38.183032776247273 0 -38.183032776247273 1.2977734925625555 0 0 0 0 15.061247682169778 -32.020465577032155 0 -32.020465577032155 -12.200081843380758 0 0 0 0 7.9730379247755394 -17.543131673105115 0 -17.543131673105115 -13.365293546614467 0 0 0 0 -1.5388039367350093 -21.997349312686211 0 -21.997349312686211 -2.341998700135008 0 0 0 0 12.860437714876753 -25.839724278808717 0 -25.839724278808717 8.9072133213239795 0 0 0 0 13.454190473727067 -19.529244723073134 0 -19.529244723073134 -0.98062215715981438 0 0 0 0 -17.24410404113587 -73.889013163348864 0 -73.889013163348864 -62.06790224109136 0 0 0 0 -29.623879719343677 -14.988427976379171 0 -14.988427976379171 -90.539713349699014 0 0 0 0 -1.293201263791957 -0.83617900425038272 0 -0.83617900425038272 -0.76205882284956772 0 0 0 0 77.911512940228022 0.75682460791585981 0 0.75682460791585981 -16.230333284016524 0 0 0 0 11.536832284225966 -25.237947410073502 0 -25.237947410073502 7.6052725113477209 0 0 0 0 -33.854846406148383 -26.273418060834917 0 -26.273418060834917 -11.436267271024036 0 0 0 0 22.731890474111424 -117.87943806877593 0 -117.87943806877593 34.528723260359584 0 0 0 0 65.824768888909603 -70.610221802489832 0 -70.610221802489832 19.60422433308122 0 0 0 0 28.855809669636074 -95.192748289337032 0 -95.192748289337032 -52.682833720609779 0 0 0 0 133.87336770803086 -127.18705368454903 0 -127.18705368454903 -56.443001431673565 0 0 0 0 -21.994747297885624 -0.59278761388304702 0 -0.59278761388304702 162.43703607251882 0 0 0 0 85.665124706880306 -47.330940794432536 0 -47.330940794432536 -81.510231373333227 0 0 0 0 -25.222021298464824 -35.47357078177447 0 -35.47357078177447 -15.862680248163088 0 0 0 0 -46.388770633318927 -27.753102449074504 0 -27.753102449074504 1.6389650965666078 0 0 0 0 -38.390932693216655 -41.487395860280458 0 -41.487395860280458 7.8993755104602315 0 0 0 0 -34.832797555107391 -44.387495834769652 0 -44.387495834769652 -16.234199509890459 0 0 0 0 -98.178000561879344 -48.077774501935437 0 -48.077774501935437 -3.3343645282293437 0 0 0 0 -40.293256523602395 -35.507692485283769 0 -35.507692485283769 -8.6387501262433943 0 0 0 0 -22.42701267531811 -37.446166496656588 0 -37.446166496656588 -15.848898564960109 0 0 0 0 -33.460343668841233 -33.921612977846962 0 -33.921612977846962 -15.297838736179983 0 0 0 0 -32.73067899011221 -35.360468316957849 0 -35.360468316957849 -13.086986494156008 0 0 0 0 -7.887050845882186 -16.196022065912985 0 -16.196022065912985 -7.7217826015112223 0 0 0 0 -7.9728708666007151 -16.587263138504568 0 -16.587263138504568 -8.87364080108091 0 0 0 0 -0.75237067358455079 -14.55762936119892 0 -14.55762936119892 -12.096260504030937 0 0 0 0 -14.445648449751388 -32.864223761474477 0 -32.864223761474477 -7.1312648654820805 0 0 0 0 -4.2524729339796465 -2.3095435748451862 0 -2.3095435748451862 3.6609553285649099 0 0 0 0 108.60028606771812 129.68941628012544 0 129.68941628012544 158.50960425120866 0 0 0 0 -11.118519902036979 -15.574122958590777 0 -15.574122958590777 -12.070866142192948 0 0 0 0 -4.9233867648929426 -9.3791592043377818 0 -9.3791592043377818 -3.197272864274936 0 0 0 0 -53.399587107996922 211.9906070284469 0 211.9906070284469 281.19218877905951 0 0 0 0 135.89729025045017 66.503335117726238 0 66.503335117726238 361.32015456611407 0 0 0 0 -28.253071432542129 -37.778789412619517 0 -37.778789412619517 -11.783154311327962 0 0 0 0 -229.02687151140708 -212.55927710271135 0 -212.55927710271135 261.96568757318164 0 0 0 0 -37.603177263702094 -24.863914327127606 0 -24.863914327127606 -11.575688359067129 0 0 0 0 -278.25054949164041 -199.78560691717212 0 -199.78560691717212 195.44762818583695 0 0 0 0 -138.16000188993348 -199.75192687944946 0 -199.75192687944946 -19.790089400441502 0 0 0 0 61.052337990549859 21.652204841711864 0 21.652204841711864 -219.65892024301866 0 0 0 0 -266.89088108352735 -451.12465355032327 0 -451.12465355032327 -445.81436752296577 0 0 0 0 -162.79395486346039 -287.06764350562662 0 -287.06764350562662 -254.0479921028309 0 0 0 0 -411.86407866845548 -194.32348169058605 0 -194.32348169058605 201.71606082099606 0 0 0 0 -2.5065830099231476 -3.0472476494872822 0 -3.0472476494872822 -2.9363440657936195 0 0 0 0 -675.62082618467684 -45.892080303030525 0 -45.892080303030525 205.26960619192141 0 0 0 0 -699.71015746603371 -485.4089408981672 0 -485.4089408981672 -1007.3575969861413 0 0 0 0 81.39850507245319 -89.163287432638299 0 -89.163287432638299 53.456132666833582 0 0 0 0 72.390659335254895 -58.459301053615491 0 -58.459301053615491 36.773747120940243 0 0 0 0 -601.68538013689977 -449.29530602385421 0 -449.29530602385421 -118.55153467111086 0 0 0 0 43.080615088204468 -58.749921889912002 0 -58.749921889912002 55.265853874123422 0 0 0 0 44.91849295834254 -73.974263664444152 0 -73.974263664444152 80.185527426729095 0 0 0 0 103.25564673442568 -23.126605616602319 0 -23.126605616602319 20.163466211182822 0 0 0 0 -2.3354415540202069 -2.472328769794224 0 -2.472328769794224 -1.3490186372619632 0 0 0 0 -440.19638340134406 -25.079071000993281 0 -25.079071000993281 -102.26699041854681 0 0 0 0 -25.896748851679149 1.7557905108824343 0 1.7557905108824343 -25.809053982386104 0 0 0 0 -6.4619746700666099 -10.239066628346176 0 -10.239066628346176 -6.4817365680198549 0 0 0 0 -20.910186617751606 58.115680097747827 0 58.115680097747827 -101.45059416163713 0 0 0 0 -3.8182870881290967 -2.3311474958008489 0 -2.3311474958008489 -1.8171038539464774 0 0 0 0 -29.710750718295458 -4.9249554600173724 0 -4.9249554600173724 -509.72383309475754 0 0 0 0 -10.049382146087737 1077.2347805315067 0 1077.2347805315067 350.21006836007291 0 0 0 0 65.444717885140562 -102.5583760759564 0 -102.5583760759564 63.574162244127365 0 0 0 0 40.06910206469729 -85.393553143515419 0 -85.393553143515419 16.534257654540852 0 0 0 0 39.610929010126711 -89.678559967262117 0 -89.678559967262117 57.155046719970414 0 0 0 0 36.09093388254405 -78.429677178704878 0 -78.429677178704878 19.43629034908372 0 0 0 0 32.230787304390105 -78.52577296342497 0 -78.52577296342497 57.883165564291062 0 0 0 0 19.501187484522234 -69.766353976985556 0 -69.766353976985556 58.203592584213197 0 0 0 0 27.484859345386212 -62.087490490266646 0 -62.087490490266646 56.594217660938739 0 0 0 0 34.248950284774764 -72.081947156391834 0 -72.081947156391834 61.949992248701164 0 0 0 0 37.103048307821155 -36.375293920857075 0 -36.375293920857075 23.273247758959769 0 0 0 0 19.744243429318885 -59.427357392261911 0 -59.427357392261911 58.330910137176033 0 0 0 0 17.786739334995218 -72.011213142375709 0 -72.011213142375709 65.510752442085504 0 0 0 0 13.483361904653066 -80.652428199656242 0 -80.652428199656242 90.623054979660083 0 0 0 0 13.743548934369755 -47.841944814319504 0 -47.841944814319504 67.807511612860253 0 0 0 0 4.5784073185204761 -31.43523618279778 0 -31.43523618279778 56.038098607998108 0 0 0 0 -1.4835620898738853 -23.002608973652968 0 -23.002608973652968 36.984451550886661 0 0 0 0 12.59927705291193 -43.711817983108631 0 -43.711817983108631 32.831021043752116 0 0 0 0 10.423959911902784 -46.515717915895948 0 -46.515717915895948 41.313229128383682 0 0 0 0 7.0638682520511793 -57.654741567868768 0 -57.654741567868768 80.113968824480253 0 0 0 0 0.91522106764023192 -42.795864766501836 0 -42.795864766501836 48.524873164838937 0 0 0 0 -7.2643110611204094 -7.9409700673889176 0 -7.9409700673889176 -4.2390002083629099 0 0 0 0 -7.2181395499865175 -16.691828764898673 0 -16.691828764898673 -8.1705405456013978 0 0 0 0 -5.3364665678236634 -7.8226440576181631 0 -7.8226440576181631 -0.35883728995577258 0 0 0 0 -4.3362042083991525 -4.5453746749417583 0 -4.5453746749417583 -1.8322224032370187 0 0 0 0 1.9529142872351599 -4.0631557239026108 0 -4.0631557239026108 -4.4312102911812303 0 0 0 0 14.180097269243561 -8.2321914857566298 0 -8.2321914857566298 12.954795305358857 0 0 0 0 -8.902863778093888 -7.5340902637290128 0 -7.5340902637290128 64.537532299429586 0 0 0 0 1.347868830729567 -5.0753566940384189 0 -5.0753566940384189 -14.200410363187984 0 0 0 0 14.89402390655232 -19.518300884667042 0 -19.518300884667042 -22.235768040991388 0 0 0 0 -5.5641696767635267 -10.635246099803837 0 -10.635246099803837 -12.470904133325092 0 0 0 0 0.95824487421486992 -9.5356399869797315 0 -9.5356399869797315 -7.8563543302025209 0 0 0 0 -4.7748479272850091 -16.661007680519106 0 -16.661007680519106 -13.604129871193436 0 0 0 0 -4.3200529285750235 -14.262745877804264 0 -14.262745877804264 -12.21807837041888 0 0 0 0 -8.190645219758153 -14.675986353351618 0 -14.675986353351618 -6.3078375876229984 0 0 0 0 -4.378793245313318 -17.729750509603491 0 -17.729750509603491 -15.083859522543207 0 0 0 0 -2.706626436318686 -6.7490732280479762 0 -6.7490732280479762 3.1676116293951466 0 0 0 0 -12.932958250024967 -15.886439706138844 0 -15.886439706138844 -10.242402084160858 0 0 0 0 -8.2774418962594609 -13.776040486400689 0 -13.776040486400689 -10.449708433370688 0 0 0 0 8.4056840201719538 -12.235471877361888 0 -12.235471877361888 -8.2741722846280368 0 0 0 0 -23.454226768718399 -31.082808941512894 0 -31.082808941512894 -12.640035348173114 0 0 0 0 7.4902071546021034 -32.692821839096723 0 -32.692821839096723 -22.819550042713672 0 0 0 0 2.3001236742634354 -0.95542430297903991 0 -0.95542430297903991 0.067499540323836982 0 0 0 0 -17.199781227664062 -44.889516398949127 0 -44.889516398949127 -20.033567275666428 0 0 0 0 -4.2824247358248044 -5.8594763869565725 0 -5.8594763869565725 5.4938824096911958 0 0 0 0 -7.4745519803364004 -20.743430816902219 0 -20.743430816902219 -15.731397633775487 0 0 0 0 -10.052709201088874 -18.938454565861321 0 -18.938454565861321 -7.9295860653728596 0 0 0 0 2.2445889455857468 -15.425057182786531 0 -15.425057182786531 -13.518974686005095 0 0 0 0 -1.0442055996682029 -30.675385177612043 0 -30.675385177612043 -19.825074672997289 0 0 0 0 27.792849036763073 -18.512694435950834 0 -18.512694435950834 -2.3315361321037926 0 0 0 0 -25.938825876975898 -30.45373143164943 0 -30.45373143164943 -12.111615099413029 0 0 0 0 104.7147922890872 -44.941442561263102 0 -44.941442561263102 15.118330277593486 0 0 0 0 -83.973036876628612 -51.369444414148347 0 -51.369444414148347 -10.255082131341624 0 0 0 0 -0.33874130017675341 0.73027182406015356 0 0.73027182406015356 0.49041317712683963 0 0 0 0 37.327888671323308 -71.476968767245125 0 -71.476968767245125 -19.171442950933852 0 0 0 0 16.345307840769237 3.5462703910998243 0 3.5462703910998243 -4.464822881628379 0 0 0 0 2.889906018252077 -12.663361948636521 0 -12.663361948636521 -19.704444449795119 0 0 0 0 5.7899777863458439 -6.9684370201212005 0 -6.9684370201212005 -10.752263320609927 0 0 0 0 -16.882592293615744 28.189724851312349 0 28.189724851312349 -75.906218845247167 0 0 0 0 3.5134746768617333 -4.1598774710673752 0 -4.1598774710673752 -6.4477504630485782 0 0 0 0 -0.32329816861449956 -1.535493504152555 0 -1.535493504152555 -0.26596016160009128 0 0 0 0 -5.5727242814941462 -6.6770481233065624 0 -6.6770481233065624 -7.1958117213198278 0 0 0 0 1.2014517701045406 -9.5926507473432139 0 -9.5926507473432139 -9.730770397309243 0 0 0 0 -2.4087704015946656 -15.748042197204086 0 -15.748042197204086 -15.672283562744269 0 0 0 0 -203.93348630193213 -161.87555408553089 0 -161.87555408553089 -101.10061386427151 0 0 0 0 -221.28575608876417 -275.30101416743128 0 -275.30101416743128 -149.20787109037883 0 0 0 0 -0.72232127897476062 0.43206738308984427 0 0.43206738308984427 -0.63979869721575966 0 0 0 0 -2.0250236987703829 -23.112883794241498 0 -23.112883794241498 0.94884814000761253 0 0 0 0 -149.85291891440284 -55.181244855408295 0 -55.181244855408295 -14.843088163383072 0 0 0 0 -3.8476950021922676 -0.032051554804226612 0 -0.032051554804226612 -1.736974317235223 0 0 0 0 -9.2384699733665911 -3.5955970301511115 0 -3.5955970301511115 23.625150081323227 0 0 0 0 12.565767938969657 -10.815540719475393 0 -10.815540719475393 -202.99262559412546 0 0 0 0 -0.96874676417996852 -1.0725504922916258 0 -1.0725504922916258 -2.6078494040333879 0 0 0 0 -350.36591734943067 -74.897740875278032 0 -74.897740875278032 -15.335688255348941 0 0 0 0 -251.35395168429386 -193.27354166919031 0 -193.27354166919031 -27.481802745169261 0 0 0 0 -142.17362750044413 -217.65605418887935 0 -217.65605418887935 -50.810840591522719 0 0 0 0 300.61794237203139 -171.7628441037923 0 -171.7628441037923 -75.711393511360257 0 0 0 0 271.34388791620586 -92.551944953109341 0 -92.551944953109341 -107.17652554987217 0 0 0 0 24.879917791768094 -84.637846331673245 0 -84.637846331673245 -123.2264349400939 0 0 0 0 32.483264744107146 -109.19114357242506 0 -109.19114357242506 -43.959491995392455 0 0 0 0 -231.94665384224209 -74.575020072046755 0 -74.575020072046755 -44.062277805322083 0 0 0 0 1.0340935675922083 -172.58433988469551 0 -172.58433988469551 -92.950573177971819 0 0 0 0 59.539993402060645 -84.574112346140282 0 -84.574112346140282 -23.504647014582588 0 0 0 0 -153.14800815936906 -86.364658464641252 0 -86.364658464641252 20.047902941812481 0 0 0 0 169.23441492266284 -181.09657689269443 0 -181.09657689269443 -26.046414963648203 0 0 0 0 253.59896295293584 -106.40101863524978 0 -106.40101863524978 21.896154282003408 0 0 0 0 174.37207444117666 -152.26760657000887 0 -152.26760657000887 37.523079755894287 0 0 0 0 293.83193799297442 -209.48394766532147 0 -209.48394766532147 1.0692498443168006 0 0 0 0 20.147456976734247 -66.648806392675397 0 -66.648806392675397 -42.126757513928169 0 0 0 0 129.93881272262661 -200.6341974365132 0 -200.6341974365132 1.9963047747760356 0 0 0 0 -65.329027475869225 -118.46445618505459 0 -118.46445618505459 14.715536967793014 0 0 0 0 -10.277348795541911 -24.900031893961568 0 -24.900031893961568 -131.81252756674803 0 0 0 0 -1.333134481170589 0.31310996731652097 0 0.31310996731652097 0.34496347870780397 0 0 0 0 -80.577103249161155 -81.040131041892892 0 -81.040131041892892 -76.521643902120559 0 0 0 0 -121.68198026146092 -31.77229734395678 0 -31.77229734395678 8.9178430176907568 0 0 0 0 -19.185088379344961 20.039410411085555 0 20.039410411085555 34.411007323193189 0 0 0 0 -38.79573248095403 -23.166519123486069 0 -23.166519123486069 -3.2689162015158217 0 0 0 0 -13.914497587014921 -32.243718939815153 0 -32.243718939815153 -5.268836233917682 0 0 0 0 2.8588103087749914 -12.041261793594458 0 -12.041261793594458 -16.008946225161708 0 0 0 0 -33.84011420058232 -20.420191674998932 0 -20.420191674998932 12.258769863554335 0 0 0 0 2.4636071338172769 -5.1231924504845665 0 -5.1231924504845665 -24.419155086441606 0 0 0 0 0.014079528045840561 7.1195190041435126 0 7.1195190041435126 -42.766728193304516 0 0 0 0 -12.651873828886892 -34.875794369530922 0 -34.875794369530922 -47.960684611090983 0 0 0 0 -2.0111606912978459 -11.790714800514252 0 -11.790714800514252 1.3914351794355753 0 0 0 0 -2.6859068178292205 -0.82037161085822419 0 -0.82037161085822419 0.2393666297026158 0 0 0 0 3.2052174132739424 -2.0145303286022056 0 -2.0145303286022056 -0.70920182528735154 0 0 0 0 -1.1406969723320799 -33.504903912213194 0 -33.504903912213194 74.153220263044204 0 0 0 0 69.220990894886199 -18.106189257421647 0 -18.106189257421647 15.222550743274041 0 0 0 0 197.09594255969569 -51.148017864106805 0 -51.148017864106805 -26.688533197495417 0 0 0 0 -1.6479011972078297 -8.3887182837806904 0 -8.3887182837806904 26.530393018219911 0 0 0 0 222.8882175648323 -159.45571579891839 0 -159.45571579891839 117.46661501162816 0 0 0 0 2.3192346421346883 -76.620896913713295 0 -76.620896913713295 336.5594449445216 0 0 0 0 1.7161250393007492 -0.30235471290563964 0 -0.30235471290563964 -0.16151133598701506 0 0 0 0 -7.4512285571108805 -39.734037152753444 0 -39.734037152753444 131.39004911165807 0 0 0 0 7.4661079911720662 -23.126581042030921 0 -23.126581042030921 83.550255062880751 0 0 0 0 91.797278494585044 -102.86904336084444 0 -102.86904336084444 72.805480698269093 0 0 0 0 47.21867896465119 -115.45586088214986 0 -115.45586088214986 126.20495170308686 0 0 0 0 92.778423715477402 -108.33523901589797 0 -108.33523901589797 97.962576914664169 0 0 0 0 110.71244838334678 -77.377407219357337 0 -77.377407219357337 27.592853253470821 0 0 0 0 166.29507721048867 -103.49493914800223 0 -103.49493914800223 37.251771860050212 0 0 0 0 102.60193863859604 -111.87468266685755 0 -111.87468266685755 41.201225138072914 0 0 0 0 62.223053705260099 -94.251059247362718 0 -94.251059247362718 71.538617233956757 0 0 0 0 214.55644769439823 -119.61728371464551 0 -119.61728371464551 16.887825271100155 0 0 0 0 143.25647055633272 -22.336731637379671 0 -22.336731637379671 -3.8324683493774501 0 0 0 0 -3.3737651566025448 -5.9444948992792916 0 -5.9444948992792916 -7.917492913701011 0 0 0 0 142.8218918324128 -62.584027384255023 0 -62.584027384255023 65.757895571536437 0 0 0 0 184.59312760362081 -169.29256900465953 0 -169.29256900465953 131.82046200262266 0 0 0 0 -3.9620105825590599 -7.2269547886321277 0 -7.2269547886321277 -9.8591808859982422 0 0 0 0 152.81374004016106 -122.71389095419727 0 -122.71389095419727 69.186314124540786 0 0 0 0 158.61260189250424 -70.547043621622834 0 -70.547043621622834 236.30729618867917 0 0 0 0 145.77546192671434 -168.21786468102619 0 -168.21786468102619 56.25652260795141 0 0 0 0 -9.4736500966682797 -217.41577473794678 0 -217.41577473794678 46.838599294733285 0 0 0 0 115.70565711948075 -231.76374764602497 0 -231.76374764602497 195.31666734525061 0 0 0 0 131.90837295335587 -187.19956697364069 0 -187.19956697364069 125.73445185248784 0 0 0 0 346.51897471612756 -175.88048948033429 0 -175.88048948033429 4.4770890697527648 0 0 0 0 238.30576297868538 -136.37333359851073 0 -136.37333359851073 78.952610942171304 0 0 0 0 -0.11928863161022463 -2.9529789827787312 0 -2.9529789827787312 -2.3121911739087153 0 0 0 0 -1.815255872446869 -12.492114054515696 0 -12.492114054515696 34.056628206661117 0 0 0 0 -106.37593829017896 -79.404111631855812 0 -79.404111631855812 -17.207925771497685 0 0 0 0 0.42851620046610606 -1.0694377003548112 0 -1.0694377003548112 -0.47326060065817899 0 0 0 0 6.6521459689283802 -1.3564159347815803 0 -1.3564159347815803 -75.200528656561801 0 0 0 0 -67.604475755084422 0.15861974644576549 0 0.15861974644576549 41.925123188417274 0 0 0 0 267.44419547845246 -83.656220885837683 0 -83.656220885837683 -10.408005369772582 0 0 0 0 106.11428748770413 -70.806485809689548 0 -70.806485809689548 45.270769124183062 0 0 0 0 44.367931206958019 9.982246710525942 0 9.982246710525942 -76.072421295757522 0 0 0 0 0.69535044998551143 -0.79889205562118093 0 -0.79889205562118093 -1.6937629891180421 0 0 0 0 21.074156756798402 -3.4890588599455441 0 -3.4890588599455441 4.1904824667035427 0 0 0 0 -0.34211463137373599 -3.3006941089876847 0 -3.3006941089876847 -4.5135701580194478 0 0 0 0 10.40330383752007 4.3216074782158103 0 4.3216074782158103 -0.36954969095495471 0 0 0 0 10.876797233955585 -21.003149366002617 0 -21.003149366002617 36.921455048255666 0 0 0 0 -0.44552962043657729 -3.4677437673789058 0 -3.4677437673789058 -7.2594489172832226 0 0 0 0 -20.833983595250174 -18.95170693667751 0 -18.95170693667751 -14.36811839945949 0 0 0 0 1.099250626356195 -0.96058822017899104 0 -0.96058822017899104 -1.4187159055225322 0 0 0 0 -9.7903952936940186 -7.0256366581670591 0 -7.0256366581670591 -28.876399902559569 0 0 0 0 -58.303766873290442 -27.229856249654404 0 -27.229856249654404 19.357056474204001 0 0 0 0 1.0109598300518456 -0.91192336352463599 0 -0.91192336352463599 -1.1242001370044363 0 0 0 0 -37.275101969877142 -38.405289436721432 0 -38.405289436721432 -34.656731980810946 0 0 0 0 -0.044322737754555419 -20.428056547764754 0 -20.428056547764754 -26.101764232280402 0 0 0 0 -0.00060107172976131551 -47.55478707873317 0 -47.55478707873317 -49.174839976843941 0 0 0 0 -43.507938235241454 -48.862882561070364 0 -48.862882561070364 -34.432581632398069 0 0 0 0 -69.486832550217514 -38.024225148476035 0 -38.024225148476035 -33.072937471932164 0 0 0 0 -31.363091977142176 -60.397688017515065 0 -60.397688017515065 -36.996120377738407 0 0 0 0 -0.040977971736073253 -72.414874006097733 0 -72.414874006097733 -12.328755842663668 0 0 0 0 -18.927378133761522 -49.997834816880641 0 -49.997834816880641 -35.597303973268481 0 0 0 0 -29.716859100786678 -58.202988480030399 0 -58.202988480030399 40.308723864150579 0 0 0 0 -4.8613082110750838 -60.808330605139417 0 -60.808330605139417 -13.515011800292996 0 0 0 0 -66.595417079341132 -86.22651998911897 0 -86.22651998911897 -15.393181052451837 0 0 0 0 -77.131861451307486 -68.829204874178686 0 -68.829204874178686 -33.170601807203639 0 0 0 0 -267.0761492813981 -65.841468371487281 0 -65.841468371487281 29.089556898361479 0 0 0 0 191.37809420173289 -188.42324559459485 0 -188.42324559459485 176.61868342434173 0 0 0 0 -0.30990851928687135 -1.5155625716018193 0 -1.5155625716018193 -0.053056879807925839 0 0 0 0 0.27694109315288529 -0.95568730864444262 0 -0.95568730864444262 -0.68035373308984504 0 0 0 0 410.07288189372775 -72.268554832953669 0 -72.268554832953669 182.18948443341651 0 0 0 0 535.16744611920149 -102.18143616870657 0 -102.18143616870657 -71.840937968736398 0 0 0 0 489.61693927302258 -109.81053883668937 0 -109.81053883668937 24.858850656979484 0 0 0 0 361.91212628776793 -275.56546059771108 0 -275.56546059771108 40.568329131965584 0 0 0 0 -3.7894425227238315 -7.7126074635021524 0 -7.7126074635021524 -10.815687377924775 0 0 0 0 280.07726329317666 -210.00187545829613 0 -210.00187545829613 148.30476889875717 0 0 0 0 378.46893785391148 -90.77294795389389 0 -90.77294795389389 4.5873037724741152 0 0 0 0 285.52564471551159 -155.83031607552039 0 -155.83031607552039 16.877298418388818 0 0 0 0 324.89158353199309 -95.426632665796205 0 -95.426632665796205 107.40036180329844 0 0 0 0 370.47118423278152 -109.05605277756331 0 -109.05605277756331 -36.979637153312069 0 0 0 0 71.957439699457609 -291.75749104912938 0 -291.75749104912938 69.496772107331708 0 0 0 0 386.52416971630737 -163.30175281853735 0 -163.30175281853735 -30.095599641601439 0 0 0 0 -69.645452623306483 -149.11605640342441 0 -149.11605640342441 57.526994187755918 0 0 0 0 165.56515539006796 -131.88035970147757 0 -131.88035970147757 7.5460041336900758 0 0 0 0 -3.1917634628140519 -6.228475961715759 0 -6.228475961715759 -8.4812795031833872 0 0 0 0 295.24440866107761 -108.1080462845548 0 -108.1080462845548 47.040902916925916 0 0 0 0 294.94387516110146 -51.110778578409736 0 -51.110778578409736 -84.861523425053747 0 0 0 0 279.14341619415791 -120.67832023414394 0 -120.67832023414394 -18.379287539879442 0 0 0 0 246.369577523099 -61.21508989340964 0 -61.21508989340964 -61.858502440009033 0 0 0 0 216.84862337421873 -13.797881185242659 0 -13.797881185242659 -65.584994981945783 0 0 0 0 -1.7611663574680136 -2.6588378031866071 0 -2.6588378031866071 -2.751058073350535 0 0 0 0 -205.40848383670891 -122.29533682591227 0 -122.29533682591227 55.617635222759418 0 0 0 0 -105.850454485706 -247.16564434006614 0 -247.16564434006614 -134.81431937208981 0 0 0 0 -0.13640580807396102 -130.44868660023482 0 -130.44868660023482 -8.7221304499762482 0 0 0 0 -82.564978597030859 -108.9966362393352 0 -108.9966362393352 33.794660129125532 0 0 0 0 15.249176882320171 -23.486715061069845 0 -23.486715061069845 71.170283702227607 0 0 0 0 -0.37668158222732018 -13.98651445935775 0 -13.98651445935775 -0.81451806516452052 0 0 0 0 -1.677899151458405 -15.570720648142924 0 -15.570720648142924 -0.86872834790665365 0 0 0 0 -0.0023898149411252234 -14.102114363955025 0 -14.102114363955025 -1.3878006683062267 0 0 0 0 -0.70507069714949466 -13.404957742470742 0 -13.404957742470742 1.4660584887392361 0 0 0 0 -0.35219834879535483 -13.883414132983489 0 -13.883414132983489 -0.43786112426141699 0 0 0 0 -0.38764674747680949 -10.630999644188293 0 -10.630999644188293 -2.010743533735436 0 0 0 0 9.2272673882107483 -14.046917703381951 0 -14.046917703381951 -0.84078312645215192 0 0 0 0 2.9182631617950392 -10.95930849153774 0 -10.95930849153774 -0.69975134325068211 0 0 0 0 0.51095366486697458 -15.007136320683458 0 -15.007136320683458 0.33797824996008785 0 0 0 0 -3.1678630338283256 -9.7889585511802579 0 -9.7889585511802579 -1.4392128383879026 0 0 0 0 -1.5642191985371028 -13.986618509607524 0 -13.986618509607524 -2.1861431050856481 0 0 0 0 -1.3899437027428494 -8.3723718277781103 0 -8.3723718277781103 -2.5580881006883089 0 0 0 0 3.2576247013203101 -11.873118137107667 0 -11.873118137107667 -1.7971134146482655 0 0 0 0 6.8416884729072081 -14.009454159113602 0 -14.009454159113602 -4.5302103185949818 0 0 0 0 0.46575597196351737 -11.710684247947029 0 -11.710684247947029 -4.3685801950896348 0 0 0 0 -1.2766564212939908 -10.42436264096068 0 -10.42436264096068 -2.365059979469855 0 0 0 0 12.409380374469492 -13.319106552704511 0 -13.319106552704511 -2.2688416409000638 0 0 0 0 -3.6928247882788128 -8.4420698618259848 0 -8.4420698618259848 -5.6178864214252826 0 0 0 0 -12.700175277561357 -14.867589445176236 0 -14.867589445176236 -1.9498552824625222 0 0 0 0 -0.55321324281248963 -16.879299047347558 0 -16.879299047347558 -4.9526944569242914 0 0 0 0 -4.6881929263327038 -20.382337276508224 0 -20.382337276508224 -6.7461411565818707 0 0 0 0 -4.1667582925365423 -19.285223528846473 0 -19.285223528846473 -6.4415274908078572 0 0 0 0 -4.2099040832908941 -15.970625392817055 0 -15.970625392817055 -1.4978682805249264 0 0 0 0 -0.0016706443202565424 -15.176515233388272 0 -15.176515233388272 -3.0723105333454441 0 0 0 0 -0.47783079082000768 -16.615638344113904 0 -16.615638344113904 -4.471873080565274 0 0 0 0 2.5521812381848576 -15.377252753198263 0 -15.377252753198263 -7.4450608520510286 0 0 0 0 0.0069022915631649084 -13.072946848739775 0 -13.072946848739775 -2.8014415716279473 0 0 0 0 2.7321151435608044 -15.13277908166674 0 -15.13277908166674 -7.2895802241037018 0 0 0 0 8.1094189181094407 -8.0399425143350527 0 -8.0399425143350527 -4.3285799232762656 0 0 0 0 0.97839313080070411 -1.697286382146487 0 -1.697286382146487 -1.2681635410419219 0 0 0 0 0.72267398446692255 1.1423043485451743 0 1.1423043485451743 -2.4519544118169385 0 0 0 0 1.8052287159007392 -4.153498929647867 0 -4.153498929647867 3.6636286604698398 0 0 0 0 6.9603771781694377 18.664739579089655 0 18.664739579089655 5.7188797837734455 0 0 0 0 -19.121871865121648 -26.736735050264542 0 -26.736735050264542 -9.0279639735381352 0 0 0 0 10.883300049754325 -22.678248722189892 0 -22.678248722189892 -32.245889470665134 0 0 0 0 10.256122632956249 -11.292848399538343 0 -11.292848399538343 -9.7094461006545316 0 0 0 0 4.1881187391845742 -18.471162490242932 0 -18.471162490242932 -14.307046775600611 0 0 0 0 5.3163839078260935 -11.271098134388012 0 -11.271098134388012 -7.9180079473735532 0 0 0 0 59.620999593942543 34.501848425901699 0 34.501848425901699 -104.08652576393069 0 0 0 0 -7.1859263842488872 -40.718279762921156 0 -40.718279762921156 -49.241576615022495 0 0 0 0 0.71765857066806404 0.10569371664901439 0 0.10569371664901439 -6.1604098762014061 0 0 0 0 6.9548099258427101 -0.0071267726648329699 0 -0.0071267726648329699 -12.591450914718735 0 0 0 0 1.3779062568610243 -1.9049080046542883 0 -1.9049080046542883 0.57142997162241294 0 0 0 0 -0.095518236736097606 0.97276504340698011 0 0.97276504340698011 -3.6026480709247153 0 0 0 0 0.20268596220921609 -4.8836340131001634 0 -4.8836340131001634 -25.857997224857172 0 0 0 0 -27.442790087166941 -21.449367092107423 0 -21.449367092107423 -10.046470069388306 0 0 0 0 1.1269433271621025 -1.0040793802924384 0 -1.0040793802924384 -1.2819147318929538 0 0 0 0 1.9787519674282521 -4.0712176556735358 0 -4.0712176556735358 -7.6335550723224515 0 0 0 0 -27.25475628445929 -20.290340685969113 0 -20.290340685969113 -6.6821716673330229 0 0 0 0 11.078631862463226 4.0289593426050487 0 4.0289593426050487 -6.3841997381969122 0 0 0 0 0.61447065090465003 -0.32030023925344153 0 -0.32030023925344153 -3.8162070112387596 0 0 0 0 -0.0010064248898394434 -6.1980864351424971 0 -6.1980864351424971 -6.6663532038146514 0 0 0 0 98.803189239384665 -44.415238233517812 0 -44.415238233517812 -3.676877498630347 0 0 0 0 13.90501607528131 2.5202842249918831 0 2.5202842249918831 -6.2863007021951489 0 0 0 0 4.6985055448603816 -4.2243831481264351 0 -4.2243831481264351 -9.4765336144973844 0 0 0 0 0.51110432863060851 -2.0274367920828809 0 -2.0274367920828809 -8.8648917996251839 0 0 0 0 5.8782697696296964 3.7465888958031428 0 3.7465888958031428 -2.4745481289010058 0 0 0 0 7.8615967166351766 10.568397512111233 0 10.568397512111233 -0.59195310527502443 0 0 0 0 -0.6434517541099698 -3.8919022275631789 0 -3.8919022275631789 -10.794166414644138 0 0 0 0 0.17743036813502044 -3.2144373637004193 0 -3.2144373637004193 -3.3848745050736824 0 0 0 0 4.1077820071732276 -5.4684622607428537 0 -5.4684622607428537 -17.058887672043056 0 0 0 0 -57.979763100651326 -46.526549697216979 0 -46.526549697216979 21.349244904911757 0 0 0 0 14.291707575175678 -4.783616806073951 0 -4.783616806073951 -47.267745534196365 0 0 0 0 -21.357783864893463 -12.716516145245578 0 -12.716516145245578 -2.9161127046463662 0 0 0 0 0.2596543196635821 -0.70921292052401874 0 -0.70921292052401874 -2.5324965606051499 0 0 0 0 -25.798255339468597 -35.641428382987215 0 -35.641428382987215 -20.69578136200289 0 0 0 0 -4.3674567683788155 -7.9767788991653106 0 -7.9767788991653106 -21.310099536916823 0 0 0 0 1.080403461317502 -6.2586630919860653 0 -6.2586630919860653 -20.800830966376786 0 0 0 0 31.2262581478426 -8.1402079921354016 0 -8.1402079921354016 -30.793163744903723 0 0 0 0 22.065419819737144 -25.560807847698015 0 -25.560807847698015 -25.110917728449749 0 0 0 0 87.960068337542907 -5.8271671547063306 0 -5.8271671547063306 4.6691902761194797 0 0 0 0 37.721057201524673 3.1729740500195476 0 3.1729740500195476 -26.768863189687181 0 0 0 0 62.29806323091907 -35.510317676453269 0 -35.510317676453269 -29.436591587824296 0 0 0 0 -0.407182163495861 -0.92188481841958492 0 -0.92188481841958492 -3.8326646667521764 0 0 0 0 76.229602310515475 -26.478414890141721 0 -26.478414890141721 -28.030993632237369 0 0 0 0 61.937278900436468 -74.489343640421112 0 -74.489343640421112 42.694786974727322 0 0 0 0 198.40281261469863 -81.893956609958877 0 -81.893956609958877 6.9217802612092783 0 0 0 0 84.603001642790332 -65.035342629496881 0 -65.035342629496881 45.411366116638419 0 0 0 0 41.796808946404781 -123.36408897297042 0 -123.36408897297042 11.317953302852402 0 0 0 0 73.968001855704642 -87.465320409593915 0 -87.465320409593915 26.65637002098083 0 0 0 0 94.65111847960361 -93.206439762931041 0 -93.206439762931041 20.966711985622169 0 0 0 0 -2.5188075620689858 -4.3679139538830896 0 -4.3679139538830896 -5.4538641784928927 0 0 0 0 82.719147605854232 -83.73386709461829 0 -83.73386709461829 36.64394340967192 0 0 0 0 -165.9193175008586 -103.23484442283552 0 -103.23484442283552 39.453756004278944 0 0 0 0 -45.303583486573189 -271.23923825506063 0 -271.23923825506063 0.42309998350901878 0 0 0 0 172.84806845751882 -105.80782574800287 0 -105.80782574800287 -48.453919337083789 0 0 0 0 -1.2300127709236648 -1.8965632947416111 0 -1.8965632947416111 -1.8101044581003407 0 0 0 0 -134.76433978291607 -157.55780507454983 0 -157.55780507454983 -42.082215603636769 0 0 0 0 -284.57625903770531 93.074727614653966 0 93.074727614653966 174.78395076946072 0 0 0 0 -221.30177632884079 -67.696544018875557 0 -67.696544018875557 257.88953802247124 0 0 0 0 -16.763382144548814 63.140124499284866 0 63.140124499284866 12.463373295286146 0 0 0 0 -0.89070540815387744 -25.778588218891844 0 -25.778588218891844 -22.56318439834844 0 0 0 0 -274.84425294506218 146.64180066131667 0 146.64180066131667 -138.05277915052284 0 0 0 0 0.52295426002268641 -2.6097477139199725 0 -2.6097477139199725 -12.261881350985185 0 0 0 0 -2.9101986623063567 -20.632587145365505 0 -20.632587145365505 -13.19025742903159 0 0 0 0 3.8240005950543434 -14.093126096477505 0 -14.093126096477505 3.9144033739279358 0 0 0 0 -66.003116089241303 -72.188991194643677 0 -72.188991194643677 59.24302065349184 0 0 0 0 -4.7158561570062432 -13.976585069924447 0 -13.976585069924447 -8.7541964375859571 0 0 0 0 35.115077875998395 -50.626603328280908 0 -50.626603328280908 16.379517087472777 0 0 0 0 35.85931453926105 -46.963477105516517 0 -46.963477105516517 0.2263363357160415 0 0 0 0 -0.79849870460168404 -10.496437965254387 0 -10.496437965254387 -10.190006621499517 0 0 0 0 5.1038940510858879 -8.541302243323063 0 -8.541302243323063 -12.4913107631182 0 0 0 0 2.5030688770566485 -11.076265144572062 0 -11.076265144572062 -0.56581326895684469 0 0 0 0 -2.1409820890257834 -15.335980387036216 0 -15.335980387036216 -3.6100428592517346 0 0 0 0 1.5812593328082585 -17.070307307930307 0 -17.070307307930307 -3.0038273387026493 0 0 0 0 1.3054743084236407 -8.3790695671317295 0 -8.3790695671317295 11.946431632095582 0 0 0 0 -5.0790785199351376 -22.559287327920174 0 -22.559287327920174 -10.038336114770573 0 0 0 0 -3.5137790061053238 -12.227261057541909 0 -12.227261057541909 -1.9640210247016512 0 0 0 0 -4.6157807061294989 -17.31646916571907 0 -17.31646916571907 -6.7300559156592499 0 0 0 0 -2.297479753577079 -6.8270376968733189 0 -6.8270376968733189 10.32820360003835 0 0 0 0 -3.7026469171032659 2.0145062795463673 0 2.0145062795463673 18.790441221253786 0 0 0 0 -8.0461334845458623 3.1637889195353637 0 3.1637889195353637 30.272953203790166 0 0 0 0 -14.386659294250421 -19.823992490720229 0 -19.823992490720229 11.391971343263322 0 0 0 0 -13.9765011768759 -10.746534870105734 0 -10.746534870105734 18.894363298275039 0 0 0 0 -14.985020973658493 -22.144639934065253 0 -22.144639934065253 17.975677692402314 0 0 0 0 -9.0305966963787796 -12.731550110611806 0 -12.731550110611806 5.9627622697553306 0 0 0 0 -14.217099889916426 -7.129637700800231 0 -7.129637700800231 47.474152561016126 0 0 0 0 -3.7636770700182751 -38.403265258994622 0 -38.403265258994622 18.24187802913184 0 0 0 0 -2.1605798267992213 -33.756140435162706 0 -33.756140435162706 5.0552546535941474 0 0 0 0 218.21321370737132 186.07513299412312 0 186.07513299412312 -503.04111768436269 0 0 0 0 -5.1583536737229849 -28.969705057548719 0 -28.969705057548719 -28.111592402933617 0 0 0 0 108.01158822850266 24.468456770261582 0 24.468456770261582 104.98582039942812 0 0 0 0 -53.045157695745729 -63.534435129653502 0 -63.534435129653502 -62.827842991100624 0 0 0 0 1.9322991553635802 -45.427985954761425 0 -45.427985954761425 24.484548458439349 0 0 0 0 2.8177437444774114 -52.171573244387332 0 -52.171573244387332 72.5035975430701 0 0 0 0 0.8288844471521486 -0.20318864617730981 0 -0.20318864617730981 -0.11417795545950504 0 0 0 0 -13.070230537246971 -15.37031467110728 0 -15.37031467110728 87.420472389300585 0 0 0 0 214.85451273438957 6.1363682679429985 0 6.1363682679429985 -47.681056643068587 0 0 0 0 62.111555351919378 -126.71101837527658 0 -126.71101837527658 -91.766000827336939 0 0 0 0 -11.709722885090287 -34.44213204303999 0 -34.44213204303999 -31.088291029553279 0 0 0 0 94.326402914419305 -150.34971995534625 0 -150.34971995534625 -143.09062736790111 0 0 0 0 -1147.6316470691236 -283.80255658914029 0 -283.80255658914029 405.43302468114052 0 0 0 0 95.427175509998051 -145.36501881765344 0 -145.36501881765344 -170.72498781679315 0 0 0 0 23.066476579369919 -19.270621256275263 0 -19.270621256275263 -216.00817169425682 0 0 0 0 -13.277148821085575 -241.8633640755952 0 -241.8633640755952 -175.36344528964219 0 0 0 0 -13.657502814165042 -37.048602009934918 0 -37.048602009934918 -32.984992560163477 0 0 0 0 11.567610671398825 -126.88057185457296 0 -126.88057185457296 43.954434638657403 0 0 0 0 25.759123066192842 -180.57158393546706 0 -180.57158393546706 24.061109187554393 0 0 0 0 108.52431470790907 -218.26475075665803 0 -218.26475075665803 -101.54939090468088 0 0 0 0 -14.561546148186608 -186.49250615203346 0 -186.49250615203346 129.56720466307524 0 0 0 0 -3.6079983205709141 -192.99033136623075 0 -192.99033136623075 130.52666350718823 0 0 0 0 -21.991431065041979 -183.84374592538643 0 -183.84374592538643 205.50815612823499 0 0 0 0 -16.247964437763585 -78.019660875626869 0 -78.019660875626869 237.51087967233616 0 0 0 0 -2.8411645551641413 50.231896406075975 0 50.231896406075975 460.47719425657283 0 0 0 0 46.664014163456159 -342.15502058734455 0 -342.15502058734455 494.95047725184304 0 0 0 0 552.17595825516764 -480.897706060774 0 -480.897706060774 198.16463842412668 0 0 0 0 552.08122978093161 -337.02055990008375 0 -337.02055990008375 -34.662165573856328 0 0 0 0 534.13381648534141 230.27321710820712 0 230.27321710820712 -32.863751768869406 0 0 0 0 -192.72242422492127 316.70054659688503 0 316.70054659688503 204.87311704204694 0 0 0 0 47.885673026830773 -55.846527159226753 0 -55.846527159226753 -196.37604425402969 0 0 0 0 -64.463978966021386 -85.207892558275489 0 -85.207892558275489 -10.413298918414512 0 0 0 0 -44.673020734946476 105.41640570583513 0 105.41640570583513 871.05971431041689 0 0 0 0 103.30332319177978 -272.22812556638928 0 -272.22812556638928 108.66398023863621 0 0 0 0 92.325961325455864 -224.7893344870663 0 -224.7893344870663 -95.538360952783478 0 0 0 0 593.6136667706196 -2.2665600163380759 0 -2.2665600163380759 -7.0759053353649506 0 0 0 0 2.8110816703107133 -6.4929468262515542 0 -6.4929468262515542 7.2744524586774304 0 0 0 0 234.99244154291591 30.654188691666604 0 30.654188691666604 -12.529467525564542 0 0 0 0 357.49011489031 -207.79122837782825 0 -207.79122837782825 -109.96923500556295 0 0 0 0 122.4496215905092 -186.61649668616155 0 -186.61649668616155 -111.87359917378853 0 0 0 0 158.51934435444491 -141.67528760769073 0 -141.67528760769073 -172.38748035411118 0 0 0 0 125.9423516312454 -202.17698911051775 0 -202.17698911051775 -79.057848983426084 0 0 0 0 77.522592561188503 -133.81202477811894 0 -133.81202477811894 -67.766967593495792 0 0 0 0 51.505145540753801 -146.5909317858227 0 -146.5909317858227 -39.22289162076413 0 0 0 0 -20.488590998313157 -50.361621371699584 0 -50.361621371699584 -143.93096137203247 0 0 0 0 73.260085164707561 -107.00731507024375 0 -107.00731507024375 -109.97415068941336 0 0 0 0 80.490395535864081 -127.71759220485546 0 -127.71759220485546 -55.747249823434686 0 0 0 0 60.199753677970875 -91.355249421469125 0 -91.355249421469125 -62.018691374934861 0 0 0 0 17.159768778306898 -77.905479277080303 0 -77.905479277080303 -58.422405600744241 0 0 0 0 50.741135415446479 -103.08202643892491 0 -103.08202643892491 -39.646223237781669 0 0 0 0 57.944501046047662 -59.591262133308192 0 -59.591262133308192 -3.469522230054281 0 0 0 0 53.443006719040568 -115.8165541429953 0 -115.8165541429953 29.911340699085486 0 0 0 0 55.485328047805524 -106.87539229920185 0 -106.87539229920185 -6.7694137815306021 0 0 0 0 54.718600479449378 -104.71129431266127 0 -104.71129431266127 8.5413975792143901 0 0 0 0 -54.272488935958791 176.74702939240956 0 176.74702939240956 -321.5959445561748 0 0 0 0 144.92843281301612 -102.95409065692184 0 -102.95409065692184 -126.33528498120722 0 0 0 0 -436.92302881955436 -153.69654186703491 0 -153.69654186703491 168.41314017495461 0 0 0 0 65.226857478890452 -209.0317844380661 0 -209.0317844380661 -203.07986052810156 0 0 0 0 -149.00430699619756 -327.37168033925263 0 -327.37168033925263 -43.977544684887107 0 0 0 0 57.072425983613357 -98.062173380854802 0 -98.062173380854802 -72.690161689486558 0 0 0 0 26.958230506876134 -149.54076816873567 0 -149.54076816873567 -84.590263723348471 0 0 0 0 86.247385650756769 -114.30980500944133 0 -114.30980500944133 -63.696723505876435 0 0 0 0 -45.653322907146503 -140.8190218892405 0 -140.8190218892405 -73.040776116518828 0 0 0 0 -5.4590429038798902 -144.48027493049813 0 -144.48027493049813 -82.886853315867484 0 0 0 0 0.58979660356271779 -47.653315632695012 0 -47.653315632695012 -203.35377278639498 0 0 0 0 -12.853862393145391 -49.859299856816506 0 -49.859299856816506 -15.847869019778955 0 0 0 0 9.1579619620460733 -3.336028196289675 0 -3.336028196289675 -12.207028458575181 0 0 0 0 -39.362123054250333 -170.67032121860802 0 -170.67032121860802 68.49660428667994 0 0 0 0 5.0516349392855773 -15.948916916362577 0 -15.948916916362577 -2.9350354175512621 0 0 0 0 5.385967609438012 -13.725737794311499 0 -13.725737794311499 -22.287062207778945 0 0 0 0 4.4825345697450416 -12.665076847883324 0 -12.665076847883324 -11.837085797094986 0 0 0 0 11.097785040168674 -15.148600523527421 0 -15.148600523527421 -11.553600032686518 0 0 0 0 -17.734188176764292 -81.489382841691622 0 -81.489382841691622 -34.499726420202933 0 0 0 0 4.3361123190115904 -30.643612858126289 0 -30.643612858126289 2.1185758479732613 0 0 0 0 2.2843501885857904 -2.5833289311513994 0 -2.5833289311513994 -4.3595489111156454 0 0 0 0 24.733223733477644 -14.173030295074568 0 -14.173030295074568 -14.815193502297916 0 0 0 0 7.3749597593469929 -8.56446367379111 0 -8.56446367379111 -5.5526439961759735 0 0 0 0 45.274891669570934 -53.12217686099757 0 -53.12217686099757 -32.954218370035505 0 0 0 0 38.063358346211317 7.961984459661835 0 7.961984459661835 -4.619558866834268 0 0 0 0 59.561563738097902 8.6566423758195015 0 8.6566423758195015 64.129027939168736 0 0 0 0 2.3350215875434799 -3.478382578061467 0 -3.478382578061467 -0.45565776366326105 0 0 0 0 5.3946102525304411 -14.237946949927737 0 -14.237946949927737 -8.4106922859227708 0 0 0 0 7.9492600736193708 -9.7368445463434909 0 -9.7368445463434909 -12.428725813186702 0 0 0 0 11.495981414782364 -21.166521380078393 0 -21.166521380078393 103.97308825429172 0 0 0 0 9.5607478079764405 -20.200522157501837 0 -20.200522157501837 -10.315137708856412 0 0 0 0 2.6530233800146448 -15.043453537672562 0 -15.043453537672562 -9.9593790983189017 0 0 0 0 -0.16343648718611803 -9.3057783025105891 0 -9.3057783025105891 -3.38939131146617 0 0 0 0 -0.38399956769260513 -15.045500160994337 0 -15.045500160994337 -13.615614093857104 0 0 0 0 4.3272793227224611 -21.201264101666311 0 -21.201264101666311 -10.303884212407297 0 0 0 0 19.719648349343061 -14.805662156981725 0 -14.805662156981725 -15.649640211449878 0 0 0 0 8.1001561794938368 -11.303295489914831 0 -11.303295489914831 -13.706838340606787 0 0 0 0 -3.135068322687264 -16.896813135559512 0 -16.896813135559512 -2.6709658180145084 0 0 0 0 12.676821635330271 -17.053926026739646 0 -17.053926026739646 -14.052754345484573 0 0 0 0 2.6065122037291548 -12.781667145593048 0 -12.781667145593048 -12.998841579682093 0 0 0 0 6.1370595875559957 -10.967868355352948 0 -10.967868355352948 -13.521894330559007 0 0 0 0 16.32147324710968 -8.7572112837951863 0 -8.7572112837951863 -13.760123189336809 0 0 0 0 13.964110163244186 -18.611018596284339 0 -18.611018596284339 -17.288985008708551 0 0 0 0 19.342227820670814 -17.432022759558095 0 -17.432022759558095 -18.69675182823994 0 0 0 0 16.295610511617781 -6.1418638668564789 0 -6.1418638668564789 -14.746081373502541 0 0 0 0 48.90112462950492 -27.784840443433495 0 -27.784840443433495 -9.2107014335415442 0 0 0 0 42.355142870533655 -25.120368618738439 0 -25.120368618738439 -8.6291047050544876 0 0 0 0 15.087049941983423 -18.462007361033102 0 -18.462007361033102 -8.7494719872320275 0 0 0 0 10.025711611701269 -4.7030014238923563 0 -4.7030014238923563 -11.706466021046843 0 0 0 0 10.367931831390777 -11.039726318787544 0 -11.039726318787544 -4.8850361876362172 0 0 0 0 36.778563400132043 2.1427508012375256 0 2.1427508012375256 -7.9019944466344896 0 0 0 0 9.9614949989136221 -24.070311305407813 0 -24.070311305407813 -3.1222087084533996 0 0 0 0 6.8178439499570231 -22.278325175393547 0 -22.278325175393547 -1.4270126031519794 0 0 0 0 9.2191210947776199 -22.426710362970425 0 -22.426710362970425 -4.6127238778863102 0 0 0 0 2.8386217587957496 -19.190062016315245 0 -19.190062016315245 -1.2200247242989803 0 0 0 0 17.232465668468649 -25.271507870169444 0 -25.271507870169444 -3.612843605424132 0 0 0 0 6.7946600500438024 -5.4298400384560246 0 -5.4298400384560246 -5.4117377275876777 0 0 0 0 12.314648864514311 -10.250426516355219 0 -10.250426516355219 2.5566298484482104 0 0 0 0 -19.467694033337466 -31.872221333404013 0 -31.872221333404013 -4.0118620144276065 0 0 0 0 14.100416499434687 17.510859826872547 0 17.510859826872547 -135.12309160800214 0 0 0 0 -49.616580354599137 -29.288453358090919 0 -29.288453358090919 19.796847913339661 0 0 0 0 -0.11164402617961855 -0.63974716992454006 0 -0.63974716992454006 -1.4355484684047326 0 0 0 0 18.233959142547974 -19.808945766166289 0 -19.808945766166289 -16.467427257271993 0 0 0 0 38.638779681310325 -3.0268836387908777 0 -3.0268836387908777 -25.819099373351492 0 0 0 0 7.5540664870859473 -91.086589084530715 0 -91.086589084530715 9.4532165197542781 0 0 0 0 38.75717708189859 -19.953677885886918 0 -19.953677885886918 -31.103189287336136 0 0 0 0 -9.053640703394251 -21.442837134648897 0 -21.442837134648897 -16.251985604574294 0 0 0 0 -85.487866208444757 -14.301113958958013 0 -14.301113958958013 57.449214003994712 0 0 0 0 26.192488030032109 -94.503780057260883 0 -94.503780057260883 -87.142524774881167 0 0 0 0 -1.6329150975436733 -50.329368500884925 0 -50.329368500884925 14.372136112007865 0 0 0 0 1.6414735178259434 -20.374027786977422 0 -20.374027786977422 6.8827647716898355 0 0 0 0 42.093479559549451 -113.15198841052006 0 -113.15198841052006 63.261510047582306 0 0 0 0 100.12714782595731 -119.41511362159781 0 -119.41511362159781 26.584325165811606 0 0 0 0 -17.120836395624792 -28.644039826300286 0 -28.644039826300286 7.0893425140347972 0 0 0 0 -3.9437233462700902 -18.17673520424048 0 -18.17673520424048 -11.994245808845864 0 0 0 0 -0.73668191314209253 -30.090259307133238 0 -30.090259307133238 2.6930962322003325 0 0 0 0 -6.0578308839362762 -8.2318175180034814 0 -8.2318175180034814 5.6040473201101122 0 0 0 0 120.17329852697003 -137.53328193584639 0 -137.53328193584639 114.00980543508012 0 0 0 0 -0.79482210371820017 -3.6581768269352608 0 -3.6581768269352608 0.046639051052252967 0 0 0 0 14.243059403044754 -77.174619040155449 0 -77.174619040155449 80.329317506344523 0 0 0 0 18.622509313718183 -161.23382898159252 0 -161.23382898159252 113.96115687131169 0 0 0 0 97.467723291782022 -144.7476037462875 0 -144.7476037462875 95.735576631039294 0 0 0 0 24.520861169898126 -149.99951602482679 0 -149.99951602482679 121.06600178897133 0 0 0 0 115.55112155231473 -195.09627664963773 0 -195.09627664963773 74.252479549115378 0 0 0 0 34.940858830181242 -180.13802483867767 0 -180.13802483867767 75.786799395391427 0 0 0 0 17.645748730988998 -158.59791148896511 0 -158.59791148896511 114.47871212233258 0 0 0 0 6.8714544900831243 -71.41886049052664 0 -71.41886049052664 -25.579407650709982 0 0 0 0 0.073981493846076773 -141.39900094067889 0 -141.39900094067889 133.90625544690556 0 0 0 0 161.16202265414904 -246.43038922567212 0 -246.43038922567212 104.23379582310736 0 0 0 0 119.91757012669405 -172.58292716232972 0 -172.58292716232972 78.218894498219015 0 0 0 0 156.76882472205762 -219.81207025971526 0 -219.81207025971526 129.51897597943753 0 0 0 0 96.995724441276252 -80.777241530768151 0 -80.777241530768151 67.683699340362182 0 0 0 0 80.393465149692929 -105.0594069764835 0 -105.0594069764835 34.38593505397148 0 0 0 0 163.98809057031758 -145.94857643797695 0 -145.94857643797695 33.238329688476369 0 0 0 0 111.86669495422393 -55.924008437163138 0 -55.924008437163138 -26.876537793714306 0 0 0 0 3.3861467293500596 -14.022526566230834 0 -14.022526566230834 -19.240699997462869 0 0 0 0 53.784840139918742 -19.728923493486036 0 -19.728923493486036 -111.16545215472433 0 0 0 0 -18.071462150812295 -79.034344206918831 0 -79.034344206918831 -43.926468910005497 0 0 0 0 -88.275267351086768 -130.98364940715737 0 -130.98364940715737 288.32112669067646 0 0 0 0 0.53744534526032162 -2.1311842455296883 0 -2.1311842455296883 0.98463968810902713 0 0 0 0 467.24289904303259 -235.28095235145065 0 -235.28095235145065 254.63307592275669 0 0 0 0 273.18544007309538 -246.15604837920728 0 -246.15604837920728 32.121322096791118 0 0 0 0 198.44695344851061 -281.3536691354675 0 -281.3536691354675 135.72440842620563 0 0 0 0 -1.9775233471448956 -6.43511176764396 0 -6.43511176764396 -0.68253177054633341 0 0 0 0 229.81172564066219 -188.8891869078825 0 -188.8891869078825 105.43414546372514 0 0 0 0 -34.217797386085294 -43.396535492995554 0 -43.396535492995554 44.506694299394439 0 0 0 0 15.516301716168527 -32.641844222604959 0 -32.641844222604959 -68.271144220859242 0 0 0 0 -10.792493144979687 -36.742250279582436 0 -36.742250279582436 -35.742941202632174 0 0 0 0 18.735476501769654 -28.715634419353279 0 -28.715634419353279 -64.407337212869606 0 0 0 0 18.741277149863151 -28.836573068708582 0 -28.836573068708582 -93.256547279464939 0 0 0 0 8.2665241704962682 -35.336091794316417 0 -35.336091794316417 -61.338793811006326 0 0 0 0 5.2743231548716061 -11.135699171001704 0 -11.135699171001704 -33.376232198154341 0 0 0 0 9.1502674223156646 -32.554013372578083 0 -32.554013372578083 -58.893964051972034 0 0 0 0 -0.36739174095419003 -30.272419367193834 0 -30.272419367193834 -37.717454359073599 0 0 0 0 -2.726923904279829 -20.692397147937299 0 -20.692397147937299 -38.282100597924 0 0 0 0 0.38268095073068054 -2.6754714033437637 0 -2.6754714033437637 -1.339646972381999 0 0 0 0 19.18688432945055 0.15591752497130074 0 0.15591752497130074 -24.224457904085284 0 0 0 0 10.894745615903219 -20.205216719982388 0 -20.205216719982388 -20.496691338907279 0 0 0 0 -2.7783559516537935 -17.260003045436861 0 -17.260003045436861 -27.823786554667095 0 0 0 0 -2.3997995810022417 -13.372932000916999 0 -13.372932000916999 -8.9749439495767316 0 0 0 0 -1.4162958147098834 -16.080566965218168 0 -16.080566965218168 -15.529651230195668 0 0 0 0 -8.1834291761933855 -15.717075343570286 0 -15.717075343570286 -7.6438915676972101 0 0 0 0 2.0050294565885167 -14.321807744225268 0 -14.321807744225268 -10.98209256376003 0 0 0 0 10.478756282514951 -28.074447537916967 0 -28.074447537916967 -26.473640582975349 0 0 0 0 -6.270434498143004 -21.199235917746591 0 -21.199235917746591 -13.120845149249135 0 0 0 0 5.2770936469789334 -17.753136131912584 0 -17.753136131912584 -14.739435250693965 0 0 0 0 11.882017771498795 -28.362585461650269 0 -28.362585461650269 -32.679738609270089 0 0 0 0 18.048742415205197 -31.024004675477954 0 -31.024004675477954 -32.751233082024555 0 0 0 0 7.7692365765780664 -15.623081330025704 0 -15.623081330025704 -12.658181887179065 0 0 0 0 2.3854342462040421 -1.3031758204915214 0 -1.3031758204915214 -0.59585707505586782 0 0 0 0 -8.237111138907494 -14.192720627372182 0 -14.192720627372182 9.8670251909279614 0 0 0 0 -49.090110019204985 -11.195778904476811 0 -11.195778904476811 16.287574032270641 0 0 0 0 3.9849368592910501 -5.0180073545168185 0 -5.0180073545168185 -28.049511106240118 0 0 0 0 29.598433419885623 -4.1631149384966193 0 -4.1631149384966193 -28.627273365331348 0 0 0 0 12.546678429960593 24.438417619068787 0 24.438417619068787 -33.064999425165752 0 0 0 0 -34.487397310394954 -3.2693754018714571 0 -3.2693754018714571 -58.047031077170686 0 0 0 0 12.308286422973239 -13.078887501468245 0 -13.078887501468245 -28.964339954848299 0 0 0 0 20.976406147499802 -17.22325108309451 0 -17.22325108309451 -10.148214496908622 0 0 0 0 15.983492839084263 -4.7160192783240262 0 -4.7160192783240262 -33.040459551172887 0 0 0 0 10.044996607473095 -19.064680915344574 0 -19.064680915344574 -26.426988588089841 0 0 0 0 10.743360183798359 -13.982290816758905 0 -13.982290816758905 -54.579898109928763 0 0 0 0 13.838780464882994 -2.821366714776854 0 -2.821366714776854 -36.827359880910343 0 0 0 0 -19.688428499779548 -31.626726733341457 0 -31.626726733341457 -0.10026272937830072 0 0 0 0 53.829439924051258 -31.557465028808792 0 -31.557465028808792 -12.961888780158915 0 0 0 0 46.924245565613091 -55.594098807285263 0 -55.594098807285263 -6.8417678357764089 0 0 0 0 105.48370108628296 -14.280270055386609 0 -14.280270055386609 -33.582971232550335 0 0 0 0 4.8059045515668366 -21.889038748974656 0 -21.889038748974656 -19.759466747020497 0 0 0 0 3.389797320397637 -3.2830548765561147 0 -3.2830548765561147 0.45620304090466846 0 0 0 0 33.991593452075904 -20.735259801891516 0 -20.735259801891516 -16.463387583695294 0 0 0 0 10.085910766574671 -23.859941748465644 0 -23.859941748465644 -13.361856623982021 0 0 0 0 -2.1693423663382418 -38.403988882055273 0 -38.403988882055273 -30.449658860060936 0 0 0 0 9.1953676512821403 -28.068648235210276 0 -28.068648235210276 -17.437808073890665 0 0 0 0 0.020080909352898857 -13.595405433865352 0 -13.595405433865352 -12.855004076330731 0 0 0 0 -14.758187651252229 -24.551600004555439 0 -24.551600004555439 9.6798871290648094 0 0 0 0 6.5462205958756385 -30.989838221334139 0 -30.989838221334139 -18.205066694587003 0 0 0 0 21.235451507684502 -25.935650622253661 0 -25.935650622253661 -12.246038132696413 0 0 0 0 7.9959543294884803 -18.368167985552404 0 -18.368167985552404 -14.008962985056023 0 0 0 0 101.4968250793172 -9.9495665768572508 0 -9.9495665768572508 2.4300082908303011 0 0 0 0 45.138015146258113 -12.918860071825293 0 -12.918860071825293 -6.8283011688090482 0 0 0 0 47.894726993759349 -24.793742883260311 0 -24.793742883260311 -30.220915750297159 0 0 0 0 28.424921294998057 -23.199242310785849 0 -23.199242310785849 -18.603261051192021 0 0 0 0 24.601516596075086 -12.044902938660249 0 -12.044902938660249 -7.4030193993185662 0 0 0 0 66.402157431366504 -12.902371963249607 0 -12.902371963249607 -10.300969478365005 0 0 0 0 52.972041274580988 -25.5558499929748 0 -25.5558499929748 -18.564873325496592 0 0 0 0 27.299696807678629 -39.688727005391229 0 -39.688727005391229 -22.377332063888161 0 0 0 0 -0.37011038918080885 -29.200556406956878 0 -29.200556406956878 -14.584475216910505 0 0 0 0 10.079623735858409 -15.782514194102355 0 -15.782514194102355 -17.828416026757836 0 0 0 0 1.3822796212677568 -23.25743544310707 0 -23.25743544310707 -0.49380385247664549 0 0 0 0 4.679950500416453 -30.967738899035794 0 -30.967738899035794 -11.741058767526738 0 0 0 0 4.6939576419972582 -30.235896078143924 0 -30.235896078143924 -17.315875549525117 0 0 0 0 4.4255805206630612 -38.496191151579751 0 -38.496191151579751 -20.96387469016554 0 0 0 0 8.2420776307881169 -37.575012545948539 0 -37.575012545948539 -44.12940674982201 0 0 0 0 13.894260673616373 -38.281067713412284 0 -38.281067713412284 -32.454891234065144 0 0 0 0 12.523376734033263 -27.554760147161403 0 -27.554760147161403 -39.839733978538789 0 0 0 0 -5.3626787939283531 -25.712244914712755 0 -25.712244914712755 -31.004344261275946 0 0 0 0 7.5677167899048072 -17.349477377317953 0 -17.349477377317953 -52.274791234521217 0 0 0 0 -24.046366327376745 -20.185103670987814 0 -20.185103670987814 -47.460845443924882 0 0 0 0 5.4470217374546337 -37.476494211403178 0 -37.476494211403178 -22.441629155923238 0 0 0 0 21.890467987319425 -7.5406665442287704 0 -7.5406665442287704 -2.3750917173774724 0 0 0 0 15.245949742047074 -9.5563713274837312 0 -9.5563713274837312 -5.3625016038338078 0 0 0 0 0.93240697406467632 -0.16838404306776056 0 -0.16838404306776056 0.011247378313957057 0 0 0 0 28.486668194263984 -11.116213815840297 0 -11.116213815840297 -4.2616507725033443 0 0 0 0 20.695839213909494 -29.99710168798174 0 -29.99710168798174 -28.792600637965734 0 0 0 0 2.1637174636137235 -17.395415702244364 0 -17.395415702244364 -8.8012972288423583 0 0 0 0 7.8393970462897826 -13.8211765153155 0 -13.8211765153155 -16.425670553665512 0 0 0 0 7.1140137662111727 -29.492432218988011 0 -29.492432218988011 -15.923901960550278 0 0 0 0 -131.64718312560581 -89.103385999985449 0 -89.103385999985449 -35.377452296480101 0 0 0 0 89.117913686743123 -46.357657049444924 0 -46.357657049444924 -29.699425405580769 0 0 0 0 -0.15394319713931282 -0.085187328142774188 0 -0.085187328142774188 -0.11143777119206466 0 0 0 0 29.941391464275512 -22.016773076315076 0 -22.016773076315076 -20.773957886753408 0 0 0 0 20.357404488644534 -48.013171129594639 0 -48.013171129594639 -44.470632004036815 0 0 0 0 23.484434421829064 -28.169829464313352 0 -28.169829464313352 -85.551269911159594 0 0 0 0 6.0804777860776085 -40.643939315198168 0 -40.643939315198168 -7.8475285696877108 0 0 0 0 12.249836857582249 -29.43483358202262 0 -29.43483358202262 -3.0438857521340257 0 0 0 0 219.87824131472735 -10.352018800681094 0 -10.352018800681094 -28.541556517242498 0 0 0 0 0.88551626744369116 -0.50724226464573974 0 -0.50724226464573974 0.071772307936234014 0 0 0 0 -224.61654042649752 -32.614735765948581 0 -32.614735765948581 19.116891611327446 0 0 0 0 109.53729860077146 6.8907377852010541 0 6.8907377852010541 37.888235850671947 0 0 0 0 -70.619829595489136 -78.378381861846492 0 -78.378381861846492 -35.186834844779014 0 0 0 0 51.351708587317262 -37.012969509083632 0 -37.012969509083632 39.506246147417187 0 0 0 0 -111.71181305892242 -49.890947281527588 0 -49.890947281527588 -9.0939026203104731 0 0 0 0 -4.1031243486699367 -3.8797754137021911 0 -3.8797754137021911 -0.57613184213243684 0 0 0 0 -5.8621889490714238 -28.304444767551558 0 -28.304444767551558 -70.672416599649296 0 0 0 0 6.6123130812775344 -92.994631893560381 0 -92.994631893560381 -23.367072898415245 0 0 0 0 78.928819084962015 -33.292991755829007 0 -33.292991755829007 -53.698756945873129 0 0 0 0 7.1137490627848479 -31.561716315178685 0 -31.561716315178685 -7.8367421422130423 0 0 0 0 30.034601508792548 -23.2988089687301 0 -23.2988089687301 -6.3232763044607054 0 0 0 0 7.1784804940648428 -19.244192808355905 0 -19.244192808355905 3.0102627004712303 0 0 0 0 -4.371360695517069 -23.190164468614057 0 -23.190164468614057 -13.390948621850839 0 0 0 0 10.125365509329612 -31.71416801750339 0 -31.71416801750339 -22.020053170303072 0 0 0 0 4.9474134803817833 -15.35299669702728 0 -15.35299669702728 -14.746050054020163 0 0 0 0 -9.8138916797364857 -29.315945002143447 0 -29.315945002143447 -13.770116441164188 0 0 0 0 43.547982708834752 -18.658521862135444 0 -18.658521862135444 -13.234090988852586 0 0 0 0 -31.749311304261937 -1.8202815320445325 0 -1.8202815320445325 11.247287359020447 0 0 0 0 -1.7369663754593816 -1.281177999159965 0 -1.281177999159965 0.30487109171849269 0 0 0 0 -6.9669761555878722 -10.406429293220601 0 -10.406429293220601 -7.1950114984070526 0 0 0 0 48.281998411854147 -63.143276609035183 0 -63.143276609035183 46.35800663568989 0 0 0 0 61.284104582824511 -42.870634463433817 0 -42.870634463433817 2.1904527647998293 0 0 0 0 50.422535103338305 -34.942069965912196 0 -34.942069965912196 22.899422346881693 0 0 0 0 63.009280180936912 -41.416155604317737 0 -41.416155604317737 -16.473297206006464 0 0 0 0 58.566383133264026 -63.52545532034901 0 -63.52545532034901 4.4415099356032783 0 0 0 0 53.887602315098775 -50.869774676897805 0 -50.869774676897805 -5.3238767775892484 0 0 0 0 33.375871018411999 -45.392459378591639 0 -45.392459378591639 -6.2029993811333952 0 0 0 0 53.38779911547681 -53.41720977362678 0 -53.41720977362678 -18.230738484916401 0 0 0 0 75.389480566765997 -46.946026202274879 0 -46.946026202274879 -16.139468508365098 0 0 0 0 71.511678820344969 -40.749190499219367 0 -40.749190499219367 -26.033227109587642 0 0 0 0 66.75976034069754 -54.204463875182682 0 -54.204463875182682 -14.884792531282983 0 0 0 0 72.995378336228896 -53.175039984932027 0 -53.175039984932027 -15.07923105405365 0 0 0 0 91.768814371534972 -56.962122121929497 0 -56.962122121929497 -28.855454128466363 0 0 0 0 73.190662886139762 -56.571667302813921 0 -56.571667302813921 4.1424148879796121 0 0 0 0 113.18848719206107 -49.294268238471204 0 -49.294268238471204 -6.1732433985671378 0 0 0 0 129.87748289541923 -46.842336739543498 0 -46.842336739543498 -4.1469713079441135 0 0 0 0 70.010032224212409 -45.60753845408459 0 -45.60753845408459 -11.159102067777894 0 0 0 0 72.486523739193217 -55.873361375976856 0 -55.873361375976856 11.909469489678031 0 0 0 0 48.964789569741697 -53.472027664390453 0 -53.472027664390453 2.9479197355740325 0 0 0 0 49.441604761035251 -49.625721176531854 0 -49.625721176531854 -13.844779984400247 0 0 0 0 25.241774243313557 -29.770086085082653 0 -29.770086085082653 -8.9055467923026299 0 0 0 0 38.568834101795801 -50.986414886005832 0 -50.986414886005832 -1.9408702434732277 0 0 0 0 17.912317202280974 -21.854345574266745 0 -21.854345574266745 -26.756257813360435 0 0 0 0 -6.8191005190674332 -55.769070075117043 0 -55.769070075117043 -31.555979780131082 0 0 0 0 98.320331818846171 -75.543506396835483 0 -75.543506396835483 5.2605206742021551 0 0 0 0 121.36628009549167 -96.493435907679668 0 -96.493435907679668 0.33057530844052962 0 0 0 0 166.5870203002487 -90.856341271253768 0 -90.856341271253768 -24.747883683236068 0 0 0 0 54.147021830824087 -34.639917506725851 0 -34.639917506725851 -29.201753305268994 0 0 0 0 41.088899053895148 -56.579672457855395 0 -56.579672457855395 10.30262710074112 0 0 0 0 20.477483259259316 -25.384254244877638 0 -25.384254244877638 -29.586052460722385 0 0 0 0 19.938478247620878 -28.225090773742465 0 -28.225090773742465 -44.184531930044614 0 0 0 0 20.367597849690355 -12.463776574499207 0 -12.463776574499207 -43.271178732111011 0 0 0 0 23.770108708828047 -20.628315632248587 0 -20.628315632248587 -36.742723613583394 0 0 0 0 22.909485642958316 -23.922297298575813 0 -23.922297298575813 -26.195357691243089 0 0 0 0 31.125758387875976 -30.029234859022381 0 -30.029234859022381 -28.627510593647003 0 0 0 0 25.630333138644346 -43.442096032850714 0 -43.442096032850714 -23.189170255448971 0 0 0 0 24.100994233016536 -24.274490612756949 0 -24.274490612756949 -29.740386241969645 0 0 0 0 18.560581595826079 -35.253041216884981 0 -35.253041216884981 -32.513361264382183 0 0 0 0 18.829350863445143 -53.180436851927197 0 -53.180436851927197 -32.955365412334231 0 0 0 0 -0.10924336843891069 -52.494138629420831 0 -52.494138629420831 -21.097728433475368 0 0 0 0 34.414546035150124 -41.416419539969638 0 -41.416419539969638 -26.696579855678465 0 0 0 0 23.748344803072541 -42.875165049652878 0 -42.875165049652878 -11.37605305955276 0 0 0 0 30.84753770153111 -48.158597009763071 0 -48.158597009763071 -2.4591175241248493 0 0 0 0 44.111849610424542 -62.364449146469269 0 -62.364449146469269 -8.1745536978002065 0 0 0 0 21.046300360227178 -59.876902052800233 0 -59.876902052800233 -16.247704611272638 0 0 0 0 -13.86811924277572 -59.398995208836823 0 -59.398995208836823 -5.3193656674237673 0 0 0 0 18.934325232323317 -54.159776737894447 0 -54.159776737894447 -22.689995267147879 0 0 0 0 -4.4723128358527902 -73.048823422721512 0 -73.048823422721512 -11.686138968767409 0 0 0 0 -7.4805967245447391 -55.476240218720704 0 -55.476240218720704 -34.359049133539429 0 0 0 0 -6.1111898020899389 -47.003978518527219 0 -47.003978518527219 -156.65435807687254 0 0 0 0 0.0780569023870612 0.62089812313550929 0 0.62089812313550929 0.49617526850622706 0 0 0 0 13.153419166061212 -74.832389077392691 0 -74.832389077392691 123.13565829775416 0 0 0 0 34.707501678589324 -96.469251601620499 0 -96.469251601620499 -1.5021265083923936 0 0 0 0 8.9822817227613996 -53.240021438791473 0 -53.240021438791473 16.132901368582225 0 0 0 0 44.548256387632136 -56.069299564763469 0 -56.069299564763469 12.528060406872555 0 0 0 0 21.636328186956234 -49.067385473651484 0 -49.067385473651484 16.13275946312524 0 0 0 0 9.7551145871548215 -10.975564812575385 0 -10.975564812575385 -27.560845384344475 0 0 0 0 -4.1114166451595011 -9.2679682290035004 0 -9.2679682290035004 -10.788643861990574 0 0 0 0 0.84335260487532082 -0.42310140818947772 0 -0.42310140818947772 -1.4956232787306085 0 0 0 0 32.321175857567141 -40.453536633948033 0 -40.453536633948033 10.217171699518076 0 0 0 0 1.4049933985578207 -1.2603099717195443 0 -1.2603099717195443 -5.4937661857237465 0 0 0 0 -0.68186586061347043 -19.90249704142343 0 -19.90249704142343 -44.488728205903385 0 0 0 0 4.3890049681358505 -10.251275678538377 0 -10.251275678538377 -80.458180066215391 0 0 0 0 -39.633152105336194 -60.096246797111235 0 -60.096246797111235 -39.870654066743555 0 0 0 0 2.4488880365170189 -0.29680755933850378 0 -0.29680755933850378 -62.841008989580587 0 0 0 0 -0.30961943401714365 -6.7803932467420367 0 -6.7803932467420367 -22.207971135969057 0 0 0 0 139.10860871567274 722.78912027015667 0 722.78912027015667 -270.32305186710846 0 0 0 0 89.445318156838766 -93.585802001565753 0 -93.585802001565753 -39.223523225181452 0 0 0 0 -0.38095045543522588 -0.99056363407777326 0 -0.99056363407777326 -8.1343838626309797 0 0 0 0 -292.67809143666091 -171.30700556442434 0 -171.30700556442434 -33.43612403723273 0 0 0 0 -158.84633982816013 -116.27645759395091 0 -116.27645759395091 -62.453934586648757 0 0 0 0 -109.58500702542369 -268.23225067677322 0 -268.23225067677322 -139.42250684035662 0 0 0 0 31.525226352983736 -157.00243196586052 0 -157.00243196586052 -139.58317370326631 0 0 0 0 -44.635630133117957 -163.17058094362119 0 -163.17058094362119 -133.92259711288534 0 0 0 0 116.35241984371896 -104.10798007644098 0 -104.10798007644098 -150.17636743765252 0 0 0 0 38.913051074606756 -97.729998405567017 0 -97.729998405567017 -130.92953193030553 0 0 0 0 59.869796795912407 -47.02576081253028 0 -47.02576081253028 -131.14991680829826 0 0 0 0 -35.341724990241346 -48.114303396872856 0 -48.114303396872856 -112.41630179094864 0 0 0 0 10.856467113634153 -97.323798440576098 0 -97.323798440576098 -60.376882358643343 0 0 0 0 15.754765953312017 -74.509351671710363 0 -74.509351671710363 -128.87030089832297 0 0 0 0 -26.042746789542434 -98.392370042953189 0 -98.392370042953189 -130.63836231522413 0 0 0 0 -49.040232098021079 -52.100318778187102 0 -52.100318778187102 -51.810613898690008 0 0 0 0 -21.865955979319551 -95.721366842441967 0 -95.721366842441967 -112.64630104696334 0 0 0 0 1.2367086879314115 -0.92129106992084076 0 -0.92129106992084076 0.39626300593992703 0 0 0 0 -19.527232526284934 -23.357588447855846 0 -23.357588447855846 0.13962359240395017 0 0 0 0 -11.589858576229744 -11.170443476077594 0 -11.170443476077594 -7.3942116919433829 0 0 0 0 -12.252833615131749 -15.097017152659646 0 -15.097017152659646 40.547993513417168 0 0 0 0 -8.2076267573138466 -24.521513169539503 0 -24.521513169539503 -1.6005443259437016 0 0 0 0 -28.448322346041095 -19.155373500772384 0 -19.155373500772384 -2.568647516638066 0 0 0 0 0.15543138687644387 -13.273488773678309 0 -13.273488773678309 -47.471821714015277 0 0 0 0 1.0784163190905076 -1.091241674314233 0 -1.091241674314233 0.64818654200526815 0 0 0 0 -48.21387538563431 -67.457357411865814 0 -67.457357411865814 -33.300014300373277 0 0 0 0 -19.558152234330919 -43.796082911591384 0 -43.796082911591384 -38.082676514195555 0 0 0 0 -49.092581409517152 -62.915371671993853 0 -62.915371671993853 -30.922209844397003 0 0 0 0 -38.48701434360737 -44.631308744157593 0 -44.631308744157593 0.51335110218678892 0 0 0 0 0.81880314227450413 -0.7035950537027631 0 -0.7035950537027631 0.39705071339623998 0 0 0 0 -18.551527237330447 -62.808054563285168 0 -62.808054563285168 -68.307554381985028 0 0 0 0 -48.528999578900766 -19.444093099657891 0 -19.444093099657891 47.506921356968178 0 0 0 0 -74.465577787221264 -88.798838424547057 0 -88.798838424547057 -6.7545440307649187 0 0 0 0 -82.246707087164395 -70.738272742285062 0 -70.738272742285062 21.195738863608426 0 0 0 0 -57.693287065121694 -76.528773563441746 0 -76.528773563441746 -0.089113297245148715 0 0 0 0 -54.178587513681123 -68.503491576212582 0 -68.503491576212582 -1.8794626776443693 0 0 0 0 -39.833703009033343 -80.798862736094861 0 -80.798862736094861 -9.1312542475088776 0 0 0 0 -39.624761363651487 -72.673671488404125 0 -72.673671488404125 -39.603359636394089 0 0 0 0 -48.807749497616896 -78.809484558262739 0 -78.809484558262739 -10.206277167900343 0 0 0 0 -24.600263515661936 -62.366323053014412 0 -62.366323053014412 -8.7857073541877071 0 0 0 0 -41.291012227251485 -71.975426060137579 0 -71.975426060137579 -10.250656671576714 0 0 0 0 -19.956945105188424 -74.784434460707644 0 -74.784434460707644 -24.378661173417186 0 0 0 0 -51.948606522091723 -86.461896313672128 0 -86.461896313672128 -22.764809300334491 0 0 0 0 -48.420164837953052 -86.402165482205191 0 -86.402165482205191 -22.808015633852392 0 0 0 0 -34.269443088669505 -91.102454694265589 0 -91.102454694265589 -56.079350892179718 0 0 0 0 -18.913656626842567 -67.818028168345791 0 -67.818028168345791 -23.186741209040008 0 0 0 0 -1.84278421381714 -63.997714777153021 0 -63.997714777153021 -49.317927434572084 0 0 0 0 19.352551357318589 -26.265995456325527 0 -26.265995456325527 -48.15577147722189 0 0 0 0 8.7629728240281111 -48.858921342525719 0 -48.858921342525719 -51.275221026781765 0 0 0 0 -1.2701432319372543 -48.953852018329599 0 -48.953852018329599 -41.209576588427808 0 0 0 0 -1.7645919011411024 -46.411010714487929 0 -46.411010714487929 -62.213684238148971 0 0 0 0 -6.3533681785329463 -72.482285416807855 0 -72.482285416807855 -139.10814194690738 0 0 0 0 -1.0473766435388825 -60.144021645244038 0 -60.144021645244038 -79.904416898618592 0 0 0 0 6.4425776686002791 -44.942162122279569 0 -44.942162122279569 -74.043697484270524 0 0 0 0 19.435110263650131 -6.2437368670906608 0 -6.2437368670906608 -66.117564823020388 0 0 0 0 8.9881898741805344 -68.089718617461244 0 -68.089718617461244 -213.3381954589313 0 0 0 0 29.607806392516068 81.291824375615988 0 81.291824375615988 -181.6041890790913 0 0 0 0 -47.461993441749655 -86.965765707812352 0 -86.965765707812352 -198.7483312011546 0 0 0 0 -34.978817947398056 -55.602795460533798 0 -55.602795460533798 -94.783124413331279 0 0 0 0 17.632219536229968 -7.6030552136728602 0 -7.6030552136728602 -115.02622504069291 0 0 0 0 -40.058099868954741 -82.630129326095584 0 -82.630129326095584 -69.913624259951121 0 0 0 0 -120.56855968554009 -189.85998302462099 0 -189.85998302462099 -199.22500220139494 0 0 0 0 -333.0793538233637 -138.94816402078612 0 -138.94816402078612 -37.682185312032743 0 0 0 0 -119.12463933620529 -91.761306047858852 0 -91.761306047858852 11.822009343458831 0 0 0 0 -122.96888007827511 -112.04388351093121 0 -112.04388351093121 -40.152044337484455 0 0 0 0 -72.808520536666038 -123.33531433820417 0 -123.33531433820417 -75.679488148723436 0 0 0 0 -113.96457128923976 -24.442415455238518 0 -24.442415455238518 47.963291432357437 0 0 0 0 -90.062413446121354 -82.675921412730986 0 -82.675921412730986 3.8663876446253198 0 0 0 0 -45.04794030116318 -4.5030731948561424 0 -4.5030731948561424 3.0236749667196818 0 0 0 0 8.9244490786659298 -20.510212829181455 0 -20.510212829181455 7.5538588692738813 0 0 0 0 -21.039647229736147 -32.073298440690337 0 -32.073298440690337 71.190311451721755 0 0 0 0 -3.3638321148120269 -1.5366432609984315 0 -1.5366432609984315 1.850758599382841 0 0 0 0 173.45780896313227 -269.69266752395094 0 -269.69266752395094 187.26486092085997 0 0 0 0 -221.09907693305104 32.39921432114869 0 32.39921432114869 16.012875365074251 0 0 0 0 -41.43723179269 -8.6109133620601597 0 -8.6109133620601597 0.30822536819550805 0 0 0 0 -1.7212077130047874 -0.97596097019972206 0 -0.97596097019972206 0.48684131170313272 0 0 0 0 -332.33063341951595 1.5767722403856812 0 1.5767722403856812 9.0500007001273843 0 0 0 0 290.70923967492854 -286.13766177403795 0 -286.13766177403795 -106.6672997538044 0 0 0 0 32.761788364863605 -17.033043499936753 0 -17.033043499936753 137.32048497637516 0 0 0 0 110.04531317075453 -124.53117505315436 0 -124.53117505315436 -168.13529174776829 0 0 0 0 128.70172818455103 -147.93866332642327 0 -147.93866332642327 -481.51689611006475 0 0 0 0 95.684195526766416 -74.882168346939068 0 -74.882168346939068 -188.11440377227427 0 0 0 0 -279.58279854006832 -307.17780067114427 0 -307.17780067114427 -105.04496462179185 0 0 0 0 52.901998535315215 -24.613473605211539 0 -24.613473605211539 -353.98347931473239 0 0 0 0 -47.024311768107694 -209.25538867059743 0 -209.25538867059743 -422.67745657927753 0 0 0 0 -0.091397463533212431 -163.24643388057277 0 -163.24643388057277 -350.48907399543646 0 0 0 0 34.449438080977416 -53.158151980912407 0 -53.158151980912407 -217.84105525422387 0 0 0 0 118.50497896413071 -106.61049900388295 0 -106.61049900388295 -345.79663272322671 0 0 0 0 15.455188893356535 -129.32723758753832 0 -129.32723758753832 -142.48329860474632 0 0 0 0 73.727856088145927 -34.316998297132386 0 -34.316998297132386 -38.207971346441809 0 0 0 0 0.029452606875565834 -136.13619675401628 0 -136.13619675401628 -34.366024285940057 0 0 0 0 21.877191973515437 -67.743132247808489 0 -67.743132247808489 65.82221484028787 0 0 0 0 35.535344751631783 -145.08951905803542 0 -145.08951905803542 59.033621586324898 0 0 0 0 97.617937448587327 -77.588371014577319 0 -77.588371014577319 131.3266565138465 0 0 0 0 87.607607690857549 -177.57560971246176 0 -177.57560971246176 185.56017970470475 0 0 0 0 -3.4408579851245236 -0.42243595937955547 0 -0.42243595937955547 4.1829721339877892 0 0 0 0 60.139022739251232 -93.003757587272503 0 -93.003757587272503 142.73403345648785 0 0 0 0 -0.030665613889141241 -119.67435428776253 0 -119.67435428776253 143.4381580714612 0 0 0 0 0.10840857650019389 -78.697541180425532 0 -78.697541180425532 142.45936735875694 0 0 0 0 0.49354587325069588 -8.4755273034561469 0 -8.4755273034561469 -9.0580686346856965 0 0 0 0 -6.3703915210717241 -14.585459012566844 0 -14.585459012566844 6.6617816834161658 0 0 0 0 -2.7177961429057689 0.70951434595890106 0 0.70951434595890106 7.0103281224300478 0 0 0 0 58.593145472008473 -77.848620827144714 0 -77.848620827144714 108.54755469028487 0 0 0 0 -0.0026527984735255456 -2.3688286440712716 0 -2.3688286440712716 6.0454142192902509 0 0 0 0 -0.61121330594801293 -2.4025715208865321 0 -2.4025715208865321 4.6004138991872701 0 0 0 0 0.59123823418680388 1.606283400553643 0 1.606283400553643 3.500317777630265 0 0 0 0 9.3505673204708728 -25.055262669488911 0 -25.055262669488911 -19.961798164737957 0 0 0 0 -21.469164823749452 -34.758911581865505 0 -34.758911581865505 2.287874348364312 0 0 0 0 12.574069874070119 1.9139565684367881 0 1.9139565684367881 11.355430784874898 0 0 0 0 3.9439541357423877 19.65394339388331 0 19.65394339388331 16.173516684256356 0 0 0 0 -6.2252132653775334 -16.15927672677617 0 -16.15927672677617 16.003231099240111 0 0 0 0 -28.439609313732944 32.064835148572683 0 32.064835148572683 129.3283985322239 0 0 0 0 0.61172359719606106 -0.0093720553990195299 0 -0.0093720553990195299 -0.16767879426334265 0 0 0 0 -8.843642197221925 33.020022526349749 0 33.020022526349749 53.794030428905671 0 0 0 0 -30.463898185189464 -31.824583757068012 0 -31.824583757068012 18.728473870994094 0 0 0 0 -31.121869733797212 -16.271806987664604 0 -16.271806987664604 -19.166570652769224 0 0 0 0 1.999814780872839 -46.966655183518924 0 -46.966655183518924 -92.310365521313543 0 0 0 0 5.3662894802475876 18.84700902457655 0 18.84700902457655 9.7764598620724428 0 0 0 0 7.7345058791252086 -18.405234355869652 0 -18.405234355869652 -7.0519130040302116 0 0 0 0 13.905966623118729 -16.921852483043949 0 -16.921852483043949 -23.860653103032746 0 0 0 0 -1.2812449817865854 -0.040502063848180114 0 -0.040502063848180114 -9.8311240422822266 0 0 0 0 -19.194697784732853 -24.134116421572799 0 -24.134116421572799 2.6158815470334957 0 0 0 0 6.7284918993546796 -8.9337001644921585 0 -8.9337001644921585 5.7932560013290075 0 0 0 0 -3.8544445193620049 8.8722424254742691 0 8.8722424254742691 34.21388045063577 0 0 0 0 2.8094109415578714 -13.143923110851119 0 -13.143923110851119 3.8878714079037309 0 0 0 0 25.428458747730474 -3.5611574697677497 0 -3.5611574697677497 4.9740825078463331 0 0 0 0 27.402838660374982 12.059399024101367 0 12.059399024101367 32.46680240097885 0 0 0 0 13.097994620358804 -9.8156044581901369 0 -9.8156044581901369 42.227763232804136 0 0 0 0 -0.39588753509295316 -5.8256566019766751 0 -5.8256566019766751 0.96015023155831258 0 0 0 0 2.8106763195846725 -12.654922330755312 0 -12.654922330755312 -0.89295135132488213 0 0 0 0 -1.1361289440246765 -13.51215194239785 0 -13.51215194239785 32.536808501601627 0 0 0 0 -0.68744069988315459 -13.440944495856456 0 -13.440944495856456 -0.95447592613300003 0 0 0 0 -0.59420759895874653 -12.116795876968808 0 -12.116795876968808 -1.7880107006616299 0 0 0 0 0.00096889483294301392 -13.812590247710867 0 -13.812590247710867 -4.9928484910215047 0 0 0 0 3.5410457236151842 -4.2908301715141093 0 -4.2908301715141093 4.9654343169937061 0 0 0 0 5.9424615386310222 -5.8165337024648167 0 -5.8165337024648167 5.4521779799817924 0 0 0 0 15.247637928648146 -15.563904982634995 0 -15.563904982634995 -12.249662594698748 0 0 0 0 33.188230946037947 -55.657348487013223 0 -55.657348487013223 -34.468889693479468 0 0 0 0 3.3814323981478083 -17.694863077363152 0 -17.694863077363152 3.7909157552458055 0 0 0 0 1.7947236415916619 -14.111890277021473 0 -14.111890277021473 -4.4764377635966071 0 0 0 0 -75.019472710702757 -40.797444215386804 0 -40.797444215386804 51.105254433867231 0 0 0 0 7.7771084606283694 -17.989734255250369 0 -17.989734255250369 1.3005415233346866 0 0 0 0 -2.695990772182995 -61.939780927779793 0 -61.939780927779793 -11.902390655228373 0 0 0 0 14.26721242419444 -9.2319171316084976 0 -9.2319171316084976 5.7327759594336385 0 0 0 0 40.423163092153118 -24.95425049314872 0 -24.95425049314872 1.8759875295363599 0 0 0 0 14.136323722690577 -16.692696286911087 0 -16.692696286911087 -10.488873939364566 0 0 0 0 22.689660187759412 -15.386299514195935 0 -15.386299514195935 -0.10252269610471387 0 0 0 0 29.701229839241932 -25.226572499017493 0 -25.226572499017493 -8.3928460044789972 0 0 0 0 10.169552283087871 0.145288960488827 0 0.145288960488827 -2.4651316645684602 0 0 0 0 -7.3036972255631554 -36.836825744159796 0 -36.836825744159796 -3.0510855210668524 0 0 0 0 -19.650556170261552 -28.718260084435315 0 -28.718260084435315 -6.192508428961446 0 0 0 0 -18.838458173759136 -56.956618611045997 0 -56.956618611045997 -48.940379232677515 0 0 0 0 -55.951575271301863 -84.082995290711551 0 -84.082995290711551 -6.1268051979459415 0 0 0 0 5.3334637793377624 -23.486598226816568 0 -23.486598226816568 -31.36348211870154 0 0 0 0 10.993222912054989 -11.380993639795633 0 -11.380993639795633 -5.0804241124988039 0 0 0 0 34.694612240569768 -14.330426546020135 0 -14.330426546020135 -7.8305823687769589 0 0 0 0 15.960714058709801 -8.0413265759334465 0 -8.0413265759334465 -2.0117216593774714 0 0 0 0 14.472578921330731 -12.026180947642741 0 -12.026180947642741 2.9621460555023447 0 0 0 0 0.63045327289637498 -7.0183465646314289 0 -7.0183465646314289 -10.054094705275475 0 0 0 0 26.296259096925496 -17.718274370068684 0 -17.718274370068684 0.78453530596743803 0 0 0 0 18.907304233675859 -12.617338367472712 0 -12.617338367472712 -13.037812999211383 0 0 0 0 58.773107500285732 -94.602645746194412 0 -94.602645746194412 -8.2405755930922169 0 0 0 0 7.4858526665411773 20.372903295826291 0 20.372903295826291 -14.205793533299129 0 0 0 0 7.7716580672684401 -5.9889346569414865 0 -5.9889346569414865 -7.6865774853441664 0 0 0 0 22.789146093750066 -19.455113851831282 0 -19.455113851831282 12.634144549804155 0 0 0 0 7.8220623426247187 -3.635071034129373 0 -3.635071034129373 -13.934492883655935 0 0 0 0 6.1075184424635154 -13.602476718957405 0 -13.602476718957405 -24.940018732726458 0 0 0 0 3.749345850188547 -8.765336913162173 0 -8.765336913162173 -13.994973843340631 0 0 0 0 12.686211197595185 -18.892003169906275 0 -18.892003169906275 -20.707259633612921 0 0 0 0 8.2251556518715603 -11.431541686750903 0 -11.431541686750903 -2.7339821334578813 0 0 0 0 13.926958315511001 -14.390996965097656 0 -14.390996965097656 -13.098405823152461 0 0 0 0 -68.568340715024306 17.882608172516711 0 17.882608172516711 29.60736325606922 0 0 0 0 2.5398726415286514 -14.337947035899383 0 -14.337947035899383 -11.438353006127443 0 0 0 0 -19.970280373458081 -26.185647248443274 0 -26.185647248443274 -28.191136271986579 0 0 0 0 -1.1675791238334199 -2.8915250492088376 0 -2.8915250492088376 -5.8390422675021654 0 0 0 0 -10.45092703735645 24.857154524930593 0 24.857154524930593 -62.716151667977556 0 0 0 0 -60.034227366362757 16.251417510553438 0 16.251417510553438 -27.236196572515837 0 0 0 0 182.20082170805472 13.730211871026768 0 13.730211871026768 -160.3152437209128 0 0 0 0 0.27880343607132829 0.93432440801505123 0 0.93432440801505123 -0.067455774912371425 0 0 0 0 48.605270429653501 -150.3188150726678 0 -150.3188150726678 65.884132208324445 0 0 0 0 -15.898974140498467 2.4086797652616951 0 2.4086797652616951 75.324279674900026 0 0 0 0 -13.240704866082524 -39.172771827976248 0 -39.172771827976248 -120.06786977915908 0 0 0 0 109.10895445344795 205.63059573995633 0 205.63059573995633 46.648229732101754 0 0 0 0 5.6362628060245612 -1.4149417141088527 0 -1.4149417141088527 0.083016212672028189 0 0 0 0 15.240602002705401 -3.915326026466019 0 -3.915326026466019 1.0440431290016789 0 0 0 0 275.43377855019935 -98.362220659313607 0 -98.362220659313607 -75.661848174229817 0 0 0 0 -8.1658703020511894 -13.528864679272374 0 -13.528864679272374 -138.60216769800172 0 0 0 0 87.892051051065209 -137.47555460866351 0 -137.47555460866351 -183.86124430563268 0 0 0 0 -30.131805376127886 26.073471894742397 0 26.073471894742397 104.44459253420337 0 0 0 0 3.3225352962508623 -118.02026421418122 0 -118.02026421418122 -86.25486832603201 0 0 0 0 -86.161770933975276 -43.946246715047891 0 -43.946246715047891 26.596892981655401 0 0 0 0 -17.660488432931743 -23.566834080245826 0 -23.566834080245826 20.536000742451051 0 0 0 0 5.2768115980434231 -18.767720398311212 0 -18.767720398311212 19.320550242202444 0 0 0 0 38.479731523983901 -33.152026395243411 0 -33.152026395243411 25.200854545146285 0 0 0 0 -22.581147122949915 -27.915744457395704 0 -27.915744457395704 33.175949873184436 0 0 0 0 1.2669358862876834 -6.9219792202711687 0 -6.9219792202711687 36.729819378499087 0 0 0 0 -43.341123472429899 -10.396328873504899 0 -10.396328873504899 37.524201406929933 0 0 0 0 1.1546898293104277 1.3702988029963308 0 1.3702988029963308 22.384957374011719 0 0 0 0 -0.84876450650335755 -9.4457844631087937 0 -9.4457844631087937 22.200507718833791 0 0 0 0 45.202854122117515 -9.3851463909620634 0 -9.3851463909620634 45.04485146404113 0 0 0 0 0.25230314656520569 0.33929801142902249 0 0.33929801142902249 2.0589174885570003 0 0 0 0 194.57452747549178 -128.13725112541943 0 -128.13725112541943 59.037201325358183 0 0 0 0 7.8569186572294711 28.839135098770385 0 28.839135098770385 25.527628142495814 0 0 0 0 -0.8368569693499488 -1.1931454860571193 0 -1.1931454860571193 7.3443007375622358 0 0 0 0 -13.563526220983476 -8.2993640436052374 0 -8.2993640436052374 19.037038046402813 0 0 0 0 -0.34105698923849559 -4.0910198674873754 0 -4.0910198674873754 5.3529565437274869 0 0 0 0 126.5072567876141 -42.565714899044906 0 -42.565714899044906 21.16978051825572 0 0 0 0 85.30079728000419 -87.146075096759887 0 -87.146075096759887 50.705982253730781 0 0 0 0 158.93651051247798 -79.497408836763498 0 -79.497408836763498 -1.2249511033369345 0 0 0 0 5.3693402603930735 -27.076664502947096 0 -27.076664502947096 28.311932274002174 0 0 0 0 119.59311133891606 -56.1358703523656 0 -56.1358703523656 8.7720317494477058 0 0 0 0 -50.875684685652232 14.610108859660613 0 14.610108859660613 22.54335680839722 0 0 0 0 78.005026450391597 -142.71085738745569 0 -142.71085738745569 13.875323044150718 0 0 0 0 12.591728937346488 -3.8287423371293698 0 -3.8287423371293698 -4.6957983369777594 0 0 0 0 0.25824193369938797 -4.6658755259430578 0 -4.6658755259430578 -9.5432681635875412 0 0 0 0 209.67658242084144 76.742734050596482 0 76.742734050596482 -114.42151373720844 0 0 0 0 35.621223836293211 -168.06548772919996 0 -168.06548772919996 67.598026315305106 0 0 0 0 0.5339790006625833 -0.84180041962626717 0 -0.84180041962626717 -0.43371822693736295 0 0 0 0 227.11619515487519 -160.50491050706864 0 -160.50491050706864 137.56854271204793 0 0 0 0 -8.4118374263671285 5.9421632298526674 0 5.9421632298526674 -47.811110082828236 0 0 0 0 -5.3439308585584513 -4.8302400700395083 0 -4.8302400700395083 19.947437480208464 0 0 0 0 -4.8632445671100868 7.6420712383405771 0 7.6420712383405771 -58.435922802276764 0 0 0 0 -2.3956984467909024 -12.249394808038488 0 -12.249394808038488 0.64096487086694331 0 0 0 0 -5.2125641923776129 25.5341356007375 0 25.5341356007375 -76.245432581381465 0 0 0 0 -6.2392240984845557 25.755530654114409 0 25.755530654114409 -39.029309142408238 0 0 0 0 -95.803198341195639 131.66820221689295 0 131.66820221689295 -159.37019199215138 0 0 0 0 -0.16689088899093285 -0.40471098697125285 0 -0.40471098697125285 -3.483308616382061 0 0 0 0 -153.20050082661692 45.424848964474222 0 45.424848964474222 110.64301720586082 0 0 0 0 -91.994562725958531 27.585913139737386 0 27.585913139737386 36.124496967648156 0 0 0 0 56.423759362078272 -113.48158301321746 0 -113.48158301321746 -16.465634326374129 0 0 0 0 -4.7130361765853621 -12.658406721844948 0 -12.658406721844948 1.5182527217987722 0 0 0 0 14.572636483233509 -0.9170880435667641 0 -0.9170880435667641 -103.6927524724108 0 0 0 0 7.9948028865455854 4.9934029329551777 0 4.9934029329551777 42.964535695975428 0 0 0 0 -2.385293537049165 -4.7657834941858255 0 -4.7657834941858255 -58.476801854525547 0 0 0 0 2.1046402800056967 10.617302060469228 0 10.617302060469228 -58.264180944086547 0 0 0 0 15.97905525535316 -51.941867517023638 0 -51.941867517023638 6.992310261932289 0 0 0 0 4.8416680875670863 -6.7110357099136309 0 -6.7110357099136309 -2.3725525006193493 0 0 0 0 28.336714317028964 -30.067642996758877 0 -30.067642996758877 -56.087150415464521 0 0 0 0 32.304556924173994 -6.4288506156165113 0 -6.4288506156165113 -103.8180935190976 0 0 0 0 6.320384756065323 -11.315174386933904 0 -11.315174386933904 31.686523618431238 0 0 0 0 26.275141392365185 -44.769486038385367 0 -44.769486038385367 24.446801291513111 0 0 0 0 50.337762408631534 -24.821363766741342 0 -24.821363766741342 1.4970847836557368 0 0 0 0 -96.147034742356482 -15.710284987622799 0 -15.710284987622799 139.47296735861164 0 0 0 0 7.7502713630979301 -13.056021090462702 0 -13.056021090462702 8.9335281226614711 0 0 0 0 133.24348459560156 303.65397903278244 0 303.65397903278244 -442.38423043804141 0 0 0 0 32.409331414118697 -421.29169190847074 0 -421.29169190847074 152.04186006625241 0 0 0 0 72.69562737004162 -49.827955823657248 0 -49.827955823657248 -342.81029603205025 0 0 0 0 38.096612371253286 -76.589566431352068 0 -76.589566431352068 21.495391338645277 0 0 0 0 -13.625144038731378 62.678277039169188 0 62.678277039169188 238.9406366121475 0 0 0 0 15.380665218894137 -2.4296685128920217 0 -2.4296685128920217 34.474873143983132 0 0 0 0 7.6101421627631964 -8.0147152705344737 0 -8.0147152705344737 9.1407761214583019 0 0 0 0 -50.866847438079276 -107.21335055931559 0 -107.21335055931559 -111.67014725735498 0 0 0 0 -42.281611106214314 -43.553605043376592 0 -43.553605043376592 -35.966094751049241 0 0 0 0 0.79338212659786223 -33.162456248770468 0 -33.162456248770468 -73.351707430332681 0 0 0 0 8.5167257049724867 -11.499589785864373 0 -11.499589785864373 -33.16348851472867 0 0 0 0 4.7151462815418199 -13.702729095974064 0 -13.702729095974064 -22.986177892700653 0 0 0 0 -1.1479847587179393 -23.561667473768466 0 -23.561667473768466 -7.3697235257350258 0 0 0 0 -16.419262974864978 -28.653782160683477 0 -28.653782160683477 -28.555129990421847 0 0 0 0 -5.0902842963005241 -34.927130765499896 0 -34.927130765499896 -40.046619713220934 0 0 0 0 5.3490440628011129 -13.582853399702799 0 -13.582853399702799 -24.182734891037398 0 0 0 0 14.092263664309939 17.494995920602378 0 17.494995920602378 52.425059087618138 0 0 0 0 -13.374736755348493 -18.049110834225353 0 -18.049110834225353 -5.7022093581752813 0 0 0 0 2.6581337456445908 -8.6429791801183455 0 -8.6429791801183455 -4.8544612490804866 0 0 0 0 -0.74670905512664376 -58.076847391856973 0 -58.076847391856973 -17.762783931542799 0 0 0 0 5.9966704981743533 -62.494946796974546 0 -62.494946796974546 -29.191593538715097 0 0 0 0 1.0324009504311107 -60.57343030949778 0 -60.57343030949778 -29.420039535856631 0 0 0 0 -0.96775121750761173 -59.356676448584039 0 -59.356676448584039 -25.421879586612704 0 0 0 0 -13.266529560254972 -22.194521728475713 0 -22.194521728475713 -12.760848335848721 0 0 0 0 14.075294103080523 -30.426499893001164 0 -30.426499893001164 -14.024371012230404 0 0 0 0 -5.8304842940215167 -44.748449669350521 0 -44.748449669350521 -14.605459561093994 0 0 0 0 -5.8955451575347979 -41.101535222274833 0 -41.101535222274833 -26.363833617491309 0 0 0 0 14.503975832205818 -16.220000170521963 0 -16.220000170521963 -3.4933844197062882 0 0 0 0 50.828208572944277 -116.45375439757481 0 -116.45375439757481 169.99579777284816 0 0 0 0 -2.9579793335287832 -11.278195740595947 0 -11.278195740595947 -3.5542229015809426 0 0 0 0 368.43715366348624 -140.70166495675949 0 -140.70166495675949 82.963675441103987 0 0 0 0 7.2642454911372223 -10.402250328735665 0 -10.402250328735665 1.8706050081083987 0 0 0 0 47.401445844619957 -115.10431482050626 0 -115.10431482050626 81.177744179745787 0 0 0 0 27.557712147834948 -18.152142690672576 0 -18.152142690672576 3.0984726237669662 0 0 0 0 2.5277470058244944 -4.0783740596762073 0 -4.0783740596762073 0.58069587917998433 0 0 0 0 -19.525584037527004 -15.692693896163417 0 -15.692693896163417 9.5959244869551128 0 0 0 0 -1.6767217857895957 -46.576882828678208 0 -46.576882828678208 -6.4020478263209952 0 0 0 0 4.9469093954021446 -30.099989361680855 0 -30.099989361680855 -13.660753649477556 0 0 0 0 0.73014019437914612 -48.399185522587686 0 -48.399185522587686 -28.474054324397002 0 0 0 0 7.5883001894853805 -29.096517060501355 0 -29.096517060501355 -20.439262315187079 0 0 0 0 39.406240856151271 -14.579619117190305 0 -14.579619117190305 -17.241163531849452 0 0 0 0 2.7941410395760635 -15.451003904388365 0 -15.451003904388365 1.1665804582416115 0 0 0 0 6.1846019570373549 -3.8172285272626212 0 -3.8172285272626212 0.1182070495457026 0 0 0 0 44.955824464253965 -139.42411453526438 0 -139.42411453526438 42.503569624313968 0 0 0 0 27.765315586111683 -42.235914388214042 0 -42.235914388214042 -45.148772350941726 0 0 0 0 -4.7729963296158076 -16.064702020072673 0 -16.064702020072673 8.4063313054648461 0 0 0 0 -98.18743572767562 -36.776708844430686 0 -36.776708844430686 -29.792862565460382 0 0 0 0 -48.809364920307416 -65.859656990975054 0 -65.859656990975054 -25.668205726058659 0 0 0 0 -49.194901029261928 -62.806473245602319 0 -62.806473245602319 -41.468783809992601 0 0 0 0 -70.586803093931849 -67.610156612940045 0 -67.610156612940045 -20.474799330746464 0 0 0 0 -22.506574633080163 -48.517246059343961 0 -48.517246059343961 -41.162519572542806 0 0 0 0 -22.130996179666909 -52.89782063939856 0 -52.89782063939856 -16.604013979576848 0 0 0 0 4.0534147356811445 -41.177894081698469 0 -41.177894081698469 -32.06699750271946 0 0 0 0 0.93191333894355921 -43.430097362623201 0 -43.430097362623201 2.3441690549225314 0 0 0 0 36.752838307595084 -49.291796221372351 0 -49.291796221372351 -22.958644572747289 0 0 0 0 15.677968752363086 -43.961047061507998 0 -43.961047061507998 -33.853428408889158 0 0 0 0 1.1435840086992357 -43.306687985816097 0 -43.306687985816097 -19.648376479221042 0 0 0 0 4.4811385242223878 -48.580196796812743 0 -48.580196796812743 -33.678664099301386 0 0 0 0 -25.126575831169248 -39.10308174517013 0 -39.10308174517013 -30.880918224807829 0 0 0 0 -19.267267849758355 -55.275489718595054 0 -55.275489718595054 -26.182477841932268 0 0 0 0 -21.467027731043345 -52.077921955346028 0 -52.077921955346028 -27.836457038931258 0 0 0 0 0.52042918224833556 -40.969009518048551 0 -40.969009518048551 -29.708897416643595 0 0 0 0 -4.1849081841901352 -53.58262524719612 0 -53.58262524719612 -31.548983817232511 0 0 0 0 -62.998628949530143 -71.757623941433849 0 -71.757623941433849 -24.55416402942501 0 0 0 0 -61.206120509072207 -55.125297326243526 0 -55.125297326243526 -21.158233485639357 0 0 0 0 5.8742683555944684 -8.5690223023790111 0 -8.5690223023790111 8.0753905871769831 0 0 0 0 5.6284009105635873 -11.843562530412253 0 -11.843562530412253 20.660492728457342 0 0 0 0 -31.016204641196055 -46.841553714553811 0 -46.841553714553811 14.034487886332499 0 0 0 0 -34.684703273713239 38.731543092890206 0 38.731543092890206 64.116076677477395 0 0 0 0 -6.4728137659476488 -46.680919654016179 0 -46.680919654016179 -33.617436833424108 0 0 0 0 -0.87548307386139257 -0.3107073118213961 0 -0.3107073118213961 3.4122803177999401 0 0 0 0 1.8596949825823685 -50.81356770036291 0 -50.81356770036291 -32.001934430612891 0 0 0 0 -0.70493365889321424 -9.9418227783367055 0 -9.9418227783367055 20.122002828314749 0 0 0 0 -41.570067638316914 -91.471600595143173 0 -91.471600595143173 59.267926276763319 0 0 0 0 -0.19656873794156127 -41.376578995070304 0 -41.376578995070304 18.692534599907276 0 0 0 0 -34.787669029971653 -16.575085552454311 0 -16.575085552454311 5.8739467572013382 0 0 0 0 12.031431483061112 -15.146782024275872 0 -15.146782024275872 18.741343090294677 0 0 0 0 23.059536238407418 -0.85361671545342688 0 -0.85361671545342688 12.207183135717059 0 0 0 0 -47.968018718510621 -83.89662081631468 0 -83.89662081631468 -47.017382594471201 0 0 0 0 -12.683222046640594 -39.944905783841023 0 -39.944905783841023 10.387139439279053 0 0 0 0 -9.2313135183710529 -17.349169223227364 0 -17.349169223227364 24.483174829627387 0 0 0 0 12.064484973678436 -14.812748628410077 0 -14.812748628410077 17.835705781033937 0 0 0 0 -46.714830745202079 -73.889842936871673 0 -73.889842936871673 -41.935105524164101 0 0 0 0 -39.333473721394512 -64.657524001508136 0 -64.657524001508136 -48.722816931992156 0 0 0 0 -38.552498715421734 -68.017082781960198 0 -68.017082781960198 -38.042918570496113 0 0 0 0 -39.117557610382846 -64.939940501841193 0 -64.939940501841193 -51.765213560509437 0 0 0 0 -58.630828517723785 -35.673691748615965 0 -35.673691748615965 -94.676818343636114 0 0 0 0 -56.600278804926347 -41.932854643895553 0 -41.932854643895553 -46.625533389900738 0 0 0 0 -49.682307992116307 -60.564389106743874 0 -60.564389106743874 -15.712359754303179 0 0 0 0 -47.283383493321708 -61.245064287997593 0 -61.245064287997593 -37.887334209782523 0 0 0 0 -31.592379782138778 -72.013389494512012 0 -72.013389494512012 -23.67942332824623 0 0 0 0 12.468455371950741 -14.542071207725535 0 -14.542071207725535 17.479791865929798 0 0 0 0 26.31925761791922 -3.0813633622801717 0 -3.0813633622801717 -8.2373671891873528 0 0 0 0 8.6768884980000287 -11.751722213992856 0 -11.751722213992856 12.553263094076812 0 0 0 0 -9.0499123708029856 -49.392322539382803 0 -49.392322539382803 -1.91049911996015 0 0 0 0 13.819400856794346 -3.7568068635955569 0 -3.7568068635955569 -0.19993040389090311 0 0 0 0 2.1510508871179148 -8.1222171926587734 0 -8.1222171926587734 14.389565126871872 0 0 0 0 -21.455306271927839 -15.151456486262759 0 -15.151456486262759 20.167421264857694 0 0 0 0 16.838842548156208 1.9298755682775663 0 1.9298755682775663 10.502780260903819 0 0 0 0 -0.85255773654716904 -43.03939168373654 0 -43.03939168373654 -6.5628909109109372 0 0 0 0 -2.3904905824638263 -35.803584769319059 0 -35.803584769319059 -10.060927171987714 0 0 0 0 5.1088599828199222 -38.839662820872036 0 -38.839662820872036 -13.838727305352222 0 0 0 0 2.9147885931270139 -41.059811153929331 0 -41.059811153929331 -16.057602083610618 0 0 0 0 -1.7438971934352594 -45.733479004389665 0 -45.733479004389665 -14.445471848178613 0 0 0 0 19.680135230327323 -83.127290307198564 0 -83.127290307198564 -7.0792055790036557 0 0 0 0 71.986567480706071 -10.366576011922007 0 -10.366576011922007 -12.152009891957277 0 0 0 0 5.6371443363629439 -35.357126988603511 0 -35.357126988603511 -25.159596920394534 0 0 0 0 41.216692408602611 -5.599787334677913 0 -5.599787334677913 -6.9169863177153275 0 0 0 0 87.044666041348592 -28.421502983073879 0 -28.421502983073879 -8.3541084010721534 0 0 0 0 141.96462357185814 -19.090652082843462 0 -19.090652082843462 -79.302656204628875 0 0 0 0 16.458413330994517 -86.324571224511601 0 -86.324571224511601 -99.284132120663884 0 0 0 0 46.086598148454868 36.109337493311614 0 36.109337493311614 -99.502329917444229 0 0 0 0 -5.3435501976227897 -37.721254066302208 0 -37.721254066302208 -89.039390917379933 0 0 0 0 4.6920269341162566 -47.972966196758989 0 -47.972966196758989 -190.99666857525153 0 0 0 0 3.8985804531158554 -1.7816971940545878 0 -1.7816971940545878 0.088293881006507036 0 0 0 0 1.9240907169503796 -3.7766116540992556 0 -3.7766116540992556 0.66440137379125019 0 0 0 0 -23.337303174197586 -95.750257295741903 0 -95.750257295741903 -169.38059259124566 0 0 0 0 -102.12732130125278 -81.772809996233264 0 -81.772809996233264 -65.255429003960671 0 0 0 0 -45.153623129858715 -42.079451862176938 0 -42.079451862176938 -55.256189926394654 0 0 0 0 -42.919218616439593 -47.617625663358922 0 -47.617625663358922 22.065074880803877 0 0 0 0 -54.910433789268126 -69.630690466621672 0 -69.630690466621672 -13.651054233327159 0 0 0 0 -45.651980421049984 -80.888723667361887 0 -80.888723667361887 -31.076517781286384 0 0 0 0 19.099264441943888 -64.967096249467431 0 -64.967096249467431 -27.972700978272769 0 0 0 0 -37.934255654108711 -102.77398917760365 0 -102.77398917760365 22.259400226777103 0 0 0 0 -34.86506678634214 -102.03482403650196 0 -102.03482403650196 13.595703513899934 0 0 0 0 -14.241305392857612 -104.36117781205758 0 -104.36117781205758 -59.859234284202103 0 0 0 0 -37.70868463806346 -89.826992423828415 0 -89.826992423828415 -7.7336422312801005 0 0 0 0 19.387729310843497 -46.841839773522224 0 -46.841839773522224 -30.331136858389073 0 0 0 0 -5.269567893452404 -132.07769680618367 0 -132.07769680618367 18.985738747214782 0 0 0 0 -3.6998962739062335 -181.73751642475145 0 -181.73751642475145 -165.45727195867948 0 0 0 0 7.7228579256279772 -106.81514055664957 0 -106.81514055664957 -577.83386623798287 0 0 0 0 -0.53794413823800613 -32.83186692117097 0 -32.83186692117097 -10.383539399895909 0 0 0 0 11.114635297594759 -82.272727297582605 0 -82.272727297582605 -173.66556094793214 0 0 0 0 -84.202809100672766 -206.86535016454945 0 -206.86535016454945 53.743139484264248 0 0 0 0 -2.0926815781735897 -33.740461030228161 0 -33.740461030228161 -18.81429372769918 0 0 0 0 127.35442888488342 -19.81420421324583 0 -19.81420421324583 15.35194217971366 0 0 0 0 -60.5419217693468 -58.739529342481546 0 -58.739529342481546 165.99574766196747 0 0 0 0 31.389889575477696 -50.497959607924145 0 -50.497959607924145 -32.041647661750176 0 0 0 0 18.690107979917229 -28.298314796888008 0 -28.298314796888008 -15.822867733655585 0 0 0 0 38.156938205076585 -28.902181585639482 0 -28.902181585639482 -26.399009585227759 0 0 0 0 15.614426112901128 -47.115216316640726 0 -47.115216316640726 -103.73161459204857 0 0 0 0 -28.189087909981026 29.255847694588738 0 29.255847694588738 -40.77903758188404 0 0 0 0 -50.467083591274701 -77.136741981388752 0 -77.136741981388752 -22.29090869477659 0 0 0 0 30.436277947414055 -11.816269104949242 0 -11.816269104949242 -54.925185350250104 0 0 0 0 -30.95615614763301 -13.535549690457628 0 -13.535549690457628 4.2256142892729258 0 0 0 0 -8.9629675192844616 -18.255643434429295 0 -18.255643434429295 -10.711786662333985 0 0 0 0 -6.8078282454699917 -16.568077058770257 0 -16.568077058770257 -14.799675090916658 0 0 0 0 -37.987928448234015 -68.302394930673472 0 -68.302394930673472 87.189235578221997 0 0 0 0 -1.3944005023222417 42.454089464590652 0 42.454089464590652 50.092831495654536 0 0 0 0 23.816946072216524 -29.921826122550556 0 -29.921826122550556 6.2594260323057824 0 0 0 0 6.4418909285486734 -38.285635496233226 0 -38.285635496233226 39.165703354441575 0 0 0 0 14.446415296410123 -8.3025493372069832 0 -8.3025493372069832 4.0255128330391017 0 0 0 0 1.959890839034145 -17.418081393573111 0 -17.418081393573111 -7.9444683933688225 0 0 0 0 -31.386023226114048 -27.021138543856068 0 -27.021138543856068 -51.384803774528336 0 0 0 0 -31.675054630253726 -18.695519632274227 0 -18.695519632274227 -32.777544039825443 0 0 0 0 -11.001351773044931 -23.906653808377431 0 -23.906653808377431 -19.380667187262063 0 0 0 0 13.856328131224473 -112.34418025336925 0 -112.34418025336925 21.968957580331335 0 0 0 0 -14.215453806140431 -35.077266013857297 0 -35.077266013857297 8.7566870988848677 0 0 0 0 -25.631525101716761 -69.164542357917526 0 -69.164542357917526 -23.611733643825573 0 0 0 0 -3.6312584600446147 -58.312445648137313 0 -58.312445648137313 -12.465681392417324 0 0 0 0 -5.6036078352190657 -26.893928598424949 0 -26.893928598424949 11.456679233466133 0 0 0 0 -22.784648587242316 -44.007626824491808 0 -44.007626824491808 7.0287566753188884 0 0 0 0 -39.434679154431251 -59.684053045359178 0 -59.684053045359178 -47.261689142542309 0 0 0 0 -2.5804129999664198 -35.0116631033464 0 -35.0116631033464 16.242336265286092 0 0 0 0 -50.540416881749479 -71.148723680569674 0 -71.148723680569674 1.3615061287928256 0 0 0 0 -50.567758062875669 -28.544562561533894 0 -28.544562561533894 -63.479741687056958 0 0 0 0 -56.710946739752217 -52.056094112700521 0 -52.056094112700521 -32.397867271800351 0 0 0 0 -71.422632702388171 -33.392892339211357 0 -33.392892339211357 -34.98356187272293 0 0 0 0 -13.215401930479961 -39.637039892936748 0 -39.637039892936748 1.3228813133382573 0 0 0 0 -164.89360488880084 7.3574541434900311 0 7.3574541434900311 419.17559561156668 0 0 0 0 1.6719670541886558 -5.1262675823670669 0 -5.1262675823670669 0.36943963452024775 0 0 0 0 -148.52088990673064 41.931960426551996 0 41.931960426551996 78.502426697246847 0 0 0 0 19.562718462004341 -18.727068354357471 0 -18.727068354357471 -97.976026779797394 0 0 0 0 17.770277148982586 -9.6068930006986193 0 -9.6068930006986193 -48.372357682414076 0 0 0 0 11.555318595323396 -16.021712668733542 0 -16.021712668733542 16.207223853881359 0 0 0 0 -1.956461939144333 -41.220658861569973 0 -41.220658861569973 0.8351579400805349 0 0 0 0 0.47084173804523743 -36.63251981526264 0 -36.63251981526264 1.0285166659014067 0 0 0 0 10.965614909023124 -31.592857549369157 0 -31.592857549369157 4.2551598106479815 0 0 0 0 -0.94861078485973849 -32.416564068593289 0 -32.416564068593289 10.175530455773696 0 0 0 0 7.8014101131488927 -30.813832616032698 0 -30.813832616032698 14.884556831476438 0 0 0 0 52.057999193936666 -49.242413915184443 0 -49.242413915184443 -18.875947444174017 0 0 0 0 0.89484015638409886 -14.0737460368582 0 -14.0737460368582 -11.80041814465087 0 0 0 0 33.778716371145947 -58.394756564769978 0 -58.394756564769978 -18.774263325351058 0 0 0 0 100.22271712184011 -43.280056049286941 0 -43.280056049286941 -17.717348187762809 0 0 0 0 50.446642317444457 -111.02675432589058 0 -111.02675432589058 -24.73892212282226 0 0 0 0 -10.710743061729772 -76.806273221801348 0 -76.806273221801348 5.2167945822893671 0 0 0 0 -2.7816429357350128 -52.330691536387818 0 -52.330691536387818 20.141279330274244 0 0 0 0 56.774311655024796 -46.736956099568744 0 -46.736956099568744 -8.9477089965126737 0 0 0 0 32.673968198088147 -72.065894240532657 0 -72.065894240532657 4.1363473346464161 0 0 0 0 -18.71059224533019 -46.214017473044805 0 -46.214017473044805 -12.224100477562388 0 0 0 0 19.406877208175263 -33.683035595311551 0 -33.683035595311551 10.783199800564965 0 0 0 0 -21.110261926296516 -46.819510435823759 0 -46.819510435823759 -11.134260207472835 0 0 0 0 -10.229576817015186 -46.247651765737828 0 -46.247651765737828 1.5102898337281658 0 0 0 0 -46.408744532132005 -40.260396864272991 0 -40.260396864272991 -25.55528015915479 0 0 0 0 2.522051579062663 -31.90542556469083 0 -31.90542556469083 -18.380870693496789 0 0 0 0 -10.27214019398815 -29.54641282062315 0 -29.54641282062315 5.5669113421465113 0 0 0 0 -82.454233389744331 -67.344315203612496 0 -67.344315203612496 -13.556862424182327 0 0 0 0 -48.236561887890275 -30.511338529315253 0 -30.511338529315253 -13.212909945297724 0 0 0 0 -149.35106860867018 27.038208188201679 0 27.038208188201679 -8.9555559299624292 0 0 0 0 -11.056475776661266 -6.7133789165402646 0 -6.7133789165402646 3.9097369858049404 0 0 0 0 -66.211499818083439 -12.326449614543208 0 -12.326449614543208 -6.6518715885213169 0 0 0 0 183.41386856203462 -31.720667359455547 0 -31.720667359455547 -91.484637207726337 0 0 0 0 -60.807534851006494 0.025885684923196095 0 0.025885684923196095 6.1317710236162384 0 0 0 0 66.779128228096852 -12.206885750959373 0 -12.206885750959373 -27.414059340691892 0 0 0 0 3.3723700558501202 -4.80460611925648 0 -4.80460611925648 4.6735134762519266 0 0 0 0 33.435440381843364 -10.856644837765998 0 -10.856644837765998 -3.1712046865295633 0 0 0 0 -158.8570473167415 -132.99152133617508 0 -132.99152133617508 -13.972315343395167 0 0 0 0 -79.146893606588492 -39.390242650112668 0 -39.390242650112668 -77.575066515313665 0 0 0 0 -119.86660319790167 -98.755691456568002 0 -98.755691456568002 -5.8068151958541421 0 0 0 0 4.4879806269134912 -6.4846754936397435 0 -6.4846754936397435 7.311170606799422 0 0 0 0 15.786611587383049 -11.424652696133307 0 -11.424652696133307 -1.0500604501066846 0 0 0 0 -2.2476663497182017 -17.955526899912002 0 -17.955526899912002 7.7423649542097337 0 0 0 0 18.429318727014106 -21.734405591592804 0 -21.734405591592804 -4.0716085287785972 0 0 0 0 12.682060501754288 -14.601902498512835 0 -14.601902498512835 16.053774092614049 0 0 0 0 -7.6788621846858405 -50.31212307300666 0 -50.31212307300666 1.1114816605459055 0 0 0 0 17.665133859355137 -22.557402680247833 0 -22.557402680247833 -14.496970062478795 0 0 0 0 13.992135593588468 -20.706522106550327 0 -20.706522106550327 14.443716072359763 0 0 0 0 11.436986579526092 -40.311733056580124 0 -40.311733056580124 1.5279683672251849 0 0 0 0 18.051503365964891 -18.183729433148983 0 -18.183729433148983 -0.71041935057473893 0 0 0 0 26.079860568655022 -21.704158696746163 0 -21.704158696746163 -0.61617696472239913 0 0 0 0 63.507390721437332 0.73529054349319267 0 0.73529054349319267 10.033107897234004 0 0 0 0 30.940808924017801 -54.65101111471904 0 -54.65101111471904 -12.826774276803917 0 0 0 0 -10.629106530500394 -36.783511146690216 0 -36.783511146690216 3.653523301277346 0 0 0 0 65.644109385340471 12.687501774290467 0 12.687501774290467 -83.854925255753187 0 0 0 0 8.4206720025176764 2.2116540166498453 0 2.2116540166498453 -22.130420531163054 0 0 0 0 -154.0102368677326 25.897142900805193 0 25.897142900805193 91.974517611481133 0 0 0 0 -2.6127860317928704 -3.6066073306881101 0 -3.6066073306881101 -8.2542694298091916 0 0 0 0 133.07047345606952 -125.52707618105978 0 -125.52707618105978 19.681961090878758 0 0 0 0 189.3085821901459 7.6802020237901161 0 7.6802020237901161 -24.557451973625575 0 0 0 0 1.4733883277198636 -1.9586146977331484 0 -1.9586146977331484 1.5019089147617137 0 0 0 0 -166.45772329429508 -33.252882922072104 0 -33.252882922072104 28.751656373093283 0 0 0 0 -193.38309113047467 -128.56792690766201 0 -128.56792690766201 53.164014137615595 0 0 0 0 -62.13408671624893 -35.744118594084284 0 -35.744118594084284 24.119725543244385 0 0 0 0 -1.1576269011338809 12.923774165506984 0 12.923774165506984 -16.13082112071163 0 0 0 0 -34.623881916685605 -91.620230551880013 0 -91.620230551880013 -73.644208406977668 0 0 0 0 27.097617565686694 -26.861940121722157 0 -26.861940121722157 23.274067037407036 0 0 0 0 -19.260109440230735 153.7528863657044 0 153.7528863657044 -107.89666493075447 0 0 0 0 350.0509127021578 -528.95315704965196 0 -528.95315704965196 -31.054703081674234 0 0 0 0 -74.410676618736034 -79.593447381344959 0 -79.593447381344959 65.174544555793545 0 0 0 0 -83.174141839579534 -40.977306217245768 0 -40.977306217245768 120.52233179174618 0 0 0 0 2.2334623994672782 -1.1851084417504953 0 -1.1851084417504953 -3.1288427176241065 0 0 0 0 707.68552128101874 -299.82011819908075 0 -299.82011819908075 -18.60441679978976 0 0 0 0 503.10323476271151 -357.42583177509186 0 -357.42583177509186 233.30876785207874 0 0 0 0 1.4206372257557476 -3.314517199330254 0 -3.314517199330254 -2.4457262520315979 0 0 0 0 236.36641792822775 -59.27608689282124 0 -59.27608689282124 -50.225480560196957 0 0 0 0 -56.438671297153633 26.282591758965282 0 26.282591758965282 16.374056323769764 0 0 0 0 -309.57658988056613 -159.51009595231304 0 -159.51009595231304 23.730425803534672 0 0 0 0 28.653099968071874 -30.585862824672446 0 -30.585862824672446 29.973780759024031 0 0 0 0 -297.46020177466198 275.73993771482765 0 275.73993771482765 88.216600770312652 0 0 0 0 -100.39052231894084 -133.0228079500821 0 -133.0228079500821 5.3258608595861006 0 0 0 0 351.54690781053068 347.92464513250343 0 347.92464513250343 -453.40445796536369 0 0 0 0 79.470168816136493 -126.71754328402267 0 -126.71754328402267 -11.709653991129017 0 0 0 0 -79.430016641090333 -168.11474411130985 0 -168.11474411130985 62.091041414390929 0 0 0 0 -146.99790106572709 -147.49264000139556 0 -147.49264000139556 2.4699080648042582 0 0 0 0 -0.80497504664851149 -0.97810261694357337 0 -0.97810261694357337 -1.8589173922901381 0 0 0 0 -233.31478157549645 136.56174887989437 0 136.56174887989437 -32.600111243282299 0 0 0 0 -237.45488662824482 -41.254222087121889 0 -41.254222087121889 -34.335415148502761 0 0 0 0 -98.113188863504547 -133.24539444386392 0 -133.24539444386392 159.08695562951107 0 0 0 0 14.093065858003229 150.42509620555438 0 150.42509620555438 -74.976834622488241 0 0 0 0 249.69868080462038 -34.883488228044371 0 -34.883488228044371 -90.319913208168146 0 0 0 0 -57.603856468695085 -46.301141106509021 0 -46.301141106509021 62.125994519781671 0 0 0 0 -124.8121498309547 99.896637485097472 0 99.896637485097472 148.99556403374299 0 0 0 0 198.43358136551251 192.59917035823855 0 192.59917035823855 227.76600858226448 0 0 0 0 2.3114830521781187 -195.02729683033795 0 -195.02729683033795 -128.91759237855331 0 0 0 0 1.6227505375268834 -187.19737297437371 0 -187.19737297437371 364.11409607763198 0 0 0 0 -113.30838888559992 -60.547140537168161 0 -60.547140537168161 -167.15485840963083 0 0 0 0 -276.59750436842796 -194.56950764002522 0 -194.56950764002522 8.4481669806446007 0 0 0 0 -74.438888213122482 -103.04813164134384 0 -103.04813164134384 -8.6899511426827303 0 0 0 0 29.259307335111139 -31.817039651887391 0 -31.817039651887391 31.843454359577862 0 0 0 0 -72.347486457894718 13.925468659218382 0 13.925468659218382 -92.164550350185891 0 0 0 0 -56.01108744855901 -317.94228141190251 0 -317.94228141190251 58.487374505146363 0 0 0 0 -4.4633402295330598 -67.579517920065882 0 -67.579517920065882 -19.402822396169768 0 0 0 0 -17.459837560598316 -32.603586512976563 0 -32.603586512976563 34.572496701846831 0 0 0 0 24.159320528651733 -40.461295524906745 0 -40.461295524906745 -9.6028798608240322 0 0 0 0 50.445133861909198 -45.202578021096087 0 -45.202578021096087 20.867239275591601 0 0 0 0 19.691043157988588 -32.137451059193836 0 -32.137451059193836 15.445224109982519 0 0 0 0 93.818959255750087 -51.102790174707479 0 -51.102790174707479 -10.14446209554626 0 0 0 0 14.758498952610353 -17.893262569353965 0 -17.893262569353965 -15.120223401672774 0 0 0 0 -26.68875157387447 -52.749880941726587 0 -52.749880941726587 -43.4943413919882 0 0 0 0 -28.930480827681095 -60.528540892807541 0 -60.528540892807541 6.1409101143854059 0 0 0 0 344.74937358477473 -304.94932543349205 0 -304.94932543349205 171.16606831712852 0 0 0 0 337.63462258604704 -318.81802538506963 0 -318.81802538506963 144.27838900243842 0 0 0 0 535.51379380284197 -307.77213795772695 0 -307.77213795772695 152.26522385136559 0 0 0 0 211.96095770513784 -173.58925612140411 0 -173.58925612140411 57.26655082275829 0 0 0 0 351.09981219689507 -366.38912743117908 0 -366.38912743117908 247.67736777608661 0 0 0 0 258.58403273699514 -190.24928473313776 0 -190.24928473313776 14.963940844216268 0 0 0 0 13.280223931084038 -18.401991138136509 0 -18.401991138136509 174.76574377931684 0 0 0 0 127.03702784013149 -184.79723881541577 0 -184.79723881541577 288.01947323248078 0 0 0 0 271.76851021007315 -324.59000550783094 0 -324.59000550783094 428.72720468118496 0 0 0 0 0.80750419635582205 -0.062762664114885069 0 -0.062762664114885069 2.5687125503929025 0 0 0 0 12.2850437680938 45.550659566662333 0 45.550659566662333 -28.023801793675375 0 0 0 0 -49.999190066062511 -74.801614468373828 0 -74.801614468373828 42.56059121450744 0 0 0 0 -345.07398884050417 25.208131200952266 0 25.208131200952266 161.67057392566676 0 0 0 0 177.34285469786846 -34.673805505846758 0 -34.673805505846758 -52.948182863761758 0 0 0 0 -39.505420353387308 -35.328922788750788 0 -35.328922788750788 191.00965593624278 0 0 0 0 -39.87560364309229 -57.279453964194545 0 -57.279453964194545 -50.174382671179046 0 0 0 0 -3.9618231921679175 -52.258739968439784 0 -52.258739968439784 23.429725670714276 0 0 0 0 -161.3680420467258 -74.13761908185279 0 -74.13761908185279 181.9373447603175 0 0 0 0 9.8990895325077872 -68.890475308063287 0 -68.890475308063287 -27.030374435416888 0 0 0 0 384.52788101810438 26.831933733095866 0 26.831933733095866 -78.572588343569805 0 0 0 0 222.71721316032199 -244.70798520621611 0 -244.70798520621611 90.499220822854113 0 0 0 0 -37.642403290092261 -28.546049962791585 0 -28.546049962791585 243.56627610528449 0 0 0 0 434.71610845444366 -17.295484500325074 0 -17.295484500325074 -12.808905893572955 0 0 0 0 3.5774655303870873 -2.0372683476680731 0 -2.0372683476680731 1.5188859103982182 0 0 0 0 31.88174622299266 -89.880971084949124 0 -89.880971084949124 10.381919358891082 0 0 0 0 -27.865910825202263 -181.60951048046991 0 -181.60951048046991 -42.475984399899517 0 0 0 0 31.671827123371429 -31.880519302167905 0 -31.880519302167905 31.815600560082558 0 0 0 0 115.21857317936315 64.704175103380294 0 64.704175103380294 -10.707678449904051 0 0 0 0 96.922571991506629 -79.72620634912164 0 -79.72620634912164 -16.243446051426872 0 0 0 0 7.3722663722502499 -55.795354267908635 0 -55.795354267908635 22.135924526948926 0 0 0 0 -12.218944162667073 -10.40414554804058 0 -10.40414554804058 11.839280803981055 0 0 0 0 -123.77240384252309 -9.5635673677115847 0 -9.5635673677115847 45.490073020537238 0 0 0 0 -326.55432553220157 -76.619348944067497 0 -76.619348944067497 212.43974957964383 0 0 0 0 -142.67849455222313 -206.72569694638696 0 -206.72569694638696 163.58792744430684 0 0 0 0 320.39525815242814 -252.77223088207938 0 -252.77223088207938 43.564458937875315 0 0 0 0 -24.206235488822131 -32.873105861817749 0 -32.873105861817749 -3.0301834296005836 0 0 0 0 -61.437666897138115 -317.58339849960248 0 -317.58339849960248 3.6418257139662842 0 0 0 0 27.535272246162691 -44.754526321651781 0 -44.754526321651781 25.991167286343192 0 0 0 0 218.95122129448828 -38.296699349310074 0 -38.296699349310074 -116.64042254288506 0 0 0 0 56.414608816892724 32.324145797938399 0 32.324145797938399 -51.873652234064139 0 0 0 0 2.8390880508179919 -0.12085162168710895 0 -0.12085162168710895 -8.415031992717303 0 0 0 0 115.49126319927018 -99.409981587134098 0 -99.409981587134098 40.2921167647537 0 0 0 0 146.17192635549145 45.623911360740749 0 45.623911360740749 -66.879036836864543 0 0 0 0 43.367882311802532 27.944467457899009 0 27.944467457899009 -47.416663177691589 0 0 0 0 4.5144898803146702 -0.2943236798191613 0 -0.2943236798191613 -4.3158516892591265 0 0 0 0 68.173965101283102 39.613248321922583 0 39.613248321922583 -116.91054540462937 0 0 0 0 420.21408046213764 -52.568944498332712 0 -52.568944498332712 -93.065186740896024 0 0 0 0 24.106611068731581 -29.082827834192358 0 -29.082827834192358 -10.584451940080726 0 0 0 0 -10.065058527616202 -38.0163149249056 0 -38.0163149249056 8.0026231274241582 0 0 0 0 17.845154822095616 -25.108863124577987 0 -25.108863124577987 8.7328156348646999 0 0 0 0 78.940837397869473 -44.560413637424062 0 -44.560413637424062 -49.014029695339559 0 0 0 0 40.647436809776991 -36.192763340752208 0 -36.192763340752208 -13.369486350226452 0 0 0 0 50.191454230380259 -1.2717804861354125 0 -1.2717804861354125 -78.903122988114774 0 0 0 0 18.840099722606311 -16.754600174865615 0 -16.754600174865615 -29.982400724325267 0 0 0 0 81.130491097298773 -113.39091681978806 0 -113.39091681978806 -149.95193718834344 0 0 0 0 49.240266096447527 -52.029642936419329 0 -52.029642936419329 20.041653610087806 0 0 0 0 27.8129944142147 -119.38967986735224 0 -119.38967986735224 -38.370053276164981 0 0 0 0 46.546420538458733 -31.18331813961322 0 -31.18331813961322 6.9564610170782544 0 0 0 0 14.927102789346463 -82.109001003194862 0 -82.109001003194862 -18.52916059326526 0 0 0 0 52.186369839277177 -35.985233051625983 0 -35.985233051625983 63.888359201268031 0 0 0 0 81.153622986890696 -38.579064888916037 0 -38.579064888916037 -0.75783769504869269 0 0 0 0 80.502879683288484 -90.28696270193177 0 -90.28696270193177 -49.17209490948062 0 0 0 0 70.06199375558208 -44.379769371057591 0 -44.379769371057591 22.436482885968871 0 0 0 0 7.8487414772711332 -19.342122421326565 0 -19.342122421326565 6.8479006838735597 0 0 0 0 21.093522817749651 -35.091733314438059 0 -35.091733314438059 29.840136541008178 0 0 0 0 10.644084679472144 -111.87394051876345 0 -111.87394051876345 -9.7763534105740746 0 0 0 0 11.327688237187168 -32.678714736162178 0 -32.678714736162178 -5.8147761314503157 0 0 0 0 79.538936637410188 -50.155725538719707 0 -50.155725538719707 -14.178058656718349 0 0 0 0 7.9908216355686781 -29.365411593901335 0 -29.365411593901335 3.162613219533398 0 0 0 0 18.505873629329471 -59.608421815797556 0 -59.608421815797556 -11.765077890231623 0 0 0 0 -14.753293880981801 -9.2164792530365958 0 -9.2164792530365958 -21.183155511080258 0 0 0 0 -41.529440577041896 -96.230932587922666 0 -96.230932587922666 63.84497985690723 0 0 0 0 2.4809410360187343 -15.714635405989519 0 -15.714635405989519 5.9582027784557718 0 0 0 0 42.332539831326358 -84.336615939296735 0 -84.336615939296735 -63.887083813278878 0 0 0 0 8.1055945113985217 -111.76533628613652 0 -111.76533628613652 39.772288397352895 0 0 0 0 9.4544455954173827 -80.876218593865588 0 -80.876218593865588 61.051952014139715 0 0 0 0 25.233360509337217 -54.456029382845827 0 -54.456029382845827 57.143293231607458 0 0 0 0 4.5010604050453367 -12.982598681686198 0 -12.982598681686198 -3.0532042402338653 0 0 0 0 1.2325046847655585 -62.85766241656529 0 -62.85766241656529 -46.713999736935875 0 0 0 0 -25.330420526755287 -19.397064549420065 0 -19.397064549420065 19.646379224901466 0 0 0 0 3.0969736361428359 -36.178304648757376 0 -36.178304648757376 6.3967896275588956 0 0 0 0 21.474930329668496 -63.966424629137236 0 -63.966424629137236 15.506205148284153 0 0 0 0 -6.0294216530558593 -30.454221047828096 0 -30.454221047828096 18.92134167404447 0 0 0 0 -5.5584518288311813 -31.956267536895957 0 -31.956267536895957 -15.435245729362428 0 0 0 0 30.003403797889405 -61.732343787911304 0 -61.732343787911304 -25.877796174527248 0 0 0 0 -8.1747948720603745 -105.0447931591807 0 -105.0447931591807 77.070819190540533 0 0 0 0 10.402638269349051 -4.3905865365558974 0 -4.3905865365558974 0.81306866435924618 0 0 0 0 24.454697469665916 -31.131749549168489 0 -31.131749549168489 -10.93550920337475 0 0 0 0 -23.117384299145442 -74.79392508985552 0 -74.79392508985552 15.56727077557116 0 0 0 0 25.569368989497992 -27.130362959881289 0 -27.130362959881289 -0.96702972287754108 0 0 0 0 21.199563725647749 -42.279042771935565 0 -42.279042771935565 -38.435788062979555 0 0 0 0 -0.78798164038994178 -32.574108581713944 0 -32.574108581713944 0.97614875496187925 0 0 0 0 26.721687613609902 -40.47456673087936 0 -40.47456673087936 -16.081454079556352 0 0 0 0 -12.368732451272081 -26.52386250503514 0 -26.52386250503514 4.9575305805989558 0 0 0 0 8.4851568655757958 -22.250987369073755 0 -22.250987369073755 -1.8766868604216767 0 0 0 0 17.889778513450437 -41.597128907186743 0 -41.597128907186743 -10.952032482688253 0 0 0 0 27.869448257625475 -33.169506978343243 0 -33.169506978343243 -21.238749531635882 0 0 0 0 -7.2940505389269674 -73.630585278968283 0 -73.630585278968283 -43.672677424707217 0 0 0 0 9.9930297325372521 -41.98499505631662 0 -41.98499505631662 -5.6391646885663249 0 0 0 0 1.4968634256315738 -1.6643242060960421 0 -1.6643242060960421 0.048007001516388925 0 0 0 0 -31.603077974723419 -57.566107192884374 0 -57.566107192884374 -52.697916334058391 0 0 0 0 5.9515977703100447 -0.63683549182817245 0 -0.63683549182817245 -4.4538976125619492 0 0 0 0 19.353915790572501 -46.136738472984234 0 -46.136738472984234 82.411723899928802 0 0 0 0 15.746474746094918 -25.40632116620759 0 -25.40632116620759 58.556174341948463 0 0 0 0 24.752882379517359 -45.076884299458925 0 -45.076884299458925 35.636955839241637 0 0 0 0 -10.758085487561402 -38.218424179072827 0 -38.218424179072827 36.883749569635256 0 0 0 0 -29.622260596690467 -101.51948755230728 0 -101.51948755230728 -10.807099397842649 0 0 0 0 -4.6375285729864117 -23.103949039392091 0 -23.103949039392091 70.912028487080534 0 0 0 0 26.948838733249431 -24.457285450712789 0 -24.457285450712789 82.937631870631748 0 0 0 0 -15.665387541417658 -56.87048721147039 0 -56.87048721147039 81.106776891795562 0 0 0 0 -16.775250614769902 -59.240547690876156 0 -59.240547690876156 150.97302342074272 0 0 0 0 74.251250848534255 64.508938257329646 0 64.508938257329646 -190.62954577877008 0 0 0 0 -1.343793034820834 -0.12467114122174294 0 -0.12467114122174294 -1.1390979355939699 0 0 0 0 1.3926916812476975 2.0080991629191836 0 2.0080991629191836 0.051567302297098105 0 0 0 0 183.74789626910751 -93.053419740752815 0 -93.053419740752815 -81.227024988816993 0 0 0 0 -18.304435738962638 -114.54437289940324 0 -114.54437289940324 274.32701665123534 0 0 0 0 3.5299282579089777 59.493665191386526 0 59.493665191386526 -185.35482776539629 0 0 0 0 -36.218573279622433 34.411031683006513 0 34.411031683006513 8.8828018512167546 0 0 0 0 -19.959930477732996 -12.039074549782072 0 -12.039074549782072 -76.01045346145338 0 0 0 0 0.11765360954336757 -1.6536937946334938 0 -1.6536937946334938 -0.57817569633419108 0 0 0 0 7.5910402379049629 -59.273138841136642 0 -59.273138841136642 168.99532096763505 0 0 0 0 -9.2834798112635326 -70.571351330819198 0 -70.571351330819198 215.31336274448586 0 0 0 0 23.632226611833175 -27.388669226484126 0 -27.388669226484126 92.59510666993333 0 0 0 0 -0.21418531850278555 -0.065734002151170756 0 -0.065734002151170756 -0.014068134270411647 0 0 0 0 -18.752819946283125 7.6227647890414119 0 7.6227647890414119 -215.01462809505006 0 0 0 0 -19.88434648805196 -69.543365840610477 0 -69.543365840610477 -37.97765634994721 0 0 0 0 -67.121504174174333 -84.230687642587327 0 -84.230687642587327 -42.544258657184628 0 0 0 0 -73.235890044123153 -118.67133954655083 0 -118.67133954655083 24.620732872392182 0 0 0 0 -14.964953088068796 -105.79191603300706 0 -105.79191603300706 48.7697322509066 0 0 0 0 -158.77114946763322 -170.22698412256841 0 -170.22698412256841 -21.689666509516087 0 0 0 0 -23.282856385285413 -165.697171059423 0 -165.697171059423 -22.568258945774005 0 0 0 0 11.524187298826291 -137.31764890435079 0 -137.31764890435079 0.54906421036230313 0 0 0 0 -23.957880932960506 -251.7883962907614 0 -251.7883962907614 -65.982543550027913 0 0 0 0 60.112312859866051 -173.80109629133131 0 -173.80109629133131 53.272247803875871 0 0 0 0 79.093134790229669 -152.45950535067459 0 -152.45950535067459 -5.8419199474874404 0 0 0 0 -9.2992679590861371 -137.38138945485707 0 -137.38138945485707 14.629137015052038 0 0 0 0 109.82948944872805 -58.652296188592913 0 -58.652296188592913 60.098173709066941 0 0 0 0 46.667671660939959 -149.20095013606897 0 -149.20095013606897 153.60382939515966 0 0 0 0 -49.377856855251594 -76.75065682297145 0 -76.75065682297145 85.524239932273076 0 0 0 0 1.7596924339120932 -0.57461821854732165 0 -0.57461821854732165 0.54498376014405991 0 0 0 0 19.717171750155103 -47.230648393885986 0 -47.230648393885986 77.922423010896637 0 0 0 0 -19.252856247085219 -54.760868445581764 0 -54.760868445581764 92.860610303644535 0 0 0 0 22.810538273281054 -92.38645733946305 0 -92.38645733946305 30.615904997875987 0 0 0 0 26.282415771310298 -100.76723168370586 0 -100.76723168370586 42.008911877021092 0 0 0 0 38.666033400482775 -71.364756901690271 0 -71.364756901690271 56.372342065282282 0 0 0 0 53.287615193765305 -60.842456362736755 0 -60.842456362736755 31.629773558082888 0 0 0 0 87.958354278707702 -74.556769537097352 0 -74.556769537097352 9.2854316793118414 0 0 0 0 83.962605155611527 -61.826358160681593 0 -61.826358160681593 39.208173960646491 0 0 0 0 87.10770606254755 -77.683959087902622 0 -77.683959087902622 13.588969437110791 0 0 0 0 93.589011069499975 -65.921317069348333 0 -65.921317069348333 -2.0589128425476702 0 0 0 0 100.2281329692014 -118.27352194120022 0 -118.27352194120022 33.911002043805638 0 0 0 0 80.922500678723736 -90.031647734049329 0 -90.031647734049329 -5.3668134933761849 0 0 0 0 108.97768953004834 -101.15982559963538 0 -101.15982559963538 -96.052143394277664 0 0 0 0 121.12204126277538 -160.84418785776143 0 -160.84418785776143 -3.8719261349542649 0 0 0 0 54.613956631128531 76.18890922042624 0 76.18890922042624 33.969606472823216 0 0 0 0 17.063319778375444 -117.42224013392388 0 -117.42224013392388 -127.96983830228328 0 0 0 0 -186.52221590274712 -74.53365442984159 0 -74.53365442984159 -4.6368213820696838 0 0 0 0 31.0944941313046 17.051863339563681 0 17.051863339563681 -41.912252285965224 0 0 0 0 -4.3839426389044291 -7.8721441342912488 0 -7.8721441342912488 -1.4772296909706171 0 0 0 0 -43.318550204232452 -27.725192647477343 0 -27.725192647477343 -27.735841362529754 0 0 0 0 -32.076389333899897 -55.019705347205672 0 -55.019705347205672 -8.9495588275458431 0 0 0 0 -0.089841600925640641 -0.2808709945142418 0 -0.2808709945142418 -1.2883488398761074 0 0 0 0 75.338869376637376 -71.203609149993554 0 -71.203609149993554 15.554500807642398 0 0 0 0 38.922033148548508 -34.210830927047027 0 -34.210830927047027 -16.401613022069796 0 0 0 0 -1.656668551611574 -22.307775190802687 0 -22.307775190802687 36.251823211350711 0 0 0 0 0.25103169041609874 -1.8924055299039129 0 -1.8924055299039129 -4.1822311243707588 0 0 0 0 19.100635252612847 -3.3756694121893815 0 -3.3756694121893815 -23.776785236281285 0 0 0 0 -2.1803798079280812 -3.8240490256966666 0 -3.8240490256966666 -4.4920301877334907 0 0 0 0 -2.7363442782470884 -48.309296586012579 0 -48.309296586012579 -24.875553324767679 0 0 0 0 -56.910353328228666 -23.507240344508318 0 -23.507240344508318 -2.6852682776188885 0 0 0 0 -31.798137992773263 -41.234138306168461 0 -41.234138306168461 -15.725268354664877 0 0 0 0 -18.117978338639659 -14.900480525808234 0 -14.900480525808234 -3.3233989325435687 0 0 0 0 -8.0108458228896779 -19.109027960876119 0 -19.109027960876119 -16.984364199364791 0 0 0 0 -1.0781502196696238 -10.56535135789818 0 -10.56535135789818 -99.987215340705006 0 0 0 0 2.6304361672224754 -9.0828480001226595 0 -9.0828480001226595 -36.333511740250387 0 0 0 0 19.578005831995597 -15.043968640706225 0 -15.043968640706225 -85.85814239019237 0 0 0 0 -2.4198814731818814 -6.0057243115319565 0 -6.0057243115319565 4.7089908123830924 0 0 0 0 -28.196418071296648 -34.638713762295083 0 -34.638713762295083 1.5096494132267253 0 0 0 0 -13.120570026667068 -17.354470279718718 0 -17.354470279718718 0.92056365530972784 0 0 0 0 -6.6460484922067735 -16.792265903654084 0 -16.792265903654084 -47.90279822966113 0 0 0 0 -4.2797794510588574 -4.340000239296387 0 -4.340000239296387 -23.438233934391974 0 0 0 0 17.909214337718367 -12.293058302107056 0 -12.293058302107056 -79.546675129724463 0 0 0 0 -12.806900980856881 -34.125839450906597 0 -34.125839450906597 -10.921285492548122 0 0 0 0 26.681061107399728 10.687694243221813 0 10.687694243221813 -62.235359034688372 0 0 0 0 1.8204234008477087 -8.1054620292215649 0 -8.1054620292215649 2.7453541091567537 0 0 0 0 50.75147429399658 -51.803692993275945 0 -51.803692993275945 -53.043518361690076 0 0 0 0 79.651700323796831 -156.55945794447371 0 -156.55945794447371 84.017567595479704 0 0 0 0 28.951252878172454 -95.574607703551465 0 -95.574607703551465 51.065077664810815 0 0 0 0 98.793648865834257 -87.761472676166704 0 -87.761472676166704 4.2711250681263664 0 0 0 0 -9.147277168387518 -96.034030505849842 0 -96.034030505849842 -34.957887858869071 0 0 0 0 97.93446560702796 -67.228498939779456 0 -67.228498939779456 -78.826227258830841 0 0 0 0 2.120796479521232 -100.1096558004574 0 -100.1096558004574 -131.00116050278302 0 0 0 0 -161.8781706614609 -124.93819458132566 0 -124.93819458132566 -42.266393906738813 0 0 0 0 51.970943909416746 -73.861996317685225 0 -73.861996317685225 -111.16997096992054 0 0 0 0 -98.369601498150587 -196.30968081186256 0 -196.30968081186256 -159.40559798546019 0 0 0 0 -30.153885984595036 -43.648477266199734 0 -43.648477266199734 7.5005620833253488 0 0 0 0 151.08051662145226 -100.98713729397969 0 -100.98713729397969 -79.608045443001174 0 0 0 0 3.0663573129615926 -0.66737332253744164 0 -0.66737332253744164 -0.49068563977019153 0 0 0 0 192.62838539232507 49.945555503701826 0 49.945555503701826 -34.647485776702524 0 0 0 0 -61.940429312009655 38.019318517850479 0 38.019318517850479 -104.6657820555929 0 0 0 0 18.97940696653805 -9.416893258997014 0 -9.416893258997014 -1.7627577853354097 0 0 0 0 -42.786986247574532 -82.978527941249922 0 -82.978527941249922 -43.990038642326908 0 0 0 0 30.861613030567241 -32.46777753833976 0 -32.46777753833976 -137.85734166950351 0 0 0 0 -26.856859059389535 -35.873767082276572 0 -35.873767082276572 -19.6184576255514 0 0 0 0 -11.11275789066098 -24.539835972357977 0 -24.539835972357977 -20.662567502565807 0 0 0 0 -2.684934974175242 -7.831869845622407 0 -7.831869845622407 -2.5849409897008044 0 0 0 0 24.558388174697029 -43.686335637119555 0 -43.686335637119555 -42.358461432486365 0 0 0 0 41.877158142415283 -21.100650103489897 0 -21.100650103489897 -13.928464862314286 0 0 0 0 25.96561693118997 -27.39295222441109 0 -27.39295222441109 -20.541056336849579 0 0 0 0 19.301407453349384 -51.900936405862922 0 -51.900936405862922 -23.534332138517129 0 0 0 0 -13.846048778439581 -28.224869217190644 0 -28.224869217190644 -20.398020454754601 0 0 0 0 -11.879155207381494 -21.455142659753101 0 -21.455142659753101 -17.743094437839709 0 0 0 0 -26.357591579906511 -33.271308186973783 0 -33.271308186973783 -30.655908997792721 0 0 0 0 -18.928504463481659 -42.901830100761799 0 -42.901830100761799 -10.767604584934816 0 0 0 0 -1.1918515086490515 -48.63446313014083 0 -48.63446313014083 -9.9840691721601615 0 0 0 0 -9.8729972261644434 -61.363468918158105 0 -61.363468918158105 3.9577560747457028 0 0 0 0 -15.849654814934183 -54.834064141047747 0 -54.834064141047747 33.785898263273339 0 0 0 0 0.93840856284441543 -98.065071744745183 0 -98.065071744745183 -58.148729575694233 0 0 0 0 -48.640054727098686 -73.484325600972625 0 -73.484325600972625 10.680070436295864 0 0 0 0 -101.62091333061835 -156.88626531708633 0 -156.88626531708633 -58.54777775454022 0 0 0 0 -6.4001239978771167 2.3583678708281717 0 2.3583678708281717 -1.2990615634735079 0 0 0 0 -116.11903184184848 98.01260051445297 0 98.01260051445297 216.08801444886967 0 0 0 0 -283.60447832503996 -506.12698494428696 0 -506.12698494428696 -1353.7939368209536 0 0 0 0 -933.71815207521286 -739.0175907886387 0 -739.0175907886387 -578.32559265680084 0 0 0 0 -275.73177393510196 -341.42839001295124 0 -341.42839001295124 -609.62502262386624 0 0 0 0 -35.122403218443651 -14.629104741144147 0 -14.629104741144147 42.846121574076506 0 0 0 0 -441.79677110221746 -266.91306087200837 0 -266.91306087200837 -373.37676211892722 0 0 0 0 -17.762460029420843 4.1018824037450656 0 4.1018824037450656 -2.0979478374391185 0 0 0 0 -527.92749343459036 -504.42652813050722 0 -504.42652813050722 -342.34837156212598 0 0 0 0 -474.95989721660771 -656.34388467687268 0 -656.34388467687268 -835.04030377895469 0 0 0 0 -595.53687762019399 -797.32333238830688 0 -797.32333238830688 -622.06733199472001 0 0 0 0 -603.32178791622573 -616.72488321290075 0 -616.72488321290075 -208.78112291493926 0 0 0 0 -863.97916421762056 -198.05611075979868 0 -198.05611075979868 -9.0997470031275043 0 0 0 0 -951.73290231633382 -943.24982029229079 0 -943.24982029229079 -488.62518836785239 0 0 0 0 3.3079376868345207 -13.711064495986875 0 -13.711064495986875 -22.650780836437661 0 0 0 0 -19.447942274966408 -16.25005616801991 0 -16.25005616801991 3.4635218717694443 0 0 0 0 -13.57626770433324 -17.388657471792634 0 -17.388657471792634 -10.745746338739469 0 0 0 0 -37.867672803833557 -4.7256747203828127 0 -4.7256747203828127 10.698053724691363 0 0 0 0 -13.553318239984947 -32.320529747481487 0 -32.320529747481487 -549.76810283668692 0 0 0 0 -719.61240676208399 -754.61103617423942 0 -754.61103617423942 -575.26166888692387 0 0 0 0 -5.401677052791797 -1.7887105824978633 0 -1.7887105824978633 -2.0606318544778262 0 0 0 0 96.749219269318928 -41.171794368487099 0 -41.171794368487099 -26.596931418529948 0 0 0 0 -1.4843947959906316 -3.2914629038238754 0 -3.2914629038238754 -2.0956483609805652 0 0 0 0 -84.651980303373421 -566.00919813538212 0 -566.00919813538212 -499.42980846454338 0 0 0 0 111.93289063238808 -323.43815431982011 0 -323.43815431982011 -205.69927480725073 0 0 0 0 -621.19521591984812 -473.97480612376785 0 -473.97480612376785 -218.35466488695602 0 0 0 0 -471.35636053798771 -263.00085217216861 0 -263.00085217216861 42.177871658346248 0 0 0 0 -71.869958352137473 -489.01024556761786 0 -489.01024556761786 -219.42217485421122 0 0 0 0 -90.666597519728384 -557.6506364797001 0 -557.6506364797001 -2.2650793369757594 0 0 0 0 -364.57832029512429 -350.78684882179687 0 -350.78684882179687 -311.74525832616018 0 0 0 0 25.452550087731652 75.477128794332202 0 75.477128794332202 -60.234093814147855 0 0 0 0 -623.91570680325822 -261.13591555496623 0 -261.13591555496623 -47.306733677611192 0 0 0 0 -419.43768306520724 -479.91666885715858 0 -479.91666885715858 -317.4934668331698 0 0 0 0 -594.58148392900694 -504.52766234817955 0 -504.52766234817955 -241.91931196579753 0 0 0 0 -472.95990324169543 -472.9373231477075 0 -472.9373231477075 -467.60363187278108 0 0 0 0 -547.34380759453416 -373.39696003882591 0 -373.39696003882591 -302.2312716866586 0 0 0 0 -448.75932471289343 -495.49718711226433 0 -495.49718711226433 -772.51194246112937 0 0 0 0 -631.55444264081052 -183.49553670041576 0 -183.49553670041576 -427.21095638268162 0 0 0 0 -513.37693353766736 -426.21822536091895 0 -426.21822536091895 -258.76879505297666 0 0 0 0 -267.87633552023544 7.7882124554898837 0 7.7882124554898837 346.53422643837462 0 0 0 0 -125.17749925781754 109.31652875281543 0 109.31652875281543 384.0304803192339 0 0 0 0 -1.0975730730461493 0.095892351229987849 0 0.095892351229987849 0.22876990642521022 0 0 0 0 75.019433716643107 -28.222279416831952 0 -28.222279416831952 239.25382893989081 0 0 0 0 21.022228787558561 14.2037160559521 0 14.2037160559521 208.19015653649967 0 0 0 0 -70.268715794734817 -37.894630261710063 0 -37.894630261710063 -29.344590434002612 0 0 0 0 -91.612153741029033 -129.03391745759382 0 -129.03391745759382 33.198081456317595 0 0 0 0 -37.578761340082565 -322.40145792247995 0 -322.40145792247995 61.033514785523039 0 0 0 0 -412.29983333481141 -202.64957429287324 0 -202.64957429287324 42.074123758917267 0 0 0 0 12.141558057825023 -158.33324908879831 0 -158.33324908879831 -528.02883337158255 0 0 0 0 4.901246600539821 -3.010403752770157 0 -3.010403752770157 1.1089016027809873 0 0 0 0 -179.2897226896057 -84.624312701798772 0 -84.624312701798772 1128.9266800477908 0 0 0 0 -88.667284361036081 -547.84030517619635 0 -547.84030517619635 58.092615260903585 0 0 0 0 -481.3861666839548 -206.18710908037633 0 -206.18710908037633 72.269423444409767 0 0 0 0 0.52556303471904187 -2.2705960494015685 0 -2.2705960494015685 2.4731673274858359 0 0 0 0 -281.99551308150694 -469.7256075644309 0 -469.7256075644309 195.19203961754693 0 0 0 0 -162.81747429689858 -553.13499188111882 0 -553.13499188111882 93.482580389046007 0 0 0 0 -142.10236301791883 48.256462174945909 0 48.256462174945909 109.30829630984934 0 0 0 0 -453.61320670117857 -141.55655310627935 0 -141.55655310627935 19.98991023009512 0 0 0 0 -52.263707522524783 -148.0404271328224 0 -148.0404271328224 -141.19404046578074 0 0 0 0 -195.88644326901704 -35.708689962119479 0 -35.708689962119479 -48.868718227810973 0 0 0 0 -336.39147711731948 -213.63392199076827 0 -213.63392199076827 -97.694489447860633 0 0 0 0 61.820742636624345 -190.27452967780425 0 -190.27452967780425 424.52674005896506 0 0 0 0 177.09049178280839 -169.82379197133548 0 -169.82379197133548 -167.76951759514941 0 0 0 0 -154.82330926731993 -440.81514309623753 0 -440.81514309623753 705.41912131188019 0 0 0 0 -77.197836074294173 -178.34947670183828 0 -178.34947670183828 -140.76681350590047 0 0 0 0 -237.21409886809442 -168.31250104461265 0 -168.31250104461265 -71.597063703812637 0 0 0 0 0.031097498552881575 0.027490282890092033 0 0.027490282890092033 -2.6547173599711691 0 0 0 0 12.12181206936657 8.355762366916224 0 8.355762366916224 -47.439533327428308 0 0 0 0 114.52035612576765 -262.14569027832408 0 -262.14569027832408 -295.7058297527974 0 0 0 0 86.254247099559507 -290.08481347414119 0 -290.08481347414119 276.4541079097753 0 0 0 0 6.9983167493783185 -17.293846845282872 0 -17.293846845282872 10.332724975435667 0 0 0 0 59.802710857042257 -38.592675307961144 0 -38.592675307961144 -2.111490886208685 0 0 0 0 3.9634540520164592 -28.405679578844456 0 -28.405679578844456 -18.026833072987301 0 0 0 0 4.7462701317053089 -5.5188891015032073 0 -5.5188891015032073 0.98516140511934935 0 0 0 0 -3.1793079731046205 0.085449984614852426 0 0.085449984614852426 -1.3153250617330308 0 0 0 0 -44.654943962566904 4.9839605473578104 0 4.9839605473578104 -32.503979250108841 0 0 0 0 -99.057686394542543 -78.808019363096946 0 -78.808019363096946 -22.366733863681247 0 0 0 0 -16.143879269337049 -58.178089283818906 0 -58.178089283818906 -65.757850544941903 0 0 0 0 0.64388710927672577 -1.4877058851130371 0 -1.4877058851130371 -7.1208473648867567 0 0 0 0 -72.190832705968205 -114.64217633773706 0 -114.64217633773706 -154.59844470994108 0 0 0 0 -159.07420373192372 -131.81953573166032 0 -131.81953573166032 -111.61476995057183 0 0 0 0 -312.73615253926619 -194.15371732652193 0 -194.15371732652193 -102.07300698270137 0 0 0 0 -140.64701030444121 -190.21691649825743 0 -190.21691649825743 -230.82431451323555 0 0 0 0 -111.75013299636521 -117.93353263539461 0 -117.93353263539461 -196.00275166244501 0 0 0 0 -83.262651586741413 -109.46841544518429 0 -109.46841544518429 -220.60644018577932 0 0 0 0 -101.18512064286915 -10.543306291415774 0 -10.543306291415774 -72.123032734817571 0 0 0 0 -95.589279238967492 -43.729523189929665 0 -43.729523189929665 -127.62382042428635 0 0 0 0 -12.138770386158285 -91.688774314129205 0 -91.688774314129205 -102.69443582009717 0 0 0 0 -0.86795921644149132 0.49034988827883641 0 0.49034988827883641 -0.14406151852011728 0 0 0 0 104.68843819479662 -2.708059371840136 0 -2.708059371840136 -82.443336103016009 0 0 0 0 -77.459389456224017 -99.670935545610973 0 -99.670935545610973 -21.587906806598767 0 0 0 0 -109.42270644760902 -62.708379663514279 0 -62.708379663514279 -56.673611550447731 0 0 0 0 -14.479659620308666 -8.8599373710081863 0 -8.8599373710081863 -1.811379760084364 0 0 0 0 -6.1663797753153631 -27.583719279164143 0 -27.583719279164143 36.086989920178155 0 0 0 0 -12.76757292162074 7.6606090285670234 0 7.6606090285670234 35.035000263622806 0 0 0 0 -18.368201606805087 -12.889960169867209 0 -12.889960169867209 10.758925995743311 0 0 0 0 -23.851511804929032 -3.491371079528335 0 -3.491371079528335 -4.9046229891264375 0 0 0 0 -2.3527240498213935 -8.0813885368293867 0 -8.0813885368293867 -8.2602193918765341 0 0 0 0 -7.281329456063304 -0.57381925965250957 0 -0.57381925965250957 -2.6162812194597791 0 0 0 0 -13.913643955031148 -5.6471286490884722 0 -5.6471286490884722 11.204889089744029 0 0 0 0 28.338129420135374 -14.30633114963166 0 -14.30633114963166 -14.308045401509844 0 0 0 0 -1.4074753639704287 -7.5279380816473562 0 -7.5279380816473562 -4.820240142327334 0 0 0 0 -12.265620657633008 8.2566833710543079 0 8.2566833710543079 -6.8189113788016584 0 0 0 0 -12.146050963696325 0.30867782222139795 0 0.30867782222139795 -12.829009615990344 0 0 0 0 -335.28744747342353 -375.40435320212509 0 -375.40435320212509 -312.1874963260675 0 0 0 0 -266.03009981305877 -286.67849777787433 0 -286.67849777787433 -422.47214015178542 0 0 0 0 -3.8258830514313971 0.70329338237301542 0 0.70329338237301542 1.5261946816183452 0 0 0 0 -468.14015302937696 -7.6959678810339938 0 -7.6959678810339938 -170.45337516768996 0 0 0 0 -360.80903181559006 -164.79281375747723 0 -164.79281375747723 40.657678769132872 0 0 0 0 40.731996555816295 -111.88721889510225 0 -111.88721889510225 -44.250799683665718 0 0 0 0 22.150354280161082 -218.94474873083229 0 -218.94474873083229 170.80961745404056 0 0 0 0 -208.63594662528158 11.692488236906911 0 11.692488236906911 86.492666446806652 0 0 0 0 -320.80289320818702 -515.0093967464245 0 -515.0093967464245 476.56533997408087 0 0 0 0 -451.38560646320548 -921.16645618461894 0 -921.16645618461894 254.76915743559573 0 0 0 0 -69.70727569104929 -317.34188517965327 0 -317.34188517965327 -1171.6264460177358 0 0 0 0 -506.77949516315857 -28.669821175936931 0 -28.669821175936931 177.16218222306259 0 0 0 0 -6.8165842860048045 -0.63177297853890302 0 -0.63177297853890302 -0.49203508418994857 0 0 0 0 -102.26964715572831 -788.87040953774135 0 -788.87040953774135 -153.83269230157998 0 0 0 0 -221.30339990583161 -701.25771626469077 0 -701.25771626469077 87.988679061815674 0 0 0 0 -1173.1851895984655 -702.87252256104 0 -702.87252256104 88.237609269680704 0 0 0 0 -546.97521790783503 -1376.436635612818 0 -1376.436635612818 -753.59488123949757 0 0 0 0 -415.76707331875514 -131.88907753000353 0 -131.88907753000353 -93.617699530475875 0 0 0 0 -372.17437499838707 -228.73161009538103 0 -228.73161009538103 59.588906354737446 0 0 0 0 -854.26657523067843 -234.24350101672758 0 -234.24350101672758 60.860064632890392 0 0 0 0 -1449.7878973316256 -251.36312407437595 0 -251.36312407437595 -651.31276596546786 0 0 0 0 -259.02668753729449 -307.21640249524728 0 -307.21640249524728 -230.71756650543858 0 0 0 0 -397.15322814854881 -237.60018606372296 0 -237.60018606372296 -191.34509314980301 0 0 0 0 -437.82333482741888 -276.41327368053703 0 -276.41327368053703 -259.49414856724934 0 0 0 0 -408.06050771104856 -253.07219678243098 0 -253.07219678243098 -233.29906949574683 0 0 0 0 -144.47570060630824 -701.31714255258817 0 -701.31714255258817 -157.17984039727844 0 0 0 0 -3.5665779122114145 0.29929377155956161 0 0.29929377155956161 -1.9521096741713611 0 0 0 0 -469.90584048356322 -339.2193865316118 0 -339.2193865316118 -204.28546760782979 0 0 0 0 -519.35961102716465 -258.24632920905765 0 -258.24632920905765 -166.01532032519455 0 0 0 0 -832.15753458288964 -392.73973073615025 0 -392.73973073615025 -187.60009612414797 0 0 0 0 -673.21154453989584 -289.46770195006775 0 -289.46770195006775 -171.66029364102292 0 0 0 0 -19.399377562986047 -7.4061432247756329 0 -7.4061432247756329 -3.048651994565148 0 0 0 0 -19.519702148741999 -7.7231685725353145 0 -7.7231685725353145 -3.3399819205410495 0 0 0 0 -18.913039980685426 -6.7699774575044103 0 -6.7699774575044103 -2.7756231927066892 0 0 0 0 -19.134223283195752 -7.3055529593007122 0 -7.3055529593007122 -3.6904272946511583 0 0 0 0 -24.139966168899264 -3.9716846447929406 0 -3.9716846447929406 -0.8089839890409678 0 0 0 0 -97.632748182972136 -176.51458341990292 0 -176.51458341990292 -108.48189930967055 0 0 0 0 -11.407739921991549 -8.6758649324698283 0 -8.6758649324698283 -5.1438251084706064 0 0 0 0 -75.94603701010783 -58.261833215485694 0 -58.261833215485694 104.56231595690588 0 0 0 0 -10.762792892059224 -8.8465594218064325 0 -8.8465594218064325 -3.3744957419021375 0 0 0 0 -849.12306813818213 -482.67236625065505 0 -482.67236625065505 -240.74243389315689 0 0 0 0 -4.2638021475211367 2.4354561801348424 0 2.4354561801348424 -1.5241167964706461 0 0 0 0 -1113.4252304927431 -612.50855947764194 0 -612.50855947764194 -307.45056786537111 0 0 0 0 -693.20735935495759 -462.61558398550551 0 -462.61558398550551 -350.8828938270251 0 0 0 0 -535.34026269543756 -411.08453945487599 0 -411.08453945487599 -334.4441148116789 0 0 0 0 -431.24168177777892 -315.05696233440676 0 -315.05696233440676 -337.61819521148936 0 0 0 0 -15.920845753580579 -5.7011461465530147 0 -5.7011461465530147 16.796073443904788 0 0 0 0 -1.9649298300420313 0.03976221992151352 0 0.03976221992151352 0.27538752262838351 0 0 0 0 -962.10655703758675 -559.26513927769247 0 -559.26513927769247 -403.51968784272685 0 0 0 0 0.43966288892519856 -2.1398367479320655 0 -2.1398367479320655 0.18976089543615338 0 0 0 0 -848.83032190427184 -240.05109262992119 0 -240.05109262992119 -8.5821916088107173 0 0 0 0 67.792471040551391 -111.07844866076812 0 -111.07844866076812 -345.56533898857288 0 0 0 0 246.12632782617948 116.82380907180004 0 116.82380907180004 -75.132166689541236 0 0 0 0 -3.1714453349440106 -1.1737435202444786 0 -1.1737435202444786 -2.5570542103807696 0 0 0 0 -1108.5875610264975 -755.20146550366951 0 -755.20146550366951 -462.1417161851241 0 0 0 0 -527.16079843106854 -264.59745785637551 0 -264.59745785637551 -433.29684110684684 0 0 0 0 -1064.4529048994773 -723.87202544178103 0 -723.87202544178103 -583.55081463562146 0 0 0 0 -239.24978279260358 -344.15241569465866 0 -344.15241569465866 -379.08519046823767 0 0 0 0 -581.69146960974103 -258.6964851209791 0 -258.6964851209791 -186.53413956713757 0 0 0 0 -613.16722900713648 -89.885534861495671 0 -89.885534861495671 -24.09224398690111 0 0 0 0 -423.76756231262698 -125.74795569343473 0 -125.74795569343473 -54.771157295379453 0 0 0 0 -489.46357063990581 -321.52507215209334 0 -321.52507215209334 -176.92595086288702 0 0 0 0 -413.98178089101566 -204.60261676973994 0 -204.60261676973994 -76.089996465308104 0 0 0 0 0.32587589164774045 -2.2911753286547132 0 -2.2911753286547132 3.5620891856420691 0 0 0 0 -353.23534923089392 -113.42909591350883 0 -113.42909591350883 -105.29444080441863 0 0 0 0 -283.53560258909783 -165.0885364598239 0 -165.0885364598239 -86.763297886668624 0 0 0 0 -236.30572592938188 -104.0640428185875 0 -104.0640428185875 -99.479071637606694 0 0 0 0 -176.31233785762743 -141.46087229221212 0 -141.46087229221212 -110.24645465338654 0 0 0 0 -533.2442850911284 -217.73866597992469 0 -217.73866597992469 -3.855214262732261 0 0 0 0 -312.91687130887658 -188.27865868178242 0 -188.27865868178242 -153.09455750032271 0 0 0 0 -408.24935430323239 -235.41980869149211 0 -235.41980869149211 -86.670376610552012 0 0 0 0 -310.94958375991155 -98.638414000081013 0 -98.638414000081013 -47.529251074673084 0 0 0 0 -224.75072633489981 -104.12272400998953 0 -104.12272400998953 -72.515291486442948 0 0 0 0 -323.23815679109248 -148.56064519882511 0 -148.56064519882511 -51.573625543666822 0 0 0 0 -313.25696244498977 -72.401745212497644 0 -72.401745212497644 -15.039778275982826 0 0 0 0 -444.682527530691 -123.38758935455735 0 -123.38758935455735 -5.1719886514101745 0 0 0 0 -167.56979994965513 -122.82146632330478 0 -122.82146632330478 -115.70556272952217 0 0 0 0 35.103030287524234 -44.747774437998487 0 -44.747774437998487 -34.978076867354957 0 0 0 0 17.726495650262223 -80.7437674609846 0 -80.7437674609846 -107.37638323552301 0 0 0 0 -224.39976221736947 -111.36630885005975 0 -111.36630885005975 14.829243900310757 0 0 0 0 -107.26977695971436 -131.07343494267298 0 -131.07343494267298 -121.17533765956341 0 0 0 0 -193.34033744452972 -149.09160309216031 0 -149.09160309216031 -67.230185943694778 0 0 0 0 -194.75834006105288 -86.671562136287321 0 -86.671562136287321 -38.845545320353267 0 0 0 0 -141.81550080942634 -108.59349953706464 0 -108.59349953706464 3.9154594028359497 0 0 0 0 -142.9610727985978 -118.66818347549923 0 -118.66818347549923 -84.653611630150408 0 0 0 0 -219.79012362827234 -140.04532983443346 0 -140.04532983443346 -89.811155394369052 0 0 0 0 -306.53637960030028 -115.31152024060793 0 -115.31152024060793 -71.597858864127147 0 0 0 0 -273.92871327301509 -113.45916548106834 0 -113.45916548106834 -62.020747659620156 0 0 0 0 -157.4894812838902 -110.58467172307746 0 -110.58467172307746 -98.875035214544369 0 0 0 0 -119.966345233217 -107.08191975529735 0 -107.08191975529735 -57.720997968744996 0 0 0 0 -169.99710428743288 -63.603756385019892 0 -63.603756385019892 -35.612368978275299 0 0 0 0 -437.34133777093302 -162.6344377918922 0 -162.6344377918922 -68.869481954096045 0 0 0 0 -310.44183211554264 -198.25595397206325 0 -198.25595397206325 -125.09944343309417 0 0 0 0 -258.50989348336589 -141.28853777663016 0 -141.28853777663016 -114.65893807571808 0 0 0 0 -505.46957810017329 -280.51828183744198 0 -280.51828183744198 -39.668559349288444 0 0 0 0 0.58460884326524365 -3.3868181883054156 0 -3.3868181883054156 5.3455757854680872 0 0 0 0 -388.43006712057013 -231.6085036205186 0 -231.6085036205186 -95.58751796816432 0 0 0 0 -219.0072941253602 -147.22715418624102 0 -147.22715418624102 -139.04910491980445 0 0 0 0 -240.65285505437168 -167.24626967890276 0 -167.24626967890276 -44.292691035956523 0 0 0 0 -206.93365284296624 -134.96239091201673 0 -134.96239091201673 -42.892599403377972 0 0 0 0 -238.58319765721899 -352.10494259781035 0 -352.10494259781035 156.37767396163963 0 0 0 0 -71.770453597662708 -54.00920858270365 0 -54.00920858270365 -74.230078832594245 0 0 0 0 -171.45672220697816 -72.204475600418391 0 -72.204475600418391 -75.502219477044491 0 0 0 0 -158.84342542938066 -82.912937260504805 0 -82.912937260504805 -67.214590691157355 0 0 0 0 -76.602578474958136 -65.400185134662479 0 -65.400185134662479 -71.806097199173564 0 0 0 0 -69.860655347621446 -57.521841799865825 0 -57.521841799865825 -99.361962318290352 0 0 0 0 -75.251664050530962 -57.207093736229126 0 -57.207093736229126 -31.849552545666484 0 0 0 0 -29.735776403502314 -23.697489635306283 0 -23.697489635306283 -73.685995265918791 0 0 0 0 59.403263005879126 -72.719530377872616 0 -72.719530377872616 -45.154599240034258 0 0 0 0 -1.2501480481550971 -17.925878172022294 0 -17.925878172022294 -85.487780094484606 0 0 0 0 -15.86115441003858 -70.052228435718348 0 -70.052228435718348 -38.388677939268746 0 0 0 0 9.2475077383023745 -96.393405116800295 0 -96.393405116800295 44.832785422902816 0 0 0 0 130.95214541965106 -108.03387371483177 0 -108.03387371483177 -46.46303298620569 0 0 0 0 89.439627872852725 3.8948052605110206 0 3.8948052605110206 -124.59635631729972 0 0 0 0 148.37933664723096 -52.018843795592147 0 -52.018843795592147 -87.243347230686595 0 0 0 0 67.382296436771867 -51.18140450681949 0 -51.18140450681949 -54.680734319069416 0 0 0 0 90.812887735541153 -64.972890778600117 0 -64.972890778600117 -48.176739304752118 0 0 0 0 91.949738640049873 -68.610667615378247 0 -68.610667615378247 -41.278929708327269 0 0 0 0 66.306129849523131 -66.938396572031706 0 -66.938396572031706 -27.062360240974158 0 0 0 0 32.105916603752121 -47.366099180431775 0 -47.366099180431775 -41.995176915441334 0 0 0 0 54.740011539492116 -90.66536304559213 0 -90.66536304559213 -50.351821633656527 0 0 0 0 57.370700117629895 -60.648612660155777 0 -60.648612660155777 -15.305793478959458 0 0 0 0 79.468449281201174 -95.919283059182817 0 -95.919283059182817 -1.7905964904489338 0 0 0 0 89.646626667482451 -68.311237965717396 0 -68.311237965717396 28.036943431657164 0 0 0 0 61.71502670890186 -77.299661069318063 0 -77.299661069318063 1.9891603112646408 0 0 0 0 84.528465975879953 -78.967236509518443 0 -78.967236509518443 -23.936576218302434 0 0 0 0 84.098240473938858 -83.014714222746534 0 -83.014714222746534 -4.5386148091602081 0 0 0 0 92.918143552757101 -80.065077449828095 0 -80.065077449828095 -38.263157763721438 0 0 0 0 78.940248108272499 -103.11687697181878 0 -103.11687697181878 32.192784320075589 0 0 0 0 87.341006049849966 -75.655748642251638 0 -75.655748642251638 1.4932006430899492 0 0 0 0 78.802529083404806 -90.151501365227887 0 -90.151501365227887 8.8259288075660152 0 0 0 0 75.049467596327304 -71.795959319245412 0 -71.795959319245412 26.635353860334362 0 0 0 0 -26.170752721471217 -93.075415108542387 0 -93.075415108542387 -210.40023941120364 0 0 0 0 -10.857447874410681 -10.626343826630986 0 -10.626343826630986 -10.470201072570337 0 0 0 0 57.849231449195941 -113.05748566203511 0 -113.05748566203511 129.53856544699966 0 0 0 0 67.006417882135793 -66.533987409282872 0 -66.533987409282872 90.671818289914881 0 0 0 0 -13.752076816846966 103.59433566784361 0 103.59433566784361 159.1703178144565 0 0 0 0 120.19393738413055 -177.2653842147397 0 -177.2653842147397 108.02108185340637 0 0 0 0 59.516227453414103 -78.392394776679794 0 -78.392394776679794 50.999797920337187 0 0 0 0 131.65277826906822 -125.04466968805082 0 -125.04466968805082 33.611947685719883 0 0 0 0 186.81927258299402 -91.887618006896446 0 -91.887618006896446 40.53184353906272 0 0 0 0 1.5019769206337514 -38.453806836850617 0 -38.453806836850617 35.826315792895514 0 0 0 0 46.832201325807546 -100.20737492884155 0 -100.20737492884155 17.913905535928279 0 0 0 0 -69.300315779353696 -66.908646354383563 0 -66.908646354383563 -43.056110107968834 0 0 0 0 -62.134196449072078 -92.32106223906635 0 -92.32106223906635 0.38151165920316998 0 0 0 0 3.3561329293224844 -33.95788459182495 0 -33.95788459182495 -42.352832880145797 0 0 0 0 0.89787760952094686 -67.918167354734123 0 -67.918167354734123 -11.79363370943247 0 0 0 0 51.070103578576891 -47.749374222862798 0 -47.749374222862798 -9.9009486292661677 0 0 0 0 -19.767391852157743 -31.379078126460627 0 -31.379078126460627 -19.539819246474508 0 0 0 0 -12.467268886528473 -19.213984587369623 0 -19.213984587369623 -2.2169161477786474 0 0 0 0 -5.0259655329355155 -43.322301508008195 0 -43.322301508008195 -72.866651175534116 0 0 0 0 -19.00054206857385 -8.403536699828237 0 -8.403536699828237 14.235831693903492 0 0 0 0 -19.415486491576303 -19.006216313822733 0 -19.006216313822733 -0.43878017719316631 0 0 0 0 -17.0823925654513 -10.730734337584806 0 -10.730734337584806 7.6192370414210018 0 0 0 0 -12.606904744950953 -39.376306373695229 0 -39.376306373695229 0.84862875413818983 0 0 0 0 2.1053533829004181 -15.159941219944125 0 -15.159941219944125 12.521420104524212 0 0 0 0 -5.2793272358085233 -46.562653671991484 0 -46.562653671991484 19.94661775982604 0 0 0 0 -15.540316178297171 -22.369955218453793 0 -22.369955218453793 -14.158391319096431 0 0 0 0 16.824254006545516 -51.317883969475588 0 -51.317883969475588 -13.359854330322122 0 0 0 0 -6.7586522465392136 -55.183156052136667 0 -55.183156052136667 54.418579704237345 0 0 0 0 27.762825673843054 -66.568639498766515 0 -66.568639498766515 -7.8883707323648196 0 0 0 0 8.2304611145410718 -33.312889644045754 0 -33.312889644045754 16.562263703764074 0 0 0 0 25.679110102337098 -25.647439485296502 0 -25.647439485296502 -3.8117270114908024 0 0 0 0 119.24194648555022 -12.851220078679262 0 -12.851220078679262 -207.56132743848138 0 0 0 0 -17.76676161954822 -21.698081962761975 0 -21.698081962761975 71.689633972621778 0 0 0 0 24.61514153538883 33.619640302697462 0 33.619640302697462 19.694191133819004 0 0 0 0 15.338203742622227 -238.92456481189146 0 -238.92456481189146 -71.993520365530003 0 0 0 0 -125.76813347103234 -147.70681883486304 0 -147.70681883486304 -71.024861883468247 0 0 0 0 -8.8375592340889852 -72.906005672560241 0 -72.906005672560241 -4.5541236025437684 0 0 0 0 12.643876949563946 -71.419932005813735 0 -71.419932005813735 7.0706129950576724 0 0 0 0 -16.875996019626445 -38.4168064715426 0 -38.4168064715426 -3.7734410748170362 0 0 0 0 -128.76515322417981 -45.310490981298699 0 -45.310490981298699 7.7360209455237054 0 0 0 0 19.556737011506087 -11.542056823663039 0 -11.542056823663039 -6.4970389582008021 0 0 0 0 114.38007139053661 -66.71524768584095 0 -66.71524768584095 103.82481074587304 0 0 0 0 -9.0324546223200741 -46.419515874376884 0 -46.419515874376884 -38.005386321749029 0 0 0 0 0.70166992252416094 -65.976159178613671 0 -65.976159178613671 -13.118476064571951 0 0 0 0 -10.084166029402201 -27.149780441158541 0 -27.149780441158541 -22.811429003059743 0 0 0 0 -0.3610418568945879 -34.620675588029343 0 -34.620675588029343 -15.121970257594617 0 0 0 0 -39.523923702931597 -45.848558399819922 0 -45.848558399819922 1.4031334588603386 0 0 0 0 31.345725071893298 -43.176525806299907 0 -43.176525806299907 -30.10921843606593 0 0 0 0 19.581731699661759 -57.502408208717497 0 -57.502408208717497 -46.8523829634713 0 0 0 0 4.3048181342346652 -24.615872961847344 0 -24.615872961847344 -42.009895871791741 0 0 0 0 66.397952386199904 -45.092743241805692 0 -45.092743241805692 -38.448001125596875 0 0 0 0 26.924741393748263 -56.624589923127132 0 -56.624589923127132 -29.629469774001336 0 0 0 0 25.118562745527015 -62.70155808214713 0 -62.70155808214713 -17.888381341457261 0 0 0 0 38.624573217901343 -74.985733983960017 0 -74.985733983960017 -14.158264586551923 0 0 0 0 66.692848928782041 -68.688222902153939 0 -68.688222902153939 -26.313863883550766 0 0 0 0 38.024912429006235 -71.483460178832161 0 -71.483460178832161 -9.2596510329203738 0 0 0 0 57.990806163476009 -90.410309226248273 0 -90.410309226248273 22.451009504108697 0 0 0 0 25.781893969859084 -86.367189662931196 0 -86.367189662931196 25.015315504995669 0 0 0 0 16.540114274936059 -81.783290054795543 0 -81.783290054795543 20.249969764348862 0 0 0 0 -13.123253763867716 -20.055389303456575 0 -20.055389303456575 -16.171342555519519 0 0 0 0 63.124204800129519 -80.442166618223382 0 -80.442166618223382 -6.7741372337563917 0 0 0 0 -2.7230415478697978 -65.466559981382488 0 -65.466559981382488 11.441708840012325 0 0 0 0 -0.086338506014353555 -6.3533506461530571 0 -6.3533506461530571 1.7841336204436242 0 0 0 0 1.7317167251760495 -0.51458383677485031 0 -0.51458383677485031 -3.5541995921764915 0 0 0 0 45.958654233621473 -49.451393654630543 0 -49.451393654630543 -100.43276073064834 0 0 0 0 34.116468012889072 -1.9200861883183649 0 -1.9200861883183649 -0.7176951254011783 0 0 0 0 14.466529391578661 -68.990009192165303 0 -68.990009192165303 -35.828072637912271 0 0 0 0 46.12342228475427 -40.119166653723823 0 -40.119166653723823 30.888376701419702 0 0 0 0 -19.902288960526562 -37.732856557693005 0 -37.732856557693005 -9.75447505227703 0 0 0 0 47.613271412165886 -42.7329807432493 0 -42.7329807432493 12.261317969223455 0 0 0 0 -4.1178253521459407 -36.795696338256647 0 -36.795696338256647 3.0951358678922505 0 0 0 0 52.484182448697425 -21.776499526013851 0 -21.776499526013851 -27.697182176612994 0 0 0 0 2.3630707617451989 -39.846380343544006 0 -39.846380343544006 -16.745610134788656 0 0 0 0 73.783109011143097 -64.060205454339666 0 -64.060205454339666 24.452676447079284 0 0 0 0 -37.333193233840099 -57.9287064527756 0 -57.9287064527756 1.00871303358322 0 0 0 0 -67.113493840170122 -24.685266914559634 0 -24.685266914559634 8.8985139354519873 0 0 0 0 -36.907647987638484 -81.229540342786549 0 -81.229540342786549 -23.132259295320182 0 0 0 0 -76.968841604884801 -79.03729310188578 0 -79.03729310188578 -13.588604961872988 0 0 0 0 -44.649391757335252 -66.570796945326265 0 -66.570796945326265 -23.86812979261731 0 0 0 0 -35.443779826321133 -66.353624945899256 0 -66.353624945899256 -24.398638717438644 0 0 0 0 -53.787639616391971 -62.537338583928886 0 -62.537338583928886 -4.0192596903279991 0 0 0 0 -40.447201705623229 -50.97688827257798 0 -50.97688827257798 -8.0700824209832263 0 0 0 0 -43.722420060894365 -46.411491439615531 0 -46.411491439615531 2.3165619322054454 0 0 0 0 -44.597965404465867 -57.26959286602721 0 -57.26959286602721 -16.50957811249009 0 0 0 0 -50.416857700405671 -54.238079400690253 0 -54.238079400690253 -14.288902079376385 0 0 0 0 -45.082621305824432 -41.950090774774196 0 -41.950090774774196 -2.982662996042734 0 0 0 0 -80.716444921878065 -88.673202981969382 0 -88.673202981969382 -27.074880300279347 0 0 0 0 -41.422543817920086 -49.611761736440258 0 -49.611761736440258 -27.842153247414814 0 0 0 0 -90.383109567740576 -23.524610986883431 0 -23.524610986883431 -6.2440213752170166 0 0 0 0 -65.254510673679761 -69.420691784818018 0 -69.420691784818018 -23.100783556931674 0 0 0 0 -31.949319610656858 -22.243075344275724 0 -22.243075344275724 -6.5666538728205524 0 0 0 0 -37.688865394608001 -56.597158904045273 0 -56.597158904045273 -14.535718332437369 0 0 0 0 -49.855351543679717 -47.030081323976901 0 -47.030081323976901 -13.007764772894461 0 0 0 0 -59.411335935786155 -50.608675876309846 0 -50.608675876309846 -2.9656124362895468 0 0 0 0 -33.16292607053856 -52.494957094338645 0 -52.494957094338645 -40.676903173671803 0 0 0 0 -42.463338384770395 -48.794732051108369 0 -48.794732051108369 -4.4447519152081156 0 0 0 0 -38.261418044651691 -36.459771985264247 0 -36.459771985264247 5.9897450484770047 0 0 0 0 -32.924704029801433 -44.476364873429283 0 -44.476364873429283 -2.9119883215998215 0 0 0 0 -32.896396164435146 -44.386418407583143 0 -44.386418407583143 -5.1725812752995068 0 0 0 0 -25.288701844272509 -35.960325312577652 0 -35.960325312577652 -7.356649091629663 0 0 0 0 -30.694511694011453 -48.506101109435889 0 -48.506101109435889 -12.561898203386988 0 0 0 0 -22.319621636808733 -37.073287956616355 0 -37.073287956616355 -2.3113973417916895 0 0 0 0 -61.048129609052921 -70.607216198281549 0 -70.607216198281549 -12.988791795673023 0 0 0 0 -1.3552417624923692 -35.954749325634509 0 -35.954749325634509 -10.00774740925192 0 0 0 0 -13.576295669310364 -40.045905910220903 0 -40.045905910220903 -10.682887984506559 0 0 0 0 -0.37750830402603297 -34.252067034454583 0 -34.252067034454583 -4.2298595731045703 0 0 0 0 -16.724445440058844 -34.228603988357968 0 -34.228603988357968 -4.4078278521393202 0 0 0 0 26.448933239991675 -59.227848258820956 0 -59.227848258820956 -28.854423911232061 0 0 0 0 -54.473701452239766 -64.923109053202097 0 -64.923109053202097 5.1778145389998826 0 0 0 0 14.531864990568419 -122.80481486572457 0 -122.80481486572457 -130.96405633719834 0 0 0 0 -107.26079978403868 -167.69605263406402 0 -167.69605263406402 -12.486421771058758 0 0 0 0 -42.125785498714322 -99.283931414334887 0 -99.283931414334887 21.979100119056056 0 0 0 0 -70.437710563732253 -77.084809869694709 0 -77.084809869694709 6.4303141926618537 0 0 0 0 12.942815632668498 -30.849074808900241 0 -30.849074808900241 -136.29383851054627 0 0 0 0 -79.676616374232253 -80.374219509048544 0 -80.374219509048544 -7.735807520223716 0 0 0 0 -68.410723700337257 -68.685699597035182 0 -68.685699597035182 4.3086987643764587 0 0 0 0 -55.051516116312996 -87.806259570317252 0 -87.806259570317252 -5.9244136094453097 0 0 0 0 -4.8154683205648325 -51.766954692149739 0 -51.766954692149739 -7.0867434145993684 0 0 0 0 -4.5291287911150953 -5.048107069509161 0 -5.048107069509161 -3.3201607312380599 0 0 0 0 -14.492523162935413 -56.634852921904042 0 -56.634852921904042 -3.0372398702438659 0 0 0 0 -31.623781775146199 -59.739252497026428 0 -59.739252497026428 7.7087051539483582 0 0 0 0 -2.5377482553371635 -8.727797628428851 0 -8.727797628428851 -0.6198055990321043 0 0 0 0 -72.561711867607301 -53.50466161855195 0 -53.50466161855195 -38.393011773951002 0 0 0 0 38.581658976185281 -39.231527033091652 0 -39.231527033091652 -28.440587271205004 0 0 0 0 33.312256236432859 -41.172547542628052 0 -41.172547542628052 -28.492641539855413 0 0 0 0 62.985182686745247 -19.311397432064155 0 -19.311397432064155 -42.271066810508955 0 0 0 0 34.26616985228452 -8.0673047428008609 0 -8.0673047428008609 -44.386524294290666 0 0 0 0 -2.4338620422054538 -39.296290845882552 0 -39.296290845882552 -16.483480105000151 0 0 0 0 -155.55987009244473 -101.24717405776937 0 -101.24717405776937 -57.641078471877336 0 0 0 0 -34.255221430673686 -27.684987326387215 0 -27.684987326387215 -5.0284193722871073 0 0 0 0 4.6235400230694843 -35.3553267653608 0 -35.3553267653608 -28.267223750786268 0 0 0 0 -96.411936563995937 -56.77181616206957 0 -56.77181616206957 -49.614302681096888 0 0 0 0 -15.440263848749993 -10.268475485203389 0 -10.268475485203389 -6.5911241648646097 0 0 0 0 -78.560859006131068 -78.947233114326082 0 -78.947233114326082 -48.761873852750796 0 0 0 0 -66.378040061132197 -49.071267611610892 0 -49.071267611610892 -35.581606591596938 0 0 0 0 -64.234245197527343 -64.809570327994152 0 -64.809570327994152 -54.347748509719167 0 0 0 0 -55.610828851607948 -57.362438164296691 0 -57.362438164296691 -29.359651051507171 0 0 0 0 -40.850496666801519 -56.415992090609961 0 -56.415992090609961 -17.103249506616521 0 0 0 0 -39.655676885650138 -48.802007391776257 0 -48.802007391776257 -10.280034200838969 0 0 0 0 -11.550182630905873 -37.610570240149769 0 -37.610570240149769 -30.557829945259421 0 0 0 0 -18.42322549651908 -43.66678994655166 0 -43.66678994655166 -5.1221382517846905 0 0 0 0 -30.410764970485616 -50.429685742357833 0 -50.429685742357833 -39.527839170325024 0 0 0 0 -27.114006023672388 -30.15464608677874 0 -30.15464608677874 -12.537828518229505 0 0 0 0 -14.418784998014871 -15.477371618330835 0 -15.477371618330835 -25.258997868057122 0 0 0 0 -47.288627815632935 -57.33068126442231 0 -57.33068126442231 -6.1199682712326648 0 0 0 0 -63.375779651170319 -46.146502583065399 0 -46.146502583065399 -29.22183969260368 0 0 0 0 -82.003901927917468 -64.515880588985965 0 -64.515880588985965 -35.993428963794031 0 0 0 0 -49.248079900713492 -42.651578374091514 0 -42.651578374091514 -62.258191569006158 0 0 0 0 23.638661224300449 -43.818587114230468 0 -43.818587114230468 -18.55605083961018 0 0 0 0 -19.166348288231646 -30.305718046772281 0 -30.305718046772281 -12.61192161094267 0 0 0 0 -14.433871253099953 -36.71616919150452 0 -36.71616919150452 -26.440015227580062 0 0 0 0 28.402294578154397 -377.30642176594256 0 -377.30642176594256 -398.79306606808393 0 0 0 0 -2.9685250887469223 -3.7048767243106511 0 -3.7048767243106511 -3.8719108946682992 0 0 0 0 -19.716757281108585 157.35012512954529 0 157.35012512954529 -424.67622447328904 0 0 0 0 108.66927558352836 -156.41061917509387 0 -156.41061917509387 -430.86967852291991 0 0 0 0 -85.8712150997344 -317.52734332143564 0 -317.52734332143564 -110.10033674044598 0 0 0 0 -79.788079183840637 -176.87194901741964 0 -176.87194901741964 -59.480716088819463 0 0 0 0 -77.289336974401522 -151.21474927010877 0 -151.21474927010877 42.61448010057029 0 0 0 0 -65.4905112763754 -242.3735205233221 0 -242.3735205233221 162.02956703414111 0 0 0 0 -60.474693388379819 -160.00459407251856 0 -160.00459407251856 29.35257492976092 0 0 0 0 21.547340564016849 -49.334627590211312 0 -49.334627590211312 178.6733534255518 0 0 0 0 -17.22901206421011 -168.45951892482412 0 -168.45951892482412 85.002439624753606 0 0 0 0 267.36081404278957 84.311131203543709 0 84.311131203543709 -120.17189318223063 0 0 0 0 -125.34563142350817 -125.64397729560073 0 -125.64397729560073 86.528709871294268 0 0 0 0 -100.42619532141543 -82.00230912942061 0 -82.00230912942061 134.99804442354343 0 0 0 0 -93.401458599102625 -56.802818210912619 0 -56.802818210912619 98.697040202719563 0 0 0 0 -0.14074125395817561 -0.96329388417522566 0 -0.96329388417522566 3.2615924115503301 0 0 0 0 345.33260147206784 -83.848325644214242 0 -83.848325644214242 -103.13551816766267 0 0 0 0 271.46568458247293 57.124484147063185 0 57.124484147063185 -28.265290166728846 0 0 0 0 155.0982234559342 -87.607011928735119 0 -87.607011928735119 -67.583065372650708 0 0 0 0 212.76511377610586 -65.846704539487746 0 -65.846704539487746 -59.559170382641241 0 0 0 0 135.28824610052106 -9.9164177116117571 0 -9.9164177116117571 -38.634193803702146 0 0 0 0 51.539612046755792 21.392187391298648 0 21.392187391298648 -21.604051796087674 0 0 0 0 -46.779720533582804 -19.066470893285555 0 -19.066470893285555 17.557562000913094 0 0 0 0 -151.16823294342248 -2.236913837464158 0 -2.236913837464158 27.359133904919872 0 0 0 0 291.07359478435865 -167.09040681744227 0 -167.09040681744227 -73.372918726865464 0 0 0 0 133.37800775141659 -163.63970207431839 0 -163.63970207431839 -44.981081699866536 0 0 0 0 79.374181848666922 -59.763759655856347 0 -59.763759655856347 -158.81512342562382 0 0 0 0 -35.367840732891636 -158.69001995400231 0 -158.69001995400231 234.52774912843438 0 0 0 0 50.947515780633694 -218.86735540294012 0 -218.86735540294012 -80.020903052392441 0 0 0 0 85.283873441871037 -129.13618296125583 0 -129.13618296125583 89.391317357609296 0 0 0 0 59.165560857916716 -47.442426117227569 0 -47.442426117227569 116.44768364113907 0 0 0 0 14.628979359229561 -26.151174648576216 0 -26.151174648576216 -0.69567221173383587 0 0 0 0 36.345916691927414 -41.773202564043459 0 -41.773202564043459 -9.3128456319973338 0 0 0 0 4.6878142612943989 -14.046389777556442 0 -14.046389777556442 -4.7741262851676751 0 0 0 0 -16.37226557844906 -42.216651089600646 0 -42.216651089600646 2.6300973464567505 0 0 0 0 36.189135802706005 -42.247870082985173 0 -42.247870082985173 -5.0452715674846331 0 0 0 0 33.914105443865992 -28.664060517618964 0 -28.664060517618964 4.9244652043662427 0 0 0 0 34.603876342107469 -30.290159175844792 0 -30.290159175844792 -5.2328114845713571 0 0 0 0 52.241138414043235 -26.462330894459228 0 -26.462330894459228 -8.0348780314216128 0 0 0 0 85.334573824578911 -113.47925076723561 0 -113.47925076723561 -18.095382581635931 0 0 0 0 76.492606291212724 -54.973339782858602 0 -54.973339782858602 22.075144821239974 0 0 0 0 56.962707582533767 -21.637825036815002 0 -21.637825036815002 9.2662804146166309 0 0 0 0 -0.14518973196713603 0.27224453284716787 0 0.27224453284716787 0.069451079427041984 0 0 0 0 12.638514719921659 -58.445238689122561 0 -58.445238689122561 -113.34765310824463 0 0 0 0 41.201282674823233 -24.844562726387267 0 -24.844562726387267 -70.581312944733554 0 0 0 0 13.807857781815983 32.634150355302381 0 32.634150355302381 -37.731329261477185 0 0 0 0 -11.078839647689165 -72.488506718288249 0 -72.488506718288249 -209.00655414656092 0 0 0 0 -1.3071802771752346 -1.2511311300316557 0 -1.2511311300316557 -3.1775353659643293 0 0 0 0 -18.447973726152668 -32.871823131293326 0 -32.871823131293326 -30.025454366147187 0 0 0 0 -54.021219238322374 -28.858293110019417 0 -28.858293110019417 -157.51592872270771 0 0 0 0 -1.7317232430876075 -10.354650269077597 0 -10.354650269077597 -1.6499193876253002 0 0 0 0 -48.373968051637348 -92.949306479826873 0 -92.949306479826873 -300.52546372969141 0 0 0 0 10.551325126443729 -6.7634730048800344 0 -6.7634730048800344 -2.5915229266464541 0 0 0 0 10.713331060993369 -19.622169284930465 0 -19.622169284930465 -281.41547078288977 0 0 0 0 -16.58118939369659 -5.8237064332300452 0 -5.8237064332300452 -0.31663221972569877 0 0 0 0 -236.60466244112649 -12.391748471263782 0 -12.391748471263782 723.06548975827354 0 0 0 0 -38.878390915429009 -145.9883149606095 0 -145.9883149606095 105.26140412148061 0 0 0 0 103.77758502389042 -164.73412842515495 0 -164.73412842515495 107.53988999681133 0 0 0 0 -192.88100594857679 150.90077789467227 0 150.90077789467227 971.25150519484146 0 0 0 0 -149.89761998002359 -45.084641658406326 0 -45.084641658406326 -232.4274686759652 0 0 0 0 4.0699713309193442 0.079239829663888095 0 0.079239829663888095 0.22954212216646019 0 0 0 0 -487.59248537389067 -22.09635166543444 0 -22.09635166543444 247.25581012815792 0 0 0 0 116.28485732312038 -125.83957875248416 0 -125.83957875248416 258.01327722914402 0 0 0 0 -150.79112971284485 113.03442237854745 0 113.03442237854745 91.46627087839795 0 0 0 0 106.00202848941262 -148.82046379700421 0 -148.82046379700421 0.59214345963181358 0 0 0 0 152.43448433914455 193.41935966067831 0 193.41935966067831 -141.60845419060081 0 0 0 0 -18.150468006614403 -20.488291145973388 0 -20.488291145973388 -480.94971450454932 0 0 0 0 -20.470724289697898 -142.0094893967925 0 -142.0094893967925 -808.85918688373454 0 0 0 0 -293.54449301465502 -529.71126685205877 0 -529.71126685205877 -686.6206884118285 0 0 0 0 -126.10842173346828 -242.17939933034074 0 -242.17939933034074 -291.53424922004319 0 0 0 0 -206.79436052404708 -365.84130374619036 0 -365.84130374619036 -410.49157503778906 0 0 0 0 -1.1450538616996653 0.53657569390954762 0 0.53657569390954762 -1.479043983407716 0 0 0 0 -183.85273207927276 -208.77638310478011 0 -208.77638310478011 -196.49283111103455 0 0 0 0 -243.16098437694018 -289.10165553907939 0 -289.10165553907939 -269.34848503116109 0 0 0 0 -217.40431684240116 -146.08840991584765 0 -146.08840991584765 -212.58121818195787 0 0 0 0 -66.763273958640639 -145.84872078023193 0 -145.84872078023193 -261.89007305248515 0 0 0 0 -51.171495773058268 -135.06398433088816 0 -135.06398433088816 -323.50673257799451 0 0 0 0 -171.19397840042438 -171.31582709278484 0 -171.31582709278484 -253.64317102928135 0 0 0 0 -28.806495473479117 -60.850195702934656 0 -60.850195702934656 -215.27613891699366 0 0 0 0 -67.958159345525928 -152.5527206778886 0 -152.5527206778886 -214.5648088017191 0 0 0 0 10.009174168608297 -96.984782442655472 0 -96.984782442655472 -88.569321475422385 0 0 0 0 4.2024363880191231 -120.76822381373859 0 -120.76822381373859 -182.9153849517258 0 0 0 0 1.0255332296283086 -39.194936893106387 0 -39.194936893106387 -143.98546664375499 0 0 0 0 -55.010524726738367 -180.48813991204406 0 -180.48813991204406 -257.91362992545658 0 0 0 0 -41.788211627270357 -220.32117458350172 0 -220.32117458350172 -178.39150989554417 0 0 0 0 -28.430072827324693 -103.11208841749055 0 -103.11208841749055 -173.27356788759153 0 0 0 0 -33.582299919597062 -182.52940695831126 0 -182.52940695831126 -89.146283966083047 0 0 0 0 -38.966849066415762 -168.32449847597454 0 -168.32449847597454 -62.607640752421503 0 0 0 0 -57.380954480970104 -235.73949219533415 0 -235.73949219533415 -54.595998427851441 0 0 0 0 -72.120304894719084 -272.03607220954552 0 -272.03607220954552 -140.50635274985098 0 0 0 0 -95.364126423930429 -209.57603222990588 0 -209.57603222990588 -2.8428309546552555 0 0 0 0 -51.705788423716513 -157.78910889568078 0 -157.78910889568078 -9.7361097666444039 0 0 0 0 -210.99795470121535 -193.18569654281873 0 -193.18569654281873 194.92006887858741 0 0 0 0 -166.34194276367884 -76.982375476872875 0 -76.982375476872875 -105.11159800350356 0 0 0 0 -58.334033732990065 -197.68256723248749 0 -197.68256723248749 -15.357515255241424 0 0 0 0 -210.23059841787835 -280.17868125861355 0 -280.17868125861355 -58.41172493780914 0 0 0 0 -10.121436622349304 -31.484347802960762 0 -31.484347802960762 -22.376336535635474 0 0 0 0 27.118232857559633 -39.04763327701221 0 -39.04763327701221 -15.058748272753292 0 0 0 0 -11.826723662893809 -28.805021709551767 0 -28.805021709551767 -27.254863173526317 0 0 0 0 41.736242209563898 -24.595524623028723 0 -24.595524623028723 -21.466234992003592 0 0 0 0 38.952996108001571 -64.722769950228667 0 -64.722769950228667 -61.041205072971934 0 0 0 0 -41.791370937720785 3.0419516219444631 0 3.0419516219444631 -35.030530256113707 0 0 0 0 -121.70733304329769 -10.092411139286924 0 -10.092411139286924 19.254128502599087 0 0 0 0 0.83629508475166858 -0.72391460565578747 0 -0.72391460565578747 -1.9462302581053308 0 0 0 0 -88.440711042898329 -99.172962838867079 0 -99.172962838867079 -46.522392860482796 0 0 0 0 -11.316454442009892 2.0290823087208416 0 2.0290823087208416 14.004844180331794 0 0 0 0 -61.838638729735976 -66.983963246174426 0 -66.983963246174426 -17.970573188620847 0 0 0 0 -65.77886306316941 -17.705145310965236 0 -17.705145310965236 -13.415541788930568 0 0 0 0 -201.13464756327721 -110.05325480868942 0 -110.05325480868942 -24.515960349108354 0 0 0 0 -4.5478223404173406 -81.388659253584279 0 -81.388659253584279 -62.938928470638771 0 0 0 0 55.471078367210794 -123.15663074006454 0 -123.15663074006454 -83.678277260390814 0 0 0 0 -149.90291531673665 -118.73421841934839 0 -118.73421841934839 -43.396160016687645 0 0 0 0 -191.41883314401275 -86.486744221841946 0 -86.486744221841946 -50.023116115040125 0 0 0 0 -224.81656840673895 -89.824161952201393 0 -89.824161952201393 -50.038387974847865 0 0 0 0 2.2533897068467423 -79.942001223577947 0 -79.942001223577947 -48.981430594656146 0 0 0 0 -102.65027180263496 -76.942586967905299 0 -76.942586967905299 -23.822740765950584 0 0 0 0 117.12870442858161 -79.240945031736587 0 -79.240945031736587 -101.34154579196547 0 0 0 0 -30.181810986113177 -0.14852524525027988 0 -0.14852524525027988 3.8038066177285472 0 0 0 0 47.324447542188864 -85.12688376035544 0 -85.12688376035544 -35.275798833214168 0 0 0 0 48.106394929927774 -62.41010966424426 0 -62.41010966424426 -135.26924857332256 0 0 0 0 32.146479205484866 -109.42109177880491 0 -109.42109177880491 -37.724093875623566 0 0 0 0 32.181082577199049 -130.70204659421199 0 -130.70204659421199 -138.48090151694851 0 0 0 0 -18.976140564976504 -105.56886175226012 0 -105.56886175226012 -65.551447060871396 0 0 0 0 -13.700981984715327 -133.08695085596764 0 -133.08695085596764 -15.490250486224795 0 0 0 0 -151.49702022038036 -361.72665176131022 0 -361.72665176131022 -99.425176953795471 0 0 0 0 -123.10926640212529 -258.18480271283443 0 -258.18480271283443 95.992233255958126 0 0 0 0 -274.28798057231324 526.77656610344798 0 526.77656610344798 299.00681407937464 0 0 0 0 -34.90854838919433 -25.141217091701936 0 -25.141217091701936 -16.112202193364165 0 0 0 0 -1.9297388649999054 -83.69059322494428 0 -83.69059322494428 -75.920488403710806 0 0 0 0 -119.98767902738109 -160.26460371598978 0 -160.26460371598978 -86.015354970117869 0 0 0 0 -3.0509919845389959 -121.76487076768171 0 -121.76487076768171 -151.85330015915497 0 0 0 0 -128.89667407310208 -141.20362461440345 0 -141.20362461440345 -53.203764532619971 0 0 0 0 -211.10055837202162 -126.97463750510542 0 -126.97463750510542 -22.815025313248043 0 0 0 0 -215.95016178612423 -96.371078167854648 0 -96.371078167854648 -34.643265834476551 0 0 0 0 -464.34607356189736 -176.18236824016458 0 -176.18236824016458 -29.537293650613719 0 0 0 0 -1.3522118813493158 -5.8341081570527749 0 -5.8341081570527749 1.2759029474786416 0 0 0 0 -117.24961007084494 -164.31246556902988 0 -164.31246556902988 -241.52247921733942 0 0 0 0 -41.032986375944347 -110.248293205148 0 -110.248293205148 -155.00589739224233 0 0 0 0 24.987849744444247 -38.938946979316825 0 -38.938946979316825 -8.3391952360980213 0 0 0 0 11.568206252624783 -22.132665168220683 0 -22.132665168220683 4.521139210877152 0 0 0 0 15.982849762541264 -30.411097294022511 0 -30.411097294022511 -7.258470473527268 0 0 0 0 23.382244211276884 56.63643886814998 0 56.63643886814998 -538.99359786728019 0 0 0 0 -2.0812742577260508 -9.0741477216892577 0 -9.0741477216892577 -4.2881885163282192 0 0 0 0 119.14306136572122 -424.13734556874988 0 -424.13734556874988 -593.54685679912745 0 0 0 0 -12.568398136902942 -16.301956641781544 0 -16.301956641781544 -171.49878342053853 0 0 0 0 -321.79698387187455 -120.40290995486612 0 -120.40290995486612 -67.217653985278957 0 0 0 0 -920.97822103859289 230.52032468546531 0 230.52032468546531 234.61940280191266 0 0 0 0 92.326374190517527 -388.72183302994927 0 -388.72183302994927 3.3499975686936523 0 0 0 0 -321.99334595664124 -146.34844914331126 0 -146.34844914331126 -25.85825720057619 0 0 0 0 6.2206560872386731 -3.4198377397521682 0 -3.4198377397521682 6.6311110129846185 0 0 0 0 -901.90866141741571 609.44566660687997 0 609.44566660687997 -1386.9671757410251 0 0 0 0 -1052.7281255975358 -632.95671028395691 0 -632.95671028395691 1320.0769682634273 0 0 0 0 -290.25426696171053 -167.79605981543136 0 -167.79605981543136 -31.223109504840977 0 0 0 0 -74.168471110577229 -188.05768364980941 0 -188.05768364980941 -151.4385508705891 0 0 0 0 -202.56855054198604 -74.46880214407247 0 -74.46880214407247 -16.9087537697269 0 0 0 0 158.08375733125331 -205.07986317435672 0 -205.07986317435672 -245.77953942048043 0 0 0 0 -14.682202662168393 -30.19957715991643 0 -30.19957715991643 -0.088926386938808832 0 0 0 0 85.203280863918678 -35.606913912043467 0 -35.606913912043467 -76.198639307367557 0 0 0 0 0.062507344578438095 -73.008538883430106 0 -73.008538883430106 -94.872979462652879 0 0 0 0 30.61676567565155 -153.27302279999799 0 -153.27302279999799 -527.63795673481809 0 0 0 0 -337.74906783442566 -693.26330709639524 0 -693.26330709639524 -514.9891725172447 0 0 0 0 -340.68301906644751 28.102704257003907 0 28.102704257003907 7.8524991251888423 0 0 0 0 -4.6214270025504547 -3.2480041348090332 0 -3.2480041348090332 -1.9766911153176281 0 0 0 0 -93.511387319800633 28.601969081317748 0 28.601969081317748 5.233616798537696 0 0 0 0 -178.7113773872934 -55.125520170567142 0 -55.125520170567142 18.451453733881863 0 0 0 0 -74.13087838053616 -47.274808287850647 0 -47.274808287850647 18.721382400342378 0 0 0 0 -88.863910987176496 -83.002494984359146 0 -83.002494984359146 -32.837023663994842 0 0 0 0 -9.4607664966479206 -82.730718868462645 0 -82.730718868462645 -54.041666333327157 0 0 0 0 -9.685220415245567 -78.767017416350427 0 -78.767017416350427 -85.962407076682211 0 0 0 0 -16.934764805370179 -13.860930802098824 0 -13.860930802098824 -11.445423168245881 0 0 0 0 235.2556776460915 6.7786197669229296 0 6.7786197669229296 35.672533890727209 0 0 0 0 -22.08533856830951 -11.864699209184248 0 -11.864699209184248 6.2009432674648366 0 0 0 0 -3.808132912759902 -36.760280714290275 0 -36.760280714290275 -15.483035234941781 0 0 0 0 13.996861532326875 -78.594042686698231 0 -78.594042686698231 -90.717607482947642 0 0 0 0 50.489355737125152 -148.72261971196349 0 -148.72261971196349 37.323348503497982 0 0 0 0 -41.108155942598387 -137.39986967396908 0 -137.39986967396908 -45.276205399131868 0 0 0 0 1.7464403115731293 -69.154328890055979 0 -69.154328890055979 -70.337185339587052 0 0 0 0 129.90919061582281 -66.464397961513896 0 -66.464397961513896 -164.25062302323931 0 0 0 0 155.68749055650505 -120.47454212322373 0 -120.47454212322373 -138.64070203115989 0 0 0 0 -69.61595946050511 -7.1916859597658913 0 -7.1916859597658913 -57.989675587585225 0 0 0 0 -249.88890705440735 -308.21422122120566 0 -308.21422122120566 -150.6167794117282 0 0 0 0 -42.919270575500377 -164.50027571120017 0 -164.50027571120017 -161.37368108895316 0 0 0 0 -103.77101104907251 -193.05546601170499 0 -193.05546601170499 -254.28471252419695 0 0 0 0 -124.9585720883988 -156.15564802852532 0 -156.15564802852532 -91.18939098368719 0 0 0 0 -41.798902745336818 -125.80411395889314 0 -125.80411395889314 -160.45363351912965 0 0 0 0 -143.67957630410092 -91.610990397688511 0 -91.610990397688511 -147.84336528920539 0 0 0 0 -138.60057618331848 -114.6373616047731 0 -114.6373616047731 -43.843905817771883 0 0 0 0 0.30211342441180022 -66.032007861547754 0 -66.032007861547754 -67.91332861966066 0 0 0 0 -67.170381489631836 -133.54294545083758 0 -133.54294545083758 -58.878316961614473 0 0 0 0 -0.35921476892532667 -1.6064308992865239 0 -1.6064308992865239 2.4920192629037956 0 0 0 0 -287.40624930134254 -254.64330482422611 0 -254.64330482422611 -91.225771263376373 0 0 0 0 252.56414727511947 -169.92791964189928 0 -169.92791964189928 118.47779830067611 0 0 0 0 19.328889461918152 -368.51268514202638 0 -368.51268514202638 27.577259328376385 0 0 0 0 -67.814721438851848 -150.23462940283525 0 -150.23462940283525 -179.03969201741484 0 0 0 0 -209.51680114756027 -6.4731205495033919 0 -6.4731205495033919 -45.037499791171285 0 0 0 0 2.840885048975835 -1.2142023480457631 0 -1.2142023480457631 1.2921635835969232 0 0 0 0 -17.565141577219038 54.320842930356548 0 54.320842930356548 232.41498122755365 0 0 0 0 -26.956388975755544 -95.090922677901062 0 -95.090922677901062 -33.649292682653879 0 0 0 0 -77.65227479312307 -79.460259020936576 0 -79.460259020936576 23.97073132843343 0 0 0 0 -21.767061451988411 -84.065585263462367 0 -84.065585263462367 -10.3251048473021 0 0 0 0 36.801650382605658 -104.14953258581841 0 -104.14953258581841 -137.66839146239147 0 0 0 0 -24.903493094680925 -31.36913708182783 0 -31.36913708182783 -11.098346854544616 0 0 0 0 0.94246417413523886 -46.40805242934448 0 -46.40805242934448 -43.423807161404284 0 0 0 0 -7.5496732908999746 -11.687365773998225 0 -11.687365773998225 -6.0756685050733275 0 0 0 0 -20.247992202144815 31.243458938528875 0 31.243458938528875 -25.418636968005558 0 0 0 0 5.5268824793755016 -7.874091106664924 0 -7.874091106664924 1.5600339545548092 0 0 0 0 -18.703705258774789 -17.356238857737253 0 -17.356238857737253 44.591095557288781 0 0 0 0 -2.7926790996025375 -7.9497082845791738 0 -7.9497082845791738 -79.960217057585396 0 0 0 0 -6.7718214796768734 -95.848347880582878 0 -95.848347880582878 -42.214254789112601 0 0 0 0 -6.3789120320761583 -10.96630192191985 0 -10.96630192191985 -6.8860946879355431 0 0 0 0 7.8172219221092121 -7.4819371102749699 0 -7.4819371102749699 -1.3145039907398655 0 0 0 0 -2.3762582113413373 -11.380386077944422 0 -11.380386077944422 -82.979452441761168 0 0 0 0 -68.654858209351232 -30.072065245372414 0 -30.072065245372414 -10.321876510581205 0 0 0 0 26.28139788712906 10.256697820829231 0 10.256697820829231 -178.23352623106075 0 0 0 0 46.488837472534215 -31.138353879620809 0 -31.138353879620809 -93.448191844806843 0 0 0 0 -5.4883950618677773 22.916642019798928 0 22.916642019798928 -77.794929194194879 0 0 0 0 -685.01693460099159 -146.71771621526932 0 -146.71771621526932 53.754185789798612 0 0 0 0 -36.871400359098516 122.38346019844653 0 122.38346019844653 -385.42215796111304 0 0 0 0 -4.2515412699940782 -2.9913853320532722 0 -2.9913853320532722 -2.868940068307321 0 0 0 0 -124.97953113472977 -27.502078989768052 0 -27.502078989768052 37.583577545301523 0 0 0 0 -476.24231619777856 -265.97561571023653 0 -265.97561571023653 -56.192236420127301 0 0 0 0 -549.49432714663908 -225.44530615414283 0 -225.44530615414283 30.48515005545778 0 0 0 0 -490.55936104637021 -363.08528466412872 0 -363.08528466412872 -245.59934181836434 0 0 0 0 -251.95008360443353 -87.446645598735358 0 -87.446645598735358 70.749574592753561 0 0 0 0 119.50642709305248 -69.236149918321644 0 -69.236149918321644 -185.86937548965489 0 0 0 0 116.93945916172015 -101.42957187376578 0 -101.42957187376578 22.553040241353301 0 0 0 0 -3.5492227151716307 -5.95019271241223 0 -5.95019271241223 -7.0136937791385527 0 0 0 0 25.44925282528402 -30.811808776389626 0 -30.811808776389626 22.939316655906623 0 0 0 0 5.3089070671521768 -96.158580059719952 0 -96.158580059719952 57.481593479748426 0 0 0 0 39.441498116713205 -9.1274907770052494 0 -9.1274907770052494 -3.7355433065386023 0 0 0 0 165.02526881308404 -35.484200236025799 0 -35.484200236025799 -59.282737234386332 0 0 0 0 -2.3948741562045939 -3.1155357349030375 0 -3.1155357349030375 -2.3135676939153882 0 0 0 0 -107.31516336641653 -260.65040605913782 0 -260.65040605913782 -164.47759007574479 0 0 0 0 44.87877133636357 -140.04054615177347 0 -140.04054615177347 -147.01310594184906 0 0 0 0 2.8111567087908043 -113.88186251300772 0 -113.88186251300772 -20.593370444675202 0 0 0 0 -96.909730492609015 -124.772624231181 0 -124.772624231181 -16.136219561622511 0 0 0 0 -234.39343840300535 -148.70291582965615 0 -148.70291582965615 37.639305101281025 0 0 0 0 -329.58184953331511 -323.91854360272794 0 -323.91854360272794 64.478132326162267 0 0 0 0 -39.913885419777216 -36.578332666657957 0 -36.578332666657957 3.0717035683010181 0 0 0 0 -24.534187024657513 -46.759459891575261 0 -46.759459891575261 -3.5237308595624199 0 0 0 0 -55.560127655620818 -52.80157063675415 0 -52.80157063675415 0.13799471532729513 0 0 0 0 -32.45377157877374 -74.102660874685625 0 -74.102660874685625 -51.310871549904277 0 0 0 0 -15.702830773234382 -23.734008773576534 0 -23.734008773576534 4.7701577002690101 0 0 0 0 -47.446811244102719 -51.085026253394517 0 -51.085026253394517 -10.314911851398847 0 0 0 0 -31.462034925126318 -24.487874864429386 0 -24.487874864429386 16.786866980580271 0 0 0 0 -18.9028497062219 -14.991638482796176 0 -14.991638482796176 23.097278912779984 0 0 0 0 -15.715586932758015 -42.15044457820386 0 -42.15044457820386 24.96276508279243 0 0 0 0 23.609131405719381 -55.184989708569447 0 -55.184989708569447 38.399058887206138 0 0 0 0 -46.175599516387592 -33.319299817134834 0 -33.319299817134834 28.393196636775087 0 0 0 0 9.3204939741758501 -16.92379428437993 0 -16.92379428437993 18.261647934647737 0 0 0 0 -19.177299600723927 -44.881158589202641 0 -44.881158589202641 7.1174149456446685 0 0 0 0 -5.1638120412590069 -39.03223812367105 0 -39.03223812367105 9.5460238105461031 0 0 0 0 12.64807331504926 -26.836184232701271 0 -26.836184232701271 -4.0604460364784245 0 0 0 0 -30.488212131391265 -16.632589994785803 0 -16.632589994785803 41.266120414595207 0 0 0 0 10.004936705509891 -17.442216139351213 0 -17.442216139351213 20.545805368542979 0 0 0 0 -20.68143307687933 -51.462446405811534 0 -51.462446405811534 4.0752231032870441 0 0 0 0 -19.153354969610518 -55.588669823173404 0 -55.588669823173404 -14.83100787434887 0 0 0 0 -6.8001171628602606 -50.496487365401094 0 -50.496487365401094 -15.151202994820778 0 0 0 0 -10.698568749554397 -47.993165433854301 0 -47.993165433854301 -13.264634763088907 0 0 0 0 -10.657655525411428 -50.370719896611945 0 -50.370719896611945 -57.060764373367419 0 0 0 0 -28.964027149700996 -63.507747881634714 0 -63.507747881634714 -17.880870795514056 0 0 0 0 2.4089489487626992 -0.61711445863318204 0 -0.61711445863318204 -0.23134879258874275 0 0 0 0 26.081456519834319 -51.444522562127531 0 -51.444522562127531 128.86048560312236 0 0 0 0 -2.950090741393069 -35.400920923514605 0 -35.400920923514605 -58.448328576836502 0 0 0 0 100.56628513839678 -25.655687829141243 0 -25.655687829141243 60.69104780696216 0 0 0 0 -20.690803410288936 -32.914037069920596 0 -32.914037069920596 -51.029254468093313 0 0 0 0 6.1722609514617943 -20.201326858466928 0 -20.201326858466928 -37.351535380820678 0 0 0 0 -13.350514462763385 -39.000364061292203 0 -39.000364061292203 62.377509888923214 0 0 0 0 8.0159392958566968 -2.5098523746239607 0 -2.5098523746239607 68.9023115893051 0 0 0 0 7.996033621206152 -33.758078180027496 0 -33.758078180027496 4.8224347098293947 0 0 0 0 30.36865289851994 -29.348227771991333 0 -29.348227771991333 -28.940058631833381 0 0 0 0 -0.55887480163536196 -4.9426841325214461 0 -4.9426841325214461 -7.1163669174282553 0 0 0 0 57.307293160738482 20.963020450899421 0 20.963020450899421 61.99054447193339 0 0 0 0 -0.21172497587956229 -3.0276870637199966 0 -3.0276870637199966 6.1275800870124257 0 0 0 0 -11.283230337434361 -42.777082521152352 0 -42.777082521152352 -16.414185243110978 0 0 0 0 4.6545426259186797 -4.8625171340876356 0 -4.8625171340876356 4.800168959567543 0 0 0 0 1.8433436931190954 -24.351333033002447 0 -24.351333033002447 10.539176246427814 0 0 0 0 -1.8212122333679872 -26.613961390973827 0 -26.613961390973827 42.487094787282331 0 0 0 0 -0.29374878836097196 -25.575361403958595 0 -25.575361403958595 40.483539178971114 0 0 0 0 7.881254728087697 -21.188733581650354 0 -21.188733581650354 7.65839961900042 0 0 0 0 8.5312598347358382 -16.755237532742022 0 -16.755237532742022 19.78463275209187 0 0 0 0 -23.545233850934665 -39.582878630369606 0 -39.582878630369606 47.34729459713526 0 0 0 0 -3.3458260371571669 -43.271054649213283 0 -43.271054649213283 -47.85194338009488 0 0 0 0 0.2045651835135871 -2.8723291018899308 0 -2.8723291018899308 2.4152398009911105 0 0 0 0 -29.129731525837997 -39.628340847094705 0 -39.628340847094705 -18.211805971731337 0 0 0 0 -0.63865942902975803 -26.498760221982479 0 -26.498760221982479 2.2038235135646573 0 0 0 0 6.763316924544025 -11.980286562486786 0 -11.980286562486786 -8.8797821928368688 0 0 0 0 -6.815839618922837 -27.070401757698733 0 -27.070401757698733 -7.4801929687691882 0 0 0 0 9.4694345095849712 -22.679645781052614 0 -22.679645781052614 -58.466253049278407 0 0 0 0 1.3801122352883297 -3.87754102836952 0 -3.87754102836952 -4.5778812569628045 0 0 0 0 -8.6127251873567729 -36.739289953713524 0 -36.739289953713524 -31.587625016474931 0 0 0 0 -14.03524167683463 -29.097350421856731 0 -29.097350421856731 -13.117248170060066 0 0 0 0 -26.059173673442274 -37.53166342050622 0 -37.53166342050622 -18.812341013715923 0 0 0 0 -10.669694296808302 -24.719758557546527 0 -24.719758557546527 -16.056380460778541 0 0 0 0 -1.7737377497865623 -18.838843835968774 0 -18.838843835968774 -0.7438813853546643 0 0 0 0 -8.6346099145639528 -2.088301901899996 0 -2.088301901899996 -42.867908674747923 0 0 0 0 -2.6146031190973211 -8.6713547633906565 0 -8.6713547633906565 2.5934460499727474 0 0 0 0 -19.938383298314875 -53.755667735829775 0 -53.755667735829775 -50.648991106545338 0 0 0 0 5.2903932904446265 -13.187629052135492 0 -13.187629052135492 -35.412370677000126 0 0 0 0 1.4250073722905654 -12.886816445570275 0 -12.886816445570275 -32.562836549404437 0 0 0 0 3.7812028633716608 -9.6004258946413419 0 -9.6004258946413419 -7.968111588226777 0 0 0 0 4.9160583516898058 -21.039856479083443 0 -21.039856479083443 0.40699746326516062 0 0 0 0 6.0079606398649048 -17.249505622533889 0 -17.249505622533889 -24.339559820848237 0 0 0 0 5.5804175386465431 -15.790812595794662 0 -15.790812595794662 -21.466332903620696 0 0 0 0 3.9339171569736209 -17.693395943047562 0 -17.693395943047562 -18.479968075608213 0 0 0 0 4.2313369944349688 -18.791137677916879 0 -18.791137677916879 -21.922602178284251 0 0 0 0 3.0650691776536405 -19.733039259235056 0 -19.733039259235056 -61.875596737628257 0 0 0 0 -0.9683721243397585 -12.491616780933231 0 -12.491616780933231 -5.4101233319560151 0 0 0 0 14.915122374295606 -10.013652048337917 0 -10.013652048337917 -47.912218969705464 0 0 0 0 4.9412865484719646 -11.002229151148196 0 -11.002229151148196 -18.156323889504637 0 0 0 0 11.529556996682004 -13.35936022591568 0 -13.35936022591568 -29.216733229940928 0 0 0 0 -27.441598624653125 -13.815238471479461 0 -13.815238471479461 -3.7538884340992809 0 0 0 0 5.4754368761881551 0.52258016665470208 0 0.52258016665470208 -4.9766003627428272 0 0 0 0 -24.533293762392532 -3.1637979789983319 0 -3.1637979789983319 -11.098544245545781 0 0 0 0 -17.63969550607726 -33.972709610464335 0 -33.972709610464335 1.8922218576734622 0 0 0 0 -2.6059337552636439 -11.357019485211811 0 -11.357019485211811 -15.014513027945767 0 0 0 0 10.187125896945872 -14.756733080513868 0 -14.756733080513868 -13.087840420726877 0 0 0 0 0.49155457116285106 -4.855419701709252 0 -4.855419701709252 -17.822771437768097 0 0 0 0 -8.7252489770198736 -19.988999887562613 0 -19.988999887562613 -6.3572880224874098 0 0 0 0 10.705606032432115 -5.9764497199793141 0 -5.9764497199793141 -21.686274823593521 0 0 0 0 -2.2224766500441895 -8.1492654885995748 0 -8.1492654885995748 -12.177042975497919 0 0 0 0 -13.747439131551801 -25.065315643801569 0 -25.065315643801569 -11.331952358146054 0 0 0 0 -10.969667750543522 -18.774424079443406 0 -18.774424079443406 -4.4481676506939039 0 0 0 0 -5.4638851295630957 -20.421065439889162 0 -20.421065439889162 -4.339636769682329 0 0 0 0 -12.709985592481644 -18.417850403724401 0 -18.417850403724401 -3.7304546536115595 0 0 0 0 -18.851474301889539 -17.265937112746542 0 -17.265937112746542 -2.5493399993847561 0 0 0 0 -1.7138372406313067 -3.0285732840415172 0 -3.0285732840415172 -1.8946777555471837 0 0 0 0 0.22990027905325405 -8.2546264854245237 0 -8.2546264854245237 -11.199552435062287 0 0 0 0 -10.911022408107101 -19.791052466484565 0 -19.791052466484565 0.57227525687403613 0 0 0 0 -11.842327634058165 -18.423630975954893 0 -18.423630975954893 -1.6521025519159593 0 0 0 0 -27.518412643685679 -29.879966344522728 0 -29.879966344522728 -9.4808594538160378 0 0 0 0 -4.7991598467397125 -18.110302329870976 0 -18.110302329870976 -3.8619301754893343 0 0 0 0 -13.892991838633655 -14.480470548010786 0 -14.480470548010786 -11.222222482827968 0 0 0 0 -5.3787797301029059 -34.218434514765548 0 -34.218434514765548 -10.37814718277312 0 0 0 0 -10.342812728651552 -14.461500175853189 0 -14.461500175853189 -2.3653195383380989 0 0 0 0 -14.279926868528594 -11.674698354603141 0 -11.674698354603141 -7.6389671877267178 0 0 0 0 -11.873027314913998 -21.412836511497432 0 -21.412836511497432 3.041909718661941 0 0 0 0 -24.975474129867507 -20.903255034943129 0 -20.903255034943129 4.3000011897848793 0 0 0 0 -21.686142006958107 -8.6416350674958391 0 -8.6416350674958391 5.7943763856832398 0 0 0 0 -25.664558049490211 -10.09874275251105 0 -10.09874275251105 6.4206552104171948 0 0 0 0 -28.178434738096257 -8.3776482941676136 0 -8.3776482941676136 12.122045866393023 0 0 0 0 -27.103437815501366 -28.747226846529429 0 -28.747226846529429 -6.7524022442405567 0 0 0 0 -59.954603362319176 -18.463570096528429 0 -18.463570096528429 12.905760178212631 0 0 0 0 -33.809720226612626 16.711422353463945 0 16.711422353463945 19.341419486884206 0 0 0 0 -0.24543122563723685 -0.21446428010917984 0 -0.21446428010917984 -0.73715912777228931 0 0 0 0 6.2381465787038906 14.424100288002023 0 14.424100288002023 5.645458359264353 0 0 0 0 -592.07827334114791 -282.49024733627169 0 -282.49024733627169 -124.88083351519867 0 0 0 0 -22.544408810534151 -0.69050092258493123 0 -0.69050092258493123 5.6572481449935026 0 0 0 0 -1.5633464518110074 1.1841992691352132 0 1.1841992691352132 -0.88804454541595701 0 0 0 0 -34.972756248139376 0.40646516291667467 0 0.40646516291667467 5.9620026773269501 0 0 0 0 -457.5580440063095 -182.17750487660808 0 -182.17750487660808 -100.47385424473407 0 0 0 0 -315.2986631583226 -251.32056784580612 0 -251.32056784580612 -189.37454677617416 0 0 0 0 -3.4495977602743721 1.7315649964978661 0 1.7315649964978661 -2.6191032659573903 0 0 0 0 -301.08784650029702 -190.54755978623206 0 -190.54755978623206 -193.2945072194203 0 0 0 0 -228.29383754334413 -177.92051408759153 0 -177.92051408759153 -213.72068513201975 0 0 0 0 -393.16399532565993 -338.21665333179658 0 -338.21665333179658 -771.57891851332113 0 0 0 0 -165.11297236038808 -162.47128742346274 0 -162.47128742346274 -188.63130082955416 0 0 0 0 -364.54762520437089 -91.093392552830096 0 -91.093392552830096 -40.845275975163531 0 0 0 0 -498.37848267571826 -214.35039222786941 0 -214.35039222786941 -92.746174674212398 0 0 0 0 -273.48700438807737 -62.800666619353819 0 -62.800666619353819 74.736372968207888 0 0 0 0 -196.04695789987454 -99.9475195026439 0 -99.9475195026439 -40.412878884829865 0 0 0 0 -180.71715127557036 -17.203539356925376 0 -17.203539356925376 125.13148517145237 0 0 0 0 -233.72681765331981 -163.90536358411487 0 -163.90536358411487 219.20880364336836 0 0 0 0 -156.49586580883624 -90.136982010734528 0 -90.136982010734528 81.122795826841866 0 0 0 0 -164.74115577894872 -43.520478520356278 0 -43.520478520356278 14.789367236099679 0 0 0 0 -65.389746995921087 -62.981902707439076 0 -62.981902707439076 -5.6023862971953804 0 0 0 0 -61.153751962854585 -36.992269331615034 0 -36.992269331615034 1.6181361961912444 0 0 0 0 -31.405937694072236 -46.417872822106517 0 -46.417872822106517 -9.658562543302196 0 0 0 0 -34.491572619039289 -31.257671631556718 0 -31.257671631556718 -6.4535931707496275 0 0 0 0 -55.150025305234522 -40.756226159915286 0 -40.756226159915286 -7.432333483553748 0 0 0 0 -58.90089666579297 -24.211418312267597 0 -24.211418312267597 12.483906990414425 0 0 0 0 -159.19045466720945 11.511323702717732 0 11.511323702717732 19.186241978434055 0 0 0 0 -81.155400950250623 -117.41757892813621 0 -117.41757892813621 -145.12409066284931 0 0 0 0 -111.11707687264425 -152.42304839805365 0 -152.42304839805365 -88.292745055444357 0 0 0 0 -49.039267954052775 -146.6497966465322 0 -146.6497966465322 -137.73716134407732 0 0 0 0 -175.41657074612158 -52.034895123736533 0 -52.034895123736533 -4.8808792930940399 0 0 0 0 -2.8442070819099001 0.94528680635462337 0 0.94528680635462337 0.16984688746720877 0 0 0 0 -153.79669001641741 -121.23698802347735 0 -121.23698802347735 -25.054247906577075 0 0 0 0 -14.489702802493412 -89.301969007090975 0 -89.301969007090975 -151.51295423498686 0 0 0 0 -52.772771878600906 -162.07504551068632 0 -162.07504551068632 -134.91357643642368 0 0 0 0 -0.063254702217818704 -140.84394784513779 0 -140.84394784513779 -146.72440815637947 0 0 0 0 -29.969378541441984 -120.91607821226626 0 -120.91607821226626 -133.09670655773516 0 0 0 0 -1.2470263572086253 1.0458329439079179 0 1.0458329439079179 0.60039382691859977 0 0 0 0 2.8031563350232318 -44.908439759949033 0 -44.908439759949033 -183.72575092208717 0 0 0 0 -29.643192591429397 -123.61564035280298 0 -123.61564035280298 -111.44037897964699 0 0 0 0 -40.934641281055519 -117.83147466404625 0 -117.83147466404625 -107.6676599298662 0 0 0 0 11.116993135932717 -96.317777752001348 0 -96.317777752001348 -133.03799820931636 0 0 0 0 -1.8847261653863825 64.531938125957822 0 64.531938125957822 19.880107703633257 0 0 0 0 7.295469965931261 -51.704834114087134 0 -51.704834114087134 3.884620560458643 0 0 0 0 5.3685966964112595 -0.96458490214354242 0 -0.96458490214354242 -2.8784086003311131 0 0 0 0 -49.621179230947746 -66.885719655547291 0 -66.885719655547291 81.088275463838727 0 0 0 0 2.2922264335120417 -7.6723232767581067 0 -7.6723232767581067 33.964658217759279 0 0 0 0 -4.1263301358267199 18.840380906742212 0 18.840380906742212 102.15258042204732 0 0 0 0 5.45176034306769 -0.15267518128428037 0 -0.15267518128428037 -0.48043007683008909 0 0 0 0 1.0211949375596419 -0.14377400030431176 0 -0.14377400030431176 -0.71584311583964322 0 0 0 0 -0.49592792679845843 0.34803646879318961 0 0.34803646879318961 0.42096605922789365 0 0 0 0 -29.135651184013113 -99.020692301295639 0 -99.020692301295639 -97.121050519017444 0 0 0 0 -37.46436180191813 -103.69921907743628 0 -103.69921907743628 -79.370485494035165 0 0 0 0 2.5243633213879662 0.78528175873355366 0 0.78528175873355366 -3.3186621636404965 0 0 0 0 -41.643263637906784 4.3874000289359856 0 4.3874000289359856 -18.408265060123085 0 0 0 0 1.0774405552412247 -0.65500967711322744 0 -0.65500967711322744 1.3781908148517275 0 0 0 0 0.19069416905404069 -15.140231504706207 0 -15.140231504706207 15.870423113872675 0 0 0 0 5.9818452496692771 -2.1006066082500183 0 -2.1006066082500183 -2.5307468327819151 0 0 0 0 9.3705925782005579 -6.0309989893005422 0 -6.0309989893005422 0.44060425441512052 0 0 0 0 9.0129118679055651 -3.5526466339815528 0 -3.5526466339815528 -2.1848715629739317 0 0 0 0 -27.146861461729713 10.677013001483147 0 10.677013001483147 -29.386492174664454 0 0 0 0 3.5249755207996927 -1.845988727370738 0 -1.845988727370738 -1.0035949901312193 0 0 0 0 20.061226527628605 -2.8946667805348625 0 -2.8946667805348625 -5.1035842118144501 0 0 0 0 7.3787338714716384 4.4093044298812458 0 4.4093044298812458 -5.1495526897686794 0 0 0 0 -13.906254920977517 32.442217213800632 0 32.442217213800632 -27.98357274127963 0 0 0 0 -22.348223602690268 23.901911556545656 0 23.901911556545656 -25.111748727167651 0 0 0 0 8.671070149083036 -3.0741663320708739 0 -3.0741663320708739 -6.9556456782197209 0 0 0 0 -15.538642532745143 26.806993835411049 0 26.806993835411049 -17.010997145092915 0 0 0 0 -20.005806406399643 33.999378948205049 0 33.999378948205049 -16.313330942736229 0 0 0 0 -8.8821669150856906 11.366878172663291 0 11.366878172663291 -0.070631413869705284 0 0 0 0 -14.117088666465861 1.1382028905663901 0 1.1382028905663901 19.554099480053992 0 0 0 0 -21.309459613141371 13.640501171092183 0 13.640501171092183 4.7778088963668779 0 0 0 0 -7.3753528445624852 4.9912459557172966 0 4.9912459557172966 -0.058078520159568825 0 0 0 0 0.31615187792340294 11.177428377962315 0 11.177428377962315 -8.069983955351745 0 0 0 0 -53.556501216891775 -13.027316422326521 0 -13.027316422326521 -18.497485090781993 0 0 0 0 -15.594598568313813 22.472368507494139 0 22.472368507494139 4.5526581440369682 0 0 0 0 -125.97368907643977 -66.721191492296384 0 -66.721191492296384 21.458249581617565 0 0 0 0 -89.87613934847468 -81.627410791172679 0 -81.627410791172679 -9.8202777814130968 0 0 0 0 -12.444518728567346 -3.4213401497900122 0 -3.4213401497900122 17.737504207476377 0 0 0 0 -4.2741992948413809 -5.0118764137265543 0 -5.0118764137265543 4.5152133851447687 0 0 0 0 -17.442598008967252 13.855001641815193 0 13.855001641815193 -22.950104514928171 0 0 0 0 26.151863422623137 -52.908348172273236 0 -52.908348172273236 67.29148075764715 0 0 0 0 -15.820325694749044 -53.342890806936794 0 -53.342890806936794 -4.5827156575887784 0 0 0 0 -8.7786497623677633 -5.3533607781407682 0 -5.3533607781407682 0.70731733774738004 0 0 0 0 3.9530216332223063 -198.79262527187052 0 -198.79262527187052 320.30713953257782 0 0 0 0 -207.17063558546579 92.418422953778872 0 92.418422953778872 16.301733531825448 0 0 0 0 -404.85961167076312 -117.2059130680982 0 -117.2059130680982 31.341065469894602 0 0 0 0 -3.5298435909209047 -1.2468771933326224 0 -1.2468771933326224 -0.36264875331484792 0 0 0 0 12.065313889477693 -185.5111876331689 0 -185.5111876331689 -295.21065883285655 0 0 0 0 -268.34804378882836 -324.67456008203226 0 -324.67456008203226 -122.22689257980255 0 0 0 0 -92.188434783638513 -192.60446629226453 0 -192.60446629226453 -66.919061904360206 0 0 0 0 -143.76468538831978 -146.96923783738839 0 -146.96923783738839 -59.984163155353599 0 0 0 0 -181.10691694574052 -148.74725000430362 0 -148.74725000430362 -40.338025495268084 0 0 0 0 -159.06292806811689 -169.0129760831569 0 -169.0129760831569 -75.23869574022774 0 0 0 0 0.0080638323379389476 -177.08680824817475 0 -177.08680824817475 -130.85042605249942 0 0 0 0 -76.193464683211459 -223.77768001132551 0 -223.77768001132551 -112.33107017464135 0 0 0 0 4.6473370623134542 -91.431131996033855 0 -91.431131996033855 -51.741983288203073 0 0 0 0 -0.03751249855486094 -218.35483594584616 0 -218.35483594584616 146.42936824042795 0 0 0 0 -278.42748401573772 -28.579599201478459 0 -28.579599201478459 192.87895477773009 0 0 0 0 -21.617060188938922 -233.78252288062231 0 -233.78252288062231 -235.16873545543422 0 0 0 0 -64.414504868788754 -293.46990610573249 0 -293.46990610573249 444.22951298391945 0 0 0 0 -81.512153300579484 -30.111912870658486 0 -30.111912870658486 490.40607296658754 0 0 0 0 -79.471838725767157 -114.39423636802425 0 -114.39423636802425 1090.5422294657137 0 0 0 0 0.13519092669594102 -261.90372180936259 0 -261.90372180936259 619.51936085506873 0 0 0 0 45.819239010015735 -192.28542989679192 0 -192.28542989679192 513.86535242664922 0 0 0 0 7.4262423574218701 -56.804619309571649 0 -56.804619309571649 -314.83756212882298 0 0 0 0 109.43058733600265 -34.819645153470987 0 -34.819645153470987 -625.60465128742601 0 0 0 0 0.12466995405134185 -1.3024879914158145 0 -1.3024879914158145 0.0746367427925691 0 0 0 0 -193.93883682344313 -240.22989340068693 0 -240.22989340068693 -133.62460317966611 0 0 0 0 2.8596293809823692 -16.648257019707842 0 -16.648257019707842 -44.280787017775651 0 0 0 0 -1.1585752112990662 -1.302152598982893 0 -1.302152598982893 -1.8567005391003173 0 0 0 0 -35.534490927275328 -101.64689441902202 0 -101.64689441902202 -216.05555447412581 0 0 0 0 2.3925384495497894 -4.5593769044789259 0 -4.5593769044789259 -0.89538294436088361 0 0 0 0 -109.49407908209832 -292.28101182853652 0 -292.28101182853652 894.15736806861628 0 0 0 0 7.5903001932620668 -6.8057746469038598 0 -6.8057746469038598 -2.5689219132282388 0 0 0 0 6.0378533120674547 -32.383896497209207 0 -32.383896497209207 -21.288854984658116 0 0 0 0 49.928821701014385 -377.79829482661171 0 -377.79829482661171 393.21086657062824 0 0 0 0 -140.07027218198346 -353.32140284869456 0 -353.32140284869456 401.84093365675403 0 0 0 0 95.258761361352299 -297.75746291056566 0 -297.75746291056566 414.61113582968392 0 0 0 0 -252.62765457358637 -508.38956151687029 0 -508.38956151687029 189.07290744674174 0 0 0 0 118.09667627830277 -426.1285047990109 0 -426.1285047990109 132.24182094673324 0 0 0 0 123.2076814859447 -389.535584045939 0 -389.535584045939 325.0817367325335 0 0 0 0 388.60578027905285 -533.21502927856454 0 -533.21502927856454 369.95994942545167 0 0 0 0 -0.59500329995049128 -0.44311294673042312 0 -0.44311294673042312 0.14880958598436678 0 0 0 0 367.02509384724067 -208.13580144623563 0 -208.13580144623563 250.95647043105055 0 0 0 0 375.36136880479171 -362.27598832372996 0 -362.27598832372996 236.20414979861334 0 0 0 0 522.5360528045494 -291.5270829530823 0 -291.5270829530823 270.20375013018202 0 0 0 0 -0.14208347921365316 -4.3714457760168131 0 -4.3714457760168131 3.5128954806457067 0 0 0 0 321.90289847081294 -318.32460339354566 0 -318.32460339354566 200.07529319019704 0 0 0 0 258.22401402571995 -398.33215573854932 0 -398.33215573854932 294.51354831849767 0 0 0 0 178.05685701059701 -254.65987572152244 0 -254.65987572152244 239.68859780730804 0 0 0 0 135.59804308410094 -277.36672379068114 0 -277.36672379068114 504.35953135132195 0 0 0 0 -22.092659907924826 -21.245853574898888 0 -21.245853574898888 15.611688971098147 0 0 0 0 15.690079316806077 -15.121838784207284 0 -15.121838784207284 17.966883656589289 0 0 0 0 9.9975818598252033 -10.414564699239905 0 -10.414564699239905 -4.6876821905720192 0 0 0 0 -36.537263232468831 -6.1950605726599406 0 -6.1950605726599406 -9.0584154550899711 0 0 0 0 28.491382170679572 -21.264325548117313 0 -21.264325548117313 -13.791976732126841 0 0 0 0 -0.57601204610190848 -6.6966375591349347 0 -6.6966375591349347 -0.89788939468702456 0 0 0 0 14.041228362937545 -9.6932532559376341 0 -9.6932532559376341 -24.444879293582062 0 0 0 0 -2.7127201165822044 -9.2977024486643245 0 -9.2977024486643245 -32.858858861847921 0 0 0 0 24.396376066251833 -4.0361653480863424 0 -4.0361653480863424 -32.624879666752648 0 0 0 0 4.1366682470288652 -7.2983547118201955 0 -7.2983547118201955 6.2302933267689014 0 0 0 0 9.094102049467125 -10.131639106388389 0 -10.131639106388389 -3.8077183324052974 0 0 0 0 -11.374895902245044 -5.4790132704472398 0 -5.4790132704472398 27.670031212175672 0 0 0 0 7.5260616559462505 -11.346798562041386 0 -11.346798562041386 28.902932815617078 0 0 0 0 11.362478972216195 -10.227882318901266 0 -10.227882318901266 12.84737106543389 0 0 0 0 32.021218312322162 -8.3689501556832511 0 -8.3689501556832511 12.960130022830754 0 0 0 0 252.52366633545898 -179.01502700710626 0 -179.01502700710626 19.577503775285592 0 0 0 0 11.33679560933524 8.4621979658052169 0 8.4621979658052169 13.415641502913786 0 0 0 0 367.80206964137324 -456.92176603464486 0 -456.92176603464486 265.8498347563484 0 0 0 0 3.7691921845597847 -0.11881132558704621 0 -0.11881132558704621 -0.091224918178629988 0 0 0 0 72.550281169265872 15.459802944708599 0 15.459802944708599 -172.18507933954152 0 0 0 0 396.65833533133991 -603.86859707112581 0 -603.86859707112581 645.08782618115765 0 0 0 0 167.58578003932053 -306.05492395236024 0 -306.05492395236024 382.23236404443196 0 0 0 0 517.02698850550587 -570.48049465067129 0 -570.48049465067129 423.53329428910729 0 0 0 0 267.61836641093396 -314.07120701716667 0 -314.07120701716667 366.23064176640287 0 0 0 0 346.85922682418459 -546.92670994679611 0 -546.92670994679611 756.8971823640095 0 0 0 0 344.9933419200097 -640.51340935447161 0 -640.51340935447161 689.63726122605613 0 0 0 0 340.61167249990467 -361.72889518966895 0 -361.72889518966895 633.47351299430738 0 0 0 0 191.92340742531815 -442.29987486420123 0 -442.29987486420123 598.96738552296711 0 0 0 0 384.95932932481446 -114.76664873221989 0 -114.76664873221989 21.660205500152188 0 0 0 0 -12.367561770086468 -161.22161918511574 0 -161.22161918511574 671.87856477015566 0 0 0 0 -0.90521569411328073 -4.2452997011039457 0 -4.2452997011039457 -0.020291689931239532 0 0 0 0 -8.8747953152837056 -9.6264159488091181 0 -9.6264159488091181 -3.553379531211263 0 0 0 0 -12.018412737212202 -13.451475022290651 0 -13.451475022290651 35.044741939927917 0 0 0 0 -3.2908992293680228 -5.4355439574128255 0 -5.4355439574128255 -3.919263319036963 0 0 0 0 -2.9518207947003248 -24.859805609350133 0 -24.859805609350133 53.199819149016548 0 0 0 0 -6.2919136349155451 -25.215118649109172 0 -25.215118649109172 66.687960478955574 0 0 0 0 -13.795389730425086 -3.5635367592576586 0 -3.5635367592576586 26.313635096094004 0 0 0 0 -20.072414361929987 -1.1050108549807192 0 -1.1050108549807192 32.623783262602956 0 0 0 0 -25.944289140956244 17.320218664940512 0 17.320218664940512 4.2656386741500683 0 0 0 0 -26.004714033901109 26.929407188578807 0 26.929407188578807 16.295376827388282 0 0 0 0 -18.072186425022664 29.056515911757742 0 29.056515911757742 -25.277051863211454 0 0 0 0 -22.87931135747931 40.680052894014807 0 40.680052894014807 -21.426710924164581 0 0 0 0 -7.3946272037137533 28.481972038798631 0 28.481972038798631 35.766933926153797 0 0 0 0 -24.920127099510864 27.7561533257458 0 27.7561533257458 69.054551287049435 0 0 0 0 -19.90693976186958 13.64506465996169 0 13.64506465996169 14.14832125780049 0 0 0 0 -19.278308302426012 47.427156590188133 0 47.427156590188133 18.965508749213086 0 0 0 0 -2.1287238815857563 66.814101283321179 0 66.814101283321179 38.986215116812673 0 0 0 0 -5.6923987424961524 37.272936529667277 0 37.272936529667277 -17.221698186804133 0 0 0 0 22.934943780739559 61.853122115546739 0 61.853122115546739 -15.123604521179004 0 0 0 0 42.856126886355923 106.14342657701218 0 106.14342657701218 52.299996970972643 0 0 0 0 -9.4678534184349701 31.716254239159753 0 31.716254239159753 96.105779212128255 0 0 0 0 17.256525304357638 75.617997701129752 0 75.617997701129752 151.20473502576169 0 0 0 0 34.768223190912977 39.875452611064247 0 39.875452611064247 122.44974744483801 0 0 0 0 103.30598325014398 121.9741822213465 0 121.9741822213465 218.20811169927038 0 0 0 0 51.573005584485145 74.605975953946427 0 74.605975953946427 15.376549316904857 0 0 0 0 73.929261048848275 132.37178744043649 0 132.37178744043649 118.75579270872549 0 0 0 0 88.313473161921138 121.48130598133503 0 121.48130598133503 -15.644197189531951 0 0 0 0 115.83738599886419 118.72176276881328 0 118.72176276881328 -8.2026653815336203 0 0 0 0 194.94451695802854 153.5496114650814 0 153.5496114650814 -32.065574042559092 0 0 0 0 118.61741360583983 80.685102595562057 0 80.685102595562057 73.269460245570372 0 0 0 0 139.86032688629348 100.08383454159411 0 100.08383454159411 -10.334086310478597 0 0 0 0 -57.553070448193466 -61.952241459667675 0 -61.952241459667675 0.017541939580951293 0 0 0 0 187.0717312166671 13.046842398653098 0 13.046842398653098 -33.163097350361568 0 0 0 0 201.61173622171918 77.121090748672941 0 77.121090748672941 52.028765467750418 0 0 0 0 396.87551684651407 -161.752922373812 0 -161.752922373812 19.724019058077829 0 0 0 0 473.11184912046883 65.164802399423934 0 65.164802399423934 200.7419440624908 0 0 0 0 320.76893660130736 -40.834446814649709 0 -40.834446814649709 127.7198443405814 0 0 0 0 466.28670615240117 -110.42276339411728 0 -110.42276339411728 359.54149107715421 0 0 0 0 246.52396979675177 174.72813239611287 0 174.72813239611287 138.57165016382532 0 0 0 0 108.69782199847396 45.63904729085516 0 45.63904729085516 228.05186748042979 0 0 0 0 359.36428834295657 163.5272881017645 0 163.5272881017645 270.3298722476793 0 0 0 0 367.5851489289671 -596.83439116319937 0 -596.83439116319937 780.46371915031887 0 0 0 0 54.928388391650515 22.412939635905786 0 22.412939635905786 327.75529113645644 0 0 0 0 -0.22360849440102015 -2.4600649945003497 0 -2.4600649945003497 -1.2469442860127344 0 0 0 0 1290.3625012893608 150.73638275033045 0 150.73638275033045 386.8249192284693 0 0 0 0 861.78865474009217 -947.64133027768366 0 -947.64133027768366 707.29863668637336 0 0 0 0 295.65597630328557 -474.35761863442167 0 -474.35761863442167 1954.8785365530202 0 0 0 0 -0.19023015427228529 -53.906458427231883 0 -53.906458427231883 125.5395766190486 0 0 0 0 0.75752755442226771 -38.794871588187561 0 -38.794871588187561 258.64675365548828 0 0 0 0 -226.38498631992115 -215.06721923044734 0 -215.06721923044734 858.1068591793985 0 0 0 0 -307.79018372247083 26.643715913238339 0 26.643715913238339 773.33913434769147 0 0 0 0 -290.35320496452186 -131.91436421927119 0 -131.91436421927119 1667.9757051787506 0 0 0 0 4.0755726960259295 -6.320622298336211 0 -6.320622298336211 8.0999476105124302 0 0 0 0 778.58166478135308 -301.35447445574135 0 -301.35447445574135 -60.436053313582306 0 0 0 0 969.7087493891886 -1128.56544335543 0 -1128.56544335543 1120.3848253493807 0 0 0 0 104.14073992852491 -402.23436077688029 0 -402.23436077688029 363.42195452767919 0 0 0 0 60.634314611874288 -696.43961056444095 0 -696.43961056444095 127.70015701830562 0 0 0 0 123.32319768340676 -546.85262094806058 0 -546.85262094806058 783.60321890572413 0 0 0 0 842.76121556568251 -443.3060791128878 0 -443.3060791128878 153.42030765476738 0 0 0 0 94.252998929965543 -264.89934508510851 0 -264.89934508510851 58.614875799045876 0 0 0 0 142.99777916444873 -253.49059216916908 0 -253.49059216916908 60.099958553048054 0 0 0 0 163.34691165699041 -288.42031342785231 0 -288.42031342785231 118.13971257516187 0 0 0 0 -35.891438238468254 -684.47461604989439 0 -684.47461604989439 391.11932435737162 0 0 0 0 412.8465929976519 -991.05174286790952 0 -991.05174286790952 -364.23570681999831 0 0 0 0 -291.18172474706398 378.74720945027644 0 378.74720945027644 267.61505172616125 0 0 0 0 98.148040295718602 -487.5742575349276 0 -487.5742575349276 151.8891631890765 0 0 0 0 1.0187123656280903 -7.2250910649094546 0 -7.2250910649094546 -3.3489407394616961 0 0 0 0 1342.4542931020551 -57.593894429563079 0 -57.593894429563079 -201.96313959690633 0 0 0 0 793.14198222571576 -865.73699835620027 0 -865.73699835620027 404.7828983990803 0 0 0 0 8.3453923214838142 -303.24863638647366 0 -303.24863638647366 1092.0133406528657 0 0 0 0 513.97065182833467 178.69254117329365 0 178.69254117329365 482.06490517587372 0 0 0 0 380.61439148045611 -581.68923678568081 0 -581.68923678568081 -318.91540466358492 0 0 0 0 -120.45333688636674 312.85248448855509 0 312.85248448855509 33.715577851675334 0 0 0 0 -300.04653893856448 70.286455874624153 0 70.286455874624153 517.34865681416341 0 0 0 0 -1.3229439599635242 -7.4181047719224793 0 -7.4181047719224793 13.952399749196417 0 0 0 0 1192.0965717418512 -1013.3686270542785 0 -1013.3686270542785 820.64934087464735 0 0 0 0 -845.08991208880252 198.20114333079891 0 198.20114333079891 653.68936309017954 0 0 0 0 1152.9510475839634 -1157.2460221977965 0 -1157.2460221977965 531.97475847640999 0 0 0 0 33.202358857757645 -537.01970495320347 0 -537.01970495320347 919.46603302517087 0 0 0 0 703.87633756048672 48.035765195748354 0 48.035765195748354 -838.88064127065991 0 0 0 0 20.557067114821351 -17.345088723369148 0 -17.345088723369148 -5.4191257401382664 0 0 0 0 1143.7244615926611 518.50129604495487 0 518.50129604495487 -470.58966597058316 0 0 0 0 311.1451248255762 355.23891413414458 0 355.23891413414458 -1682.4611408076162 0 0 0 0 -1312.4093406754691 395.97939896929529 0 395.97939896929529 28.963580035214818 0 0 0 0 4.4070186721849964 -8.8910186797616007 0 -8.8910186797616007 -5.6201990028828135 0 0 0 0 -1472.8637820022996 627.58159114023874 0 627.58159114023874 -754.02846570438123 0 0 0 0 -382.29542852354643 -681.36633000554139 0 -681.36633000554139 -255.86965371134647 0 0 0 0 16.235801029404684 -4.8296641422382436 0 -4.8296641422382436 -23.261159029568262 0 0 0 0 45.225193484213378 -23.749784807498145 0 -23.749784807498145 -42.412458787075593 0 0 0 0 29.6730659381019 -13.696324729905314 0 -13.696324729905314 -17.868163615946287 0 0 0 0 7.9369567982146698 -15.970891846302372 0 -15.970891846302372 -9.7433869194716607 0 0 0 0 8.1278104879966371 0.21518423276273779 0 0.21518423276273779 -0.20634936649288882 0 0 0 0 19.426229849625088 -27.741925829442607 0 -27.741925829442607 -22.617041183333185 0 0 0 0 11.194442517273274 -23.533798239592215 0 -23.533798239592215 -10.249123645213785 0 0 0 0 23.034533376508548 -8.3941539948649506 0 -8.3941539948649506 -4.2367851601038033 0 0 0 0 19.865532475963846 -29.201801469164138 0 -29.201801469164138 -18.627840778661266 0 0 0 0 -454.7332953243199 -406.27260451267279 0 -406.27260451267279 86.281515669765213 0 0 0 0 -472.06122523165322 -247.11125551518489 0 -247.11125551518489 1068.6276961348531 0 0 0 0 18.602879239352276 -17.06194974701905 0 -17.06194974701905 10.720288776985136 0 0 0 0 -21.005525146640139 -15.156360311351818 0 -15.156360311351818 22.64512588305729 0 0 0 0 9.126231276671291 -4.6413563858491109 0 -4.6413563858491109 1.5141352093519664 0 0 0 0 320.2033791195845 162.37315254193868 0 162.37315254193868 20.076795510622105 0 0 0 0 21.830032691155793 -37.193536887327809 0 -37.193536887327809 -61.792502156680143 0 0 0 0 -4.8239154292823514 -54.93147681213236 0 -54.93147681213236 7.0257293219765415 0 0 0 0 7.9482259205906303 -19.781579334599883 0 -19.781579334599883 11.226858983687862 0 0 0 0 14.680885401248815 -24.607359796952551 0 -24.607359796952551 -12.315356388127384 0 0 0 0 17.394399560689635 -22.893493761293712 0 -22.893493761293712 -13.28209824851001 0 0 0 0 8.7514005657840528 -10.119457805858806 0 -10.119457805858806 -3.7496068375963691 0 0 0 0 0.93686605165203218 -24.414940448561993 0 -24.414940448561993 21.817719454035341 0 0 0 0 15.15054901102485 -9.2864368937431436 0 -9.2864368937431436 -24.56456024870954 0 0 0 0 13.666639346149168 -7.7030467383930272 0 -7.7030467383930272 -9.4943581591674047 0 0 0 0 8.9942029126614216 -17.220821084565159 0 -17.220821084565159 2.1904628199524723 0 0 0 0 18.249226658941552 -17.945939164429291 0 -17.945939164429291 -23.647140629422665 0 0 0 0 17.548830874813575 -20.132712161649522 0 -20.132712161649522 -25.014519224655487 0 0 0 0 20.475015598203754 -14.155014756973515 0 -14.155014756973515 -28.743343253218882 0 0 0 0 -0.3879215369802349 -0.1373682111879333 0 -0.1373682111879333 -0.25451844502437559 0 0 0 0 76.717770532792201 22.050895846160074 0 22.050895846160074 20.082528164612881 0 0 0 0 -49.262713571642962 -30.817510630557081 0 -30.817510630557081 -1.5296810062702662 0 0 0 0 175.30131540766888 -48.402916604894983 0 -48.402916604894983 -33.012645519002945 0 0 0 0 -16.559518385311094 -11.527920760911059 0 -11.527920760911059 -3.3452484095737418 0 0 0 0 19.88940719558741 -27.359329888275965 0 -27.359329888275965 -27.723431502600761 0 0 0 0 8.8454040951983188 -18.678573384614651 0 -18.678573384614651 -9.8793997760549246 0 0 0 0 -4.4931179113627877 -32.928898080050431 0 -32.928898080050431 -23.828697067082317 0 0 0 0 12.137081651788321 -10.480407640563584 0 -10.480407640563584 0.072120901668313309 0 0 0 0 5.1423528383661505 -6.2560934696601578 0 -6.2560934696601578 -2.4747066822378656 0 0 0 0 3.9538936508033657 -21.605648559890824 0 -21.605648559890824 -7.83859223416448 0 0 0 0 15.855349731114984 -13.430856204605675 0 -13.430856204605675 2.2301943139869991 0 0 0 0 87.073686061518856 -48.296213810353407 0 -48.296213810353407 -6.7453776435418149 0 0 0 0 3.3811243397728283 -3.3417465004875595 0 -3.3417465004875595 0.24128249551259984 0 0 0 0 16.646780965806101 -22.561093618555674 0 -22.561093618555674 -5.4193093415196927 0 0 0 0 31.281751950219871 -18.751064883120211 0 -18.751064883120211 -8.3159493533428659 0 0 0 0 9.1893644053733397 -11.119324248685292 0 -11.119324248685292 -5.2652208382743666 0 0 0 0 4.3347406681568827 -14.208991634842391 0 -14.208991634842391 12.896481326593516 0 0 0 0 9.485677988785028 -25.5577543152408 0 -25.5577543152408 -4.5336568389784588 0 0 0 0 11.725862668012269 -19.707844830728845 0 -19.707844830728845 -19.858816521333438 0 0 0 0 12.41827368401573 -17.787098284063177 0 -17.787098284063177 -14.187110091574141 0 0 0 0 18.587709849841588 -11.731168306259981 0 -11.731168306259981 -1.9719727431878589 0 0 0 0 9.4392994468844336 -28.284179812939499 0 -28.284179812939499 -16.411385222855642 0 0 0 0 16.50980344999698 -26.168978126983347 0 -26.168978126983347 -14.101816690234273 0 0 0 0 23.214661021240317 -17.222291733802194 0 -17.222291733802194 -6.0546021399368328 0 0 0 0 17.882062816114583 -15.160704700362174 0 -15.160704700362174 -12.452837157380092 0 0 0 0 -0.1826881804334306 -18.051949310782454 0 -18.051949310782454 -8.2286629233412238 0 0 0 0 21.334549316012271 -4.113835456580091 0 -4.113835456580091 -3.4455212259381369 0 0 0 0 9.761915603776167 -10.412329798747564 0 -10.412329798747564 -3.3565692855439959 0 0 0 0 17.170244820588284 -4.496752499032489 0 -4.496752499032489 -9.2263413108883388 0 0 0 0 -9.8577213748922077 -26.004379925227738 0 -26.004379925227738 -5.2542934532839354 0 0 0 0 -58.424992982552794 -5.3988805243286606 0 -5.3988805243286606 73.624291279774525 0 0 0 0 -34.720029866090044 -80.167592373577122 0 -80.167592373577122 -82.929646677346682 0 0 0 0 -108.07222573344916 -63.400959373572732 0 -63.400959373572732 32.584654726848157 0 0 0 0 -16.660317012705491 -33.432765687527535 0 -33.432765687527535 -10.549289672042278 0 0 0 0 17.01402429282291 -13.347302706518356 0 -13.347302706518356 -4.7642301567286465 0 0 0 0 6.0900483237312812 -14.697924703300107 0 -14.697924703300107 -1.5803783813808572 0 0 0 0 183.89757837855723 51.301849423150088 0 51.301849423150088 71.115380369129639 0 0 0 0 32.885439349010994 -125.45511791326362 0 -125.45511791326362 149.59341232770123 0 0 0 0 -57.868951902742992 10.744987628333547 0 10.744987628333547 8.2784719393512205 0 0 0 0 220.1821363266281 -113.79269351833534 0 -113.79269351833534 -60.692614308878774 0 0 0 0 112.93150203948608 -101.88621232365355 0 -101.88621232365355 -55.118066071620994 0 0 0 0 0.56587209088516488 -1.5946552116370825 0 -1.5946552116370825 -0.51983580325798706 0 0 0 0 45.708587851258926 -44.501509441501611 0 -44.501509441501611 -27.801855106348299 0 0 0 0 127.61640131753666 -56.159740579965046 0 -56.159740579965046 -53.578181301834775 0 0 0 0 111.55710453113716 -88.982467009498123 0 -88.982467009498123 -110.19990631225187 0 0 0 0 58.043201821608818 -22.160092679757099 0 -22.160092679757099 7.3683318800396194 0 0 0 0 12.781844212430002 -31.483808804037395 0 -31.483808804037395 4.5543820120524163 0 0 0 0 -40.337786427528044 -39.156851924324911 0 -39.156851924324911 6.9514856915381813 0 0 0 0 1.313496511123958 -23.441801179027721 0 -23.441801179027721 -6.7662668891621252 0 0 0 0 -11.192709475866195 -22.370680328971677 0 -22.370680328971677 7.2645038945090832 0 0 0 0 -171.71522831376205 -36.785813606107695 0 -36.785813606107695 -21.974280347714739 0 0 0 0 0.39831628384098394 -2.6028738772818265 0 -2.6028738772818265 0.22628937500593149 0 0 0 0 -37.484477188984101 -9.2349778504653628 0 -9.2349778504653628 66.666522843188631 0 0 0 0 24.202288801039685 -96.668866751802852 0 -96.668866751802852 14.685518173813648 0 0 0 0 37.182679870369611 -34.457237328971587 0 -34.457237328971587 10.923886886642002 0 0 0 0 95.027364336365281 -56.751481610091901 0 -56.751481610091901 -11.372259516066606 0 0 0 0 6.9676854713325156 -54.887697679371513 0 -54.887697679371513 -26.1379437626141 0 0 0 0 8.9713711585218334 -61.730751286950408 0 -61.730751286950408 -11.651247913219322 0 0 0 0 20.924244795900449 -56.093657986235939 0 -56.093657986235939 21.623639859836658 0 0 0 0 12.110555637846922 -30.985703362619439 0 -30.985703362619439 1.0678464059092496 0 0 0 0 -26.578772766082693 -76.590373256295038 0 -76.590373256295038 15.154721511344633 0 0 0 0 8.9549068693522713 -28.179346040553014 0 -28.179346040553014 -8.7302448081093189 0 0 0 0 2.9648767520337902 -19.269666900061132 0 -19.269666900061132 0.50048241724808396 0 0 0 0 2.1810280448607955 -24.492121624420278 0 -24.492121624420278 -1.2343140982526393 0 0 0 0 0.34835798285587849 -13.758526393766125 0 -13.758526393766125 -1.9411289784689236 0 0 0 0 0.24233640629245201 -20.248952169961548 0 -20.248952169961548 -2.2004544054815813 0 0 0 0 -13.918902789097046 -1.2280036973686208 0 -1.2280036973686208 14.479408265142808 0 0 0 0 9.8531827800725296 -11.892853736411809 0 -11.892853736411809 -3.0517599775981088 0 0 0 0 1.3314430640372805 -9.790653721764123 0 -9.790653721764123 -0.81433949456202015 0 0 0 0 -3.9622129536565094 -10.374744928146541 0 -10.374744928146541 2.1692169952475435 0 0 0 0 33.062641770906339 -84.844806848114843 0 -84.844806848114843 46.726699232483611 0 0 0 0 80.081645645835579 30.547058389133458 0 30.547058389133458 6.6832808342755925 0 0 0 0 5.3153444822267133 -14.917533609948073 0 -14.917533609948073 2.1722804325620273 0 0 0 0 -14.890109946347366 -16.816362514606226 0 -16.816362514606226 7.9558765302938355 0 0 0 0 -4.5559980359372503 -26.137323081213474 0 -26.137323081213474 2.3065186487741816 0 0 0 0 1.2692050509980852 -11.079501723540439 0 -11.079501723540439 12.370233178159772 0 0 0 0 -29.244767001287983 -22.641005134786269 0 -22.641005134786269 9.4367128274043353 0 0 0 0 -19.863967335195412 -28.723912241533071 0 -28.723912241533071 -10.697609810999666 0 0 0 0 174.49305660007667 -6.5130394174778985 0 -6.5130394174778985 2.9289939874147422 0 0 0 0 121.66728340539885 -47.745690784505882 0 -47.745690784505882 2.9669361789058257 0 0 0 0 -68.412729679224867 -15.527670214764157 0 -15.527670214764157 -3.6566786170283194 0 0 0 0 -22.452742233112076 -10.520398005473226 0 -10.520398005473226 4.3031695201152615 0 0 0 0 -10.681564026345733 -33.415128176209926 0 -33.415128176209926 -2.4586139041445332 0 0 0 0 6.5017890908122986 -1.5375568116971472 0 -1.5375568116971472 -0.15243476983278814 0 0 0 0 -32.034333349050847 -4.3344493577892536 0 -4.3344493577892536 4.8927096862565476 0 0 0 0 198.11135210076463 15.955516255694874 0 15.955516255694874 -30.324725901677084 0 0 0 0 115.56247343702762 -76.85671034772453 0 -76.85671034772453 -29.745376501167129 0 0 0 0 -71.610668903311307 -24.117715629890995 0 -24.117715629890995 36.428539053903705 0 0 0 0 110.77752591068565 -0.34120735074338882 0 -0.34120735074338882 -0.28765542266023658 0 0 0 0 126.0258791486558 -70.007580265548086 0 -70.007580265548086 -62.245526198716107 0 0 0 0 -2.5950435538136407 -2.6163941489704357 0 -2.6163941489704357 1.2036065081251488 0 0 0 0 -0.97445970780115942 -2.652110215149321 0 -2.652110215149321 0.26519487951167964 0 0 0 0 -14.081785678594315 -3.3327707533749162 0 -3.3327707533749162 39.37357628520158 0 0 0 0 227.47361972391263 -24.380397773850731 0 -24.380397773850731 -47.256616200208555 0 0 0 0 178.59829569701833 -154.14877722013898 0 -154.14877722013898 61.746114884214592 0 0 0 0 -82.344660687779651 -28.263224305724151 0 -28.263224305724151 -3.8246641758914848 0 0 0 0 -160.40833635531817 -55.277722935538691 0 -55.277722935538691 11.542897147546455 0 0 0 0 186.41772328785009 -28.265398866443661 0 -28.265398866443661 -30.51520557444519 0 0 0 0 0.013885792377901218 0.72008493748133162 0 0.72008493748133162 -0.2210741019202942 0 0 0 0 -77.436023682887026 -0.19515145727336858 0 -0.19515145727336858 -13.312601942690662 0 0 0 0 -91.743398689803143 -57.920235869701173 0 -57.920235869701173 30.490351621775972 0 0 0 0 59.411065256103029 -59.938386565714822 0 -59.938386565714822 -21.191224628310664 0 0 0 0 16.649901555563702 -90.882529398393217 0 -90.882529398393217 23.009047369988366 0 0 0 0 -14.495869998327336 -32.884217838203355 0 -32.884217838203355 -9.2097912293819739 0 0 0 0 34.046695887027454 -196.66110631955138 0 -196.66110631955138 23.839878454643156 0 0 0 0 -40.582230558717129 -45.094391281816911 0 -45.094391281816911 -6.791986712403741 0 0 0 0 34.394176832858648 -69.659011946898545 0 -69.659011946898545 -47.224200556115647 0 0 0 0 1.096384860769831 -66.235422818169582 0 -66.235422818169582 -12.399742406161749 0 0 0 0 -18.784245144200526 -41.833232619435172 0 -41.833232619435172 -11.366667034005557 0 0 0 0 26.427317822198347 10.083113221678673 0 10.083113221678673 -37.613145828320739 0 0 0 0 47.343962180246308 -90.478967776838545 0 -90.478967776838545 -22.713547286194625 0 0 0 0 0.14132160336000865 -0.7137050296803551 0 -0.7137050296803551 0.61614154161878432 0 0 0 0 -139.14975939480428 -30.701300484389776 0 -30.701300484389776 30.603304844649756 0 0 0 0 196.53773584708415 -124.46916394925643 0 -124.46916394925643 -11.876896131210742 0 0 0 0 104.15599415743782 -95.121127494473512 0 -95.121127494473512 40.83577221241012 0 0 0 0 -46.566111509077018 -86.863492847265206 0 -86.863492847265206 -3.2358575727334937 0 0 0 0 -54.681311048965654 57.276292484693883 0 57.276292484693883 -24.110279138079022 0 0 0 0 74.336390374774055 41.082234654129479 0 41.082234654129479 -85.236448721809666 0 0 0 0 -57.311085142719094 -11.084717275588446 0 -11.084717275588446 -0.48684025324655522 0 0 0 0 -17.782947981660982 -31.094475396768473 0 -31.094475396768473 -15.34878949166432 0 0 0 0 -10.227189856625046 -10.144916512016607 0 -10.144916512016607 -71.078729879727689 0 0 0 0 -6.2759558178076986 -25.874010559895396 0 -25.874010559895396 -30.124373800288595 0 0 0 0 -20.857396709958266 -28.911914809328664 0 -28.911914809328664 9.7570433542259707 0 0 0 0 -99.336732555186245 219.3880543623427 0 219.3880543623427 -261.81902032241123 0 0 0 0 -16.059066518879263 -45.02024251062312 0 -45.02024251062312 -33.642007499610372 0 0 0 0 -6.180037151059139 -15.468321000528833 0 -15.468321000528833 -0.84464815647773861 0 0 0 0 37.519977036397904 3.3864365526719666 0 3.3864365526719666 -74.761875356600967 0 0 0 0 1.2642283609770786 -8.5350304033673794 0 -8.5350304033673794 -4.1317259004558551 0 0 0 0 -2.9003002940662839 -24.562220805175087 0 -24.562220805175087 -5.4540647426304991 0 0 0 0 -85.358300571857399 18.309272593976459 0 18.309272593976459 -30.939155866662077 0 0 0 0 77.547018969282362 13.541422077060815 0 13.541422077060815 -36.96989011079495 0 0 0 0 -84.293181515567994 -26.417203653421893 0 -26.417203653421893 171.93405221675766 0 0 0 0 -122.742144017192 271.92184259147461 0 271.92184259147461 -284.90128975950756 0 0 0 0 -426.05432693581679 133.1271307908064 0 133.1271307908064 199.73204004099898 0 0 0 0 -0.8991745163348952 -12.18813072453807 0 -12.18813072453807 19.00702492307083 0 0 0 0 -158.85089522100679 -481.28797888988629 0 -481.28797888988629 318.2788554127219 0 0 0 0 2.0547355364398108 -6.6559236075108004 0 -6.6559236075108004 14.570353582234105 0 0 0 0 4.2727358247575467 -90.280964833659709 0 -90.280964833659709 -136.7365689582748 0 0 0 0 -44.857925107090523 31.471156343060784 0 31.471156343060784 -53.788515387204825 0 0 0 0 -63.174541798773134 -139.84569021148036 0 -139.84569021148036 -278.25034913272975 0 0 0 0 -93.591390988414787 -22.126743807721141 0 -22.126743807721141 72.682000515005711 0 0 0 0 -388.70474111076328 -166.68821415948332 0 -166.68821415948332 -16.133171362824214 0 0 0 0 119.81354666812695 13.84207921298912 0 13.84207921298912 -88.015317403471272 0 0 0 0 -0.05075117839029808 -0.71239919804331464 0 -0.71239919804331464 -2.8538714288045952 0 0 0 0 75.640889086760581 -58.234212203884454 0 -58.234212203884454 -45.55127315576479 0 0 0 0 51.328154550850741 -19.455413641666382 0 -19.455413641666382 -46.06791342334634 0 0 0 0 77.190258991977316 -89.903099594961532 0 -89.903099594961532 -201.94937885735453 0 0 0 0 -18.275136218646367 -134.37565275486304 0 -134.37565275486304 77.121160303061515 0 0 0 0 52.658280488130913 -74.579146354675231 0 -74.579146354675231 -56.98355117693427 0 0 0 0 -0.68945611543193763 -34.22811610066892 0 -34.22811610066892 -14.327248941829478 0 0 0 0 -113.25127361940395 63.175269839588509 0 63.175269839588509 49.746416287585816 0 0 0 0 -55.903663360443716 -216.26739756423399 0 -216.26739756423399 -61.642331059490971 0 0 0 0 1.8392053254402327 -3.0475900223371113 0 -3.0475900223371113 -8.9325961515256012 0 0 0 0 66.152461826244689 -21.685282357255346 0 -21.685282357255346 -15.8126623244043 0 0 0 0 -163.01447106606065 -39.905692246244143 0 -39.905692246244143 -10.234365003590938 0 0 0 0 0.92407953299584733 -0.27693448220782102 0 -0.27693448220782102 -0.36119062142637404 0 0 0 0 50.651812278483703 -18.83008514642097 0 -18.83008514642097 -10.355088487318426 0 0 0 0 42.656520576405455 -30.672300012860433 0 -30.672300012860433 -26.378625331908552 0 0 0 0 47.537393905353383 -29.924800599968876 0 -29.924800599968876 -16.448488511829055 0 0 0 0 42.978933022845013 -23.63658143302564 0 -23.63658143302564 -9.378962553166275 0 0 0 0 55.454227665509279 -5.9186677248872002 0 -5.9186677248872002 -3.5587539804582775 0 0 0 0 52.217344609682186 -28.944384225103931 0 -28.944384225103931 -7.8500375337753212 0 0 0 0 -125.51224247495338 -99.923454859505 0 -99.923454859505 -50.431535859057476 0 0 0 0 -121.00959919396337 -64.339016185031142 0 -64.339016185031142 -79.298882279654208 0 0 0 0 -214.30514502723599 -244.36167215936621 0 -244.36167215936621 214.95552043573116 0 0 0 0 -302.88658023993776 -170.32599597886383 0 -170.32599597886383 153.37695646082648 0 0 0 0 1065.3454756820283 -313.31370603675259 0 -313.31370603675259 -184.25247937222593 0 0 0 0 1.8902168575684613 -4.9212481904933298 0 -4.9212481904933298 4.4746184244947216 0 0 0 0 -152.86101038685592 -91.02486077555659 0 -91.02486077555659 -37.757241219576827 0 0 0 0 -140.61139741494117 -94.540201089524999 0 -94.540201089524999 -11.27221774480131 0 0 0 0 20.020208338413795 -203.75603947115451 0 -203.75603947115451 33.921485520044371 0 0 0 0 -60.755257752281977 -9.4843044897752407 0 -9.4843044897752407 -29.170054252979753 0 0 0 0 142.08958248069393 -158.14008092931181 0 -158.14008092931181 3.1809428187152662 0 0 0 0 -173.01794285008509 45.384743259535753 0 45.384743259535753 27.811792979424354 0 0 0 0 142.24994213751597 -455.07821733533274 0 -455.07821733533274 265.05761904061728 0 0 0 0 323.7069635270891 -131.41447506064651 0 -131.41447506064651 32.143953497012262 0 0 0 0 -37.348728771539754 -181.4518100219575 0 -181.4518100219575 105.39092072214044 0 0 0 0 242.90058575898001 -332.89471766981296 0 -332.89471766981296 181.27211146512127 0 0 0 0 434.62964504116826 -523.41338163089313 0 -523.41338163089313 133.61066517250947 0 0 0 0 0.8170827124251403 -1.6784887567671944 0 -1.6784887567671944 4.3964984575850536 0 0 0 0 295.73811404755179 -392.93606465826451 0 -392.93606465826451 46.378704059414304 0 0 0 0 1037.3495613207015 -488.32394111928079 0 -488.32394111928079 23.524657346657477 0 0 0 0 82.03311048031901 -76.321601352006837 0 -76.321601352006837 -7.4606793997968452 0 0 0 0 -124.41099323641538 -78.336924316565273 0 -78.336924316565273 276.1725939011958 0 0 0 0 3.7141277446129948 -6.9200996996961806 0 -6.9200996996961806 -19.360595671342622 0 0 0 0 1.1656975661810929 -7.2517218474659018 0 -7.2517218474659018 11.914643530651134 0 0 0 0 5.5131772043946512 -51.628308629886988 0 -51.628308629886988 -5.6597468291729456 0 0 0 0 40.471815704491746 -24.011113120852315 0 -24.011113120852315 -11.823471883461025 0 0 0 0 38.437016269432206 -29.878763703949517 0 -29.878763703949517 -11.656036496000524 0 0 0 0 36.32889898006033 -29.139059614049074 0 -29.139059614049074 -11.137416947196471 0 0 0 0 36.865105093726015 -30.276663310822187 0 -30.276663310822187 -11.574546021791321 0 0 0 0 37.728062795787991 -29.02200133983024 0 -29.02200133983024 -11.203533675263316 0 0 0 0 8.1699199747247064 -7.196687247409784 0 -7.196687247409784 -16.787662998092372 0 0 0 0 49.901902231056738 21.814366659458756 0 21.814366659458756 44.744633756919939 0 0 0 0 25.35159302715374 -36.293176948382779 0 -36.293176948382779 3.3047454654661124 0 0 0 0 209.20752371156414 -165.74251370477759 0 -165.74251370477759 33.097891674701145 0 0 0 0 4.2512844686159568 -8.0216269881036197 0 -8.0216269881036197 3.022353729519125 0 0 0 0 214.25959219441938 -190.35402322987738 0 -190.35402322987738 -55.996814783306036 0 0 0 0 503.9327148558441 -507.56617508572526 0 -507.56617508572526 241.93784330871858 0 0 0 0 1030.5164017790521 -263.15854971873705 0 -263.15854971873705 -53.263285058816791 0 0 0 0 488.00476929647266 -526.56294987273577 0 -526.56294987273577 83.03667151589616 0 0 0 0 19.176391846798651 -232.48367442183371 0 -232.48367442183371 -385.7881193137473 0 0 0 0 -173.14353000209121 -453.86805178135728 0 -453.86805178135728 -4.5404359560416196 0 0 0 0 0.87397825917912542 -1.5361960759536863 0 -1.5361960759536863 2.8502528027623555 0 0 0 0 283.17487981274462 -473.20474423217638 0 -473.20474423217638 -7.397282398863922 0 0 0 0 201.02136603583494 -209.97594754015518 0 -209.97594754015518 119.01545741944688 0 0 0 0 -38.435236240999075 -123.40619586670073 0 -123.40619586670073 -153.31542363208064 0 0 0 0 630.00086821771947 -251.40830002097209 0 -251.40830002097209 -393.90344600754361 0 0 0 0 283.8948741286913 -129.69707378895146 0 -129.69707378895146 -526.0778742134371 0 0 0 0 152.02122716409212 508.01449157229035 0 508.01449157229035 -1020.7502910416661 0 0 0 0 240.04945756493316 17.352213115011864 0 17.352213115011864 -182.96098255828838 0 0 0 0 212.08589795741318 -41.203526919533033 0 -41.203526919533033 -347.45948529149246 0 0 0 0 34.028487953772128 -260.53985328068211 0 -260.53985328068211 -441.75841293880512 0 0 0 0 235.8356040191029 -325.67550039313028 0 -325.67550039313028 -372.63888400875203 0 0 0 0 239.27568403531768 -236.02977526284121 0 -236.02977526284121 -34.650302010362793 0 0 0 0 497.35855757708362 -293.01307921834677 0 -293.01307921834677 -206.18172594880889 0 0 0 0 87.009363608376589 -327.69746085378756 0 -327.69746085378756 440.62151766701027 0 0 0 0 765.1433027983494 -246.5267085430396 0 -246.5267085430396 -67.729363124890369 0 0 0 0 139.65889606336123 -220.13193243072419 0 -220.13193243072419 -71.276644352226867 0 0 0 0 95.276569953810395 -91.89479739786475 0 -91.89479739786475 25.003822743076853 0 0 0 0 -1.2811637291557734 -7.5631656388764696 0 -7.5631656388764696 -16.596807045274232 0 0 0 0 464.33429020084441 -7.9813663848399301 0 -7.9813663848399301 -65.354550647454744 0 0 0 0 443.13898310014611 -30.697023689017897 0 -30.697023689017897 4.6072752482032229 0 0 0 0 -199.10345214009067 87.309707206805797 0 87.309707206805797 -90.309669762176782 0 0 0 0 -0.75422131812111992 -2.24763268054636 0 -2.24763268054636 -5.0900641863876501 0 0 0 0 -1008.495525000777 -247.72291193025376 0 -247.72291193025376 -58.290430669716443 0 0 0 0 165.99038167280378 -264.40041769263553 0 -264.40041769263553 -185.64319077975421 0 0 0 0 -132.59452474839054 -456.87001341669566 0 -456.87001341669566 -57.3775555344655 0 0 0 0 32.802207863467629 -484.26144872377881 0 -484.26144872377881 -182.84754006797084 0 0 0 0 -14.315488368702063 -70.673745403344583 0 -70.673745403344583 -249.93794869208068 0 0 0 0 124.75422924742088 -364.19766103119582 0 -364.19766103119582 -59.441258447492146 0 0 0 0 136.09403134148306 -364.13805573984791 0 -364.13805573984791 -73.01457831511425 0 0 0 0 175.36237814093329 -152.66608689531859 0 -152.66608689531859 110.50083642935533 0 0 0 0 98.484242081589855 -142.48792424347539 0 -142.48792424347539 163.15162911960579 0 0 0 0 86.787632705996657 -209.56290410690622 0 -209.56290410690622 306.51250381653517 0 0 0 0 93.292378669862956 -79.519189964838006 0 -79.519189964838006 81.648033155252051 0 0 0 0 19.883519349925336 -64.343174984933285 0 -64.343174984933285 157.05296757086285 0 0 0 0 59.37627586806957 -187.35263652910544 0 -187.35263652910544 130.74096920999727 0 0 0 0 17.032087467698148 -204.34557233910164 0 -204.34557233910164 -111.11870356347208 0 0 0 0 -79.523876702942289 -65.656044738455421 0 -65.656044738455421 88.150460096156166 0 0 0 0 -22.802721639309311 -159.43693035151591 0 -159.43693035151591 -119.53210550876247 0 0 0 0 37.547910463559674 -75.984238183838897 0 -75.984238183838897 -406.09415895395068 0 0 0 0 -3.5439949953838834 -5.8528609099193005 0 -5.8528609099193005 10.090634468350338 0 0 0 0 -27.740159820765257 -269.26884889092435 0 -269.26884889092435 -297.80136891794973 0 0 0 0 -193.20915406870336 -211.56677256044532 0 -211.56677256044532 -36.469408080065477 0 0 0 0 -31.662371591743067 82.19755618482759 0 82.19755618482759 12.332692061965645 0 0 0 0 -520.46203980195241 2.2522945586360947 0 2.2522945586360947 90.933472743958191 0 0 0 0 519.12663557730775 -247.44035525072627 0 -247.44035525072627 -44.970964135889517 0 0 0 0 -284.98803010728989 -181.97742261045732 0 -181.97742261045732 327.02349306309225 0 0 0 0 395.57193158411974 -171.3115983165244 0 -171.3115983165244 -262.64438835041074 0 0 0 0 -1.9974912414071753 -10.785141528603226 0 -10.785141528603226 -31.079206074695932 0 0 0 0 815.4067179721751 -498.70739159570985 0 -498.70739159570985 -76.287016039052105 0 0 0 0 554.40720780937409 -506.46229301547464 0 -506.46229301547464 -47.069000626942398 0 0 0 0 231.9970770575419 -254.32898063262201 0 -254.32898063262201 -87.863674123189412 0 0 0 0 731.78341219545837 -251.30228096720748 0 -251.30228096720748 -146.86659996784692 0 0 0 0 123.96350659365226 -152.43052577251228 0 -152.43052577251228 -50.630265312720439 0 0 0 0 179.04414901982909 -251.07809003022646 0 -251.07809003022646 -7.1266690236698196 0 0 0 0 0.39699373509751901 -20.396825413894504 0 -20.396825413894504 -46.993139633453254 0 0 0 0 -0.63911598584989804 -39.558080249447599 0 -39.558080249447599 53.834960202792423 0 0 0 0 16.865585173474756 323.97968828154842 0 323.97968828154842 -332.5724603011131 0 0 0 0 -256.76246059862751 -640.76748372832981 0 -640.76748372832981 147.74830103176919 0 0 0 0 6.1792052343138693 -39.935299814026365 0 -39.935299814026365 58.622146460342123 0 0 0 0 -59.209562211253797 -540.98675089045537 0 -540.98675089045537 110.90976529752379 0 0 0 0 1.8561116990789515 -3.1800185968354882 0 -3.1800185968354882 7.3969894097843607 0 0 0 0 -470.05657899385733 -14.991461523073554 0 -14.991461523073554 -49.032360566407078 0 0 0 0 -51.846644161083532 -19.040556607355029 0 -19.040556607355029 74.711316258988518 0 0 0 0 -148.29637804045706 -103.82538779238348 0 -103.82538779238348 69.430481657851487 0 0 0 0 -126.09759614273935 -162.45433197202146 0 -162.45433197202146 63.945902368268435 0 0 0 0 -72.798223751255136 -167.29654216592826 0 -167.29654216592826 63.829275970605522 0 0 0 0 -75.183250592439435 -101.49428060124046 0 -101.49428060124046 67.645427861305507 0 0 0 0 -6.9231056142598391 -51.287752488908609 0 -51.287752488908609 -123.88119924708644 0 0 0 0 14.59437093338056 -44.480711515479925 0 -44.480711515479925 4.2819953358230123 0 0 0 0 6.9745978722467896 -30.86948774872176 0 -30.86948774872176 -11.101738869769019 0 0 0 0 21.379230374441249 -46.039992287774567 0 -46.039992287774567 -168.71888711501833 0 0 0 0 -14.645836967916694 -84.994736429880504 0 -84.994736429880504 -210.52311702448606 0 0 0 0 35.159871911877417 -32.928808764353562 0 -32.928808764353562 -214.43892602785309 0 0 0 0 31.545726149328402 9.6448604424786026 0 9.6448604424786026 -129.56778616440261 0 0 0 0 40.496771689518937 1.1384726299738759 0 1.1384726299738759 -145.73367549030354 0 0 0 0 30.19071669713594 17.687651062455188 0 17.687651062455188 -136.15638675804803 0 0 0 0 47.127559642482083 20.292445905156455 0 20.292445905156455 -135.97702904728794 0 0 0 0 -53.244513427605852 -99.304535186203793 0 -99.304535186203793 -173.57587178631547 0 0 0 0 17.112504005631536 36.641672775210594 0 36.641672775210594 -276.20857349910966 0 0 0 0 4.5633500096009811 -226.1461124995094 0 -226.1461124995094 -395.64742746350112 0 0 0 0 -67.286334916807391 -142.86614331953274 0 -142.86614331953274 -205.05696795706717 0 0 0 0 -51.644370614754735 -129.57429997883446 0 -129.57429997883446 -57.494550595460169 0 0 0 0 5.2624614556979736 -45.055915798817395 0 -45.055915798817395 47.84747261029878 0 0 0 0 13.15320519656612 -18.182793701761291 0 -18.182793701761291 -3.1675809956810017 0 0 0 0 5.3850406197132088 -73.766034912988843 0 -73.766034912988843 63.620744428096017 0 0 0 0 11.779601034588268 -142.74905163813969 0 -142.74905163813969 -314.31740457402157 0 0 0 0 54.683144627102592 -9.9407066477770059 0 -9.9407066477770059 -222.25876950064776 0 0 0 0 95.189842621970456 -42.931948662209834 0 -42.931948662209834 -373.97579812993445 0 0 0 0 92.657142099400517 13.517105777949837 0 13.517105777949837 -262.28910065314449 0 0 0 0 56.479106943748775 11.203648916246493 0 11.203648916246493 -204.15284033830903 0 0 0 0 119.00210668667569 34.786332756418233 0 34.786332756418233 -231.10679505193912 0 0 0 0 91.617093146123807 42.378579304567211 0 42.378579304567211 -541.98232910050228 0 0 0 0 86.037804595573107 -48.196050601643947 0 -48.196050601643947 -258.51094148823722 0 0 0 0 139.15606696905161 123.73980681681314 0 123.73980681681314 -198.24632337818366 0 0 0 0 167.84608923035557 -8.1343394336272468 0 -8.1343394336272468 -308.42134338078449 0 0 0 0 127.38570390638779 33.820561653372351 0 33.820561653372351 -209.21945837173507 0 0 0 0 151.11000766411598 65.306800773169925 0 65.306800773169925 -139.60463467411864 0 0 0 0 129.09356361603204 74.132418034617103 0 74.132418034617103 -142.56156327868484 0 0 0 0 111.25959813366353 80.973039330849133 0 80.973039330849133 -103.93341249490913 0 0 0 0 66.582963707973249 72.500763648475186 0 72.500763648475186 -78.208940256008646 0 0 0 0 83.021696486393921 91.401818621618077 0 91.401818621618077 -87.175282405546568 0 0 0 0 68.19454377857619 58.318834263694043 0 58.318834263694043 -140.00404585955948 0 0 0 0 100.39828229778868 88.113824172737395 0 88.113824172737395 -104.53436142477949 0 0 0 0 104.26849819140625 63.91628373968797 0 63.91628373968797 -162.51562913664384 0 0 0 0 66.257272335555172 30.259958817594452 0 30.259958817594452 -168.68197386301313 0 0 0 0 85.705738414544612 62.938581564664673 0 62.938581564664673 -145.9428444517398 0 0 0 0 64.636327869011438 22.921051407392042 0 22.921051407392042 -183.16709711505064 0 0 0 0 68.2717509289796 11.86676741272214 0 11.86676741272214 -167.8949516793291 0 0 0 0 65.80002622216125 -30.139767784044125 0 -30.139767784044125 -264.1575000319126 0 0 0 0 45.999195309967035 27.109591824280869 0 27.109591824280869 -136.86270088730453 0 0 0 0 54.71519773901673 24.447613440153873 0 24.447613440153873 -139.83640578284394 0 0 0 0 36.2244037494238 23.113986827163899 0 23.113986827163899 -133.70316017836012 0 0 0 0 71.543794161931146 41.519451211116575 0 41.519451211116575 -152.67758772552952 0 0 0 0 56.777889143879293 13.71672287817637 0 13.71672287817637 -171.45053764729164 0 0 0 0 53.774556593620218 45.971583586954694 0 45.971583586954694 -121.63901014995645 0 0 0 0 38.310568659653654 42.728098227842565 0 42.728098227842565 -112.10762212601912 0 0 0 0 53.369007656088797 43.007855919514896 0 43.007855919514896 -137.0972209371248 0 0 0 0 29.375054525007727 81.95547469435769 0 81.95547469435769 -14.676502913597858 0 0 0 0 55.986020010434231 63.787541086769352 0 63.787541086769352 -107.39249312866013 0 0 0 0 55.803826643706998 53.628858277323161 0 53.628858277323161 -124.26545643806003 0 0 0 0 60.034762367238727 75.46345996539344 0 75.46345996539344 -83.280320913683681 0 0 0 0 70.394733370587346 84.293178168378063 0 84.293178168378063 -85.082861803472042 0 0 0 0 5.2782262613982311 64.971881618654152 0 64.971881618654152 -25.722286100963174 0 0 0 0 27.051203917508246 55.906683488410636 0 55.906683488410636 -63.295823309183106 0 0 0 0 27.173444723186549 60.472846090427993 0 60.472846090427993 -63.41213318330125 0 0 0 0 23.786679686309071 47.590005643589393 0 47.590005643589393 -98.570067115568236 0 0 0 0 23.319993064855225 42.487189042138198 0 42.487189042138198 -93.960037211563758 0 0 0 0 -0.38557207821577322 42.524020876678151 0 42.524020876678151 -52.822999339740818 0 0 0 0 1.5691904245504702 46.454593404278057 0 46.454593404278057 -71.072150481735662 0 0 0 0 8.1701828158184071 46.576637893249426 0 46.576637893249426 -100.73383296869179 0 0 0 0 -17.55152775766328 24.070410798882222 0 24.070410798882222 -90.086860005589187 0 0 0 0 16.262569715589052 43.34257085949821 0 43.34257085949821 -125.99516805528765 0 0 0 0 9.7286317194812 52.956925033402513 0 52.956925033402513 -122.86911759844861 0 0 0 0 12.708112851483747 41.645324849127519 0 41.645324849127519 -109.6560214794481 0 0 0 0 18.165397561853752 50.363450507293237 0 50.363450507293237 -123.10946201107618 0 0 0 0 20.464236532803625 36.021783563061035 0 36.021783563061035 -121.69206240300628 0 0 0 0 21.544201178039657 37.618981608274225 0 37.618981608274225 -119.47611231627161 0 0 0 0 35.420966813719133 34.554144769737832 0 34.554144769737832 -126.42847439568141 0 0 0 0 18.329772639001021 46.720637342939881 0 46.720637342939881 -94.457145749282063 0 0 0 0 39.670832820615033 45.342261229630822 0 45.342261229630822 -119.37265043269477 0 0 0 0 19.822279928135686 51.722919173971604 0 51.722919173971604 -99.797439417745409 0 0 0 0 -13.425409093790222 29.013943524281103 0 29.013943524281103 -79.985842032644541 0 0 0 0 -23.604592696239706 32.037548140207036 0 32.037548140207036 -28.971029344087583 0 0 0 0 -23.591915532801067 42.334651010098241 0 42.334651010098241 -25.016532070743324 0 0 0 0 -17.738158757645579 31.835555022305471 0 31.835555022305471 -67.687700458714971 0 0 0 0 -38.381241312919883 27.236772320573436 0 27.236772320573436 -88.740680734257694 0 0 0 0 -12.921441974205663 49.354213699883985 0 49.354213699883985 -71.427588607343068 0 0 0 0 -2.3620833137247246 21.207014240212629 0 21.207014240212629 -138.0765928594119 0 0 0 0 9.8973490827338537 -18.857003434741273 0 -18.857003434741273 5.7193196877897208 0 0 0 0 6.5440980131182442 -11.119275308605054 0 -11.119275308605054 8.2884413270057138 0 0 0 0 8.4856570842814278 -7.771792870479473 0 -7.771792870479473 -13.172632776286918 0 0 0 0 -16.890582288295263 52.979849693650294 0 52.979849693650294 -88.9194677541891 0 0 0 0 7.5782728906342527 -9.9580849880894675 0 -9.9580849880894675 2.443437833887856 0 0 0 0 19.279122297570211 -29.828580405387697 0 -29.828580405387697 5.0967070155129477 0 0 0 0 1.1962424601992439 -3.2242870079367663 0 -3.2242870079367663 5.1117617837282978 0 0 0 0 18.187978167547044 -20.748786346666634 0 -20.748786346666634 19.827534341719002 0 0 0 0 8.1840691376045527 -11.206352163738487 0 -11.206352163738487 -14.859022991610818 0 0 0 0 -8.057307453622343 -34.661399265482032 0 -34.661399265482032 42.090432682962273 0 0 0 0 15.837324729072861 20.22530215749066 0 20.22530215749066 -136.29490008731955 0 0 0 0 -5.9806992762023583 26.724502817907705 0 26.724502817907705 -130.51564559780309 0 0 0 0 14.721145301009528 30.25163083174175 0 30.25163083174175 -130.04864388607166 0 0 0 0 14.215204069027095 29.864551029702852 0 29.864551029702852 -129.34031706683891 0 0 0 0 16.794754796319467 39.481688226700498 0 39.481688226700498 -124.34923126339345 0 0 0 0 19.416124187104288 27.932011398369241 0 27.932011398369241 -128.66690958850813 0 0 0 0 9.0047892101647449 50.952313751900419 0 50.952313751900419 -126.88587310089861 0 0 0 0 -9.6373308751899458 48.801975585887476 0 48.801975585887476 -125.5467521085211 0 0 0 0 15.737664134241641 47.003205347171388 0 47.003205347171388 -126.1332033515846 0 0 0 0 -0.82378952472936362 35.189784597787366 0 35.189784597787366 -125.20740754566214 0 0 0 0 5.9328784569444508 -12.835138131704895 0 -12.835138131704895 -3.8360536311484728 0 0 0 0 12.888481512840372 55.078955146411317 0 55.078955146411317 -141.0356293764944 0 0 0 0 17.399639312468935 43.009407274685145 0 43.009407274685145 -144.95147681438675 0 0 0 0 25.303558473402518 -34.994114823583004 0 -34.994114823583004 -3.5052385583694559 0 0 0 0 7.8346418022047146 -30.296041166079704 0 -30.296041166079704 0.47056489040551241 0 0 0 0 -1.5790430267370539 -36.482392238267494 0 -36.482392238267494 13.800275509147468 0 0 0 0 8.9446106377508841 -41.554797970178697 0 -41.554797970178697 15.100532866599679 0 0 0 0 10.404753709755823 -34.369353724967823 0 -34.369353724967823 10.896602191609418 0 0 0 0 12.804559745403822 -32.3659255763896 0 -32.3659255763896 14.355520228684327 0 0 0 0 5.9812470882534399 -40.536803743196288 0 -40.536803743196288 6.0623409830582204 0 0 0 0 0.9253033722670807 -34.385159406855564 0 -34.385159406855564 29.3031052179158 0 0 0 0 3.6898548143473988 -21.654166684025682 0 -21.654166684025682 24.703884576913609 0 0 0 0 -0.57465567221152014 -29.720367879985588 0 -29.720367879985588 15.822954132125233 0 0 0 0 2.1428728356699196 -3.8154501005945995 0 -3.8154501005945995 -1.0927050760564612 0 0 0 0 -183.87745088886004 -103.69445545868075 0 -103.69445545868075 -52.383882968664693 0 0 0 0 -49.454083539312705 -153.47046781097742 0 -153.47046781097742 -248.64686546415578 0 0 0 0 -2.6047518019649942 -1.9025343521643272 0 -1.9025343521643272 6.9583629981527935 0 0 0 0 -0.66652141272788867 -265.37435094527973 0 -265.37435094527973 -264.41775426945878 0 0 0 0 14.582497241462988 -221.40897315505936 0 -221.40897315505936 -200.76480982541398 0 0 0 0 -27.162759368642583 -223.95756212661945 0 -223.95756212661945 -69.520421369154064 0 0 0 0 10.386234703693376 -25.790577685886163 0 -25.790577685886163 31.672773673528745 0 0 0 0 -43.140603656742314 37.939314227667637 0 37.939314227667637 101.93644468893763 0 0 0 0 5.2499911944396445 -44.575411623394757 0 -44.575411623394757 4.6218919512502907 0 0 0 0 121.26829440696747 -232.16038168732484 0 -232.16038168732484 87.833254810648214 0 0 0 0 14.440506651923499 -34.526631000554488 0 -34.526631000554488 23.153251505982652 0 0 0 0 67.052351691992953 -253.79130763522699 0 -253.79130763522699 136.39244719786802 0 0 0 0 12.526490372154512 -37.297447298798943 0 -37.297447298798943 10.542241931520039 0 0 0 0 4.3734102228700067 -167.70028339704368 0 -167.70028339704368 166.6614382234402 0 0 0 0 -86.06785956650856 -58.901053658228193 0 -58.901053658228193 -110.17347268998856 0 0 0 0 3.8678392933042716 -4.5269580687282946 0 -4.5269580687282946 -17.090378408835484 0 0 0 0 -18.253386461394257 -193.89494902766455 0 -193.89494902766455 -210.67269028315059 0 0 0 0 -30.894175948621523 -30.573068265938673 0 -30.573068265938673 -120.73056033383909 0 0 0 0 6.9278510205622297 -217.10316832004173 0 -217.10316832004173 -193.91699306782175 0 0 0 0 -30.485073842733982 -229.45198829121364 0 -229.45198829121364 -148.7421080603599 0 0 0 0 -52.630529336653126 -206.17534743087526 0 -206.17534743087526 -171.16805759731506 0 0 0 0 -32.970516445988324 -275.75741958491562 0 -275.75741958491562 -173.76672609345405 0 0 0 0 30.467470744202728 -186.70325355013847 0 -186.70325355013847 -132.31105868243321 0 0 0 0 -14.199538741995639 -215.97396038150328 0 -215.97396038150328 -84.161251170735341 0 0 0 0 22.279425505577819 -241.09482300663512 0 -241.09482300663512 -69.473984594565991 0 0 0 0 56.641760339785833 -206.78738864184561 0 -206.78738864184561 -119.90138403067249 0 0 0 0 -18.791143269685563 -178.71660561306999 0 -178.71660561306999 17.596109521473409 0 0 0 0 66.244748737801274 -103.87781519328564 0 -103.87781519328564 44.455677928774094 0 0 0 0 11.917707240834716 -175.91941017548379 0 -175.91941017548379 -24.370368754825904 0 0 0 0 65.993685679258746 -237.17559335477523 0 -237.17559335477523 19.174979064584477 0 0 0 0 156.79361381397757 -253.01405815506587 0 -253.01405815506587 142.43559895659018 0 0 0 0 12.185022925463272 -178.29619103389632 0 -178.29619103389632 122.59690991161915 0 0 0 0 -130.82966254190509 -214.31793763858147 0 -214.31793763858147 68.042634977449779 0 0 0 0 12.132035984817776 -240.37393917733425 0 -240.37393917733425 -64.642544159703903 0 0 0 0 -130.85272751518642 -206.86753842954204 0 -206.86753842954204 38.629536661050224 0 0 0 0 50.761730575017282 -282.99375364315983 0 -282.99375364315983 68.611312991924933 0 0 0 0 -173.02967657575209 -288.33210268141556 0 -288.33210268141556 177.234734129961 0 0 0 0 -303.23672821392393 -168.0547953490277 0 -168.0547953490277 130.00960332075192 0 0 0 0 -171.1141274545771 -278.69613936914538 0 -278.69613936914538 221.23727040669473 0 0 0 0 -1299.9401664398902 -303.96397790649644 0 -303.96397790649644 345.22460810105304 0 0 0 0 -544.60878797179612 -236.74019148619118 0 -236.74019148619118 338.24595955257973 0 0 0 0 -261.26348808427429 -501.66564802793437 0 -501.66564802793437 377.56700600475597 0 0 0 0 67.251325805878878 -148.5928321121246 0 -148.5928321121246 394.48332653536636 0 0 0 0 176.77622507997148 -305.92426928679924 0 -305.92426928679924 156.99986141347836 0 0 0 0 154.62715111142461 -120.04756972245013 0 -120.04756972245013 177.94962185950135 0 0 0 0 137.61948188535462 -296.36325238635254 0 -296.36325238635254 329.4083741069262 0 0 0 0 62.988202697684756 -306.34915784785699 0 -306.34915784785699 457.4698683185652 0 0 0 0 463.1568603511696 -211.46451077468191 0 -211.46451077468191 56.728161207758603 0 0 0 0 763.52343375820783 -495.60496772642 0 -495.60496772642 159.5781053424198 0 0 0 0 -937.72446396102896 238.76640083924394 0 238.76640083924394 138.60210901417304 0 0 0 0 -0.53826947177467765 -1.5395579830060981 0 -1.5395579830060981 3.9401280213265579 0 0 0 0 -1.2537064854429514 -6.6417882460346576 0 -6.6417882460346576 8.0032339044769998 0 0 0 0 -443.81591829883473 -21.282371682533267 0 -21.282371682533267 -240.0606461624011 0 0 0 0 -1146.9588500157988 -142.0456345516086 0 -142.0456345516086 375.20486580518264 0 0 0 0 162.57539089370766 -247.50954616978015 0 -247.50954616978015 -8.9177826178802206 0 0 0 0 176.68135639752381 -166.08210945832525 0 -166.08210945832525 70.726296539618488 0 0 0 0 -0.18118979008431779 -352.9187993816322 0 -352.9187993816322 802.86849188835367 0 0 0 0 132.9264779568548 -65.516046108705268 0 -65.516046108705268 116.10124796590753 0 0 0 0 -452.43155999673763 -77.845861776637321 0 -77.845861776637321 274.9729900454804 0 0 0 0 92.368594686682627 -26.659931203328597 0 -26.659931203328597 -54.732432804557902 0 0 0 0 92.308451877133848 -25.786308770513244 0 -25.786308770513244 217.30106087621243 0 0 0 0 -54.111380600523262 6.2579932070193536 0 6.2579932070193536 98.873365632378409 0 0 0 0 26.968322109602013 -32.254604376577845 0 -32.254604376577845 113.72011449337151 0 0 0 0 -583.88266086136355 -73.170705111236202 0 -73.170705111236202 97.862637597769208 0 0 0 0 -291.09935404214775 16.514433529999224 0 16.514433529999224 211.64637662823952 0 0 0 0 -157.10596259897284 99.249794669725816 0 99.249794669725816 236.99725597212091 0 0 0 0 -2.3705335371828937 -1.4334309950297452 0 -1.4334309950297452 1.263517044221576 0 0 0 0 -437.81554214379867 -49.101962420070777 0 -49.101962420070777 196.89863546214474 0 0 0 0 -167.47573976235435 -147.25202672238265 0 -147.25202672238265 -50.109152871991682 0 0 0 0 -253.09098996630928 -96.57391897834168 0 -96.57391897834168 198.94336991778141 0 0 0 0 -204.85395186469395 -67.739488325838465 0 -67.739488325838465 30.376718212486594 0 0 0 0 -108.23815916106105 60.189203587127849 0 60.189203587127849 115.39648112727446 0 0 0 0 -73.549209888471523 -53.255041368331149 0 -53.255041368331149 -74.586892611609073 0 0 0 0 -185.50867774584913 -30.367221140091715 0 -30.367221140091715 68.557455573685729 0 0 0 0 -194.11592660314273 -123.29906837336239 0 -123.29906837336239 32.94400214657071 0 0 0 0 44.663153391273227 -38.581145998050488 0 -38.581145998050488 -93.197967537696968 0 0 0 0 -1.4145145679072755 -0.49280037372833974 0 -0.49280037372833974 3.0540991208589219 0 0 0 0 -27.838507021253463 62.063190916533131 0 62.063190916533131 27.547683776132544 0 0 0 0 -43.075709338627348 8.754565425324472 0 8.754565425324472 -3.6680606919107959 0 0 0 0 -3.026483262931265 -18.652482655405485 0 -18.652482655405485 16.653183060683343 0 0 0 0 96.602516641898546 -124.24633813132641 0 -124.24633813132641 -62.957110412700786 0 0 0 0 -6.790412103633571 -24.501369570511088 0 -24.501369570511088 12.771470068170856 0 0 0 0 -7.8892440250092477 -15.572123601030398 0 -15.572123601030398 10.083977478521774 0 0 0 0 -66.115641395119383 -25.279683162430501 0 -25.279683162430501 28.963506427004177 0 0 0 0 98.808277202268073 -43.038157837760082 0 -43.038157837760082 83.583694194492637 0 0 0 0 -55.147835281597509 15.949445837241001 0 15.949445837241001 118.29689401076212 0 0 0 0 -3.0816838107893716 -1.462549961738862 0 -1.462549961738862 1.3471059754448511 0 0 0 0 47.787556287472398 38.759267713310692 0 38.759267713310692 127.44851681247383 0 0 0 0 -1.5654685961298753 -1.3521430843959585 0 -1.3521430843959585 1.0472370353454181 0 0 0 0 18.743878788947768 9.8200641924231604 0 9.8200641924231604 99.63554614550776 0 0 0 0 -73.152081982603704 52.856461814233626 0 52.856461814233626 143.26011854269746 0 0 0 0 2.4773463994397105 0.96727281568934131 0 0.96727281568934131 0.85943211892000448 0 0 0 0 -263.70424541739339 -133.46537719377739 0 -133.46537719377739 1471.5734413888804 0 0 0 0 2.3085936465067789 193.07343087869958 0 193.07343087869958 -6.1566781230721972 0 0 0 0 18.742998755158624 119.36993880893169 0 119.36993880893169 293.36611985871605 0 0 0 0 -0.30356730574567337 43.596607871787455 0 43.596607871787455 -91.47418612931051 0 0 0 0 1.0599733963084503 0.099988150739307002 0 0.099988150739307002 10.756370797957047 0 0 0 0 4.6045707070983894 3.1157072252596265 0 3.1157072252596265 7.5532578280127325 0 0 0 0 247.96204698344809 222.36947617099031 0 222.36947617099031 227.24792038145461 0 0 0 0 -87.823093665152555 -5.8490479537649662 0 -5.8490479537649662 73.56892428296851 0 0 0 0 345.36848418925365 435.71063810094347 0 435.71063810094347 636.28325944877724 0 0 0 0 -218.62033849447471 66.039201659486935 0 66.039201659486935 973.08039300747259 0 0 0 0 -42.721698383145849 -55.258449241917333 0 -55.258449241917333 27.621280563555047 0 0 0 0 -45.115719816465571 -46.077508685113571 0 -46.077508685113571 9.757232236343043 0 0 0 0 -3.7101375428227428 -3.5981404095259677 0 -3.5981404095259677 34.682741990436114 0 0 0 0 -22.514326105891087 76.674563279182621 0 76.674563279182621 22.255839172053129 0 0 0 0 -16.715875524092553 -9.797338530340312 0 -9.797338530340312 63.638982984413815 0 0 0 0 9.4675477730779676 -23.502166960246541 0 -23.502166960246541 0.7580681448453106 0 0 0 0 -1.6410034952501746 -0.010605393847626488 0 -0.010605393847626488 11.620326288327551 0 0 0 0 -3.4493084430432646 -14.559908574112342 0 -14.559908574112342 14.185148757635943 0 0 0 0 -0.0044191455332622809 1.0156955948941047 0 1.0156955948941047 5.0998936721508557 0 0 0 0 -63.488954559215927 -34.373538467658364 0 -34.373538467658364 51.189645177928469 0 0 0 0 -13.043964891391482 -13.659089248190117 0 -13.659089248190117 21.720102758396301 0 0 0 0 2.875143203293888 -11.892085647199835 0 -11.892085647199835 9.9046158216260451 0 0 0 0 -17.970413665272645 -20.684636406181198 0 -20.684636406181198 8.7891441814626887 0 0 0 0 -0.82229043640109012 -13.522562943742741 0 -13.522562943742741 13.511416726676543 0 0 0 0 -0.0028295983393036295 -13.383739442861952 0 -13.383739442861952 13.227533475208475 0 0 0 0 0.0015637138167221565 -15.102376382951661 0 -15.102376382951661 17.887715493873657 0 0 0 0 -3.1519828514574328 -12.305879754133457 0 -12.305879754133457 16.073289951051265 0 0 0 0 4.087220348212032 -10.695443232568529 0 -10.695443232568529 16.720639832772918 0 0 0 0 -6.6191257040081837 -21.122845085673362 0 -21.122845085673362 13.150131378501101 0 0 0 0 5.2336890076257987 -24.088766446120644 0 -24.088766446120644 10.796048290137151 0 0 0 0 9.8030602649087086 -29.676962453022497 0 -29.676962453022497 12.104698674520478 0 0 0 0 -5.3749413351142721 -19.161804139115702 0 -19.161804139115702 16.241054724041533 0 0 0 0 11.566878345394798 -18.46845728887638 0 -18.46845728887638 15.617724234235538 0 0 0 0 7.7676545673275541 -22.16873692615809 0 -22.16873692615809 22.491023193926594 0 0 0 0 4.6454332066865334 -13.420905289173959 0 -13.420905289173959 21.751937130205931 0 0 0 0 6.8386681523697916 -20.621257636254086 0 -20.621257636254086 20.686160539520642 0 0 0 0 11.56342375883105 -24.791652205318314 0 -24.791652205318314 28.064899889741355 0 0 0 0 15.950359311624197 -20.864444761818959 0 -20.864444761818959 20.548834500425073 0 0 0 0 6.9771095315895195 -3.7553381833258612 0 -3.7553381833258612 -6.7166383891775769 0 0 0 0 12.130692058373825 -10.550039040525007 0 -10.550039040525007 8.4007195700778539 0 0 0 0 8.9363148240363728 -7.7693168952618947 0 -7.7693168952618947 -6.4455600074240955 0 0 0 0 10.435116721782833 -20.404240931138702 0 -20.404240931138702 15.180911414376169 0 0 0 0 8.7863297540316125 -18.818617382587036 0 -18.818617382587036 31.313871636981276 0 0 0 0 10.827851136204231 -9.7967791866571403 0 -9.7967791866571403 -1.8778181841265233 0 0 0 0 10.053435171692399 -12.340532048869136 0 -12.340532048869136 6.8575859912016313 0 0 0 0 6.5298302395676728 -7.6670611233912496 0 -7.6670611233912496 14.940462219886058 0 0 0 0 8.0657857662030068 -9.3017544348850265 0 -9.3017544348850265 5.5292740315510045 0 0 0 0 0.28637942282512086 -16.654903442766226 0 -16.654903442766226 25.2679306638247 0 0 0 0 -0.84136897642397912 -2.9386859766998015 0 -2.9386859766998015 5.4345522772155981 0 0 0 0 11.46734189138806 -19.42391638296067 0 -19.42391638296067 -10.102075059185154 0 0 0 0 0.00090711907250806689 -14.28839620472354 0 -14.28839620472354 34.306939810319818 0 0 0 0 2.932056211757299 -10.754577803610118 0 -10.754577803610118 22.362853871312836 0 0 0 0 -5.8273977574845048 -14.408484448247009 0 -14.408484448247009 25.103908668443182 0 0 0 0 -1.5963514381510322 -10.427968684598454 0 -10.427968684598454 22.446381600531822 0 0 0 0 -458.22630961502364 -298.08317996028472 0 -298.08317996028472 -187.4146077786645 0 0 0 0 -460.50637408351758 -279.74705645006543 0 -279.74705645006543 -65.532131185835169 0 0 0 0 -482.51120770672424 -229.06419081858257 0 -229.06419081858257 -169.67669199617012 0 0 0 0 1.6091378923842541 -2.9797716181400915 0 -2.9797716181400915 1.5725934273551303 0 0 0 0 -0.071270673339313362 -30.176408875662673 0 -30.176408875662673 -18.93551171711124 0 0 0 0 -492.53654691317934 -456.70526288776091 0 -456.70526288776091 206.97609463901244 0 0 0 0 -549.37354226523894 -314.77524448841177 0 -314.77524448841177 40.596344798948849 0 0 0 0 -487.96852935171773 -368.06907875783781 0 -368.06907875783781 13.830867992423009 0 0 0 0 -472.59630969848513 -350.05909786895427 0 -350.05909786895427 -67.009094465988824 0 0 0 0 -479.31619381007476 -385.3895756197453 0 -385.3895756197453 -151.57138619864509 0 0 0 0 -558.56025976569072 -337.43774606723491 0 -337.43774606723491 -96.960932052093995 0 0 0 0 -613.14896102228522 -405.0924125479396 0 -405.0924125479396 -154.64389328890093 0 0 0 0 -525.18527886810989 -364.37044913199861 0 -364.37044913199861 -217.04732583610894 0 0 0 0 -608.6643489317139 -327.31643018330578 0 -327.31643018330578 -145.17959804545762 0 0 0 0 -479.26429985362483 -294.31485028383941 0 -294.31485028383941 -128.09068850439871 0 0 0 0 -416.57720293590864 -262.60127544861916 0 -262.60127544861916 -180.39688760379795 0 0 0 0 -427.71796284927314 -310.79762612844934 0 -310.79762612844934 -232.4808569233428 0 0 0 0 -435.28678945833235 -258.16097295232976 0 -258.16097295232976 -183.4899032591893 0 0 0 0 -487.35651094463537 -297.57067163562533 0 -297.57067163562533 -203.31418316053987 0 0 0 0 -562.79341129378736 -359.66934814986962 0 -359.66934814986962 -233.43394695995812 0 0 0 0 -554.57362161742458 -385.52113572306553 0 -385.52113572306553 -321.48078508408071 0 0 0 0 -481.78311272891006 -278.30780018474979 0 -278.30780018474979 -250.10712353952113 0 0 0 0 -541.7844457914689 -339.41031390184435 0 -339.41031390184435 -277.08210844002315 0 0 0 0 -492.92305146034778 -238.00296020268797 0 -238.00296020268797 -268.41040272149985 0 0 0 0 -465.04580860544957 -302.98986746819719 0 -302.98986746819719 -214.51928851968114 0 0 0 0 -448.48889149090974 -224.42471408084748 0 -224.42471408084748 -187.40258471114794 0 0 0 0 -491.6053118869022 -265.31747446455665 0 -265.31747446455665 -187.85811605474737 0 0 0 0 -470.78968952545256 -202.63200650843282 0 -202.63200650843282 -160.4270602247434 0 0 0 0 -414.37926400994183 -245.39443671425238 0 -245.39443671425238 -49.214547995070461 0 0 0 0 -411.43670827345341 -275.4163189558094 0 -275.4163189558094 -171.01609800850565 0 0 0 0 -442.30640745437995 -244.41166711889673 0 -244.41166711889673 -138.31152467757056 0 0 0 0 -422.63193785362091 -207.70057065657238 0 -207.70057065657238 -101.85819611471379 0 0 0 0 -397.61605270965083 -201.93425021777512 0 -201.93425021777512 -148.83859963556461 0 0 0 0 -404.09077432446429 -186.14418451069832 0 -186.14418451069832 -98.803145122335991 0 0 0 0 -393.6351350453042 -152.77835980841337 0 -152.77835980841337 -24.469615933421665 0 0 0 0 -394.05809912014229 -199.64782658335025 0 -199.64782658335025 -126.0719156236737 0 0 0 0 -389.35646523904143 -285.29268548117034 0 -285.29268548117034 -161.96681175439153 0 0 0 0 -196.85816632059868 -116.12226059797104 0 -116.12226059797104 -3.694833092209592 0 0 0 0 -140.78314828153816 -60.794550936523592 0 -60.794550936523592 -30.627048339760222 0 0 0 0 -383.97627041560918 -254.36996114671092 0 -254.36996114671092 -183.63441040598263 0 0 0 0 -93.523736919007206 -68.403186782408739 0 -68.403186782408739 -54.386601844162215 0 0 0 0 4.2658954654787848 -6.6563367380296015 0 -6.6563367380296015 6.0934946192520982 0 0 0 0 -415.23396936163772 -245.82630548976522 0 -245.82630548976522 -181.01358494042506 0 0 0 0 -406.02681696645595 -272.27414335993308 0 -272.27414335993308 -204.32495552287583 0 0 0 0 -89.628846697400149 -91.945751127461335 0 -91.945751127461335 -57.779423564454191 0 0 0 0 -0.13917246203345712 -95.978375094287912 0 -95.978375094287912 -118.26827962547395 0 0 0 0 -71.225784637623292 -61.675235832492035 0 -61.675235832492035 -25.702875599196886 0 0 0 0 -41.347514853310713 -150.52135760254532 0 -150.52135760254532 -164.51444232622453 0 0 0 0 -86.476015533728059 -212.48916287454995 0 -212.48916287454995 -226.26516472503772 0 0 0 0 -106.82607944570918 -114.17687400264549 0 -114.17687400264549 -102.16602796695952 0 0 0 0 -84.96895467430295 -84.473009337423719 0 -84.473009337423719 -63.169750445264071 0 0 0 0 -206.15534239951012 -178.70743818162146 0 -178.70743818162146 -74.435123460920295 0 0 0 0 0.032307863406458637 -264.03095420896989 0 -264.03095420896989 -260.30488833118216 0 0 0 0 -159.79637141184503 -156.30685191451266 0 -156.30685191451266 -239.91186146996461 0 0 0 0 -244.62817794144212 -507.60409352587885 0 -507.60409352587885 -523.94485274697217 0 0 0 0 -73.625920674174267 49.712725344254068 0 49.712725344254068 139.43254258374873 0 0 0 0 -55.867628106088887 -40.247827910809974 0 -40.247827910809974 25.881252044542634 0 0 0 0 0.30308932024811952 -0.038592397154570079 0 -0.038592397154570079 -1.236229270733979 0 0 0 0 -521.86308878877753 -435.26464669756024 0 -435.26464669756024 -196.61300201577978 0 0 0 0 -331.89342958289853 -221.00524612516347 0 -221.00524612516347 -217.99172089849162 0 0 0 0 -59.221819498443438 -160.3371528794687 0 -160.3371528794687 -277.42257155109837 0 0 0 0 -379.1990014519688 -152.6531686267117 0 -152.6531686267117 133.29615751287929 0 0 0 0 -142.03139830804321 -425.84830335490233 0 -425.84830335490233 -283.61059910683252 0 0 0 0 152.67245873589127 33.123702028597108 0 33.123702028597108 60.202964638916455 0 0 0 0 -38.951877903971763 -303.44507539427104 0 -303.44507539427104 125.91776092065993 0 0 0 0 0.39873701217220514 -109.02336377023312 0 -109.02336377023312 739.55304847945081 0 0 0 0 145.8919328999109 -429.16306149030243 0 -429.16306149030243 1211.3892182219715 0 0 0 0 153.37400102122774 -307.06269957189215 0 -307.06269957189215 607.11854695325019 0 0 0 0 -229.2368162060302 -276.20592543304701 0 -276.20592543304701 535.52760901203874 0 0 0 0 -82.796766242667218 -31.113712900776591 0 -31.113712900776591 437.70724043969312 0 0 0 0 -131.54946425008529 -280.11917483657999 0 -280.11917483657999 192.50784499983274 0 0 0 0 -309.81021683146537 -119.51815348997661 0 -119.51815348997661 866.88253699031338 0 0 0 0 -241.81242985034623 -35.561997870081541 0 -35.561997870081541 697.85424951706955 0 0 0 0 -224.87822089265683 -180.28297605584885 0 -180.28297605584885 926.08850827775314 0 0 0 0 -222.47030930944311 -135.70749418316336 0 -135.70749418316336 1318.5115531892006 0 0 0 0 -198.01704129882273 83.680344398555462 0 83.680344398555462 1156.6467778026927 0 0 0 0 -261.65270448099182 114.83033635766333 0 114.83033635766333 1150.4980423259367 0 0 0 0 -291.52321853355534 147.34941586401328 0 147.34941586401328 1117.6341153222929 0 0 0 0 -251.97975071804831 22.54708499465778 0 22.54708499465778 827.86165946088386 0 0 0 0 -247.33832267799335 169.4411011681982 0 169.4411011681982 1064.6431183598543 0 0 0 0 -220.85699972507427 290.66834871007404 0 290.66834871007404 1354.4252818997265 0 0 0 0 -152.38105049628211 -79.506372213421855 0 -79.506372213421855 1029.4604569324438 0 0 0 0 426.26246050715963 701.60253393796484 0 701.60253393796484 1082.2276877115 0 0 0 0 473.75956145358214 607.1784442778735 0 607.1784442778735 1642.5177953624516 0 0 0 0 -225.65998017609672 123.20254642450891 0 123.20254642450891 1992.2766876682144 0 0 0 0 -161.61624188363203 166.83914103447751 0 166.83914103447751 1258.5898371160756 0 0 0 0 -190.06105535519873 -3.1832543362061188 0 -3.1832543362061188 1107.3328360662854 0 0 0 0 -119.30165735955234 107.15201464182155 0 107.15201464182155 488.83711542929814 0 0 0 0 -254.95578800849034 237.45743446313645 0 237.45743446313645 979.77565656341176 0 0 0 0 -392.89663325030415 141.92988833303389 0 141.92988833303389 1317.7872506976564 0 0 0 0 -248.64689834321325 53.231859757939674 0 53.231859757939674 833.33354346638225 0 0 0 0 -370.56366144178901 -466.05528087213315 0 -466.05528087213315 59.085087794655919 0 0 0 0 -247.29268708371092 -83.334560919407522 0 -83.334560919407522 471.78611468862437 0 0 0 0 -275.08644690261281 -114.8495696454811 0 -114.8495696454811 511.37244905275656 0 0 0 0 -214.24253148186108 -103.73837081697457 0 -103.73837081697457 521.34569342290342 0 0 0 0 -314.77053881819302 65.833784774342348 0 65.833784774342348 844.09798909218807 0 0 0 0 -418.04536011106393 -39.749804834846145 0 -39.749804834846145 501.27634137317727 0 0 0 0 -259.47312790488286 -231.91252122912374 0 -231.91252122912374 230.18752243234485 0 0 0 0 -466.64146096940385 -360.58015775027889 0 -360.58015775027889 246.97652937755902 0 0 0 0 -168.08791139206733 -289.44769431599889 0 -289.44769431599889 -39.144066237531661 0 0 0 0 -475.45995776215204 -328.62636647891213 0 -328.62636647891213 -118.43735688654124 0 0 0 0 3.1118050270955848 -9.6667254058709879 0 -9.6667254058709879 12.181896268834635 0 0 0 0 -496.98159511299673 -300.05438491053883 0 -300.05438491053883 -62.579091847430391 0 0 0 0 -488.44858782312804 -273.98120981346437 0 -273.98120981346437 -86.827671879873378 0 0 0 0 -488.14118580063587 -270.16257356207097 0 -270.16257356207097 -72.823569153777498 0 0 0 0 -263.29778514278587 -304.21748350132839 0 -304.21748350132839 -316.16219942597672 0 0 0 0 -328.08950805835775 -110.63638213255399 0 -110.63638213255399 -441.70671045604104 0 0 0 0 -303.86590598722978 -247.57641315713227 0 -247.57641315713227 -213.7866189924971 0 0 0 0 -514.17966438180883 -201.56554694553415 0 -201.56554694553415 -30.274640595038363 0 0 0 0 -375.59172333210881 -287.47297047039683 0 -287.47297047039683 -138.27727454955311 0 0 0 0 -236.23561811513355 -244.00416367301659 0 -244.00416367301659 -166.06510853995132 0 0 0 0 -332.62077681775554 -281.90518134625745 0 -281.90518134625745 -131.87928324779205 0 0 0 0 -296.83839314893703 -275.51599461893056 0 -275.51599461893056 -138.64972788572049 0 0 0 0 1.5012963427885921 -1.5765636582715103 0 -1.5765636582715103 -2.1585271759052773 0 0 0 0 -756.05725038761739 -640.50157225117437 0 -640.50157225117437 -572.45843333357334 0 0 0 0 -366.12678281896297 -614.99397324302117 0 -614.99397324302117 -605.93051629836555 0 0 0 0 -256.93512372835539 -142.24922144921584 0 -142.24922144921584 -149.22595131909475 0 0 0 0 6.2677250702778196 -10.355439896996934 0 -10.355439896996934 10.695939242310232 0 0 0 0 -323.85185498032661 -113.9761802835601 0 -113.9761802835601 -91.333463161194231 0 0 0 0 -5.8420170101296094 0.85446022042161474 0 0.85446022042161474 3.0861736148373993 0 0 0 0 -330.39443021980696 -199.73450589227286 0 -199.73450589227286 -138.5303080688027 0 0 0 0 -346.61377470973821 -203.2928749475177 0 -203.2928749475177 -138.20883786351624 0 0 0 0 -287.95103328421828 -207.87974293569278 0 -207.87974293569278 -151.89683105898439 0 0 0 0 -418.14161152475572 -239.5785954473904 0 -239.5785954473904 -109.76002588251868 0 0 0 0 -421.54051629768219 -212.03189879903948 0 -212.03189879903948 -112.6791670662351 0 0 0 0 -354.10738007925102 -226.81066739142261 0 -226.81066739142261 -113.93324245749682 0 0 0 0 -435.9752371164941 -196.53597953422286 0 -196.53597953422286 -115.68408686853218 0 0 0 0 -378.18775222975637 -203.38272960995801 0 -203.38272960995801 -130.09166690470011 0 0 0 0 -340.52819486820954 -158.85405031390837 0 -158.85405031390837 -119.06688200394274 0 0 0 0 -380.75943140484742 -184.91881282743452 0 -184.91881282743452 -119.89183696208056 0 0 0 0 -310.52041741314315 -174.55915367489433 0 -174.55915367489433 -144.79336437692109 0 0 0 0 -481.25453222509532 -230.7125429625994 0 -230.7125429625994 -82.437355271937122 0 0 0 0 -424.63326870989113 -249.26869147580146 0 -249.26869147580146 -77.528287272496527 0 0 0 0 -447.80186945238893 -230.88756492106495 0 -230.88756492106495 -128.14213091264537 0 0 0 0 -422.59406178978679 -205.70465405585037 0 -205.70465405585037 -119.8617151244689 0 0 0 0 -490.11440682122702 -211.67287393096012 0 -211.67287393096012 -112.19603198852565 0 0 0 0 -519.57071718647785 -227.84275132839321 0 -227.84275132839321 -111.85721895129245 0 0 0 0 -544.31326991005335 -207.00110176660382 0 -207.00110176660382 -101.66036128674568 0 0 0 0 -558.7999368901219 -232.95145115649211 0 -232.95145115649211 -113.87075122222814 0 0 0 0 -590.81475101471005 -143.03712869244191 0 -143.03712869244191 -109.87859788392961 0 0 0 0 -571.86841761544838 -300.71503183126106 0 -300.71503183126106 86.876548453670694 0 0 0 0 -542.00058976149376 -234.33029537637776 0 -234.33029537637776 -22.265146565237956 0 0 0 0 -663.98424492545018 -450.18130884675338 0 -450.18130884675338 -3.2662452925142134 0 0 0 0 -118.91676825159266 -618.74121296173507 0 -618.74121296173507 -178.46407768690551 0 0 0 0 -492.92754702007369 -387.48430524874129 0 -387.48430524874129 -162.81755828855239 0 0 0 0 145.02398039920081 -301.92220058495514 0 -301.92220058495514 0.59625135115129524 0 0 0 0 -399.61369306954293 -522.041975041564 0 -522.041975041564 247.12699672018789 0 0 0 0 -451.09980039547008 -280.4297294054013 0 -280.4297294054013 -68.654287644894794 0 0 0 0 -359.86059503831348 -370.20400253314438 0 -370.20400253314438 -30.767397308636646 0 0 0 0 -476.36982738610823 -294.78397696895991 0 -294.78397696895991 -26.84690675897923 0 0 0 0 1.3600636816639309 -3.9838141700299108 0 -3.9838141700299108 5.6241426173491362 0 0 0 0 -472.7888265535621 -280.91673901994545 0 -280.91673901994545 -65.289891517095384 0 0 0 0 -169.98533585739642 -675.96990771235687 0 -675.96990771235687 -327.72246440585059 0 0 0 0 -199.18432940799175 -694.54810266600543 0 -694.54810266600543 260.38089982753445 0 0 0 0 -248.1197695957344 -589.76064939970365 0 -589.76064939970365 65.258644556844956 0 0 0 0 -519.57701415477163 -345.42727312592308 0 -345.42727312592308 834.8856519611727 0 0 0 0 -73.30326862718357 -210.33194796459975 0 -210.33194796459975 3.5264945398721466 0 0 0 0 -500.47072515815853 -139.72867852412901 0 -139.72867852412901 -63.914451333239413 0 0 0 0 -0.93933176738412572 -8.7764182502386348 0 -8.7764182502386348 5.1500766217694718 0 0 0 0 -191.63782387958781 -515.92933064248609 0 -515.92933064248609 161.57859485460449 0 0 0 0 -332.08462118110185 -296.36270523977396 0 -296.36270523977396 -16.002671072776138 0 0 0 0 -238.63429192611875 -243.50313817448114 0 -243.50313817448114 -117.96553890772975 0 0 0 0 -786.08444392529054 -198.20957938679203 0 -198.20957938679203 -87.12332843473996 0 0 0 0 149.94809057630482 -232.64235479791751 0 -232.64235479791751 216.76879142077269 0 0 0 0 1635.3397065959689 -1519.5834797025882 0 -1519.5834797025882 -552.56128388032084 0 0 0 0 -0.11154046507868909 -3.6755466180548524 0 -3.6755466180548524 1.0869615846832517 0 0 0 0 1398.2856846465729 -518.41677145549511 0 -518.41677145549511 -387.95090248936685 0 0 0 0 361.31101470046997 -1286.8562756896354 0 -1286.8562756896354 -270.46078806903097 0 0 0 0 -327.66286344919354 -1356.7422268856608 0 -1356.7422268856608 -214.81227091528126 0 0 0 0 -1550.0061155675576 -574.33480501732811 0 -574.33480501732811 150.33437707553821 0 0 0 0 -466.70463350313548 -965.40841737309029 0 -965.40841737309029 -312.0692398865649 0 0 0 0 -587.1511344946266 -525.60896335043435 0 -525.60896335043435 -96.668866943298781 0 0 0 0 -79.91988519935876 -278.12693947660273 0 -278.12693947660273 -39.261162034519657 0 0 0 0 678.12940691593394 -348.29002139323711 0 -348.29002139323711 -93.632324128670916 0 0 0 0 14.570801794085128 -786.2153032681581 0 -786.2153032681581 -374.41324015182181 0 0 0 0 502.83429674617946 -555.59796154600554 0 -555.59796154600554 -48.914693346028798 0 0 0 0 -164.42936690426723 -358.17372534592141 0 -358.17372534592141 122.22241723577463 0 0 0 0 55.179668597500495 -302.60825899667361 0 -302.60825899667361 131.25101298529626 0 0 0 0 210.88682735302791 -332.82005079973715 0 -332.82005079973715 120.74505680402581 0 0 0 0 29.123500475139735 -348.12895088078767 0 -348.12895088078767 142.01171600083762 0 0 0 0 254.01756258597015 -113.71157086590392 0 -113.71157086590392 69.747535146160772 0 0 0 0 809.20765740612114 -70.11011914899791 0 -70.11011914899791 10.189519154435402 0 0 0 0 1268.9089033685741 -231.17056481235886 0 -231.17056481235886 -149.0319127496623 0 0 0 0 3.0754043514176246 -2.5644096107615439 0 -2.5644096107615439 -2.3362365537956151 0 0 0 0 -1125.4602579578059 -988.47151499197753 0 -988.47151499197753 -488.07070193516847 0 0 0 0 846.98912044936878 -1019.7360183438359 0 -1019.7360183438359 562.31980128635769 0 0 0 0 -720.58458635219722 -1320.6781373690683 0 -1320.6781373690683 -215.82066787067197 0 0 0 0 -1084.0264175646917 -631.53960204933901 0 -631.53960204933901 -178.61812338400341 0 0 0 0 -770.66456449680118 -432.10078935722049 0 -432.10078935722049 -337.70181928918464 0 0 0 0 -619.41389101174718 -193.0737082102678 0 -193.0737082102678 -454.85274365199439 0 0 0 0 -924.80606858363899 -327.03955203364603 0 -327.03955203364603 -167.54064066861838 0 0 0 0 -730.31743273579923 -403.70345354242454 0 -403.70345354242454 -454.25614362698229 0 0 0 0 -780.47309550413047 -249.06675231219197 0 -249.06675231219197 -924.45671054500417 0 0 0 0 -1579.4318223245791 -384.41649978726491 0 -384.41649978726491 -340.25979706122325 0 0 0 0 -1092.7576497643386 -943.69127495626708 0 -943.69127495626708 -1226.0024686312245 0 0 0 0 -518.64877237933251 -207.74659083146435 0 -207.74659083146435 -211.9332180354977 0 0 0 0 -624.73888015210105 -273.76067638535096 0 -273.76067638535096 -196.93436287466466 0 0 0 0 -550.03013739787275 -188.55728306261699 0 -188.55728306261699 -261.32200071860279 0 0 0 0 -640.92787477897946 -305.14813560229959 0 -305.14813560229959 -306.31319206933404 0 0 0 0 -614.14017431165485 -318.18478156389574 0 -318.18478156389574 -469.47613970076782 0 0 0 0 -533.38895662184223 -290.05875439441661 0 -290.05875439441661 -345.48458142306845 0 0 0 0 -553.15271088182635 -253.35635321048539 0 -253.35635321048539 -207.49502315650716 0 0 0 0 -576.15298906353564 -318.07468385035099 0 -318.07468385035099 -274.44467587136023 0 0 0 0 -636.20454283390427 -423.16227451241139 0 -423.16227451241139 -393.07727204104958 0 0 0 0 -604.02839524878436 -438.150353327228 0 -438.150353327228 -517.93722790507309 0 0 0 0 -955.93435750674689 -539.09328928853211 0 -539.09328928853211 -282.4641527424028 0 0 0 0 -1829.1673295201763 -876.18853596002918 0 -876.18853596002918 -372.58954708691454 0 0 0 0 -968.2341821618902 -387.74897882424921 0 -387.74897882424921 -193.50984254385548 0 0 0 0 6.1053813132726873 -2.8010896167645001 0 -2.8010896167645001 -2.8270170471367351 0 0 0 0 10.289252329917566 -17.66430798052162 0 -17.66430798052162 6.859058505233449 0 0 0 0 -929.03866058379208 -408.47771041598025 0 -408.47771041598025 -182.86061354894264 0 0 0 0 -912.35958896801822 -376.10969595975621 0 -376.10969595975621 -125.17212636105251 0 0 0 0 -729.09034362388775 -396.94669828875158 0 -396.94669828875158 -195.48384771530255 0 0 0 0 -631.83227896414428 -383.03461418686129 0 -383.03461418686129 -206.90863730742421 0 0 0 0 -745.70645552495989 -449.8562579395948 0 -449.8562579395948 -244.59533117574028 0 0 0 0 -815.28791205926609 -366.20295625313884 0 -366.20295625313884 -108.58381906390423 0 0 0 0 -669.50063820867217 -312.67029572850515 0 -312.67029572850515 -134.43711675950181 0 0 0 0 -828.0498710732536 -397.32408835989372 0 -397.32408835989372 -131.01680128020325 0 0 0 0 45.061934617471707 -11.559545320167672 0 -11.559545320167672 -43.943516969022312 0 0 0 0 12.15374394405687 -18.659863823352104 0 -18.659863823352104 8.0523000587455158 0 0 0 0 -28.834176475340428 -147.32757743796265 0 -147.32757743796265 42.913611014126218 0 0 0 0 20.534691752836807 -5.064182492051259 0 -5.064182492051259 -18.85587996952745 0 0 0 0 15.385532174597756 7.4812557455879869 0 7.4812557455879869 -37.745130522893305 0 0 0 0 35.837908908109966 5.9767651000292972 0 5.9767651000292972 -72.334445674088784 0 0 0 0 0.83201517969740735 -12.256808775471598 0 -12.256808775471598 -25.569294771089545 0 0 0 0 20.68898959161379 -24.470407465465541 0 -24.470407465465541 -34.98693078924407 0 0 0 0 126.20291716469183 -235.63954540307532 0 -235.63954540307532 176.46366837553796 0 0 0 0 6.831549175233846 -4.125000108454671 0 -4.125000108454671 -18.868888886892421 0 0 0 0 28.590470398245088 -34.958453166605068 0 -34.958453166605068 -19.908784722309065 0 0 0 0 -14.462323744170135 -168.20570783584844 0 -168.20570783584844 248.97487905030584 0 0 0 0 -13.586194050847553 -151.78060749209362 0 -151.78060749209362 359.51215502158448 0 0 0 0 14.902221579861362 -166.17325576598705 0 -166.17325576598705 134.29868919293517 0 0 0 0 4.260335165206925 -188.76718734482711 0 -188.76718734482711 270.62796808001076 0 0 0 0 22.308086201599508 -99.913967060681898 0 -99.913967060681898 136.78683802829835 0 0 0 0 18.782310074941051 -96.474482729294323 0 -96.474482729294323 142.88585727053578 0 0 0 0 -9.5468765296100173 0.56317674529418582 0 0.56317674529418582 249.97811665654262 0 0 0 0 -28.843300459389866 -79.062608533295133 0 -79.062608533295133 232.37512156816501 0 0 0 0 -4.2695671004075848 -127.84484302747751 0 -127.84484302747751 303.48403996114939 0 0 0 0 4.5291440274937571 -2.6726409288097486 0 -2.6726409288097486 -2.7307969812294886 0 0 0 0 77.265803943693754 -127.20765455323817 0 -127.20765455323817 239.47367378252147 0 0 0 0 59.444132676369918 26.783331702128635 0 26.783331702128635 337.43620270173051 0 0 0 0 110.29859378689071 -113.26740363547833 0 -113.26740363547833 135.07706482984167 0 0 0 0 77.335590942668205 34.243256047733666 0 34.243256047733666 181.27357284739537 0 0 0 0 213.4867111695221 -532.17682817408058 0 -532.17682817408058 935.03896172797249 0 0 0 0 -35.717162477279999 60.527872181770363 0 60.527872181770363 662.2534820447836 0 0 0 0 40.740512616048363 -87.864299438082526 0 -87.864299438082526 521.61121187696335 0 0 0 0 73.564418247915455 -253.8626511998682 0 -253.8626511998682 387.16772821091763 0 0 0 0 35.622649224736961 -129.87488890649911 0 -129.87488890649911 277.16291004727827 0 0 0 0 46.603072749549028 -214.05459324187905 0 -214.05459324187905 328.39764694916084 0 0 0 0 66.015186762353551 -255.519664512487 0 -255.519664512487 429.95284443469427 0 0 0 0 345.11687707882811 -479.7892342557534 0 -479.7892342557534 343.12358164861053 0 0 0 0 191.75963106765994 -307.44003436706771 0 -307.44003436706771 149.56164761312175 0 0 0 0 197.98834804799117 -384.612540689257 0 -384.612540689257 160.09307115110551 0 0 0 0 64.440189306187676 -252.39418040916098 0 -252.39418040916098 128.84683515618053 0 0 0 0 141.96817145892601 -361.29955778385283 0 -361.29955778385283 281.38960990417399 0 0 0 0 3.5666258400415245 -250.15786575633138 0 -250.15786575633138 31.336029468366178 0 0 0 0 20.774444723030683 -305.65329432723411 0 -305.65329432723411 201.50947633738542 0 0 0 0 -11.829287770873634 -194.59179994666192 0 -194.59179994666192 238.51613850216108 0 0 0 0 -40.435562791335542 -244.15309047880237 0 -244.15309047880237 250.22694167473674 0 0 0 0 29.544843354458862 -247.62078431350437 0 -247.62078431350437 306.45223370295571 0 0 0 0 -47.603838724087836 -220.0801851867509 0 -220.0801851867509 202.43128833631999 0 0 0 0 -76.538043022395868 -272.72760290415317 0 -272.72760290415317 181.11727666639854 0 0 0 0 -74.452595635368198 -285.92216705001192 0 -285.92216705001192 175.95873540300454 0 0 0 0 -75.244459068955621 -224.54149037152092 0 -224.54149037152092 13.790883403540647 0 0 0 0 -231.41756227883161 -264.19559265800308 0 -264.19559265800308 -176.41541197346669 0 0 0 0 -106.9221932063665 -382.38610587701623 0 -382.38610587701623 -73.415726474559051 0 0 0 0 -239.34756704750907 -481.64660603124503 0 -481.64660603124503 -205.08037163788504 0 0 0 0 -83.26757097538939 -280.78377336061021 0 -280.78377336061021 62.933789823704501 0 0 0 0 57.028800649864934 -331.97444976457223 0 -331.97444976457223 27.202647325721045 0 0 0 0 48.026006142477854 -392.80657352670642 0 -392.80657352670642 -132.16290638190912 0 0 0 0 -83.014804848673521 -327.61132542694941 0 -327.61132542694941 -121.9448837995551 0 0 0 0 -176.55883036516025 -490.40966466429199 0 -490.40966466429199 -93.511228889875383 0 0 0 0 21.971945222237991 -402.37397914673238 0 -402.37397914673238 -95.04809220703828 0 0 0 0 33.512949892592587 -446.43249879970972 0 -446.43249879970972 -63.467446521927968 0 0 0 0 8.6329127858502943 -455.77992497988248 0 -455.77992497988248 -61.609520444621012 0 0 0 0 16.087938882094932 -413.61239529646809 0 -413.61239529646809 -51.978324988693203 0 0 0 0 31.267902263970427 -428.55273061328944 0 -428.55273061328944 -28.373041596918483 0 0 0 0 141.49659808727665 -415.33025003823968 0 -415.33025003823968 -68.255741700459112 0 0 0 0 92.236655625288222 -315.72837632352139 0 -315.72837632352139 21.001992266148591 0 0 0 0 202.50640185662996 -330.68101215768957 0 -330.68101215768957 -14.194775819723873 0 0 0 0 372.98650924972026 -256.63287570041211 0 -256.63287570041211 -43.061908967003546 0 0 0 0 226.2132728122524 -378.62465603103738 0 -378.62465603103738 -98.002546943485868 0 0 0 0 193.78963670958547 -359.0879886799903 0 -359.0879886799903 13.185673471856717 0 0 0 0 432.98643122310023 -348.93372696950246 0 -348.93372696950246 -24.701992238558887 0 0 0 0 562.26323561536083 -277.12539674710865 0 -277.12539674710865 -82.069016092409584 0 0 0 0 409.44945921302133 -304.0197208695954 0 -304.0197208695954 -18.512304009729633 0 0 0 0 557.83211284090783 -106.77841536762581 0 -106.77841536762581 -252.9169023431532 0 0 0 0 477.11848430908049 -177.56175417572877 0 -177.56175417572877 -25.685244618496654 0 0 0 0 368.13477618395336 -240.56046553952001 0 -240.56046553952001 -88.202467923185395 0 0 0 0 470.10943566784044 -157.6891769535232 0 -157.6891769535232 -47.24893795994285 0 0 0 0 3.1634269256889098 -1.6734071517532811 0 -1.6734071517532811 -3.5476569989812106 0 0 0 0 394.99643696988642 -510.10355790742597 0 -510.10355790742597 484.65277433528536 0 0 0 0 422.8212607798414 -245.59930589536998 0 -245.59930589536998 -183.30013873727512 0 0 0 0 512.40025746396168 -421.46903179047422 0 -421.46903179047422 47.034867544276494 0 0 0 0 189.33776369575389 93.852271480526724 0 93.852271480526724 -546.65570392347036 0 0 0 0 256.94463643915515 -228.98304720433407 0 -228.98304720433407 190.65826010858291 0 0 0 0 247.0899070901869 -186.37401618037256 0 -186.37401618037256 172.93073297554838 0 0 0 0 6.219706189353559 -5.6149797347744226 0 -5.6149797347744226 -9.5590689021333759 0 0 0 0 209.67376957282977 -231.29906270250649 0 -231.29906270250649 226.17034159059403 0 0 0 0 0.27093374130924985 -0.75989747670539032 0 -0.75989747670539032 -5.2984752543634848 0 0 0 0 115.50996892414696 -250.06418805261274 0 -250.06418805261274 376.4813898463035 0 0 0 0 122.93942012604384 -89.369510929842363 0 -89.369510929842363 130.53134675799083 0 0 0 0 246.72392417784249 -142.53377884720885 0 -142.53377884720885 19.132562000588223 0 0 0 0 101.48676960772718 -206.93106657357566 0 -206.93106657357566 28.923391595114481 0 0 0 0 291.49099251453663 -14.65402563646785 0 -14.65402563646785 -133.08423140629202 0 0 0 0 76.819075646235433 -137.11187346675433 0 -137.11187346675433 96.446479034155345 0 0 0 0 -0.89107003710773824 -2.3509424974072459 0 -2.3509424974072459 -3.2576915742595247 0 0 0 0 208.67248930326969 -166.87984473326105 0 -166.87984473326105 -168.62138347396103 0 0 0 0 214.66639025153745 26.317184248664944 0 26.317184248664944 52.567056321462587 0 0 0 0 376.92814356398685 -194.08072076528515 0 -194.08072076528515 143.44131568527882 0 0 0 0 15.785295087258419 -64.470130988263918 0 -64.470130988263918 412.94424935738789 0 0 0 0 561.25764322498435 -304.23166590624714 0 -304.23166590624714 -145.04365750339548 0 0 0 0 590.02865752779326 -169.37185337169103 0 -169.37185337169103 81.658963669851801 0 0 0 0 718.36578537816968 -452.57331551715288 0 -452.57331551715288 38.812039194223871 0 0 0 0 506.18911563602524 -448.1227875124041 0 -448.1227875124041 319.39424019356011 0 0 0 0 362.35443805687328 -388.99249284530219 0 -388.99249284530219 297.7062743233073 0 0 0 0 1269.2359478126327 -354.75868798819465 0 -354.75868798819465 119.00851267568896 0 0 0 0 818.86526234483972 -887.42238126060511 0 -887.42238126060511 892.97283829819571 0 0 0 0 85.827418423934432 -264.92314122339121 0 -264.92314122339121 1499.8653896878877 0 0 0 0 851.0075669078069 46.033958771979087 0 46.033958771979087 -132.63261364600112 0 0 0 0 13.491399242860609 -7.6214014934943464 0 -7.6214014934943464 5.5924552744647684 0 0 0 0 1405.7982638251506 -709.6872775181655 0 -709.6872775181655 -118.04865396453533 0 0 0 0 382.87747223242332 -325.26116705899221 0 -325.26116705899221 184.01848941171193 0 0 0 0 349.58341902860411 -511.88663210529194 0 -511.88663210529194 361.37572023140092 0 0 0 0 246.75614506454258 -435.33578928009319 0 -435.33578928009319 364.85896095076532 0 0 0 0 660.26904848505728 171.95151304681531 0 171.95151304681531 563.90694584733137 0 0 0 0 497.79768568976579 -695.13664349656483 0 -695.13664349656483 1219.8384923168433 0 0 0 0 599.24151577884913 -409.46730635272615 0 -409.46730635272615 -138.5790262661103 0 0 0 0 577.929921796901 -481.6009800798729 0 -481.6009800798729 -15.003019116047653 0 0 0 0 541.17583634015318 -385.63743624778363 0 -385.63743624778363 -147.58291288233886 0 0 0 0 532.21686122341271 -540.1913493516804 0 -540.1913493516804 -88.837154838510287 0 0 0 0 434.58262403906701 -464.47191659559758 0 -464.47191659559758 -7.0859229587586015 0 0 0 0 500.87472410630289 -517.90597858876936 0 -517.90597858876936 -87.920720996354362 0 0 0 0 310.72351444567721 -367.88149879748607 0 -367.88149879748607 21.255422121430456 0 0 0 0 359.05938563635937 -588.49277247723148 0 -588.49277247723148 34.735026360343909 0 0 0 0 716.09967501068968 -710.11415790825595 0 -710.11415790825595 61.501175523932034 0 0 0 0 873.36279175556592 -462.20079026479652 0 -462.20079026479652 -233.29081960516487 0 0 0 0 673.09309321106775 -339.81113686635581 0 -339.81113686635581 -211.04015476833229 0 0 0 0 710.50280226203176 -342.01293784184236 0 -342.01293784184236 -248.99117138400834 0 0 0 0 543.50147152797217 12.503811145808868 0 12.503811145808868 -389.4598929409367 0 0 0 0 -103.79394139815122 -124.71908174692362 0 -124.71908174692362 -107.09928830462013 0 0 0 0 -106.18518113995378 -32.628734419387911 0 -32.628734419387911 -129.39275498732604 0 0 0 0 315.03551075126666 -129.92655322982989 0 -129.92655322982989 -155.57789328549552 0 0 0 0 320.11001447722083 -190.4791034430491 0 -190.4791034430491 -113.28845063117842 0 0 0 0 601.80936992960051 -237.66812451963779 0 -237.66812451963779 -292.7625872658391 0 0 0 0 406.11976852754879 -240.09542278627225 0 -240.09542278627225 -84.870731106610037 0 0 0 0 409.41273327348631 -325.54523284458611 0 -325.54523284458611 -18.736539897996408 0 0 0 0 204.83171194267561 -191.49613185468479 0 -191.49613185468479 77.913019280007575 0 0 0 0 29.541717127453012 -111.49617766981828 0 -111.49617766981828 5.1668151361918717 0 0 0 0 204.92265824265013 -205.02317387868703 0 -205.02317387868703 45.640750731618027 0 0 0 0 33.496180833199105 -98.288919564753087 0 -98.288919564753087 147.21178493392654 0 0 0 0 109.38857470646144 -208.38518852195557 0 -208.38518852195557 304.41082224190905 0 0 0 0 257.53274333353329 -221.58163922130552 0 -221.58163922130552 94.01939988565573 0 0 0 0 269.9116715640921 -280.31648438460616 0 -280.31648438460616 203.2814100299056 0 0 0 0 436.55814517026738 -392.60811610467863 0 -392.60811610467863 65.700236602853693 0 0 0 0 416.80451543892923 -435.40671134627519 0 -435.40671134627519 -15.099463491853385 0 0 0 0 477.38564058928932 -526.27804637668123 0 -526.27804637668123 103.0992743901661 0 0 0 0 660.30309551727623 -439.76044384125635 0 -439.76044384125635 -6.6535082195841824 0 0 0 0 718.98808732484395 -541.64231226502307 0 -541.64231226502307 98.406286572051613 0 0 0 0 176.33370702846847 -747.0384706212152 0 -747.0384706212152 140.96122335505061 0 0 0 0 176.15944730941939 -414.19934219587674 0 -414.19934219587674 359.31671519934025 0 0 0 0 90.696716060063409 -788.74780685978658 0 -788.74780685978658 -1345.3314261523592 0 0 0 0 893.94160359701345 -458.78681047388818 0 -458.78681047388818 -386.23302184959539 0 0 0 0 -18.823848533283581 -685.29811929764037 0 -685.29811929764037 -153.63686079594845 0 0 0 0 646.47100675328693 -325.90409739555798 0 -325.90409739555798 -342.71031039525406 0 0 0 0 -111.14008414723503 -629.60113077269125 0 -629.60113077269125 -0.32569378830157802 0 0 0 0 -383.81124342000476 -387.82536859504216 0 -387.82536859504216 -0.078479545853042509 0 0 0 0 -201.86766660685498 -459.7796471828151 0 -459.7796471828151 -317.04528594772637 0 0 0 0 -350.10459769678346 -363.8820398650787 0 -363.8820398650787 -337.5140635454718 0 0 0 0 -212.76945135636197 -464.83238460491884 0 -464.83238460491884 -675.06768028112856 0 0 0 0 -18.531574293018707 -3.994402126305225 0 -3.994402126305225 2.3732145421924002 0 0 0 0 -7.3405270679359091 -17.744906534348047 0 -17.744906534348047 379.56511656496878 0 0 0 0 -5.4312667365431508 -1.8878430343481085 0 -1.8878430343481085 0.51839546084664079 0 0 0 0 28.071754161770514 -138.79402752489477 0 -138.79402752489477 892.92438779290387 0 0 0 0 22.665904587325713 -51.963655750605085 0 -51.963655750605085 269.54873074684292 0 0 0 0 -43.547757390704646 -35.844008534451859 0 -35.844008534451859 222.48203280493908 0 0 0 0 -35.992360666794411 -90.789411713725713 0 -90.789411713725713 77.558793197014893 0 0 0 0 -33.742489401960484 34.124993858991729 0 34.124993858991729 158.70893121917834 0 0 0 0 -47.746541633719971 1.8933712227044452 0 1.8933712227044452 269.89087776490123 0 0 0 0 -0.10691675572525128 3.2350878845281841 0 3.2350878845281841 160.18319678015177 0 0 0 0 -173.59668904321734 -185.44804110736186 0 -185.44804110736186 -245.55812353630245 0 0 0 0 -153.97882872736773 -210.18124531858666 0 -210.18124531858666 -218.81464399557444 0 0 0 0 -65.138569131231634 -126.04330940332147 0 -126.04330940332147 -146.40940072773083 0 0 0 0 -33.273358055648764 -3.1711167934446678 0 -3.1711167934446678 3.3093868009863385 0 0 0 0 -169.88868049699158 -200.28355724082576 0 -200.28355724082576 -118.80206122795789 0 0 0 0 -222.20857378322398 -212.10681891890454 0 -212.10681891890454 -0.23100766320203547 0 0 0 0 -327.03791927991551 -374.6069896057561 0 -374.6069896057561 -209.85492123600261 0 0 0 0 -0.77457826188307877 -1.5740856517696216 0 -1.5740856517696216 -0.68658282649373703 0 0 0 0 -116.49834531363013 -68.332479767661425 0 -68.332479767661425 -33.475014422314416 0 0 0 0 -284.44258152104157 -40.088863003707957 0 -40.088863003707957 -0.10884157375403447 0 0 0 0 33.844318280192965 79.714798235625494 0 79.714798235625494 -121.27147672390856 0 0 0 0 -277.42822684500061 -122.86400252117528 0 -122.86400252117528 7.1846552325951052 0 0 0 0 -93.151798511535162 -120.09602011325478 0 -120.09602011325478 -51.085105498579651 0 0 0 0 -139.54595840622369 -12.926637625932017 0 -12.926637625932017 67.930069775062293 0 0 0 0 -45.560256202458717 -0.20504298733623472 0 -0.20504298733623472 2.7565692282429524 0 0 0 0 -105.89751841244106 21.596357365768199 0 21.596357365768199 210.88662312156157 0 0 0 0 -42.334913742022763 -58.060102769888545 0 -58.060102769888545 52.310515464971104 0 0 0 0 -119.61198005707411 -22.022165718379256 0 -22.022165718379256 42.378337617952639 0 0 0 0 40.729809090014896 -53.560587873427721 0 -53.560587873427721 3.5610429100561305 0 0 0 0 -222.19374730266645 -159.19817902579598 0 -159.19817902579598 -6.0112571519021003 0 0 0 0 29.240510247035001 -30.176069046101908 0 -30.176069046101908 4.1874176706404427 0 0 0 0 11.006304460119281 -34.824109978719207 0 -34.824109978719207 -0.92644796422246145 0 0 0 0 32.119266445137328 -41.489200309388252 0 -41.489200309388252 -6.4254263031725714 0 0 0 0 31.509271055459614 -28.827244984478725 0 -28.827244984478725 1.0561624665048726 0 0 0 0 -71.241443699667798 -179.47618590194725 0 -179.47618590194725 -91.719299520944332 0 0 0 0 -82.52310658643637 -147.38787285510853 0 -147.38787285510853 -46.386035530067602 0 0 0 0 -33.121715476372628 -165.52868609756115 0 -165.52868609756115 -19.578788639082632 0 0 0 0 -104.04924803023005 -78.554329583253093 0 -78.554329583253093 96.65231818389293 0 0 0 0 28.522021307304385 -139.31568372687252 0 -139.31568372687252 91.413741515880247 0 0 0 0 40.280617950236774 -200.37786630435767 0 -200.37786630435767 -40.445155577053811 0 0 0 0 -39.540996870506206 -108.12051196270841 0 -108.12051196270841 83.35115384058372 0 0 0 0 -79.887210288186907 -150.72021948776091 0 -150.72021948776091 -19.097017734864494 0 0 0 0 -31.529244350527733 -216.42979234329323 0 -216.42979234329323 -105.19798436919518 0 0 0 0 -39.491448326094542 -153.63143657115143 0 -153.63143657115143 -166.55859400315967 0 0 0 0 -13.824580725631677 -207.17471485366696 0 -207.17471485366696 -195.52780706745034 0 0 0 0 -50.021220599879598 -130.61887110103635 0 -130.61887110103635 -94.167506623874942 0 0 0 0 -74.584216217729136 -310.25235033377976 0 -310.25235033377976 -212.80843157820345 0 0 0 0 -3.5084620026132001 -3.9518179594411436 0 -3.9518179594411436 4.7548684256890468 0 0 0 0 37.866829220753651 -20.760045016197047 0 -20.760045016197047 9.1091250024754089 0 0 0 0 59.18677945604577 -135.46567732293624 0 -135.46567732293624 -467.85516393859143 0 0 0 0 -101.92274244689202 -106.28071614552005 0 -106.28071614552005 54.427047251767362 0 0 0 0 17.302577297210519 -210.62003010938497 0 -210.62003010938497 -426.98251849125518 0 0 0 0 57.806048736129014 22.268594793888042 0 22.268594793888042 -29.890708892475232 0 0 0 0 -35.499786270633194 -49.078954813059681 0 -49.078954813059681 -312.02667737229422 0 0 0 0 -35.137627509742629 -59.746371199267514 0 -59.746371199267514 -61.154551268882642 0 0 0 0 23.060744541666011 -27.176612599382516 0 -27.176612599382516 10.375980172663567 0 0 0 0 39.80853962468791 0.36889941382105462 0 0.36889941382105462 7.34285142821318 0 0 0 0 26.434703567290853 -26.808069836748473 0 -26.808069836748473 -14.2564718582571 0 0 0 0 20.532916502483509 -17.014664239787624 0 -17.014664239787624 -0.23715565051630705 0 0 0 0 8.6166682466864586 -27.682170776781277 0 -27.682170776781277 -22.573249147131719 0 0 0 0 23.891402509899422 -8.6911147262889656 0 -8.6911147262889656 -19.867483363600186 0 0 0 0 9.6562108287471347 -16.298265402234392 0 -16.298265402234392 -19.032560710926191 0 0 0 0 -6.6809863546803285 -5.6605244584154697 0 -5.6605244584154697 3.9614244265651735 0 0 0 0 14.539658476212281 -19.316167719906069 0 -19.316167719906069 -8.2765612729292037 0 0 0 0 -3.9357029891594237 -15.168779301312085 0 -15.168779301312085 -4.7475187361433058 0 0 0 0 10.148437006950189 -31.691818500305999 0 -31.691818500305999 14.465239918834413 0 0 0 0 11.070149137667613 -21.198927120938606 0 -21.198927120938606 2.8792749754065881 0 0 0 0 9.7617394130065804 -33.725611712688988 0 -33.725611712688988 4.3295911776585854 0 0 0 0 -0.88189310314919567 -43.668660784545864 0 -43.668660784545864 4.4254168043407844 0 0 0 0 -38.796651587483211 -156.36189424757595 0 -156.36189424757595 -155.88879031623219 0 0 0 0 -163.98984402769565 -175.58827292482601 0 -175.58827292482601 -79.733149661893549 0 0 0 0 -53.567182274131483 -156.10285584731173 0 -156.10285584731173 -76.427791301553953 0 0 0 0 11.276748411379231 -39.178103569112864 0 -39.178103569112864 15.836437567180838 0 0 0 0 13.244223507123863 -23.853224576929975 0 -23.853224576929975 6.2296144344087736 0 0 0 0 36.839312989766768 -52.126060505161149 0 -52.126060505161149 17.399265827325507 0 0 0 0 50.783788399850891 -36.238830791318833 0 -36.238830791318833 -8.9859458496794105 0 0 0 0 33.147046199626857 -43.906226518990479 0 -43.906226518990479 2.4455018303997349 0 0 0 0 28.772306823913823 -46.554160618721653 0 -46.554160618721653 10.090074302785069 0 0 0 0 25.714183164891438 -38.504085011794814 0 -38.504085011794814 -1.2968355091688863 0 0 0 0 3.5469391974589541 -1.23024626146983 0 -1.23024626146983 -5.8466806157815565 0 0 0 0 23.145420929788088 -46.724370083975373 0 -46.724370083975373 28.805666193824436 0 0 0 0 13.279313877152163 -37.718953830677492 0 -37.718953830677492 20.852537947590463 0 0 0 0 1.0131980773954297 0.9371553311690235 0 0.9371553311690235 0.23970787368331159 0 0 0 0 46.270654534862842 -93.26379543414987 0 -93.26379543414987 126.68236120240908 0 0 0 0 25.868973317898053 -41.082515596513986 0 -41.082515596513986 12.265483265235162 0 0 0 0 105.83791733010003 -55.253302737348349 0 -55.253302737348349 -22.436269847021322 0 0 0 0 8.2581558771707932 48.756463821948273 0 48.756463821948273 -12.022577294690564 0 0 0 0 13.650080343934178 -20.300427162539016 0 -20.300427162539016 6.4567432457196361 0 0 0 0 -701.03816838433886 -406.03751529151032 0 -406.03751529151032 -112.31638661387478 0 0 0 0 -118.72805613404125 -48.063654621528258 0 -48.063654621528258 26.040787236168399 0 0 0 0 -8.3275730150271556 -44.251255740520719 0 -44.251255740520719 -21.375601020852628 0 0 0 0 1.2781975973921362 -17.996630724566785 0 -17.996630724566785 -0.37944644177150622 0 0 0 0 -2.6942259442585055 -16.495743341434718 0 -16.495743341434718 -10.702614291569262 0 0 0 0 1.7066568468717378 -27.689774144644161 0 -27.689774144644161 5.9550932262718561 0 0 0 0 14.735513276111654 -20.501452236944232 0 -20.501452236944232 3.2694434174075582 0 0 0 0 -54.583009702402705 -47.806514073692597 0 -47.806514073692597 7.7905129060382023 0 0 0 0 -8.4401450795721757 -9.9362147887068204 0 -9.9362147887068204 3.6206137916487933 0 0 0 0 -11.372426028823611 -19.781809154341317 0 -19.781809154341317 48.98908521615158 0 0 0 0 1.8852932507579681 -5.4689474616752705 0 -5.4689474616752705 32.847952847181659 0 0 0 0 23.29848042829326 -38.032490003468411 0 -38.032490003468411 37.845697089360328 0 0 0 0 -4.2600716420056415 -50.782863606324099 0 -50.782863606324099 39.256174653230573 0 0 0 0 25.352169312107435 -36.949141337019682 0 -36.949141337019682 9.3640983445548045 0 0 0 0 29.880604056525044 -49.351238836632547 0 -49.351238836632547 6.6839022918757109 0 0 0 0 19.495401773951016 -48.704176117691532 0 -48.704176117691532 9.6333481289839256 0 0 0 0 34.863010931359895 -67.030951390726841 0 -67.030951390726841 30.187258410096547 0 0 0 0 -0.57080464453611057 -75.488440227407409 0 -75.488440227407409 37.028574055995705 0 0 0 0 -230.34605282991379 -160.83380466821563 0 -160.83380466821563 19.366266777622513 0 0 0 0 63.504769237471919 36.199729802756337 0 36.199729802756337 -65.568037971605008 0 0 0 0 29.619054716307421 -30.549299903985791 0 -30.549299903985791 7.9857369534941256 0 0 0 0 -6.1591739000723464 -21.788366554834283 0 -21.788366554834283 111.0866127507179 0 0 0 0 -23.309560611982306 -1.6455498641880695 0 -1.6455498641880695 -106.04890315334342 0 0 0 0 56.165451038596075 -120.63100114739609 0 -120.63100114739609 -121.99220642993896 0 0 0 0 -0.81362484094547938 -0.3884800372595123 0 -0.3884800372595123 -0.03907373806473835 0 0 0 0 74.676296119483595 -65.550351447360299 0 -65.550351447360299 -258.3640603114909 0 0 0 0 -32.158516399511427 -74.141585590459727 0 -74.141585590459727 48.032929562643403 0 0 0 0 6.0634214753081324 14.873883817152091 0 14.873883817152091 47.743492935791437 0 0 0 0 -38.205234794293574 -27.151285096239917 0 -27.151285096239917 -10.532202031026827 0 0 0 0 -153.92768990897457 -65.983466454779773 0 -65.983466454779773 86.178770886490383 0 0 0 0 -56.286990143543967 -1.8996960949689026 0 -1.8996960949689026 5.1406697738680762 0 0 0 0 49.896697278469219 12.053948846343701 0 12.053948846343701 25.985286897368496 0 0 0 0 24.129463343074978 -33.836894547559375 0 -33.836894547559375 10.166605937722409 0 0 0 0 17.47654419731407 -27.55563360278029 0 -27.55563360278029 61.850833112635883 0 0 0 0 -12.16010496209492 -0.15049058548174798 0 -0.15049058548174798 12.254656202989281 0 0 0 0 5.3657459441346873 -1.7220335484853422 0 -1.7220335484853422 26.889291210674855 0 0 0 0 -4.3053330149779754 0.17646678836297269 0 0.17646678836297269 2.6783960912369906 0 0 0 0 -8.4134743411123054 -13.36347687025409 0 -13.36347687025409 -11.431435003090883 0 0 0 0 -7.2084520352384942 -14.366489061565034 0 -14.366489061565034 1.6269519160807739 0 0 0 0 -9.3353282743701129 -14.295739719862468 0 -14.295739719862468 -1.4793875451141503 0 0 0 0 1.7205286506747939 -23.249654219404135 0 -23.249654219404135 -1.433933766729119 0 0 0 0 -42.347393365995927 -17.188025728169116 0 -17.188025728169116 0.62223660407363468 0 0 0 0 -17.127068085581413 -6.8599907749658087 0 -6.8599907749658087 8.5102851710980758 0 0 0 0 -5.6351961596809517 -2.3203811423486513 0 -2.3203811423486513 -0.88691039947826766 0 0 0 0 -11.096057982544153 -5.0074097669512412 0 -5.0074097669512412 4.4836200626450591 0 0 0 0 -12.399782709513602 0.39295011590638751 0 0.39295011590638751 10.467189693779801 0 0 0 0 -16.437140127389284 -2.5637263438152331 0 -2.5637263438152331 10.965358176574227 0 0 0 0 24.28554820077261 11.448066431679763 0 11.448066431679763 3.6669312154263025 0 0 0 0 4.8893594182154629 2.2025611588469474 0 2.2025611588469474 -0.022302037892651873 0 0 0 0 -47.129137693387747 60.280943681587814 0 60.280943681587814 72.145504472595348 0 0 0 0 -6.0838021255767671 -26.144932730967412 0 -26.144932730967412 -33.965009164927324 0 0 0 0 -2.7049460234356957 -5.4809781835328977 0 -5.4809781835328977 -6.4415833438142727 0 0 0 0 -5.3195976487695162 -14.113696793470154 0 -14.113696793470154 -2.7663742424693538 0 0 0 0 -1.3276041909258538 -2.5100364858944246 0 -2.5100364858944246 -2.3304057181328446 0 0 0 0 -11.089876411075238 -10.087817959749373 0 -10.087817959749373 0.0069617514964193106 0 0 0 0 -8.4102201660061837 -10.195745448363596 0 -10.195745448363596 0.005262166876491392 0 0 0 0 -21.7976439096783 -36.941245101610548 0 -36.941245101610548 49.892934077670361 0 0 0 0 14.960802507523113 -16.903148112920462 0 -16.903148112920462 32.3152651188866 0 0 0 0 -17.725579964317149 -46.209347983032785 0 -46.209347983032785 20.244040680312537 0 0 0 0 -1.2702008373307763 -19.632898979809397 0 -19.632898979809397 13.437563968458562 0 0 0 0 -22.2196102263988 -54.296779442625848 0 -54.296779442625848 -17.537591489941406 0 0 0 0 -13.131253554944124 -26.429234082374023 0 -26.429234082374023 -32.179937426220931 0 0 0 0 -33.269692194597155 -60.315676683552738 0 -60.315676683552738 -39.975282060563586 0 0 0 0 -7.0114140745718032 -24.706500366028195 0 -24.706500366028195 -26.334336266860191 0 0 0 0 -1.1331662944794516 -43.470344355786438 0 -43.470344355786438 -124.3476885717173 0 0 0 0 -2.5965083338676322 0.46932381838049508 0 0.46932381838049508 -0.080670966365442354 0 0 0 0 -1.791949791379011 -40.618089965269064 0 -40.618089965269064 -38.61110450058186 0 0 0 0 -6.06949880747473 -6.4553553491512048 0 -6.4553553491512048 -0.36550843261854737 0 0 0 0 -40.340252294739912 -35.448344169537449 0 -35.448344169537449 19.036172567525682 0 0 0 0 -172.67093480167387 -206.34826703665749 0 -206.34826703665749 -189.80301848347153 0 0 0 0 -99.516249369353318 -273.76191211596779 0 -273.76191211596779 -374.78128304598795 0 0 0 0 -13.814282295177691 -54.902832457184559 0 -54.902832457184559 30.333051715710099 0 0 0 0 -5.5135379061654533 -8.3198734362182662 0 -8.3198734362182662 -0.71716544120711134 0 0 0 0 2.1428025258501293 -67.865827527455622 0 -67.865827527455622 -39.137061327703123 0 0 0 0 30.826083282125182 -13.281576244511598 0 -13.281576244511598 -41.594928613681986 0 0 0 0 -0.13150879728345899 -29.541502564341499 0 -29.541502564341499 -17.071324075768644 0 0 0 0 12.220929484794283 -18.501716606094369 0 -18.501716606094369 -5.5877018000647638 0 0 0 0 -23.447011867159745 -28.667459284777578 0 -28.667459284777578 -2.4331890142530028 0 0 0 0 -3.697045427166131 -41.676620963504888 0 -41.676620963504888 -16.559407029973954 0 0 0 0 -11.516206999352079 -17.37087719173465 0 -17.37087719173465 -5.0451526761652872 0 0 0 0 -15.553773372172145 -37.041824057532722 0 -37.041824057532722 2.866316837422346 0 0 0 0 14.646657639746593 -18.306071117046827 0 -18.306071117046827 -11.718088699019745 0 0 0 0 -12.363246234051985 -37.644950643797074 0 -37.644950643797074 -0.59553607163252309 0 0 0 0 0.84381097016108697 -4.6449761440589796 0 -4.6449761440589796 1.6082848709017412 0 0 0 0 -12.570242130351289 -41.364915136166474 0 -41.364915136166474 -33.793269486741337 0 0 0 0 1087.9552671257843 -380.46616916133644 0 -380.46616916133644 99.209365171365789 0 0 0 0 -0.6947933927171448 -1.3392079022594174 0 -1.3392079022594174 0.98627767216075313 0 0 0 0 3.018011493695667 -32.057239308131102 0 -32.057239308131102 -67.846005868828797 0 0 0 0 -1.512015261405395 -2.6920884919672972 0 -2.6920884919672972 -0.0074036522200913168 0 0 0 0 -3.6243209036827011 11.56551268276155 0 11.56551268276155 -38.251375519423163 0 0 0 0 0.5041950380000344 -1244.5442403485249 0 -1244.5442403485249 729.10640477794368 0 0 0 0 632.87047752684157 -1036.6910475335717 0 -1036.6910475335717 0.15414759983449081 0 0 0 0 880.27387143043052 -748.93898747167896 0 -748.93898747167896 305.22859660116228 0 0 0 0 11.862833877007688 -5.7265414846250451 0 -5.7265414846250451 -2.5387171948296938 0 0 0 0 664.93331073681475 -325.44165030885051 0 -325.44165030885051 184.53358166273392 0 0 0 0 -5.0914642772477237 -43.335057063643035 0 -43.335057063643035 -46.534380539364065 0 0 0 0 90.564738706685603 -714.38345566289718 0 -714.38345566289718 327.55780376501389 0 0 0 0 3.6760721621155312 -1.1336504894627382 0 -1.1336504894627382 0.86872280389792067 0 0 0 0 38.969251264856211 -822.29470577076063 0 -822.29470577076063 1597.0432935508943 0 0 0 0 -81.76796481670317 -197.65043625832186 0 -197.65043625832186 -432.03506422880673 0 0 0 0 -0.074155718877591426 -271.40734714226346 0 -271.40734714226346 -367.73337047745372 0 0 0 0 -51.122365991268452 -38.063956075207898 0 -38.063956075207898 160.43246676588024 0 0 0 0 15.104211359866895 -22.916609265555962 0 -22.916609265555962 -117.39954498498992 0 0 0 0 -237.68103553853871 -282.33329528406102 0 -282.33329528406102 -159.22651880517151 0 0 0 0 -167.13508030513185 -455.0650130195645 0 -455.0650130195645 -750.69469219949087 0 0 0 0 -1.3376742859751118 1.519923999426041 0 1.519923999426041 -0.64190014241993509 0 0 0 0 -291.9178535806459 -425.59727876327997 0 -425.59727876327997 -351.97131013166654 0 0 0 0 -61.992922154451662 -342.71190188809487 0 -342.71190188809487 -449.77347333554644 0 0 0 0 -177.46479959005956 -312.6555149008127 0 -312.6555149008127 -435.03436174511444 0 0 0 0 -0.090953855517000193 -388.47410163519271 0 -388.47410163519271 -425.3770771329655 0 0 0 0 -183.00965643749441 -424.5904076180359 0 -424.5904076180359 -304.70423389890129 0 0 0 0 -210.9890946656451 -434.9339090440717 0 -434.9339090440717 -304.14833679551498 0 0 0 0 -235.06385843272437 -495.97760132922485 0 -495.97760132922485 -176.46705350903721 0 0 0 0 -248.68525171900637 -426.8789050326227 0 -426.8789050326227 -269.02441033620562 0 0 0 0 -235.14818618586287 -373.55960669322303 0 -373.55960669322303 -349.34570296097081 0 0 0 0 14.45571051583412 -20.464601840631985 0 -20.464601840631985 -0.53537068421873357 0 0 0 0 -162.11565446407621 -207.49779740637678 0 -207.49779740637678 -222.73044507619488 0 0 0 0 -338.64867177893029 -291.95559459073411 0 -291.95559459073411 -135.27679747895127 0 0 0 0 -475.59172528429372 -372.33079293759329 0 -372.33079293759329 -126.40870959832318 0 0 0 0 -308.40013022370113 -424.48669255438836 0 -424.48669255438836 -243.59728966762486 0 0 0 0 -424.99190871955216 -436.28760058909211 0 -436.28760058909211 -133.57632115658635 0 0 0 0 -574.53121889985778 -315.32553793524676 0 -315.32553793524676 -141.13799525263812 0 0 0 0 -439.6836370948331 -457.90281166317254 0 -457.90281166317254 -123.19114682312647 0 0 0 0 -290.04339779429574 -552.9575168024312 0 -552.9575168024312 -59.425270051276129 0 0 0 0 -1.3666048439117731 -761.16089407666004 0 -761.16089407666004 56.898638357719392 0 0 0 0 -277.25143816150012 -501.60486728906108 0 -501.60486728906108 -179.40853982739281 0 0 0 0 0.1013088061590679 -593.25406120403204 0 -593.25406120403204 -204.03801596074845 0 0 0 0 -17.918403803174442 -16.583141404149956 0 -16.583141404149956 4.4512550036561152 0 0 0 0 -51.705966400904799 -12.316792617885767 0 -12.316792617885767 -3.7168032286463131 0 0 0 0 -16.015197071749753 -18.618030601809199 0 -18.618030601809199 -6.1678498993480275 0 0 0 0 -7.9785716697400133 -15.173407279008845 0 -15.173407279008845 -6.7429735232240731 0 0 0 0 1.2628444291003689 -21.609138746751341 0 -21.609138746751341 -4.3272751979820896 0 0 0 0 -39.019000883113222 -18.949899624239151 0 -18.949899624239151 7.7341085397583811 0 0 0 0 -47.12840603384393 -9.6905303934363474 0 -9.6905303934363474 -2.7586026379594841 0 0 0 0 -4.9411745068947077 -14.901475605454539 0 -14.901475605454539 -4.8137141160386108 0 0 0 0 -0.72389367919469194 -11.882180473603611 0 -11.882180473603611 0.28164293268497431 0 0 0 0 -21.984531613345098 -29.922455804407036 0 -29.922455804407036 0.40163050024420954 0 0 0 0 -7.7162398887849122 -21.644964816301581 0 -21.644964816301581 -1.8332651037117103 0 0 0 0 -9.8805402798370778 -19.91248000975429 0 -19.91248000975429 -19.480119494730388 0 0 0 0 -9.4846194339570502 -16.416246092776419 0 -16.416246092776419 6.0941796066908864 0 0 0 0 -2.2738201107222267 -24.756668773448837 0 -24.756668773448837 -8.6141532469991944 0 0 0 0 -2.9673754212553831 -23.63091266722904 0 -23.63091266722904 0.73980216050767922 0 0 0 0 -7.721235021638666 -2.6301894340359944 0 -2.6301894340359944 7.0379697629258899 0 0 0 0 -7.8354667657106631 -3.0814231436041872 0 -3.0814231436041872 2.6488058438882689 0 0 0 0 -175.83322263348236 -85.181812009230271 0 -85.181812009230271 -216.35699143685633 0 0 0 0 -75.273007667046841 -0.46471404802105098 0 -0.46471404802105098 61.476546625237461 0 0 0 0 -78.353592316734648 -2.0665879964008127 0 -2.0665879964008127 61.864204482533751 0 0 0 0 -91.538217650571823 -3.6094209412694909 0 -3.6094209412694909 65.657409000004918 0 0 0 0 3.9363682651696763 -57.118572535864587 0 -57.118572535864587 -25.728913237287998 0 0 0 0 52.436693414208094 -37.733101456664372 0 -37.733101456664372 -42.161003889128551 0 0 0 0 -56.706001594271854 -30.418197814610757 0 -30.418197814610757 -14.906392853460989 0 0 0 0 25.60148029323409 -56.483276835282595 0 -56.483276835282595 -37.681768098311295 0 0 0 0 -16.526331861729975 -15.573229435241586 0 -15.573229435241586 3.2762054673587855 0 0 0 0 -19.860982520527614 -60.798344671744417 0 -60.798344671744417 -37.282527679843042 0 0 0 0 -96.535279358780826 -43.463377742074954 0 -43.463377742074954 -19.907504181344848 0 0 0 0 -24.646482207500949 -28.596778503221287 0 -28.596778503221287 -8.9313554841277352 0 0 0 0 -22.088808108397643 -22.929166520945728 0 -22.929166520945728 2.6976460560545092 0 0 0 0 -154.52429442145967 8.2678478847392398 0 8.2678478847392398 -11.765983643999789 0 0 0 0 -158.27355678207823 22.21382895188799 0 22.21382895188799 -32.009321261935838 0 0 0 0 -30.170176745796198 -16.177989125713793 0 -16.177989125713793 -2.9018425269532599 0 0 0 0 -5.8030852425883506 -20.06042181130001 0 -20.06042181130001 -5.6469599613872248 0 0 0 0 -60.068604238020271 3.9045170240278821 0 3.9045170240278821 -37.057074704920524 0 0 0 0 -24.157962553107609 -88.29295601918966 0 -88.29295601918966 26.837942945203395 0 0 0 0 76.968015570437728 11.832768678359571 0 11.832768678359571 -98.385326381961931 0 0 0 0 55.651562380406176 -23.681666984331969 0 -23.681666984331969 -13.357761789040524 0 0 0 0 6.5284756945366098 -34.884170338209515 0 -34.884170338209515 -21.207942376269784 0 0 0 0 5.1720043737570904 -41.070963779557133 0 -41.070963779557133 15.86715571541572 0 0 0 0 -26.618532506563497 -76.478722989973903 0 -76.478722989973903 -10.381952000147066 0 0 0 0 73.68697742583754 -51.211155328397581 0 -51.211155328397581 -19.434431679276713 0 0 0 0 2.1386015056796168 -30.624975908769557 0 -30.624975908769557 20.321099683002103 0 0 0 0 56.52996471757524 -26.62344653400578 0 -26.62344653400578 7.7394570015494537 0 0 0 0 0.18893990511469383 -11.87645413570317 0 -11.87645413570317 16.780893103394192 0 0 0 0 -64.404843071639334 -36.402757261468651 0 -36.402757261468651 26.61078491997614 0 0 0 0 -56.857565445087857 -57.984675346438962 0 -57.984675346438962 27.906801049321075 0 0 0 0 -16.166142800148691 -57.819371436990878 0 -57.819371436990878 18.370339191256789 0 0 0 0 -138.36847689516162 -16.951159555745107 0 -16.951159555745107 26.64108375539945 0 0 0 0 -104.5996491394144 -52.225738592520429 0 -52.225738592520429 35.129931799776386 0 0 0 0 -73.512491680219682 -7.1720758604278672 0 -7.1720758604278672 -0.63770985108203604 0 0 0 0 -68.491274482576046 -18.244319882021955 0 -18.244319882021955 14.888066379950033 0 0 0 0 -12.051629427456646 -28.000253345820965 0 -28.000253345820965 11.030777270185354 0 0 0 0 -13.236883253128326 -27.193292366759124 0 -27.193292366759124 17.772794445590989 0 0 0 0 42.575952092776788 -19.077969105135708 0 -19.077969105135708 -5.9401989127145498 0 0 0 0 -19.025422193668419 -24.6739114316224 0 -24.6739114316224 -11.305400498305971 0 0 0 0 -16.362202599724696 -13.957503844081657 0 -13.957503844081657 2.494605492836854 0 0 0 0 12.715780116725909 112.64454921943707 0 112.64454921943707 -52.798455825381097 0 0 0 0 -130.3792956708412 -65.823295520112879 0 -65.823295520112879 44.121832593904401 0 0 0 0 40.864103572054319 -125.10132692100524 0 -125.10132692100524 51.683010491797177 0 0 0 0 -41.037065459971373 -4.9508830708800815 0 -4.9508830708800815 -2.8893079092740663 0 0 0 0 -2.5681800833422574 -8.6856630292099801 0 -8.6856630292099801 -0.32222548846316101 0 0 0 0 0.40343359284480229 -0.90837346980062872 0 -0.90837346980062872 0.47313588740698265 0 0 0 0 -92.499742645657534 -87.429843256999447 0 -87.429843256999447 28.303026530520583 0 0 0 0 -6.051989561318126 -20.85788489565423 0 -20.85788489565423 -1.9247891761729221 0 0 0 0 -21.200944095079649 -23.176243809513835 0 -23.176243809513835 13.018761871260722 0 0 0 0 -8.4501553729151482 -16.517282743955008 0 -16.517282743955008 6.3414344822393929 0 0 0 0 -13.878671568307254 -35.046717384027033 0 -35.046717384027033 4.4607423289489816 0 0 0 0 -5.2148085247699782 -31.120719666365403 0 -31.120719666365403 1.0381170216915052 0 0 0 0 -9.0180838810347268 -29.943289608400846 0 -29.943289608400846 7.3521734430250945 0 0 0 0 -1.6306849930297176 -26.109083058689066 0 -26.109083058689066 3.9185418816941819 0 0 0 0 12.470494067709296 -40.959223081291384 0 -40.959223081291384 7.5072989553700609 0 0 0 0 0.33026975656321156 -14.107212403132507 0 -14.107212403132507 26.564974364438058 0 0 0 0 -44.913094836922028 -81.032674140426025 0 -81.032674140426025 1.3859336340246955 0 0 0 0 -24.505253369023194 -0.062392492649451015 0 -0.062392492649451015 -13.571557676961675 0 0 0 0 -24.615091383542065 -20.523645748365688 0 -20.523645748365688 -12.469512917601875 0 0 0 0 -58.894183969902315 -13.769849655019243 0 -13.769849655019243 45.362748375715455 0 0 0 0 -37.299878233436175 -5.8503240857844503 0 -5.8503240857844503 -48.317133659795218 0 0 0 0 -4.6798176642607476 -3.7146911141327443 0 -3.7146911141327443 -0.1667978106188599 0 0 0 0 10.704051685847844 -20.349726755959637 0 -20.349726755959637 -42.383790434903858 0 0 0 0 -31.170848332907553 -51.805704182781483 0 -51.805704182781483 50.333926065524793 0 0 0 0 -23.325653722992762 -18.794559117113394 0 -18.794559117113394 -10.196245195728174 0 0 0 0 -11.568044627836571 23.719802677153893 0 23.719802677153893 -62.444113935955102 0 0 0 0 -4.6295403353624351 -25.03646932083177 0 -25.03646932083177 -63.86399356631955 0 0 0 0 -21.567810658625604 -15.739063271478699 0 -15.739063271478699 -22.433642498231166 0 0 0 0 -35.256182973032992 -22.04201738953634 0 -22.04201738953634 83.430800124659982 0 0 0 0 -3.1170719290075795 19.734061821917749 0 19.734061821917749 22.617828079211904 0 0 0 0 -43.365255724356757 3.4551117726086886 0 3.4551117726086886 -18.704476445793262 0 0 0 0 -46.723780385913415 -1.6275845810664578 0 -1.6275845810664578 14.360942706416608 0 0 0 0 -46.556082876941218 -16.532448127540647 0 -16.532448127540647 23.58791762211149 0 0 0 0 -33.00865767806863 -19.589412188880488 0 -19.589412188880488 9.4519306090633108 0 0 0 0 -46.850412522882834 -22.673608653922201 0 -22.673608653922201 11.312434015418148 0 0 0 0 -47.634927866872204 -26.601518768122787 0 -26.601518768122787 18.364210828794967 0 0 0 0 -38.312511051306501 -39.044488435177755 0 -39.044488435177755 34.882999127181392 0 0 0 0 -22.874106718139956 -44.86261055165869 0 -44.86261055165869 19.252701186951526 0 0 0 0 -30.115878311760753 -36.031587898962243 0 -36.031587898962243 14.556936313154438 0 0 0 0 -35.709542160299861 -41.99746512626416 0 -41.99746512626416 12.012875933354735 0 0 0 0 15.628039053895918 -61.376810148687582 0 -61.376810148687582 41.149869642080375 0 0 0 0 -20.226981085213993 -39.406218218158301 0 -39.406218218158301 23.116203953190052 0 0 0 0 -11.978682127701177 -51.557742796326693 0 -51.557742796326693 37.939452999391506 0 0 0 0 -7.4976936867196855 -42.689663742713492 0 -42.689663742713492 11.374510684159759 0 0 0 0 29.246100410880899 -54.053816582990294 0 -54.053816582990294 14.677000238262735 0 0 0 0 -2.1409128243576561 -53.640537972266202 0 -53.640537972266202 14.861363907852137 0 0 0 0 -15.128549259019564 -49.004201875774015 0 -49.004201875774015 13.612152776814582 0 0 0 0 -8.1572963506732776 -51.695118055060448 0 -51.695118055060448 3.9307153096847287 0 0 0 0 -22.001951662421561 -38.87583896117485 0 -38.87583896117485 18.759966328823793 0 0 0 0 8.7220398362005653 -36.058459019948714 0 -36.058459019948714 12.159933717221065 0 0 0 0 -33.170735162599158 -35.376671143355907 0 -35.376671143355907 5.7690442162675026 0 0 0 0 -23.79586693273086 -48.171065597302004 0 -48.171065597302004 16.57119681569111 0 0 0 0 -16.675695067126981 -45.352700952874329 0 -45.352700952874329 6.6760503767691262 0 0 0 0 -17.146306493616066 -42.255267229753827 0 -42.255267229753827 7.3872868845519406 0 0 0 0 23.085794633690057 -32.00277551295153 0 -32.00277551295153 36.86751578770054 0 0 0 0 15.937117478213622 -46.470921059083594 0 -46.470921059083594 8.532316342840204 0 0 0 0 -9.406673253448389 -16.001678021288626 0 -16.001678021288626 22.801916127239565 0 0 0 0 64.437685172596503 -56.632052059452462 0 -56.632052059452462 5.2470441060322628 0 0 0 0 9.5466721768410778 -15.872058562420531 0 -15.872058562420531 15.768267347486315 0 0 0 0 -47.871920094961752 -51.862465798519224 0 -51.862465798519224 24.982247413938239 0 0 0 0 -49.429096871810543 -42.618970532706044 0 -42.618970532706044 17.373375871386088 0 0 0 0 9.5121277523403478 -45.887281193384752 0 -45.887281193384752 2.6916009094202309 0 0 0 0 23.138597990153357 -12.765193139804069 0 -12.765193139804069 2.3566668645089521 0 0 0 0 -1.86813946535705 -9.1927262020736755 0 -9.1927262020736755 -10.039168186694113 0 0 0 0 -21.90263290934854 3.9917038846533615 0 3.9917038846533615 8.0216805780255527 0 0 0 0 -44.020207053179547 -26.495201171674125 0 -26.495201171674125 8.4257538002196384 0 0 0 0 5.2604807698749738 -16.331441435511042 0 -16.331441435511042 11.930482621868023 0 0 0 0 -119.98931991653808 37.873594955428416 0 37.873594955428416 54.70861651679661 0 0 0 0 -80.595925712754251 3.3118728521703815 0 3.3118728521703815 69.563873575329126 0 0 0 0 -84.837362700915037 -5.4524714440949538 0 -5.4524714440949538 56.267431748816307 0 0 0 0 -103.2457600847556 162.54760017379886 0 162.54760017379886 291.46632974014938 0 0 0 0 -21.113343428195776 -7.5115282560733476 0 -7.5115282560733476 11.508797303155006 0 0 0 0 -9.3836910144618741 -20.060318618786368 0 -20.060318618786368 23.673295806194801 0 0 0 0 -3.6105107975563442 11.676075164315989 0 11.676075164315989 20.908275648766448 0 0 0 0 14.307307547252094 -28.432908391292131 0 -28.432908391292131 -30.630603496574622 0 0 0 0 36.562766529709734 -7.6098530048384418 0 -7.6098530048384418 -19.423747742130217 0 0 0 0 0.35349882883034134 -0.53058006631246712 0 -0.53058006631246712 4.0016073225539301 0 0 0 0 -120.95587809436347 42.849473555575969 0 42.849473555575969 -5.9237893501394865 0 0 0 0 -125.92622029278027 28.01570920046197 0 28.01570920046197 42.372014751968891 0 0 0 0 -150.38973676394744 19.806893550414316 0 19.806893550414316 53.705008734350486 0 0 0 0 -98.665462897685757 33.056280809034433 0 33.056280809034433 -5.0867865006730426 0 0 0 0 -0.52128649365084723 -1.1392359724096686 0 -1.1392359724096686 1.6223932054415542 0 0 0 0 44.252549221373556 52.395306745576818 0 52.395306745576818 -105.21799900707265 0 0 0 0 -4.6978303847544929 -6.8257823914750517 0 -6.8257823914750517 -9.0918164714090963 0 0 0 0 11.915965316653455 13.751107127140131 0 13.751107127140131 2.7208969520679602 0 0 0 0 19.087586250171626 -4.8367548942014764 0 -4.8367548942014764 36.511027774664399 0 0 0 0 74.501746510735757 -26.948387073952745 0 -26.948387073952745 20.711435618990436 0 0 0 0 122.82573550530287 -48.903815710914387 0 -48.903815710914387 -88.093407956206647 0 0 0 0 -63.493368851735795 139.96247884024524 0 139.96247884024524 -92.36419032604681 0 0 0 0 -134.33307400239937 -20.099625635641132 0 -20.099625635641132 -25.935230956623855 0 0 0 0 -320.81194678144675 197.10317475699867 0 197.10317475699867 -205.65819967200514 0 0 0 0 -133.38055633567637 16.714173758982724 0 16.714173758982724 -416.06487271677497 0 0 0 0 -176.67807655657089 44.876101909167119 0 44.876101909167119 -67.053589157312672 0 0 0 0 -299.62328066832015 17.64983965970896 0 17.64983965970896 32.947342232000665 0 0 0 0 -121.64296686666648 99.53569497829244 0 99.53569497829244 -60.096990373815061 0 0 0 0 -200.10385106574449 -42.102208727704692 0 -42.102208727704692 -18.273758008373989 0 0 0 0 -272.16007169418299 -74.713957601854418 0 -74.713957601854418 25.045849335787352 0 0 0 0 -724.30147799774386 -100.05679605102659 0 -100.05679605102659 -19.731657762837131 0 0 0 0 -199.21981258298547 -316.0152248640361 0 -316.0152248640361 -465.20494114058488 0 0 0 0 -25.498998259483415 -46.623428316462196 0 -46.623428316462196 -47.454556016353308 0 0 0 0 151.13316204252624 -149.40017856741542 0 -149.40017856741542 -186.25809224145411 0 0 0 0 6.3739780994528701 -119.78121406878472 0 -119.78121406878472 149.27007182182388 0 0 0 0 2.6980663115162571 2.5394765057493984 0 2.5394765057493984 -1.5315614416644081 0 0 0 0 -32.349707719309663 -92.602456245512258 0 -92.602456245512258 -55.117983347905465 0 0 0 0 26.238577474469366 -120.05429918336336 0 -120.05429918336336 -234.51745501402547 0 0 0 0 35.908421939936943 -159.69160141584553 0 -159.69160141584553 -83.692391373831924 0 0 0 0 -145.29773030335309 -309.11384138501217 0 -309.11384138501217 -142.76209253148591 0 0 0 0 -60.481917219785828 -163.06353240429871 0 -163.06353240429871 -83.071788926786439 0 0 0 0 -142.92070508666893 -83.611634331885853 0 -83.611634331885853 73.036582057540727 0 0 0 0 -9.1331240215736216 -118.55650786010494 0 -118.55650786010494 -53.875098659109426 0 0 0 0 -16.934590567514533 -80.730224440465463 0 -80.730224440465463 50.233348385338104 0 0 0 0 -98.714513213719329 -138.69264580737035 0 -138.69264580737035 183.4103276320111 0 0 0 0 -66.202244313785357 -29.24816114161672 0 -29.24816114161672 -12.335219230826052 0 0 0 0 -68.463170858944068 -20.446331182683934 0 -20.446331182683934 84.282425449635411 0 0 0 0 -42.493326306168456 -122.07541743161346 0 -122.07541743161346 80.151357371137465 0 0 0 0 -126.17696790041828 -15.539845214254001 0 -15.539845214254001 133.33079809903757 0 0 0 0 -130.84522910102896 13.573334338885616 0 13.573334338885616 31.156870579825863 0 0 0 0 -203.86398656702841 -26.521095294850966 0 -26.521095294850966 84.36400777061499 0 0 0 0 -120.69428697264084 -82.531332820561147 0 -82.531332820561147 24.578839817177254 0 0 0 0 -4.2568189543781045 -26.880988254497424 0 -26.880988254497424 -37.216082114685378 0 0 0 0 11.505838297483052 -4.1964080144975497 0 -4.1964080144975497 -0.97793618791396497 0 0 0 0 44.715660297950308 -131.72315652057478 0 -131.72315652057478 -271.31486214384859 0 0 0 0 95.797925893005413 -198.89687550163399 0 -198.89687550163399 -187.26652542953525 0 0 0 0 -31.269710770367965 -207.70920102909804 0 -207.70920102909804 -94.397817315921202 0 0 0 0 -37.592125523267896 -100.11265693384121 0 -100.11265693384121 -118.15864371522639 0 0 0 0 -29.919243798769003 -62.154286066285295 0 -62.154286066285295 -100.85494910691341 0 0 0 0 -102.50023375670207 -142.83384005880362 0 -142.83384005880362 -110.42709808691143 0 0 0 0 -91.46150271482702 -92.792204975953609 0 -92.792204975953609 -63.894322436288348 0 0 0 0 26.663063814036136 -28.176431165036924 0 -28.176431165036924 -11.194519933201537 0 0 0 0 -1.3781758585328134 -49.846141966202595 0 -49.846141966202595 -41.012603659361048 0 0 0 0 -4.6239639323804145 -64.916166770423729 0 -64.916166770423729 -56.722664329177221 0 0 0 0 105.0527056235087 -66.360143558065374 0 -66.360143558065374 -118.61585727479542 0 0 0 0 97.299760737783799 -104.31328710179878 0 -104.31328710179878 -61.608824623364853 0 0 0 0 20.954185532478732 -105.56319989340591 0 -105.56319989340591 -100.32553151041975 0 0 0 0 -49.774430521378122 -60.481341174517553 0 -60.481341174517553 -41.820531795478018 0 0 0 0 -28.320391094533989 -84.244166443480026 0 -84.244166443480026 -20.442007914565693 0 0 0 0 -4.0303676178173191 -63.287108236207132 0 -63.287108236207132 -63.119265950736008 0 0 0 0 -4.394016852101835 -21.031908949691747 0 -21.031908949691747 -11.830663064446149 0 0 0 0 -19.484923599869944 -112.27392995511582 0 -112.27392995511582 -111.80936853255162 0 0 0 0 -38.446471390192528 -119.18975467738665 0 -119.18975467738665 27.675702837825156 0 0 0 0 -28.553130458287342 -93.143037011165688 0 -93.143037011165688 -58.225387941763984 0 0 0 0 -31.441268105137397 -33.754430997634699 0 -33.754430997634699 23.009374793464303 0 0 0 0 -58.626165352590675 -38.043083966645661 0 -38.043083966645661 -16.400679193863954 0 0 0 0 -11.88386456421858 -37.065180811205096 0 -37.065180811205096 -6.4945333858399721 0 0 0 0 -17.89476752851624 -62.586704132356317 0 -62.586704132356317 -11.059913848048836 0 0 0 0 -18.051950596667666 -60.485366602094473 0 -60.485366602094473 -14.907129853156221 0 0 0 0 -21.670261772852044 -34.228337671797846 0 -34.228337671797846 -20.264530501774853 0 0 0 0 -79.227790690820257 -85.387005172982754 0 -85.387005172982754 -13.563494677767267 0 0 0 0 -6.8594463050777215 -45.1646098719036 0 -45.1646098719036 -35.643000851201947 0 0 0 0 0.74286512542676064 -38.059252065251712 0 -38.059252065251712 -17.477269479910319 0 0 0 0 95.572034757355141 -130.43305713085829 0 -130.43305713085829 -26.173753935076093 0 0 0 0 1.1081453526771128 -0.69601925429097378 0 -0.69601925429097378 -4.3847503147710114 0 0 0 0 0.84871787232491158 -2.0741404490902084 0 -2.0741404490902084 3.5287511677454546 0 0 0 0 5.4134341018543637 -106.3304329883922 0 -106.3304329883922 -31.796360466070837 0 0 0 0 24.641979235660983 82.141780745003416 0 82.141780745003416 -239.91556338611963 0 0 0 0 98.547608599530577 -77.052798775992869 0 -77.052798775992869 -50.151505480611377 0 0 0 0 -3.7717800229416554 -13.906843345072936 0 -13.906843345072936 -13.806879264316677 0 0 0 0 99.156504973419942 -146.31542382398038 0 -146.31542382398038 168.83500900282525 0 0 0 0 51.391620161550236 -74.096786131238332 0 -74.096786131238332 96.740130154496001 0 0 0 0 80.308297575560573 -165.50026194564634 0 -165.50026194564634 149.35946898329712 0 0 0 0 93.163154966204274 -171.13027775625505 0 -171.13027775625505 136.00815207010601 0 0 0 0 18.192010638413194 -39.113350266956331 0 -39.113350266956331 37.682167082970409 0 0 0 0 24.937990675451147 -44.680401530313247 0 -44.680401530313247 -63.973126686532851 0 0 0 0 -8.4236463515963962 -6.7303056475887075 0 -6.7303056475887075 -7.2156989550319608 0 0 0 0 -5.6550573023646491 -33.222214719778144 0 -33.222214719778144 7.7685034040782028 0 0 0 0 18.597177277475566 -48.721329637841336 0 -48.721329637841336 11.091464752076718 0 0 0 0 23.816153150232367 -37.819657976833014 0 -37.819657976833014 -4.4847990071430104 0 0 0 0 -47.55856983664853 -16.526881341800618 0 -16.526881341800618 5.6000070434092777 0 0 0 0 -12.481565315686566 -34.94088242417547 0 -34.94088242417547 -4.5648658988575335 0 0 0 0 -5.6829871256170463 -30.581546787498155 0 -30.581546787498155 -19.868013482424431 0 0 0 0 20.596347741799946 -64.163508800971613 0 -64.163508800971613 17.322375738702249 0 0 0 0 24.521557502681915 -8.4868686562305413 0 -8.4868686562305413 -12.79865194028676 0 0 0 0 -5.2101079795020269 -38.674232640849368 0 -38.674232640849368 3.6781079720676644 0 0 0 0 -4.4234051842247482 -38.633604201238086 0 -38.633604201238086 -20.640111873915885 0 0 0 0 -17.421679323279022 -63.286613228046917 0 -63.286613228046917 -11.627842187670467 0 0 0 0 -1.3974952433372891 -64.097630653246597 0 -64.097630653246597 -19.711436981502629 0 0 0 0 -1.3013045131155714 -48.443433743986162 0 -48.443433743986162 -10.403149500399465 0 0 0 0 -5.9801879212400308 -68.232203387982736 0 -68.232203387982736 13.561296554285946 0 0 0 0 18.816005161139401 -84.452360736006085 0 -84.452360736006085 -14.850346121573239 0 0 0 0 58.090645442662662 -46.999926807928205 0 -46.999926807928205 -25.415370433234784 0 0 0 0 61.825850494587712 -63.52915156562085 0 -63.52915156562085 -13.274942015872512 0 0 0 0 9.8669098886007305 -54.648969041158125 0 -54.648969041158125 -21.379820601268875 0 0 0 0 -107.29927334956665 -34.279882332231864 0 -34.279882332231864 212.37580197884745 0 0 0 0 543.11118307713696 -420.59594109402497 0 -420.59594109402497 139.64816648525812 0 0 0 0 58.833608127864863 -22.50155674718917 0 -22.50155674718917 -2.2858825633848028 0 0 0 0 -5.4274063952742608 -19.029910153100253 0 -19.029910153100253 -12.757832379523613 0 0 0 0 102.05312765758617 -243.30378591827753 0 -243.30378591827753 230.44347109116279 0 0 0 0 -750.36826356170786 -405.00429572446956 0 -405.00429572446956 211.52287381217684 0 0 0 0 1297.1479851971817 -92.776154500341363 0 -92.776154500341363 -280.93541905780876 0 0 0 0 0.86573264691226104 -4.0789520782681308 0 -4.0789520782681308 0.93287412042170104 0 0 0 0 -52.962962687593972 -416.8220922066248 0 -416.8220922066248 61.991520001649405 0 0 0 0 94.849049410542648 -491.71687711193954 0 -491.71687711193954 71.640351793577793 0 0 0 0 8.3238395189619041 -231.60090962914001 0 -231.60090962914001 196.87070971693902 0 0 0 0 -378.08401719880203 -66.507703281724389 0 -66.507703281724389 27.174061166901083 0 0 0 0 -107.21081031263202 -66.983110100927661 0 -66.983110100927661 -246.15180032758144 0 0 0 0 42.556522355008383 -67.495969060073548 0 -67.495969060073548 -53.702348733328108 0 0 0 0 -39.156078559471098 -193.60925175890043 0 -193.60925175890043 -183.77263464892167 0 0 0 0 80.847503109480385 -51.291138047890854 0 -51.291138047890854 -47.120197846281371 0 0 0 0 -73.415108773496058 -82.397719131685108 0 -82.397719131685108 159.95074967745131 0 0 0 0 -160.03462545210687 -146.19844437823667 0 -146.19844437823667 147.76945606264599 0 0 0 0 -63.32668012450543 -29.866329232224786 0 -29.866329232224786 -12.597487969811873 0 0 0 0 -59.607857240350313 -138.79769942893108 0 -138.79769942893108 15.077912142406376 0 0 0 0 -66.110529215188706 47.084864322359408 0 47.084864322359408 33.194033663792652 0 0 0 0 -97.202327358798357 -25.88705932722587 0 -25.88705932722587 144.51781949397082 0 0 0 0 -45.81100245017501 -26.783813140295024 0 -26.783813140295024 33.660189743026422 0 0 0 0 -29.762296298523324 -10.951090874326837 0 -10.951090874326837 -37.820146918653336 0 0 0 0 -36.218006142000377 -27.155352928602952 0 -27.155352928602952 -62.513746527158219 0 0 0 0 -62.995426371041503 -30.808513494255749 0 -30.808513494255749 -51.968036135054717 0 0 0 0 -63.69484011807981 20.508543674121029 0 20.508543674121029 -10.478579599435761 0 0 0 0 -71.717825209497732 -29.687490209113093 0 -29.687490209113093 -51.321961922731134 0 0 0 0 -133.05154175001189 1.9900797277878155 0 1.9900797277878155 -66.409009824012173 0 0 0 0 -192.89502708785039 -66.204524190135999 0 -66.204524190135999 -57.611793129275611 0 0 0 0 -92.900229419750758 -75.689362980595433 0 -75.689362980595433 -137.65303692550515 0 0 0 0 -72.816386862680702 -26.473842478302686 0 -26.473842478302686 -60.143334101798246 0 0 0 0 -72.251221507170612 -51.821907471558916 0 -51.821907471558916 -95.014876709828968 0 0 0 0 -69.71117583887326 -38.544181652064253 0 -38.544181652064253 -45.632284146500751 0 0 0 0 -128.93048862275555 -75.971017106123327 0 -75.971017106123327 -48.475396735862887 0 0 0 0 -91.212456585230029 -68.110008088813629 0 -68.110008088813629 -37.917376593806694 0 0 0 0 -126.31358807487243 -60.07937119605549 0 -60.07937119605549 -46.16220903469366 0 0 0 0 -180.07181938391295 -87.432151517321472 0 -87.432151517321472 -54.45382005454303 0 0 0 0 -35.469565046857497 -38.619679933050065 0 -38.619679933050065 -22.777187446787138 0 0 0 0 -50.738726501595011 -40.060406570177292 0 -40.060406570177292 -58.741009473716986 0 0 0 0 -44.11264857207334 -27.114357405567716 0 -27.114357405567716 -37.538473420703667 0 0 0 0 -57.371210809349577 -50.830884900584351 0 -50.830884900584351 -60.652812025466119 0 0 0 0 -45.718452365390476 -46.812464133829053 0 -46.812464133829053 -38.676530636381358 0 0 0 0 -57.043835633173671 -47.053573792572479 0 -47.053573792572479 -33.430991545435973 0 0 0 0 -44.016420091695181 -48.03746147439233 0 -48.03746147439233 -41.5909558934909 0 0 0 0 -18.909586552408655 -49.039013963985781 0 -49.039013963985781 -27.462620587542915 0 0 0 0 -34.396454895584611 -37.223575121184695 0 -37.223575121184695 -29.5197337993377 0 0 0 0 -43.202167049454602 -53.323243650393124 0 -53.323243650393124 -22.11442723039363 0 0 0 0 -33.605001450217969 -64.325256718515448 0 -64.325256718515448 -12.854847306491138 0 0 0 0 -12.03299335013071 -54.436316456463828 0 -54.436316456463828 -19.7735041679407 0 0 0 0 -29.409477166655961 -53.502930410966655 0 -53.502930410966655 -12.127260929017211 0 0 0 0 -30.616407905290544 -58.116901007728302 0 -58.116901007728302 -29.741913283651229 0 0 0 0 -46.012041323750054 -52.929645488708047 0 -52.929645488708047 -21.639568515784049 0 0 0 0 -34.106990577845863 -66.829822711624729 0 -66.829822711624729 -25.246069546918079 0 0 0 0 -58.348720712152499 -64.333949534688145 0 -64.333949534688145 -30.920848876547097 0 0 0 0 -64.149751611243119 -54.435913336763406 0 -54.435913336763406 -32.728419331819168 0 0 0 0 -82.174166316270203 -71.13597560000926 0 -71.13597560000926 -24.114643227858323 0 0 0 0 -65.464907654981289 -74.522963701634581 0 -74.522963701634581 -12.509422178519344 0 0 0 0 -58.905692022311086 -56.21448502997373 0 -56.21448502997373 -16.725460939618642 0 0 0 0 -134.42724945423288 -54.86788454211819 0 -54.86788454211819 -17.97914837107237 0 0 0 0 -169.48283594725399 -79.389718762726261 0 -79.389718762726261 -30.794807649057475 0 0 0 0 -120.85797570059958 -75.534732722671833 0 -75.534732722671833 -30.808626785903471 0 0 0 0 -92.34599073544814 -58.748132801236352 0 -58.748132801236352 -43.337717637768947 0 0 0 0 -89.707156476816635 -57.4063067854986 0 -57.4063067854986 -22.121943291007483 0 0 0 0 -79.9896403121802 -55.64019792804902 0 -55.64019792804902 -13.154895778065111 0 0 0 0 -119.60071568597596 -64.535216491774918 0 -64.535216491774918 -11.77746225042938 0 0 0 0 -117.38670536354812 -61.259314813019955 0 -61.259314813019955 -18.585274263823521 0 0 0 0 -148.04222474510516 -52.717138028063346 0 -52.717138028063346 0.577632768334297 0 0 0 0 -143.66292185493694 -31.329863756520353 0 -31.329863756520353 -2.5894309199829877 0 0 0 0 -169.94279652055866 -1.8459515189442754 0 -1.8459515189442754 -1.6816132421918155 0 0 0 0 -148.3323242479637 -1.5979524802751257 0 -1.5979524802751257 -4.3726479043725703 0 0 0 0 -166.43357581575856 8.4150781830103369 0 8.4150781830103369 -14.489523485237441 0 0 0 0 -182.35647698563707 6.5753940968570532 0 6.5753940968570532 -5.5260832683270564 0 0 0 0 -173.70017820990324 -44.539239465084393 0 -44.539239465084393 -12.164183683620649 0 0 0 0 -196.54473583186859 -40.850615474286315 0 -40.850615474286315 -0.49400670953036752 0 0 0 0 -0.74941710683732055 -1.2230998326428697 0 -1.2230998326428697 -1.8099130803085615 0 0 0 0 -260.52633411689385 -74.4050280135707 0 -74.4050280135707 -22.020656286189478 0 0 0 0 -466.29826122640361 -13.99624390928966 0 -13.99624390928966 6.1148390527523588 0 0 0 0 -181.35631131589253 -74.28219278837787 0 -74.28219278837787 -79.88740021068952 0 0 0 0 -276.29892498920674 29.479948242788396 0 29.479948242788396 -14.339338473691896 0 0 0 0 -353.9237824834745 -177.25442406594993 0 -177.25442406594993 -121.942172777417 0 0 0 0 -193.32907897036239 -54.897132349138701 0 -54.897132349138701 -74.06356320696068 0 0 0 0 184.35346422748535 -24.019649725772979 0 -24.019649725772979 -39.833581421047711 0 0 0 0 17.924503965170516 -16.011349925600371 0 -16.011349925600371 -73.993705874048828 0 0 0 0 0.039436353816228342 -0.11953052979404877 0 -0.11953052979404877 0.41789569224252432 0 0 0 0 -49.472371444065175 8.4835809553114814 0 8.4835809553114814 25.334320711401233 0 0 0 0 69.019766187883079 -65.595319808832755 0 -65.595319808832755 -28.851245409321564 0 0 0 0 89.335287238787032 13.486671920386925 0 13.486671920386925 12.337749629135942 0 0 0 0 -1.4694565470565291 -2.0037329847955867 0 -2.0037329847955867 0.93580275542394986 0 0 0 0 47.382922553927528 -16.251693769450867 0 -16.251693769450867 30.860264249859028 0 0 0 0 113.02493456067486 -6.5663656775741401 0 -6.5663656775741401 -11.426654590221005 0 0 0 0 -160.88406622318962 -0.18063076256112254 0 -0.18063076256112254 -11.213115826169087 0 0 0 0 -1.3721041494579165 -2.9031309404522325 0 -2.9031309404522325 -5.4487550320152849 0 0 0 0 0.11769124230977468 -30.515043293698909 0 -30.515043293698909 -5.380849476387084 0 0 0 0 54.828701484952262 16.518802397710715 0 16.518802397710715 8.9789950575286639 0 0 0 0 22.465919248414139 -19.477639814434951 0 -19.477639814434951 16.931990367351318 0 0 0 0 -2.2225383998388448 -4.945893967841954 0 -4.945893967841954 -4.8346633032091972 0 0 0 0 57.861063371090495 -39.579538625236637 0 -39.579538625236637 -29.069504068407696 0 0 0 0 -1.0139691142194733 -1.2229636807684421 0 -1.2229636807684421 -2.3941843058551484 0 0 0 0 -122.28756423328855 -14.074975146378165 0 -14.074975146378165 0.7811518868256826 0 0 0 0 -14.527166131515514 12.420546542369266 0 12.420546542369266 -9.2820057286362498 0 0 0 0 -16.523611734086444 -11.727232441814976 0 -11.727232441814976 -0.38661667851556558 0 0 0 0 -108.3014031201692 -17.262751682639646 0 -17.262751682639646 -7.059512510470995 0 0 0 0 -123.1512552722088 -14.815524316629308 0 -14.815524316629308 1.2349862079900049 0 0 0 0 -93.601033615659617 -28.371847837428504 0 -28.371847837428504 -5.7640864577551838 0 0 0 0 -116.3250252514772 -28.152096158733912 0 -28.152096158733912 2.9177089998956944 0 0 0 0 -120.09036664384621 -26.76411516137523 0 -26.76411516137523 2.4640595613855112 0 0 0 0 -133.17085321065497 -6.4012069414930011 0 -6.4012069414930011 -2.8726749099223525 0 0 0 0 -131.12072596031112 -30.967765924348896 0 -30.967765924348896 4.6642431197687984 0 0 0 0 -158.21586478283325 -25.597077687959427 0 -25.597077687959427 3.7384283582578064 0 0 0 0 -108.50618493362799 -42.360356871809927 0 -42.360356871809927 -2.8923295750319085 0 0 0 0 -99.926373452705548 -61.920810289595465 0 -61.920810289595465 -3.6626806620042771 0 0 0 0 -62.290511130735467 -58.566624225917622 0 -58.566624225917622 -10.224103675689548 0 0 0 0 -116.7887068682295 -44.841021002272555 0 -44.841021002272555 3.4950231223047012 0 0 0 0 -42.176359992963626 -57.486478425520545 0 -57.486478425520545 -6.4899944340868387 0 0 0 0 -22.579851988663904 -70.64168649196472 0 -70.64168649196472 -14.885065424805362 0 0 0 0 -59.981246877845365 -52.082279367892625 0 -52.082279367892625 -7.2160309541286551 0 0 0 0 -66.493028237390718 -55.45369575165023 0 -55.45369575165023 -5.2764303666499472 0 0 0 0 -26.528230991592409 -58.490282398166528 0 -58.490282398166528 -15.41145088652047 0 0 0 0 -96.960043037469518 -37.865927797128279 0 -37.865927797128279 -2.9281237697141478 0 0 0 0 -85.29525533024389 -39.518703516188907 0 -39.518703516188907 -4.6155760272413318 0 0 0 0 -71.283062772320591 -60.971628505136323 0 -60.971628505136323 -6.8289382450566336 0 0 0 0 -88.740617255190045 -25.117261878120189 0 -25.117261878120189 -10.288517254470207 0 0 0 0 -59.8030754492288 -42.79703952892487 0 -42.79703952892487 -8.8088061368925992 0 0 0 0 -65.69733473143333 -35.679549536394916 0 -35.679549536394916 -7.6373084167571506 0 0 0 0 -20.803264361989477 -48.364812792231533 0 -48.364812792231533 -16.737069184916436 0 0 0 0 -59.98259986801645 -43.680797453871037 0 -43.680797453871037 -13.097765330465336 0 0 0 0 -45.490113164330069 -42.999060971145809 0 -42.999060971145809 -8.9255436455459858 0 0 0 0 -45.151462550524272 -31.321690846017191 0 -31.321690846017191 -19.022956288841669 0 0 0 0 -58.539844844367963 -37.721234247894245 0 -37.721234247894245 5.0031651596000302 0 0 0 0 -48.558473997309193 -30.648544558378489 0 -30.648544558378489 -23.815171204613762 0 0 0 0 -83.302589612882912 -6.2258132396164001 0 -6.2258132396164001 -19.154580416718545 0 0 0 0 16.451194515094812 12.092401917747338 0 12.092401917747338 -10.22500052061514 0 0 0 0 8.2999889885059019 -4.6775655765777628 0 -4.6775655765777628 -32.208394000525914 0 0 0 0 -14.395073521341601 -19.422818172547068 0 -19.422818172547068 1.0769821015783236 0 0 0 0 -17.655789081438343 -34.103051634872827 0 -34.103051634872827 -19.557084300260613 0 0 0 0 -1.6126206394151112 -6.7263406083382904 0 -6.7263406083382904 -8.2000459481389214 0 0 0 0 -43.68475035239203 -22.623307050009316 0 -22.623307050009316 0.60108800281886943 0 0 0 0 2.9194435510326002 -21.12504287433876 0 -21.12504287433876 -15.809666066466889 0 0 0 0 0.25338084481565204 -0.80851413325945565 0 -0.80851413325945565 -0.82160685880896267 0 0 0 0 -89.81012685310634 -27.527638307990856 0 -27.527638307990856 -5.2301479268908224 0 0 0 0 -109.08577174094421 -18.847837933712071 0 -18.847837933712071 -2.0159861900101532 0 0 0 0 444.36071961597554 -470.28419463752653 0 -470.28419463752653 -60.609472905724488 0 0 0 0 267.00449432435562 -175.90252427147789 0 -175.90252427147789 -35.894169795239577 0 0 0 0 149.2319858007686 -363.21529019851732 0 -363.21529019851732 -43.833748399596971 0 0 0 0 200.3644168599385 -323.22518187374135 0 -323.22518187374135 -142.29856052873947 0 0 0 0 -196.50907547508905 -113.53453042356887 0 -113.53453042356887 -17.794971567200264 0 0 0 0 16.222990587240929 -321.58519730607259 0 -321.58519730607259 10.00870815662347 0 0 0 0 724.29682581970883 -196.90677317366863 0 -196.90677317366863 -105.57257604170445 0 0 0 0 771.42769037960534 -114.3708295611541 0 -114.3708295611541 13.77210862722859 0 0 0 0 1.6988651374931951 -8.4417131505706706 0 -8.4417131505706706 3.1069968941950208 0 0 0 0 134.21608397228556 -154.59898464423532 0 -154.59898464423532 86.985821981277695 0 0 0 0 312.75416100034636 92.857383750077133 0 92.857383750077133 -233.98646519337854 0 0 0 0 297.82358924806499 -110.40186113742334 0 -110.40186113742334 -98.541816913391813 0 0 0 0 473.23173215831048 -263.1775966662326 0 -263.1775966662326 -170.46490622570855 0 0 0 0 624.14550357723419 52.919018584303558 0 52.919018584303558 133.93120674478996 0 0 0 0 -12.334633756701805 -55.528887159067381 0 -55.528887159067381 -1.3806967351229105 0 0 0 0 -25.932330783074448 -53.312095254268911 0 -53.312095254268911 -12.799541674547072 0 0 0 0 -1.9122454874912607 -47.293659822841214 0 -47.293659822841214 -15.893533228540392 0 0 0 0 14.7412014860613 -62.200358847101597 0 -62.200358847101597 -22.048768844157166 0 0 0 0 -5.0509943015428984 -48.141564517225689 0 -48.141564517225689 -22.686391739141129 0 0 0 0 -9.2686054076370965 -56.77711883937809 0 -56.77711883937809 -20.790708856246056 0 0 0 0 -22.202109133176577 -53.657512269573317 0 -53.657512269573317 -16.943661601144413 0 0 0 0 -3.7263514364785806 -53.394518608874932 0 -53.394518608874932 -17.197009235037513 0 0 0 0 645.06103494168201 -363.39855396618441 0 -363.39855396618441 119.83176108953853 0 0 0 0 446.20150349645701 -143.31479286470858 0 -143.31479286470858 126.29448797731629 0 0 0 0 502.10859461643849 -174.895436061488 0 -174.895436061488 131.58178673792281 0 0 0 0 170.01183504559685 -24.935070065043533 0 -24.935070065043533 -96.619190329976846 0 0 0 0 21.304202228404471 -0.94779332177031961 0 -0.94779332177031961 -3.0630141128255985 0 0 0 0 21.13471675843175 44.079661594249046 0 44.079661594249046 -49.937813326273499 0 0 0 0 957.46703710640941 -601.94891745224231 0 -601.94891745224231 271.32343790114101 0 0 0 0 -1.2537438245521955 -0.64360061798801382 0 -0.64360061798801382 3.3764636591355099 0 0 0 0 25.060197199003596 244.77990873390809 0 244.77990873390809 -175.99438625378389 0 0 0 0 167.30614117551522 -150.60916639883544 0 -150.60916639883544 274.99190248971718 0 0 0 0 2.0455466758657623 -8.0861531746301694 0 -8.0861531746301694 3.1761568454560063 0 0 0 0 925.53823264343123 -241.35712274111074 0 -241.35712274111074 -30.114903467911063 0 0 0 0 895.2046544823279 38.977253769910021 0 38.977253769910021 -299.84458217503561 0 0 0 0 436.78814773190061 -282.60550299677197 0 -282.60550299677197 -29.873748456593603 0 0 0 0 465.97537741448832 -36.017945050320122 0 -36.017945050320122 -146.4023096208075 0 0 0 0 731.46317193849245 -344.64503103419338 0 -344.64503103419338 157.60678946954977 0 0 0 0 636.14115405134362 -440.38649073380657 0 -440.38649073380657 96.559283197380864 0 0 0 0 872.54504695240576 -564.34217811307644 0 -564.34217811307644 -5.7491277642693603 0 0 0 0 1974.0214947184068 -440.06796174709234 0 -440.06796174709234 -259.20374842001547 0 0 0 0 1.6592616836299179 -3.7362101933444123 0 -3.7362101933444123 0.99911331855290086 0 0 0 0 -170.06988970055818 -179.92861794971122 0 -179.92861794971122 -11.089293177567015 0 0 0 0 1053.1308323037265 -475.58340935820979 0 -475.58340935820979 -444.11936697339843 0 0 0 0 1324.1712704782149 -129.79223198258478 0 -129.79223198258478 -159.5663164494872 0 0 0 0 463.29454902623002 -292.12322935204429 0 -292.12322935204429 -184.85889646162832 0 0 0 0 770.13932824032781 -148.8996349966983 0 -148.8996349966983 -247.17885379541622 0 0 0 0 -3.8038406412050501 -20.907892334604007 0 -20.907892334604007 -7.760512702568974 0 0 0 0 -12.321494327463192 -23.865411731866033 0 -23.865411731866033 -15.85016945211342 0 0 0 0 14.339764308352585 -31.345714236647154 0 -31.345714236647154 -5.9032608286870527 0 0 0 0 -6.5586252955927193 -22.362585649927496 0 -22.362585649927496 -9.7494818149352795 0 0 0 0 1.1278312706756151 -18.199091105573714 0 -18.199091105573714 -11.388989616612093 0 0 0 0 -16.076578456291827 -23.357531096304228 0 -23.357531096304228 -5.3711339939327445 0 0 0 0 -11.745259329969485 -23.336118430168426 0 -23.336118430168426 -16.834652092016768 0 0 0 0 -17.79564295642632 -18.356929153867782 0 -18.356929153867782 3.0566695602537948 0 0 0 0 -10.670442047802318 -8.950686581081726 0 -8.950686581081726 7.5712570314739125 0 0 0 0 1.6003357272575989 -1.8555429777957144 0 -1.8555429777957144 0.067930511894843448 0 0 0 0 8.7122465782421585 -4.3375810426508536 0 -4.3375810426508536 -0.57344815850200348 0 0 0 0 3.969269616288102 -12.547602081299488 0 -12.547602081299488 -0.031085980539501179 0 0 0 0 1604.1312335098719 598.80509195995364 0 598.80509195995364 199.36927876251684 0 0 0 0 474.44096737571118 123.30728483112142 0 123.30728483112142 32.34940404578083 0 0 0 0 1994.1554547758265 -252.03517656526401 0 -252.03517656526401 -402.29383979794511 0 0 0 0 933.49670781036184 -825.54055309336036 0 -825.54055309336036 1.1448357842448591 0 0 0 0 -43.400999848353422 -7.7931899780178355 0 -7.7931899780178355 28.041692082422742 0 0 0 0 -39.099866242834366 -29.192494832596367 0 -29.192494832596367 8.8008681729916134 0 0 0 0 -70.944337569992967 -72.903313869561316 0 -72.903313869561316 -83.619508066985873 0 0 0 0 -21.371872994955254 -9.9611320049968626 0 -9.9611320049968626 14.702462079071559 0 0 0 0 -4.567890277252399 -6.6462248006745295 0 -6.6462248006745295 0.59184605422510117 0 0 0 0 -19.071937042941499 -36.058776354333531 0 -36.058776354333531 -6.6588435047269741 0 0 0 0 -4.4327530127089272 -7.5993472466827932 0 -7.5993472466827932 1.0089473229867707 0 0 0 0 -93.218687516897262 -30.717172936187126 0 -30.717172936187126 -2.1784635520598385 0 0 0 0 -10.882639278839065 -7.2745849087405077 0 -7.2745849087405077 13.82081409139937 0 0 0 0 -73.570843696745214 -10.477982100139343 0 -10.477982100139343 16.198382728707656 0 0 0 0 -3.4268901598684067 -9.9194940533271687 0 -9.9194940533271687 7.4723559101010437 0 0 0 0 -40.43820076076463 -29.022182880227774 0 -29.022182880227774 9.1494991525541991 0 0 0 0 -40.795556218442471 -34.439747444772365 0 -34.439747444772365 8.2989963986256043 0 0 0 0 -11.173015439069331 -33.778800021416828 0 -33.778800021416828 -6.8101024061998032 0 0 0 0 -25.575854910214758 -20.250150805478967 0 -20.250150805478967 -7.3013407162896016 0 0 0 0 -3.3754773617743012 -33.68013279621664 0 -33.68013279621664 -1.1678395477938466 0 0 0 0 -33.471943775812179 -34.762410207236826 0 -34.762410207236826 7.9683664910380685 0 0 0 0 -36.163078188738837 -29.189482213170777 0 -29.189482213170777 7.0691591608483577 0 0 0 0 -60.543271905258734 -7.297804787503992 0 -7.297804787503992 21.918592665111646 0 0 0 0 -27.790740408112175 -9.4570884861701785 0 -9.4570884861701785 10.859389256632284 0 0 0 0 -44.512800559623429 -8.8581959505972918 0 -8.8581959505972918 19.990459510419896 0 0 0 0 -7.5332178209473284 -4.3311937477400306 0 -4.3311937477400306 2.0112019693694094 0 0 0 0 -18.70307113630588 -20.418018391001169 0 -20.418018391001169 5.585858355727396 0 0 0 0 -14.357286510708946 -25.607353425606561 0 -25.607353425606561 4.6727613861585269 0 0 0 0 -7.0785307361107499 -13.117655918136869 0 -13.117655918136869 5.9862807218982041 0 0 0 0 -15.391617827204755 -24.992470718803816 0 -24.992470718803816 -6.7507328894498642 0 0 0 0 -12.114736228602851 -16.592502004124981 0 -16.592502004124981 -1.0765463461939362 0 0 0 0 -14.781590011267326 -19.037532527279836 0 -19.037532527279836 0.010276362623699242 0 0 0 0 5.5782089319127408 -15.708183842943981 0 -15.708183842943981 0.0079698095687490422 0 0 0 0 -14.541907098604042 -11.62058036597773 0 -11.62058036597773 7.6684348753551603 0 0 0 0 0.7374366649202706 -0.2183533242628144 0 -0.2183533242628144 -2.6981884221710857 0 0 0 0 164.36387504402683 -50.699142445075267 0 -50.699142445075267 -97.871577323545353 0 0 0 0 -0.11817764049630952 0.10665046593150329 0 0.10665046593150329 1.6443955229302958 0 0 0 0 -145.14155112594381 -459.82861772621254 0 -459.82861772621254 0.527962521180525 0 0 0 0 -312.53042823974283 52.53166282348684 0 52.53166282348684 17.375222940201638 0 0 0 0 -39.556898543076386 -12.036975431052269 0 -12.036975431052269 -1.5632147148498916 0 0 0 0 -40.024794958408165 -20.800834136668527 0 -20.800834136668527 32.463432553136954 0 0 0 0 -35.348134339892567 -0.96650549317564582 0 -0.96650549317564582 27.163920217004488 0 0 0 0 -50.746063296546708 -76.114045518050261 0 -76.114045518050261 -86.695860934458324 0 0 0 0 -206.78049676197134 -272.44702409532874 0 -272.44702409532874 -0.59826251823687926 0 0 0 0 -83.589949252293536 -63.651376021631222 0 -63.651376021631222 -75.199790577447857 0 0 0 0 -77.184237471161396 -77.012601003720192 0 -77.012601003720192 -48.723006342002918 0 0 0 0 -0.42090157577331411 -3.3344679864749196 0 -3.3344679864749196 -0.002070621161692543 0 0 0 0 -0.32424371543679342 -1.345992426447296 0 -1.345992426447296 1.1993117396044468 0 0 0 0 1.3568120704621833 -4.2191606133346795 0 -4.2191606133346795 -3.54781550329335 0 0 0 0 1.7628561527124305 -2.0258878056789769 0 -2.0258878056789769 1.7371767470130806 0 0 0 0 -1.9647196470268682 -5.8180756738438504 0 -5.8180756738438504 -3.7253264284663601 0 0 0 0 -21.658236137005588 -50.239963283951511 0 -50.239963283951511 -83.748367875232361 0 0 0 0 -54.537687340070079 -5.6510050262586446 0 -5.6510050262586446 -21.774151030389476 0 0 0 0 -66.397291050836429 -92.455976362743968 0 -92.455976362743968 -77.673867950503336 0 0 0 0 -56.866369969127845 -91.485532504418188 0 -91.485532504418188 -91.917986383872631 0 0 0 0 -56.484644768922408 -7.0895078921166714 0 -7.0895078921166714 -3.9584431175462669 0 0 0 0 -25.835142404474027 -30.664972986400244 0 -30.664972986400244 -14.225225822156062 0 0 0 0 -4.3489616481620033 -7.3969875087132095 0 -7.3969875087132095 -0.013827328985343085 0 0 0 0 -15.397161728910305 -12.494340432698664 0 -12.494340432698664 -2.3519662141916342 0 0 0 0 2.2468115401734394 -9.4926765093478025 0 -9.4926765093478025 -7.483793171151774 0 0 0 0 -6.63773614058573 -5.9031056865096616 0 -5.9031056865096616 -1.9316811634635087 0 0 0 0 2.6622626497142541 -5.0795317253914547 0 -5.0795317253914547 0.84958400755100172 0 0 0 0 5.2802225383275072 -15.015368131837022 0 -15.015368131837022 -12.033395873997506 0 0 0 0 -1.1317481063885495 -0.89994515049483681 0 -0.89994515049483681 -0.022718594934218572 0 0 0 0 -80.512115124637148 -25.173821805296029 0 -25.173821805296029 2.8296834508364554 0 0 0 0 4.4162232497474179 -12.95505088014761 0 -12.95505088014761 -12.982698342582353 0 0 0 0 -13.339601861920357 -15.712877977416611 0 -15.712877977416611 -13.779213422851171 0 0 0 0 -3.3628283622738309 -22.638660712022102 0 -22.638660712022102 -18.25886586120032 0 0 0 0 -7.4671089351030098 -11.794696006489438 0 -11.794696006489438 -10.4149693914963 0 0 0 0 2.2849586223637743 -7.2606009852916031 0 -7.2606009852916031 -32.098600177050685 0 0 0 0 5.7686173364927527 -38.358525433288378 0 -38.358525433288378 8.0360931091490784 0 0 0 0 18.67957418982769 -34.772978618144407 0 -34.772978618144407 -35.652234106310061 0 0 0 0 -24.014048161870051 -65.193650774217531 0 -65.193650774217531 -89.728897240737751 0 0 0 0 -79.545329906337429 -37.382273184144651 0 -37.382273184144651 -61.002087021148327 0 0 0 0 -2.826794735189722 -7.6034958022150931 0 -7.6034958022150931 -6.2916384412416484 0 0 0 0 -26.22866401067688 -31.51340503173833 0 -31.51340503173833 -13.989859366818564 0 0 0 0 -21.484048228482607 -28.991230291725515 0 -28.991230291725515 -22.269891909938451 0 0 0 0 -17.176058470668799 -18.41053391151722 0 -18.41053391151722 -9.4808062806693538 0 0 0 0 -15.828303017944824 -26.639657503991536 0 -26.639657503991536 -30.203278018429103 0 0 0 0 -100.84933145939976 -140.73758915145845 0 -140.73758915145845 0.72728004006785341 0 0 0 0 -50.869609835236588 -29.550133440940044 0 -29.550133440940044 7.2588147383721662 0 0 0 0 -4.7677729121478478 -52.587387615512853 0 -52.587387615512853 -99.247914250475787 0 0 0 0 -8.6474633396722425 -4.8484072097785642 0 -4.8484072097785642 2.1728857638132411 0 0 0 0 -17.152633846472249 -9.6208116646420621 0 -9.6208116646420621 10.025249346221827 0 0 0 0 -132.90653447289515 -102.24112315306411 0 -102.24112315306411 -17.228909655532334 0 0 0 0 -53.309525897808271 10.724847149442212 0 10.724847149442212 36.811284992771107 0 0 0 0 -95.249344576024669 -56.898949337277372 0 -56.898949337277372 21.364184414444026 0 0 0 0 -237.25592188119117 -80.120594372056075 0 -80.120594372056075 65.168931506879744 0 0 0 0 -203.49226217538489 -179.67738060162446 0 -179.67738060162446 -8.6223386668862076 0 0 0 0 -400.29307816140863 -24.657507153940969 0 -24.657507153940969 -75.310180618747836 0 0 0 0 -29.638370019713534 -11.777267263069746 0 -11.777267263069746 15.561465135122901 0 0 0 0 -1.2655644059061508 -0.34420291818273085 0 -0.34420291818273085 -0.38973589182805313 0 0 0 0 268.97486338550516 -59.741319776432647 0 -59.741319776432647 -405.29740787634728 0 0 0 0 -137.09219372759981 -15.530524514928402 0 -15.530524514928402 83.539868873915111 0 0 0 0 -9.7628801730716326 -20.080214276439065 0 -20.080214276439065 -6.1318787481681625 0 0 0 0 -36.669103263535817 -33.711762189614092 0 -33.711762189614092 -12.912974629345626 0 0 0 0 -24.126277826348996 -17.655225897009586 0 -17.655225897009586 3.2101136176988803 0 0 0 0 -85.267674676619208 -35.97587246542389 0 -35.97587246542389 -12.346189758187393 0 0 0 0 -2.7719824297376956 -4.0267229364992483 0 -4.0267229364992483 0.35509052262486307 0 0 0 0 5.8731203559987772 -12.305220628293881 0 -12.305220628293881 -1.2355199347244081 0 0 0 0 -0.25635757693976302 -38.723717384811607 0 -38.723717384811607 -4.0433051807776792 0 0 0 0 -19.256923569446599 -13.210842716619482 0 -13.210842716619482 3.57895173405268 0 0 0 0 -28.757549420807521 -26.829460163071417 0 -26.829460163071417 -6.4690736445754737 0 0 0 0 2.1036731663155206 -9.9209256455257968 0 -9.9209256455257968 3.4423304175881526 0 0 0 0 14.67623099595221 -37.730939913144539 0 -37.730939913144539 -43.990520479361294 0 0 0 0 -0.41258075459844212 -4.1450338658416541 0 -4.1450338658416541 3.6623690603059913 0 0 0 0 -29.58029790457033 -24.339931007940322 0 -24.339931007940322 0.30795489830416045 0 0 0 0 -31.423381724219212 -25.887970561690963 0 -25.887970561690963 -6.7575705432573159 0 0 0 0 -24.255302911203948 -22.598297269263142 0 -22.598297269263142 10.191031174266712 0 0 0 0 -32.721314699593933 -31.215363907782603 0 -31.215363907782603 -3.5597010590208811 0 0 0 0 -25.539728981249937 -28.648920625673782 0 -28.648920625673782 -11.944347332992038 0 0 0 0 -27.105992377902972 -16.678111576987519 0 -16.678111576987519 11.183601713933427 0 0 0 0 -41.49924581904429 -46.729163325406262 0 -46.729163325406262 -30.262827292568545 0 0 0 0 -41.572807874621503 -44.165242294484415 0 -44.165242294484415 -27.412955938440291 0 0 0 0 -29.658459828558421 -23.193767970995395 0 -23.193767970995395 -15.505348398091883 0 0 0 0 -13.628808919109423 -27.557622057071619 0 -27.557622057071619 -17.310857832123091 0 0 0 0 -24.09450687167714 -31.040128331378583 0 -31.040128331378583 -6.4033204101979209 0 0 0 0 -40.06352280485271 -18.739568724791752 0 -18.739568724791752 -2.7185521272549522 0 0 0 0 -25.847680668792236 -21.200834181898244 0 -21.200834181898244 -4.5916669267735415 0 0 0 0 -9.0346259544364784 -21.425845033511447 0 -21.425845033511447 -10.741157974448186 0 0 0 0 13.360955180720339 -29.570385206903666 0 -29.570385206903666 -28.813902904446877 0 0 0 0 -2.6684957071588542 -25.116360040462496 0 -25.116360040462496 -11.217585297836195 0 0 0 0 23.072901030169305 -88.966020265586849 0 -88.966020265586849 28.51682450559656 0 0 0 0 -29.853075518003038 -27.631826344251749 0 -27.631826344251749 -5.5539870745392363 0 0 0 0 -101.15440321568985 20.786051588551345 0 20.786051588551345 -31.039718556159642 0 0 0 0 -60.618302863506869 -0.50159076351337717 0 -0.50159076351337717 -23.728556552479859 0 0 0 0 -73.43573238330282 -18.677778781398956 0 -18.677778781398956 5.7866597636602819 0 0 0 0 -22.322540254577689 -33.409147080321418 0 -33.409147080321418 -36.268365007737884 0 0 0 0 -48.291979645453466 -2.6968209016486071 0 -2.6968209016486071 -70.045429593264998 0 0 0 0 18.632212583113869 -36.203575584699138 0 -36.203575584699138 -26.379089148591447 0 0 0 0 -9.1211332757011405 -17.430293335291935 0 -17.430293335291935 -31.853720718703698 0 0 0 0 -26.833595597661315 -47.585568630815033 0 -47.585568630815033 -21.361649756188854 0 0 0 0 -27.201849173001392 -42.902706299326383 0 -42.902706299326383 -54.438501744078167 0 0 0 0 -72.649527241838769 -47.641470030495839 0 -47.641470030495839 4.24246398312971 0 0 0 0 1.059926611493812 -1.8832016907347988 0 -1.8832016907347988 2.1883997123712504 0 0 0 0 -10.702896204494664 30.336230490031085 0 30.336230490031085 33.128686416690471 0 0 0 0 37.84955476556479 -5.8392937799544598 0 -5.8392937799544598 -23.961654213060683 0 0 0 0 -47.361886500641958 14.920259138934853 0 14.920259138934853 19.639032392475201 0 0 0 0 -21.536860307809377 -17.761186852922037 0 -17.761186852922037 -10.294615884129598 0 0 0 0 7.0494591434485052 -8.4023398948362171 0 -8.4023398948362171 2.0791467895253106 0 0 0 0 67.29946049958744 -5.5594549029156042 0 -5.5594549029156042 -74.24408240104276 0 0 0 0 1.7961769812282 -14.118965340005161 0 -14.118965340005161 -74.68202407388344 0 0 0 0 154.95199271650199 44.966842288034968 0 44.966842288034968 54.746070942264851 0 0 0 0 0.64112608651862502 -0.28888617498094504 0 -0.28888617498094504 0.55091362686217593 0 0 0 0 -60.525987674424869 -29.086389384334325 0 -29.086389384334325 124.45118362543872 0 0 0 0 13.37985739576834 -63.286389973407495 0 -63.286389973407495 -72.07209225468614 0 0 0 0 15.058312332457263 -53.270438348550215 0 -53.270438348550215 -13.808235630789568 0 0 0 0 -60.093197633093041 -33.677049619464015 0 -33.677049619464015 43.804977378895273 0 0 0 0 -87.196778251568503 -91.987632584499806 0 -91.987632584499806 -68.402519142524397 0 0 0 0 -189.14958777924767 13.053305611918404 0 13.053305611918404 16.203252566120682 0 0 0 0 0.42074892077065051 -0.029271648085824609 0 -0.029271648085824609 -1.5545268241564116 0 0 0 0 59.303645997473723 -42.047409887469257 0 -42.047409887469257 -29.998011316543852 0 0 0 0 -27.473325835454489 -62.459946231127105 0 -62.459946231127105 -34.180361250269925 0 0 0 0 -116.08842463859946 -50.793116718727106 0 -50.793116718727106 -9.9441996480745729 0 0 0 0 -7.2306732033994194 3.2776400993152492 0 3.2776400993152492 -64.850332697501244 0 0 0 0 -28.021900454496063 -26.205467120482353 0 -26.205467120482353 -14.63445096398209 0 0 0 0 -19.628691475069591 -12.589721095489594 0 -12.589721095489594 16.521652055490883 0 0 0 0 -40.524525740218451 -35.786499538922726 0 -35.786499538922726 -7.3825132645315534 0 0 0 0 -27.607974748862489 -25.848281110267635 0 -25.848281110267635 -12.715077812485106 0 0 0 0 -28.150204386730366 -21.947305827139644 0 -21.947305827139644 -9.8338325012518908 0 0 0 0 -23.517592445251466 -23.116222761724202 0 -23.116222761724202 -13.745355651931277 0 0 0 0 -3.1376883819420982 -25.918696708380594 0 -25.918696708380594 -15.643533595444751 0 0 0 0 -31.656705007066648 -23.424367077133866 0 -23.424367077133866 -8.7255923578995862 0 0 0 0 0.2428240879560768 -0.75198841330622201 0 -0.75198841330622201 3.0131892784657168 0 0 0 0 -16.867323851263219 -15.150777571908357 0 -15.150777571908357 16.993718725995386 0 0 0 0 -28.283535790893666 -26.33713779910795 0 -26.33713779910795 -7.1766453507807455 0 0 0 0 -29.633653133021653 -37.018162485517678 0 -37.018162485517678 -15.239214077879296 0 0 0 0 -80.762846188736148 42.099522430464276 0 42.099522430464276 54.714638414600245 0 0 0 0 108.57989613982591 -5.9606794991304923 0 -5.9606794991304923 -39.839235638457467 0 0 0 0 -0.32109775131360507 -0.16772837140879915 0 -0.16772837140879915 1.2321174844127825 0 0 0 0 -7.2150952409710953 -37.945924635623669 0 -37.945924635623669 -14.936589483146236 0 0 0 0 -18.960087492327148 -31.72064100145144 0 -31.72064100145144 -9.5365926871199918 0 0 0 0 -8.4350381902913796 -40.911545221439155 0 -40.911545221439155 -18.580578036664519 0 0 0 0 -32.544435558596888 -46.671457329237455 0 -46.671457329237455 -13.245129247639852 0 0 0 0 -45.922777440828554 -20.754862044786478 0 -20.754862044786478 38.975309229994309 0 0 0 0 -28.612745849224666 -18.129181209065791 0 -18.129181209065791 -0.14884564638850861 0 0 0 0 -32.378184143047633 -64.633870340475596 0 -64.633870340475596 -43.684553028298978 0 0 0 0 -3.3345735409984627 -4.1562050941354158 0 -4.1562050941354158 -4.4962307489837912 0 0 0 0 -33.931634723230218 -22.063545596214681 0 -22.063545596214681 -1.6456595150593785 0 0 0 0 -29.411506082058107 -19.914377528145572 0 -19.914377528145572 -0.45134615283328117 0 0 0 0 -26.714487891613317 -21.217471654756082 0 -21.217471654756082 -4.8175747583591146 0 0 0 0 -17.350075357577225 -22.45096815134093 0 -22.45096815134093 -13.335973054777696 0 0 0 0 -23.965376264821316 -21.49544612862519 0 -21.49544612862519 -9.9287976936370796 0 0 0 0 -16.91279840329652 -13.717807629385838 0 -13.717807629385838 -1.0214780360536668 0 0 0 0 -24.999735722305559 -20.994710230374039 0 -20.994710230374039 -3.7111411121040874 0 0 0 0 -20.656397333681525 -26.008414098512731 0 -26.008414098512731 -20.022232457791688 0 0 0 0 -3.990404819346697 -6.340375412614236 0 -6.340375412614236 0.3569907673336985 0 0 0 0 -16.129098288240762 -11.382699451011177 0 -11.382699451011177 2.6661355977154475 0 0 0 0 -17.31449129159023 -14.206847251145518 0 -14.206847251145518 -11.242573870125852 0 0 0 0 -9.8992263296672718 -14.069391719269333 0 -14.069391719269333 -15.324872828381558 0 0 0 0 -35.440024597502088 -24.552400807595404 0 -24.552400807595404 -5.7340647453820566 0 0 0 0 -19.747716986520476 -14.225082761895329 0 -14.225082761895329 -2.340188680556551 0 0 0 0 -15.723703901200832 -16.011705583858436 0 -16.011705583858436 -16.570537250671748 0 0 0 0 -37.52434784945217 -23.259745425697474 0 -23.259745425697474 -4.052768129571632 0 0 0 0 -39.794637377558956 -28.402225072230067 0 -28.402225072230067 -10.529479909382644 0 0 0 0 -5.8591601511377611 -4.8933450287709235 0 -4.8933450287709235 -2.1048978730703141 0 0 0 0 -17.024427118114318 -12.886833475797175 0 -12.886833475797175 -7.5554839830138008 0 0 0 0 -17.917035159747002 -19.166645100573078 0 -19.166645100573078 -14.85056908909246 0 0 0 0 -14.529873950537887 -6.6328166686406149 0 -6.6328166686406149 5.1603011250848851 0 0 0 0 -27.428538907068287 -28.152672335076204 0 -28.152672335076204 -25.289517964767583 0 0 0 0 -14.178930476142895 -6.7585934268994521 0 -6.7585934268994521 5.9271196996564441 0 0 0 0 -41.460711984647332 -23.183346033114503 0 -23.183346033114503 2.1781229565676767 0 0 0 0 -1.2441202553637982 0.37345533041884238 0 0.37345533041884238 1.651211114192904 0 0 0 0 -1.2968743197307049 -14.009717266060761 0 -14.009717266060761 -21.203398990473943 0 0 0 0 -7.7132984404997842 -87.726943108835258 0 -87.726943108835258 -7.7412107840791577 0 0 0 0 -24.236319637928318 -19.805846736882813 0 -19.805846736882813 -6.9049342460275511 0 0 0 0 -22.889478267787126 -20.315648274758132 0 -20.315648274758132 -11.934802198695252 0 0 0 0 -34.542488256937759 -18.919258475390961 0 -18.919258475390961 -9.4630475359517732 0 0 0 0 -33.865918958362272 -21.723102428280981 0 -21.723102428280981 -12.600708380334254 0 0 0 0 -35.345913211197058 -21.84145135302424 0 -21.84145135302424 -5.7713351993807009 0 0 0 0 -35.434869062489838 -17.904342830493988 0 -17.904342830493988 -4.2335601239974494 0 0 0 0 -34.754950663597725 -20.798165019431508 0 -20.798165019431508 0.0018692446683417074 0 0 0 0 -15.831166848634894 -33.444655306324421 0 -33.444655306324421 2.1320493419116247 0 0 0 0 -22.664717427971482 -19.051282466898556 0 -19.051282466898556 -0.0046090589994263837 0 0 0 0 -33.416312316214999 -24.564643346557204 0 -24.564643346557204 -2.289478002996475 0 0 0 0 32.782496260279004 -3.2781910015910398 0 -3.2781910015910398 -23.626484342574258 0 0 0 0 -31.715215759589682 -21.721654560471507 0 -21.721654560471507 -3.6898037275277602 0 0 0 0 -31.867184249401816 -20.93883760022436 0 -20.93883760022436 -7.6528670393927314 0 0 0 0 -31.268092858657155 -20.457997070610872 0 -20.457997070610872 -3.9698031026996432 0 0 0 0 -33.292413500430371 -21.571279997478996 0 -21.571279997478996 -1.2077949921604159 0 0 0 0 -28.889616620516335 -23.75048695942769 0 -23.75048695942769 -0.0057622507047199178 0 0 0 0 -27.016524505301959 -24.235964840099768 0 -24.235964840099768 -5.3980737007841526 0 0 0 0 -24.379405671522591 -23.378350464514369 0 -23.378350464514369 -5.3001964357317775 0 0 0 0 -25.459096678908509 -27.140261657750671 0 -27.140261657750671 -0.0013793230318697169 0 0 0 0 -21.184058270183414 -27.133545190234145 0 -27.133545190234145 -7.6272400353082048 0 0 0 0 -23.319964468386388 -25.219728088082775 0 -25.219728088082775 2.1261445511336206 0 0 0 0 -12.781819183334846 -31.905721363873454 0 -31.905721363873454 5.9994202098823735 0 0 0 0 3.2858921807546722 -21.505928261780355 0 -21.505928261780355 0.0085553106036968529 0 0 0 0 -27.127090232838782 -24.571840912680273 0 -24.571840912680273 -11.087478227134852 0 0 0 0 -5.2330272293947928 -24.164383611299854 0 -24.164383611299854 -11.542592522353516 0 0 0 0 -22.532360718695145 -25.735717889001535 0 -25.735717889001535 -7.7797517154103843 0 0 0 0 -17.309410051794867 -21.382392613049717 0 -21.382392613049717 -7.9105029557115234 0 0 0 0 -25.577927436757818 -7.9755561054262216 0 -7.9755561054262216 21.28323452507766 0 0 0 0 -15.677027842463303 -26.426457474610288 0 -26.426457474610288 -27.123634160278016 0 0 0 0 23.933269060750831 -61.808438330776426 0 -61.808438330776426 16.589325306820683 0 0 0 0 -7.1136821672861856 -9.403868429171867 0 -9.403868429171867 -7.0850490006437923 0 0 0 0 -14.659060508402035 -12.359470879320725 0 -12.359470879320725 -0.47503089450765401 0 0 0 0 -16.181596783952045 -8.379567072919599 0 -8.379567072919599 2.7810861152493089 0 0 0 0 -36.795736810567632 -22.228862597448824 0 -22.228862597448824 48.472377795096691 0 0 0 0 -28.585712988207888 -47.698395459665335 0 -47.698395459665335 -10.996809861436304 0 0 0 0 -27.107874845340376 -22.026635516218448 0 -22.026635516218448 -4.9871599413818331 0 0 0 0 -25.765833529039721 -20.851527081341025 0 -20.851527081341025 -3.6444751152522556 0 0 0 0 -22.021464911293108 -19.535477945119439 0 -19.535477945119439 -2.77904074452535 0 0 0 0 -22.731348104916378 -23.830287861776014 0 -23.830287861776014 -13.307752800639719 0 0 0 0 -16.51773270925878 -16.251283988579416 0 -16.251283988579416 27.818093849768047 0 0 0 0 5.7531267077929442 -6.9919980100603425 0 -6.9919980100603425 0.0017927673361555208 0 0 0 0 -108.36598607428641 33.30113597592208 0 33.30113597592208 4.5274463343266689 0 0 0 0 1.3929542140327378 -0.49729706226490578 0 -0.49729706226490578 -1.907449475929468 0 0 0 0 -4.6062996938144352 -5.1847901456822001 0 -5.1847901456822001 4.2869333231792552 0 0 0 0 -7.4510438725719723 -11.357725952344481 0 -11.357725952344481 5.4640336151860538 0 0 0 0 -25.322594057097376 6.1409187066910818 0 6.1409187066910818 25.961128356459085 0 0 0 0 -13.714414908921526 -21.424331972120854 0 -21.424331972120854 0.25310496916790726 0 0 0 0 -15.229759753495902 -14.90717917608292 0 -14.90717917608292 4.534391451535484 0 0 0 0 -1.3519244755754443 -1.315339166426952 0 -1.315339166426952 2.2802515739868596 0 0 0 0 -13.788055663722968 -9.8744119057174728 0 -9.8744119057174728 2.2619091603975505 0 0 0 0 -13.606683697111293 -15.933324833633378 0 -15.933324833633378 3.6935235937608013 0 0 0 0 -12.817437578969475 -13.128607740673033 0 -13.128607740673033 4.0164182199700917 0 0 0 0 -7.9767691078425003 -4.8748503354116508 0 -4.8748503354116508 4.5452329356970438 0 0 0 0 -26.512042179376294 -6.4998910597241775 0 -6.4998910597241775 3.5575973950471962 0 0 0 0 -18.93754224411532 -7.9446351344959112 0 -7.9446351344959112 0.013475493065925548 0 0 0 0 -9.9473801991057371 -6.9176598594394818 0 -6.9176598594394818 3.1686142164908233 0 0 0 0 -7.7083367834698038 -9.7830931439766573 0 -9.7830931439766573 -0.97671751285815844 0 0 0 0 -1.9440602845475183 0.0043437790922560282 0 0.0043437790922560282 0.74347394322569471 0 0 0 0 -2.4825988573346685 -2.4459929228240611 0 -2.4459929228240611 -0.13880644822076249 0 0 0 0 -3.6653581362033947 -9.0242330202454468 0 -9.0242330202454468 -0.16761507268529385 0 0 0 0 -1.7595280153309432 -16.646561638837738 0 -16.646561638837738 20.227006093613454 0 0 0 0 2.3146105737250764 -8.8685534653050127 0 -8.8685534653050127 -8.4642156116824481 0 0 0 0 10.338800813944545 -25.419450163582951 0 -25.419450163582951 -9.7099647995200939 0 0 0 0 -8.5756422415215638 -22.9678856140672 0 -22.9678856140672 -10.026568155461064 0 0 0 0 -8.2026897928353542 -9.177053973021664 0 -9.177053973021664 -10.238096502241746 0 0 0 0 -11.509801745893128 -14.377230230817077 0 -14.377230230817077 0.16462815201521153 0 0 0 0 -11.413905150697246 -9.7825336850000895 0 -9.7825336850000895 -7.7443649049819214 0 0 0 0 -13.519817856678856 -17.848505609730637 0 -17.848505609730637 -0.3378327903792524 0 0 0 0 -6.3117622786649008 -22.237130148994765 0 -22.237130148994765 1.8012681476320722 0 0 0 0 -72.626541453710161 -16.517335013988486 0 -16.517335013988486 55.325844786777452 0 0 0 0 -11.525893456053957 -17.519017110898403 0 -17.519017110898403 -7.4624925280160319 0 0 0 0 -13.486026135189332 -16.645333291247709 0 -16.645333291247709 -9.2913323502745016 0 0 0 0 -1.9813164056626178 -1.0753171775882322 0 -1.0753171775882322 4.9004103541500683 0 0 0 0 19.905318692886794 -28.51174991322705 0 -28.51174991322705 -35.556966383912368 0 0 0 0 -32.40590705908653 -30.683404550238265 0 -30.683404550238265 -28.428393657697598 0 0 0 0 -15.253415624654735 -53.603757140162998 0 -53.603757140162998 0.26839420449687168 0 0 0 0 -94.129300731123294 -48.721211354597472 0 -48.721211354597472 -4.7216866087001108 0 0 0 0 -9.1428873887701201 -11.608467298233798 0 -11.608467298233798 -2.9679548720761115 0 0 0 0 -16.448517997931049 -9.4621643735081307 0 -9.4621643735081307 17.174948336381931 0 0 0 0 -66.255485085825967 -11.961096254696713 0 -11.961096254696713 100.53958491278536 0 0 0 0 19.754434868464159 -93.480011802421359 0 -93.480011802421359 -13.028377043754517 0 0 0 0 -14.809960214143679 -9.9904206205180301 0 -9.9904206205180301 2.0663831706353051 0 0 0 0 -2.0129604102281178 -1.6350158950339875 0 -1.6350158950339875 0.88642387434069292 0 0 0 0 -30.939524974758569 30.711354623500483 0 30.711354623500483 152.09021542281334 0 0 0 0 -32.617946859125368 -84.275858311779302 0 -84.275858311779302 -141.45341940326216 0 0 0 0 17.759938514327587 33.131309986023552 0 33.131309986023552 49.478927902742726 0 0 0 0 9.3786176037929181 -22.786170669429794 0 -22.786170669429794 38.630667802030075 0 0 0 0 -3.5873813746193264 -32.132702164900365 0 -32.132702164900365 -44.42537527911918 0 0 0 0 -43.184106551977493 -26.352414321770993 0 -26.352414321770993 -45.055128871827037 0 0 0 0 -49.282995231047607 -44.05458024413565 0 -44.05458024413565 20.589442927805067 0 0 0 0 -32.26024907363535 -11.628200423761882 0 -11.628200423761882 -12.029437935100759 0 0 0 0 -36.576620482735962 -43.864353209366527 0 -43.864353209366527 -24.794444669365475 0 0 0 0 1.6532422015188786 -30.749897887708357 0 -30.749897887708357 -0.39190508062893059 0 0 0 0 -28.621803521287802 -11.650768200641323 0 -11.650768200641323 -1.304362528133197 0 0 0 0 -29.834405601061007 -18.906395407359014 0 -18.906395407359014 4.4110303915513214 0 0 0 0 -15.750807184180303 -6.5560355029974744 0 -6.5560355029974744 2.7647594367954298 0 0 0 0 -26.67666967595099 -26.300583178455231 0 -26.300583178455231 -16.164036802098114 0 0 0 0 -17.82622217893163 -20.825687114173661 0 -20.825687114173661 4.3456956306108623 0 0 0 0 -17.938319710909127 -23.084520868964319 0 -23.084520868964319 -5.7368578533478285 0 0 0 0 -32.583666654638364 -50.139976197924625 0 -50.139976197924625 32.585765611866009 0 0 0 0 -13.020533584153782 -36.423921707697446 0 -36.423921707697446 -6.6424468314653495 0 0 0 0 -27.569306703300754 -42.573565442859035 0 -42.573565442859035 28.836929041921394 0 0 0 0 -18.296284086051855 -29.049433452676112 0 -29.049433452676112 1.4382493744378735 0 0 0 0 -25.715886153134683 -25.572782072008092 0 -25.572782072008092 -14.397827115168191 0 0 0 0 -22.365660232826485 -38.15024092650674 0 -38.15024092650674 -10.188108941536484 0 0 0 0 -167.08933395156419 1.4706608831875201 0 1.4706608831875201 -10.514644005488663 0 0 0 0 -324.02470495559101 -13.30508961853775 0 -13.30508961853775 13.157819997100887 0 0 0 0 -0.54495459595013429 -1.2763319380996947 0 -1.2763319380996947 -2.948226559242741 0 0 0 0 -6.1104795744067815 -53.19869344161998 0 -53.19869344161998 -59.84863054140078 0 0 0 0 14.560211299114599 -67.328708277103942 0 -67.328708277103942 -33.019154315239575 0 0 0 0 -77.303388213715152 -110.49104810810968 0 -110.49104810810968 -37.229891505128762 0 0 0 0 -26.501688183872375 -54.994914221387262 0 -54.994914221387262 -9.182069156318903 0 0 0 0 -55.684325834959964 -72.180210608355992 0 -72.180210608355992 -16.453348366205319 0 0 0 0 -42.558205823333992 -26.603871442261152 0 -26.603871442261152 -3.7996620701051143 0 0 0 0 -63.295461085826503 -15.135414981919212 0 -15.135414981919212 -8.5125743559547118 0 0 0 0 -1.8449775957860517 -3.8937895382846506 0 -3.8937895382846506 -8.09380339677611 0 0 0 0 53.472283182725278 -50.617051573895878 0 -50.617051573895878 7.9861386829688854 0 0 0 0 -58.966712614825155 11.211684022780901 0 11.211684022780901 -5.6724345860907306 0 0 0 0 19.762832998090744 -8.1182060277678829 0 -8.1182060277678829 5.1174405401652621 0 0 0 0 16.6605126025961 -23.420544991062343 0 -23.420544991062343 -10.54719431068952 0 0 0 0 61.434401555695331 -33.616948719308311 0 -33.616948719308311 -53.424320236510539 0 0 0 0 16.666130979379886 -16.948192939431465 0 -16.948192939431465 15.360060104884269 0 0 0 0 -4.9593095199311392 -93.908836501662336 0 -93.908836501662336 -66.940946120656008 0 0 0 0 13.968435330081775 -56.007985113361428 0 -56.007985113361428 1.4385244070908811 0 0 0 0 -20.639148954635402 -33.455936793354567 0 -33.455936793354567 -13.225793743076792 0 0 0 0 -13.761073666149301 -23.491684331155383 0 -23.491684331155383 10.422652304642007 0 0 0 0 -28.392846658461451 -27.22685632227622 0 -27.22685632227622 -7.260568192335505 0 0 0 0 -26.27128780516432 -49.755097090928757 0 -49.755097090928757 5.8960104395919188 0 0 0 0 -26.614501043062774 -24.262490659501054 0 -24.262490659501054 -31.531283824871934 0 0 0 0 -25.788560268163565 -20.58054761189851 0 -20.58054761189851 -6.1601006672608491 0 0 0 0 -24.031961893341375 -24.408714795507265 0 -24.408714795507265 -0.48602100092178446 0 0 0 0 -14.428185434183685 -23.069020740449105 0 -23.069020740449105 11.479114366143278 0 0 0 0 -17.3930939154925 -63.923135555651243 0 -63.923135555651243 -1.3110078979416357 0 0 0 0 -253.65147258224897 -32.287004870839155 0 -32.287004870839155 174.67178256824263 0 0 0 0 -3.4318749915930518 -8.5703520009610017 0 -8.5703520009610017 -6.8125565476606766 0 0 0 0 -16.468955017233384 -24.196715984995535 0 -24.196715984995535 -37.345310515142046 0 0 0 0 41.9412530474292 102.88554983841823 0 102.88554983841823 26.936514182649262 0 0 0 0 6.4227278759044566 -57.841577247732857 0 -57.841577247732857 -51.20172727300087 0 0 0 0 -13.73975410181307 -15.78947328949652 0 -15.78947328949652 18.645595563134442 0 0 0 0 22.578467256680597 -88.211307440338715 0 -88.211307440338715 -20.836065557603433 0 0 0 0 -171.78110867522446 -187.43225302955216 0 -187.43225302955216 -115.36796664584836 0 0 0 0 114.85175305682424 5.2538556441577384 0 5.2538556441577384 -257.51878368216057 0 0 0 0 -16.224945837271662 -28.451540499798284 0 -28.451540499798284 33.804143464665799 0 0 0 0 -0.42666931597982227 -5.6624538377947005 0 -5.6624538377947005 -7.0415412753922908 0 0 0 0 -63.855057042677799 -22.212091157114628 0 -22.212091157114628 33.835004389358744 0 0 0 0 -20.054157436628792 -18.923910797823783 0 -18.923910797823783 -10.307902639292127 0 0 0 0 -6.4831334402661014 -20.327768429717253 0 -20.327768429717253 -67.327398528594131 0 0 0 0 -23.935130695695079 -42.938781147307054 0 -42.938781147307054 -19.051432221465802 0 0 0 0 -19.521613552898998 -33.366957229792206 0 -33.366957229792206 -30.333983278449523 0 0 0 0 1.5738328784378481 -7.3833761774446742 0 -7.3833761774446742 3.8024575148393609 0 0 0 0 -0.94917688315035775 -13.90456191121848 0 -13.90456191121848 -17.541902128185029 0 0 0 0 -5.0285045233831802 -15.891720566915147 0 -15.891720566915147 -26.588171531952831 0 0 0 0 -9.0144744233544642 -18.274933593714415 0 -18.274933593714415 -18.336491036201842 0 0 0 0 -7.5506890760406264 -19.768027794730418 0 -19.768027794730418 -13.496260543201124 0 0 0 0 -63.437580411993622 -81.784420027939632 0 -81.784420027939632 -65.472454336708324 0 0 0 0 43.09567250530722 -67.649293764912727 0 -67.649293764912727 -94.731877691878253 0 0 0 0 27.318091894803729 20.036879231706735 0 20.036879231706735 -13.697944604227814 0 0 0 0 19.183985492391457 -24.422957401058056 0 -24.422957401058056 14.434876768644244 0 0 0 0 -128.42960272616801 -62.444414698125001 0 -62.444414698125001 -3.5565294123489366 0 0 0 0 -132.40876376646702 -159.96779782492194 0 -159.96779782492194 251.49536112171336 0 0 0 0 234.28946730517146 -166.553217448552 0 -166.553217448552 17.697620843136974 0 0 0 0 92.400325371707368 88.76572801592738 0 88.76572801592738 180.43505125489719 0 0 0 0 -19.205779399337189 -23.124253245132422 0 -23.124253245132422 26.40520249713768 0 0 0 0 -21.978971380227449 -12.113660097793399 0 -12.113660097793399 27.0860528721023 0 0 0 0 -186.17732497847101 -31.967067133644377 0 -31.967067133644377 -43.732629804553653 0 0 0 0 -180.16361671433333 -226.67845096282781 0 -226.67845096282781 93.156858030405601 0 0 0 0 -11.625212751975596 -15.015033998019589 0 -15.015033998019589 9.6026497710372496 0 0 0 0 5.3245772253970038 -10.254568484109299 0 -10.254568484109299 20.135626159021349 0 0 0 0 -12.849831526586058 -18.180537405662108 0 -18.180537405662108 8.5451596918028372 0 0 0 0 -16.892563782761499 -9.6508920354262955 0 -9.6508920354262955 20.367721470265678 0 0 0 0 -31.104808183648856 -18.523810350230633 0 -18.523810350230633 15.009719264142404 0 0 0 0 -11.750644328134513 -15.234011735265085 0 -15.234011735265085 9.6535762685425652 0 0 0 0 -4.6939123725851886 -4.9053450317968768 0 -4.9053450317968768 -2.3250500557140477 0 0 0 0 -31.100684197645023 -54.582278606793807 0 -54.582278606793807 -62.551120959045875 0 0 0 0 -11.19331086978309 -19.848518049936956 0 -19.848518049936956 -8.7710339254153951 0 0 0 0 -39.083640374130482 -40.872580587380526 0 -40.872580587380526 -81.272018323497832 0 0 0 0 -1.908048673335216 -1.5608903724037901 0 -1.5608903724037901 2.0337068483007954 0 0 0 0 -21.605750635251752 -101.52391242049271 0 -101.52391242049271 -119.55338085143558 0 0 0 0 -15.680083241731353 -15.441606708174923 0 -15.441606708174923 18.785106504219602 0 0 0 0 -24.841243676037266 -54.351748812265214 0 -54.351748812265214 -32.128460279664068 0 0 0 0 -49.654954820005514 -53.032518606336453 0 -53.032518606336453 -75.781871417793809 0 0 0 0 -32.784615740627487 -27.115261312450457 0 -27.115261312450457 -7.7227379323157948 0 0 0 0 -44.873514306545985 -37.689605244497216 0 -37.689605244497216 -30.129672669634601 0 0 0 0 -17.689579632628011 -78.643393071786704 0 -78.643393071786704 -69.172666713977378 0 0 0 0 -34.667230992628447 -46.920540515514745 0 -46.920540515514745 -29.174424949083914 0 0 0 0 -16.545533359007095 -30.284023206779239 0 -30.284023206779239 -70.112830322046648 0 0 0 0 -30.620540818614245 -30.39665662245352 0 -30.39665662245352 -11.373750436396222 0 0 0 0 -26.622971736480963 -23.277323583416944 0 -23.277323583416944 -28.900439512697631 0 0 0 0 -27.633635313739433 -43.534560099071314 0 -43.534560099071314 -35.419752704699931 0 0 0 0 -21.754324314927885 -13.872592501090182 0 -13.872592501090182 16.750018719082728 0 0 0 0 -34.841651027956686 -37.329166770516167 0 -37.329166770516167 -38.458672093207497 0 0 0 0 -27.626489024491775 -10.53024748642401 0 -10.53024748642401 15.935754535037063 0 0 0 0 -287.7457196192554 -116.92577180220906 0 -116.92577180220906 227.78050434688339 0 0 0 0 -8.6766223912391069 -142.54460280991179 0 -142.54460280991179 17.616807629230607 0 0 0 0 -35.46216789016762 -72.671292645862195 0 -72.671292645862195 20.124163256823522 0 0 0 0 15.41347006095566 -41.444231546665833 0 -41.444231546665833 -51.449642818919529 0 0 0 0 68.011374276873539 -79.182328477316332 0 -79.182328477316332 19.812008005596908 0 0 0 0 40.297640396322095 -87.280319483817948 0 -87.280319483817948 85.041101250961219 0 0 0 0 -432.39247974608588 198.74482935067135 0 198.74482935067135 -133.93355832810812 0 0 0 0 74.152928206067372 -151.02719324935447 0 -151.02719324935447 17.882470408119843 0 0 0 0 -1.1308903030753754 -1.6919188961309786 0 -1.6919188961309786 -3.4718050418012609 0 0 0 0 -18.291906503931386 -26.326342361582647 0 -26.326342361582647 18.087000226607415 0 0 0 0 -23.005429515054857 -13.82420264639768 0 -13.82420264639768 8.4717034235418396 0 0 0 0 -10.850432456100862 -47.518687378933919 0 -47.518687378933919 -27.327496072637587 0 0 0 0 -26.966247610427672 -35.808187847682348 0 -35.808187847682348 14.563628206672547 0 0 0 0 24.156285842975194 -48.809373773063271 0 -48.809373773063271 16.681641805045274 0 0 0 0 60.064309252036765 -18.391493191895279 0 -18.391493191895279 42.309278982669639 0 0 0 0 -7.885215514957963 -34.829802160518739 0 -34.829802160518739 52.994051489799858 0 0 0 0 -19.61118720630293 -8.7995176851891301 0 -8.7995176851891301 42.917693192492152 0 0 0 0 -21.93426582439497 -25.74204602892496 0 -25.74204602892496 56.903929937121575 0 0 0 0 -13.855566636641015 -48.933520855711322 0 -48.933520855711322 59.666918022063328 0 0 0 0 0.68810022687830497 -43.57819236801879 0 -43.57819236801879 34.121950987668242 0 0 0 0 4.2994829469971592 -24.146037390542915 0 -24.146037390542915 62.312151133446605 0 0 0 0 53.852956619532051 -45.4934575399393 0 -45.4934575399393 18.15592986989941 0 0 0 0 4.8932347720201506 -38.27319505383656 0 -38.27319505383656 114.36778463434166 0 0 0 0 136.06824463266821 -111.72246737419846 0 -111.72246737419846 70.580792780554475 0 0 0 0 13.763925495339208 -70.635402945670648 0 -70.635402945670648 83.398228756735989 0 0 0 0 6.7936603409584677 -11.866757129012814 0 -11.866757129012814 -10.939726412910318 0 0 0 0 33.241941241049062 -53.506069868366467 0 -53.506069868366467 18.222849276933374 0 0 0 0 33.376951413138158 -53.444478291994528 0 -53.444478291994528 -4.7963473801100918 0 0 0 0 -12.260126532015875 -57.276751263372574 0 -57.276751263372574 23.988658112197299 0 0 0 0 -12.491253177009639 -47.572131151202484 0 -47.572131151202484 38.83399844043015 0 0 0 0 -160.66577713129664 124.26835120765281 0 124.26835120765281 385.84886142554024 0 0 0 0 94.000364807667211 -138.36678393912734 0 -138.36678393912734 -98.192266867747094 0 0 0 0 -255.22831638131902 -205.08776597772157 0 -205.08776597772157 230.71614109311486 0 0 0 0 -167.8838742642547 36.712003219756298 0 36.712003219756298 -205.81042468913802 0 0 0 0 -3.9803728333025958 -7.892296126666162 0 -7.892296126666162 -7.5482260739749307 0 0 0 0 0.39092534445808269 -42.203525141529099 0 -42.203525141529099 103.74540312691988 0 0 0 0 -119.88416235397744 176.06817991018215 0 176.06817991018215 -84.555703697194986 0 0 0 0 -1.6202068398452543 -0.65335081622048108 0 -0.65335081622048108 0.43685448992610532 0 0 0 0 -69.195657668602507 -24.815907201961636 0 -24.815907201961636 -0.3186694338437519 0 0 0 0 0.33639843037147976 -13.214750456731664 0 -13.214750456731664 3.9579805375569777 0 0 0 0 -213.3741869974765 -124.85622379216329 0 -124.85622379216329 111.25638255045214 0 0 0 0 0.95420753180819418 -0.55798094887305183 0 -0.55798094887305183 4.7260658881364321 0 0 0 0 -125.87121557804858 -24.769438978210019 0 -24.769438978210019 208.47905806421477 0 0 0 0 223.60771865048446 12.065472448665332 0 12.065472448665332 -54.501955375064426 0 0 0 0 122.91582174679934 -179.82938728328372 0 -179.82938728328372 -39.607931470047333 0 0 0 0 15.191769421609933 -48.54738001779333 0 -48.54738001779333 -13.194114649944822 0 0 0 0 23.783358489329657 -22.599121849872517 0 -22.599121849872517 14.331296427902998 0 0 0 0 -28.430231481695955 -83.969392415940092 0 -83.969392415940092 -18.686535345488664 0 0 0 0 37.012596196025697 -69.248294833691716 0 -69.248294833691716 -50.252820115048962 0 0 0 0 5.5860203628856695 -12.996615996361903 0 -12.996615996361903 4.6214118244278808 0 0 0 0 -76.202445354570955 -52.468428278610645 0 -52.468428278610645 3.6373146586774965 0 0 0 0 14.131680876052997 -49.221726014551678 0 -49.221726014551678 -7.831651087042701 0 0 0 0 -11.712779084700017 -3.0248296034252178 0 -3.0248296034252178 8.8311154525224396 0 0 0 0 15.834443019528408 -56.029311783091543 0 -56.029311783091543 -16.49202023883845 0 0 0 0 2.3269099011777143 -72.020668022475547 0 -72.020668022475547 9.5660179263722966 0 0 0 0 -2.5648558040484204 -47.904284120526427 0 -47.904284120526427 28.370020257225406 0 0 0 0 -0.3948634455082356 -44.027816453650303 0 -44.027816453650303 3.0711117020255188 0 0 0 0 15.11779573707372 -51.578744508925411 0 -51.578744508925411 -7.3675814973685192 0 0 0 0 2.7168724457816253 -10.227433623621186 0 -10.227433623621186 -0.52678581819639447 0 0 0 0 -7.1919208159997652 -36.200422245339723 0 -36.200422245339723 19.610958600589584 0 0 0 0 -21.783788221760915 -13.800127689461988 0 -13.800127689461988 22.02439096604212 0 0 0 0 -23.511904406715985 -45.940105109674278 0 -45.940105109674278 23.64583424434386 0 0 0 0 -16.311040921181302 -22.695693636206897 0 -22.695693636206897 21.575631473973772 0 0 0 0 16.885206517889777 -26.744017709368961 0 -26.744017709368961 24.699210403998237 0 0 0 0 -5.1335240475145838 -15.221681475304194 0 -15.221681475304194 7.6128777976555284 0 0 0 0 8.8313182275037434 -22.28316804596966 0 -22.28316804596966 7.112436691277253 0 0 0 0 7.3327280179484831 -16.257676408948903 0 -16.257676408948903 15.180011558173589 0 0 0 0 9.5312161713482055 -33.298641196341123 0 -33.298641196341123 9.2163641869083222 0 0 0 0 -1.8529994308628375 -31.718224977570571 0 -31.718224977570571 9.0398566908552311 0 0 0 0 9.3841012955090264 -41.635866122926018 0 -41.635866122926018 -8.0164172275581222 0 0 0 0 15.120786041443353 -30.344085327209541 0 -30.344085327209541 9.8315271767787635 0 0 0 0 11.913296810675092 -43.279865929762082 0 -43.279865929762082 19.943103604247881 0 0 0 0 40.853590642615018 -47.22647512480944 0 -47.22647512480944 -21.124677778840123 0 0 0 0 0.95980228983009397 -1.3805454916674798 0 -1.3805454916674798 -3.9153599907887369 0 0 0 0 68.514008470607223 -37.330511095969996 0 -37.330511095969996 -286.41120046613651 0 0 0 0 -124.81237204823265 12.148808214666133 0 12.148808214666133 20.74519251550737 0 0 0 0 -71.812952093343483 32.253149209325784 0 32.253149209325784 -342.72597625869093 0 0 0 0 -125.59658346387749 -51.831300310110677 0 -51.831300310110677 38.352132216041355 0 0 0 0 5.3922788316727832 -9.3994427732458448 0 -9.3994427732458448 18.469693609439467 0 0 0 0 -37.077777768790838 -163.63072499190457 0 -163.63072499190457 -3.4663061418541474 0 0 0 0 -84.128802062386967 -36.499888566740992 0 -36.499888566740992 33.308336823982245 0 0 0 0 -59.398085408334737 -52.48131942611144 0 -52.48131942611144 29.515479342686376 0 0 0 0 -74.873468417846198 -54.378129053068733 0 -54.378129053068733 35.976861170678603 0 0 0 0 34.368468640819628 -3.7061010229408566 0 -3.7061010229408566 -62.849574931879033 0 0 0 0 -14.898232727015056 -50.092608053195363 0 -50.092608053195363 -39.130038161986249 0 0 0 0 30.694996526324758 40.681954347746796 0 40.681954347746796 4.8402023513863242 0 0 0 0 -41.178696877610491 -168.06131381347041 0 -168.06131381347041 114.46630962250129 0 0 0 0 -5.8184941683193756 19.642302842829849 0 19.642302842829849 115.93874907793906 0 0 0 0 6.3714920237871411 -4.0339307904196176 0 -4.0339307904196176 23.364362226304365 0 0 0 0 3.8145028879553138 0.85789349396418402 0 0.85789349396418402 21.567646037088252 0 0 0 0 -0.042480757932935376 -16.69870761049151 0 -16.69870761049151 7.8039221888484462 0 0 0 0 32.756824720578152 -19.987440976987273 0 -19.987440976987273 3.3164511361273981 0 0 0 0 28.34887231407447 -1.6396379435936979 0 -1.6396379435936979 -29.359206580695172 0 0 0 0 21.607541932193271 15.24070104204111 0 15.24070104204111 12.61475002754014 0 0 0 0 -5.1805625073902775 -11.083363855002062 0 -11.083363855002062 -2.3294301663063379 0 0 0 0 55.069109317468246 2.4996147269464473 0 2.4996147269464473 -16.069050170213814 0 0 0 0 24.684777036200103 -31.599482732211072 0 -31.599482732211072 -9.3553919764362945 0 0 0 0 74.657461360500747 -65.464915949531132 0 -65.464915949531132 12.374850202651942 0 0 0 0 13.517516557661111 -53.521706108022499 0 -53.521706108022499 54.374847933668207 0 0 0 0 81.999448611135449 -126.3622293234157 0 -126.3622293234157 130.0924070914341 0 0 0 0 53.92057368494352 205.16433435354247 0 205.16433435354247 21.561176483432973 0 0 0 0 125.8414300119689 -35.121303447947639 0 -35.121303447947639 1.4074776891302463 0 0 0 0 1.057481923654251 -1.5964362803342027 0 -1.5964362803342027 3.1824051943824045 0 0 0 0 -195.86764992608551 -166.25104268759878 0 -166.25104268759878 54.552439210379816 0 0 0 0 -162.25237906625171 29.988596720658734 0 29.988596720658734 86.04661700172619 0 0 0 0 -147.73911827927441 -206.6210705486028 0 -206.6210705486028 -39.284272359331226 0 0 0 0 -5.1487662238781553 1.3175658930994203 0 1.3175658930994203 5.4231549937728687 0 0 0 0 8.544588299559166 -16.784053314877092 0 -16.784053314877092 30.859814305060404 0 0 0 0 -18.205156302883552 -33.33656307928868 0 -33.33656307928868 40.826850288096466 0 0 0 0 -19.343738920786564 -36.34644947232664 0 -36.34644947232664 32.949045567947906 0 0 0 0 -81.396561265479249 -78.09337684716229 0 -78.09337684716229 -106.9715014124049 0 0 0 0 -199.55617197558058 -61.184102795690706 0 -61.184102795690706 15.858887007558224 0 0 0 0 -16.620417889993405 -61.054890914208954 0 -61.054890914208954 -13.43909776530927 0 0 0 0 11.471863355399272 -22.337102199206527 0 -22.337102199206527 32.214278298051902 0 0 0 0 4.7418500752968562 -4.3715451522902384 0 -4.3715451522902384 -4.7864787978442536 0 0 0 0 -74.582361281289195 -64.060993018820227 0 -64.060993018820227 18.212715283403668 0 0 0 0 -71.191752316970906 -38.533706136829778 0 -38.533706136829778 13.025677625468234 0 0 0 0 2.7139145247336991 -5.5626309428404213 0 -5.5626309428404213 10.505162422190537 0 0 0 0 -162.21578687846886 -68.16433979030262 0 -68.16433979030262 135.00359201985702 0 0 0 0 -35.896537532873936 36.803571158062596 0 36.803571158062596 53.622295706300065 0 0 0 0 -20.624938965105684 29.488044143228763 0 29.488044143228763 -86.123710776413645 0 0 0 0 -51.216181455878541 15.728794539500996 0 15.728794539500996 4.7304914707819989 0 0 0 0 -26.896689564706321 0.27325691624628234 0 0.27325691624628234 26.692551775129687 0 0 0 0 3.2720859894470777 -52.103704342083802 0 -52.103704342083802 29.065610398244644 0 0 0 0 -45.620676643478873 2.4264430741991418 0 2.4264430741991418 -6.083155886750319 0 0 0 0 -35.422301132944995 -17.916883077752573 0 -17.916883077752573 -10.622592455842096 0 0 0 0 -31.880235156506387 2.1790120100804415 0 2.1790120100804415 -61.584531469892681 0 0 0 0 -22.809125026455149 -13.742635326599157 0 -13.742635326599157 -35.27900183408201 0 0 0 0 39.494258219780022 -169.4676052634436 0 -169.4676052634436 285.19689889293841 0 0 0 0 106.61285491180752 -124.66230891099076 0 -124.66230891099076 170.62017125908915 0 0 0 0 -19.426848396465289 -11.883127761822154 0 -11.883127761822154 -6.3908293463712411 0 0 0 0 -26.030108700120763 -43.361685592006324 0 -43.361685592006324 413.66912147536823 0 0 0 0 82.812047557774349 -159.36393685413168 0 -159.36393685413168 -314.92144542516417 0 0 0 0 1.4372332388641098 -0.75428652100534066 0 -0.75428652100534066 0.29285606592393876 0 0 0 0 83.65917331451783 -183.84862121865444 0 -183.84862121865444 27.120387053324521 0 0 0 0 99.026871164387558 -133.43323916201825 0 -133.43323916201825 -92.248001249856316 0 0 0 0 28.128900155919837 -103.10354405407634 0 -103.10354405407634 42.973107140418506 0 0 0 0 18.082355229642417 -166.08177281644021 0 -166.08177281644021 164.66862366270288 0 0 0 0 28.045718262088485 -109.54332605211675 0 -109.54332605211675 22.4913686771215 0 0 0 0 -8.9928840498541831 -98.273997904642329 0 -98.273997904642329 149.7608516154196 0 0 0 0 4.8920463827016647 -70.028168502243716 0 -70.028168502243716 192.20582955858845 0 0 0 0 -27.417179752527915 -16.280117085747765 0 -16.280117085747765 -8.6447073068639142 0 0 0 0 -2.7088120804910432 -62.986723798814637 0 -62.986723798814637 119.97387479490862 0 0 0 0 -32.326165449954715 -102.6278275053719 0 -102.6278275053719 123.37734736625134 0 0 0 0 9.197153242323111 -93.63275935291017 0 -93.63275935291017 51.332042691759852 0 0 0 0 -3.8598206150854821 -49.582872279996081 0 -49.582872279996081 48.443546481174053 0 0 0 0 -34.410791367146885 -39.180031471374605 0 -39.180031471374605 -6.442167504774261 0 0 0 0 -36.672994482658112 -20.17914449974306 0 -20.17914449974306 -11.354954482915709 0 0 0 0 -4.5902176405288628 21.613243375020829 0 21.613243375020829 -92.696038588543161 0 0 0 0 6.377377116928983 -33.694643416552935 0 -33.694643416552935 -15.843278906628257 0 0 0 0 -4.366693325466791 -11.086975730644809 0 -11.086975730644809 6.4200647305508483 0 0 0 0 18.224213455941936 -41.580362450977191 0 -41.580362450977191 -11.311145561228841 0 0 0 0 -69.251678313148659 -84.6025277013905 0 -84.6025277013905 -24.823585882390034 0 0 0 0 -42.805997605430548 -28.938755151527538 0 -28.938755151527538 -9.8660920817864479 0 0 0 0 -15.81261907688895 -88.69128310594715 0 -88.69128310594715 26.901023354856079 0 0 0 0 -31.349330997531069 -37.998750888637005 0 -37.998750888637005 -55.69244016887933 0 0 0 0 11.335289242655563 -48.894050277416682 0 -48.894050277416682 -52.914230734659213 0 0 0 0 -16.056115793136996 -101.63829427283054 0 -101.63829427283054 -19.49973668095663 0 0 0 0 44.704357531256392 -186.84598082342563 0 -186.84598082342563 155.02543011308444 0 0 0 0 -128.68989904348155 -51.400302204925879 0 -51.400302204925879 52.619423357387859 0 0 0 0 -22.672710183816889 -50.340679124117742 0 -50.340679124117742 112.82974146561537 0 0 0 0 76.049717399509973 -138.85774017102267 0 -138.85774017102267 104.1357916921952 0 0 0 0 114.89512838671362 -92.595284703369543 0 -92.595284703369543 158.2293164674993 0 0 0 0 -338.92121980769844 -74.229433282633181 0 -74.229433282633181 81.918202007975196 0 0 0 0 -240.72444969101343 -84.742662735792692 0 -84.742662735792692 65.39286107874068 0 0 0 0 156.09099215879542 -242.7114121714676 0 -242.7114121714676 136.42517454012705 0 0 0 0 1.4439915409641912 -0.29385887993039006 0 -0.29385887993039006 -1.8545589959450837 0 0 0 0 0.142178992726258 -45.149868776443327 0 -45.149868776443327 -32.994254323015412 0 0 0 0 42.033907756813278 -66.113776162133945 0 -66.113776162133945 -7.5636128258322515 0 0 0 0 -17.691458740489907 -27.370930557768588 0 -27.370930557768588 54.208895310224761 0 0 0 0 66.285528504729882 -67.679405057228905 0 -67.679405057228905 44.675894939635327 0 0 0 0 26.750457682588603 -84.218989223481913 0 -84.218989223481913 119.0826932222044 0 0 0 0 37.087089356929937 -93.609602135882596 0 -93.609602135882596 98.002203072632255 0 0 0 0 4.3879493869480939 -31.055943739292161 0 -31.055943739292161 87.35770173196579 0 0 0 0 73.187556419077055 -78.476197949625885 0 -78.476197949625885 69.579274566425738 0 0 0 0 72.218748538238287 -72.339059996320429 0 -72.339059996320429 110.05845886466341 0 0 0 0 52.612662870364147 -136.52538689607354 0 -136.52538689607354 235.28615378745599 0 0 0 0 110.33435851197282 -144.28435971409999 0 -144.28435971409999 137.87154418820228 0 0 0 0 159.70669554526467 -90.274744733566877 0 -90.274744733566877 -32.821466334688012 0 0 0 0 -5.2937254521649777 -6.5390749391633776 0 -6.5390749391633776 -0.31289442291127045 0 0 0 0 69.147125664487248 -129.51478951571335 0 -129.51478951571335 163.99857724055619 0 0 0 0 76.970453647456452 -188.92202319156786 0 -188.92202319156786 95.055392819725967 0 0 0 0 -41.534444961227564 -25.757271341317391 0 -25.757271341317391 -19.60772056438509 0 0 0 0 6.840869322348226 -131.9238425397748 0 -131.9238425397748 91.318576724326704 0 0 0 0 31.38974564165801 -39.823871169968697 0 -39.823871169968697 18.997202928556362 0 0 0 0 -24.611796415539473 -23.069882201043196 0 -23.069882201043196 -17.806888848525688 0 0 0 0 58.818600581398641 -129.14334053670609 0 -129.14334053670609 132.63617809289099 0 0 0 0 -101.46525702360304 -43.498063883130271 0 -43.498063883130271 32.89944593160908 0 0 0 0 -4.3602177799917285 -1.6247905308697028 0 -1.6247905308697028 1.1183025722127553 0 0 0 0 254.74055692906222 -134.39753024845277 0 -134.39753024845277 13.008825825265376 0 0 0 0 -417.25847525335848 -55.425504967997767 0 -55.425504967997767 5.4262878072040621 0 0 0 0 -145.73658398156113 47.297355297367176 0 47.297355297367176 -9.1215363578794495 0 0 0 0 48.521633289507008 -2.6296419849386439 0 -2.6296419849386439 -127.44037645408389 0 0 0 0 -214.93340506954701 -142.94825784859677 0 -142.94825784859677 -123.13309378279155 0 0 0 0 69.935267862952969 -66.798063551134419 0 -66.798063551134419 45.409426749429258 0 0 0 0 -4.7057405761879352 0.060013396705148381 0 0.060013396705148381 2.1086128578133838 0 0 0 0 53.152859702589922 -132.23914129272271 0 -132.23914129272271 149.93653183717652 0 0 0 0 -37.385713761080297 -30.610887852510587 0 -30.610887852510587 -33.380729911150411 0 0 0 0 2.5154164556079195 167.44781691320895 0 167.44781691320895 67.195792938445038 0 0 0 0 -32.085239033733743 -10.070070944399063 0 -10.070070944399063 11.346208372812335 0 0 0 0 211.93657982676814 125.69347729630135 0 125.69347729630135 -355.15852434212138 0 0 0 0 -37.382624094050698 -21.604860420558907 0 -21.604860420558907 -27.875633090914562 0 0 0 0 -37.062885709561215 -19.334054344591323 0 -19.334054344591323 -20.720113929062791 0 0 0 0 -36.765810156408406 -23.089678177784663 0 -23.089678177784663 -26.160666776097059 0 0 0 0 -35.511965036428592 -18.554350234527647 0 -18.554350234527647 -21.054440531592263 0 0 0 0 -35.168772654898476 -17.267297451679951 0 -17.267297451679951 -21.799154497854033 0 0 0 0 -29.678079717392393 -17.848998228770142 0 -17.848998228770142 -25.129633178921722 0 0 0 0 84.752041053550784 -41.263746553646342 0 -41.263746553646342 12.469932032267479 0 0 0 0 158.96641133401135 -95.233739332072219 0 -95.233739332072219 50.77318680987446 0 0 0 0 7.8881018608025641 0.55132975012885055 0 0.55132975012885055 -6.7039619335474043 0 0 0 0 136.45194236013776 -33.294545931617904 0 -33.294545931617904 11.247949162217992 0 0 0 0 -16.818832313451793 -21.906764169718837 0 -21.906764169718837 -22.908536535416474 0 0 0 0 -31.326365793909645 -18.099520668729383 0 -18.099520668729383 -22.600189706441597 0 0 0 0 -37.532169825157325 -25.93182366489782 0 -25.93182366489782 -21.284784088963534 0 0 0 0 -21.625941258207604 -27.839289325407663 0 -27.839289325407663 -21.856870689734933 0 0 0 0 -31.202107894379878 -19.907386975290137 0 -19.907386975290137 -22.155933067497244 0 0 0 0 -52.9289802668427 -5.1935211759919184 0 -5.1935211759919184 -31.160123019009916 0 0 0 0 -50.562457151434501 -39.924249619365582 0 -39.924249619365582 -14.743144223341005 0 0 0 0 -6.4382332157729252 -38.245597581199036 0 -38.245597581199036 -22.289267245545489 0 0 0 0 113.10228238745185 -18.804469130980578 0 -18.804469130980578 -27.232331655701273 0 0 0 0 -8.7227518861070443 -19.222613160981169 0 -19.222613160981169 -21.952726870585735 0 0 0 0 119.40367829277056 -71.293162027196331 0 -71.293162027196331 -27.81999049053411 0 0 0 0 2.9325467676026165 -56.362741555491084 0 -56.362741555491084 -4.0039766566478647 0 0 0 0 -51.604307655419689 -124.37222027450662 0 -124.37222027450662 5.0970150534740242 0 0 0 0 59.604129482267126 -112.49453692312795 0 -112.49453692312795 -40.123522237503494 0 0 0 0 -15.514228173888114 -184.29090115273902 0 -184.29090115273902 -229.16077426619086 0 0 0 0 -61.241287231085153 -66.37430376305656 0 -66.37430376305656 -36.135520192494369 0 0 0 0 -21.564071084838361 -113.73812610072673 0 -113.73812610072673 8.5304036105317209 0 0 0 0 -18.910810293593386 -63.678440714727913 0 -63.678440714727913 39.596050638567249 0 0 0 0 52.472198713439866 -79.116955367229821 0 -79.116955367229821 9.2664564447113662 0 0 0 0 77.387043627852108 -79.501983324800676 0 -79.501983324800676 -34.853556618452785 0 0 0 0 18.054317849499057 -46.260104625062013 0 -46.260104625062013 72.24253464032563 0 0 0 0 1.2546812549117021 -74.176425710031253 0 -74.176425710031253 36.726253848666602 0 0 0 0 96.468515093773021 -124.576164968797 0 -124.576164968797 55.258169644788723 0 0 0 0 -48.438812643275014 -62.748928513754436 0 -62.748928513754436 55.02628368348087 0 0 0 0 -36.152942445827648 -46.254780904635481 0 -46.254780904635481 -6.4123533122850347 0 0 0 0 -43.168234068065431 -42.874997252034518 0 -42.874997252034518 68.959438973553915 0 0 0 0 -44.218872510587971 -65.356689222464411 0 -65.356689222464411 -60.571854110091408 0 0 0 0 -44.49036995642382 -53.166034934860363 0 -53.166034934860363 17.789702776597551 0 0 0 0 -56.497598665137048 -85.588510425238837 0 -85.588510425238837 7.6604773721701349 0 0 0 0 -53.972863254741242 -85.492028363622012 0 -85.492028363622012 5.2327163589980046 0 0 0 0 -53.74996189693411 -84.169718011511691 0 -84.169718011511691 -0.80946952861631871 0 0 0 0 -44.339241349367512 -86.88224969881594 0 -86.88224969881594 -2.6313978445650719 0 0 0 0 -26.873870844137855 -84.378136799941785 0 -84.378136799941785 -11.968161320210129 0 0 0 0 -72.767702616696624 -102.65807922423028 0 -102.65807922423028 -1.1992793268727837 0 0 0 0 -49.166340779913298 -109.46557715256404 0 -109.46557715256404 -39.971019224714837 0 0 0 0 -2.2435677271568863 -2.1590576477547216 0 -2.1590576477547216 1.5174713813832064 0 0 0 0 16.347278991037456 -30.325461332604391 0 -30.325461332604391 84.852604513393089 0 0 0 0 -36.096914421716065 -14.861609457377199 0 -14.861609457377199 80.30929512329385 0 0 0 0 -32.85573007146013 -15.981069250476139 0 -15.981069250476139 143.04146549226061 0 0 0 0 -13.451514401216627 -48.277958973429122 0 -48.277958973429122 57.268078364879329 0 0 0 0 -27.971859192306368 -13.541335958324643 0 -13.541335958324643 -0.65580270214904601 0 0 0 0 -68.883068519331573 -12.722737658041297 0 -12.722737658041297 299.78405969679807 0 0 0 0 -1.0105335106957796 -1.243315954745249 0 -1.243315954745249 0.80268692503164019 0 0 0 0 -16.827313812023931 -65.28219750919834 0 -65.28219750919834 21.874506279182242 0 0 0 0 -49.428426201342518 -16.058405629284607 0 -16.058405629284607 14.141839937850818 0 0 0 0 -61.188550227219821 -22.228323853536494 0 -22.228323853536494 20.646796702934807 0 0 0 0 -27.279580471280099 -17.246338332280814 0 -17.246338332280814 -10.317816827324947 0 0 0 0 -29.469778938677337 -15.750907519268367 0 -15.750907519268367 12.371171635371866 0 0 0 0 -17.591767417161464 -24.164767157772076 0 -24.164767157772076 11.104439718532376 0 0 0 0 -18.413493439199556 -23.261120995383408 0 -23.261120995383408 32.704779695930483 0 0 0 0 -20.643936461006803 -17.105638633296678 0 -17.105638633296678 11.437579172536495 0 0 0 0 -32.823287111801619 -21.731034564660149 0 -21.731034564660149 16.264264800469391 0 0 0 0 -48.860503380572482 -29.687279235035021 0 -29.687279235035021 15.24234898206123 0 0 0 0 -24.193190991245501 -25.806694273707762 0 -25.806694273707762 11.680973566879402 0 0 0 0 -65.910051418868534 28.094951370985655 0 28.094951370985655 106.06006398552199 0 0 0 0 -18.99823855271643 -22.739564654750211 0 -22.739564654750211 50.379534494772088 0 0 0 0 -51.522235662669118 48.659547103120531 0 48.659547103120531 26.279602003123728 0 0 0 0 -17.351283945412433 34.481159819230015 0 34.481159819230015 -50.248922268856404 0 0 0 0 -108.60899031082226 -79.773417150194291 0 -79.773417150194291 27.582077587725507 0 0 0 0 -12.407348258841012 -29.925973619022443 0 -29.925973619022443 7.8781427948961209 0 0 0 0 -49.77468568988229 -74.840235459056203 0 -74.840235459056203 38.477063678135892 0 0 0 0 -18.885299828437894 -17.439632724032322 0 -17.439632724032322 5.223964875012701 0 0 0 0 -27.077929903922694 -17.04233511775454 0 -17.04233511775454 -4.8813550437660354 0 0 0 0 -22.927664009389161 -22.949928020413573 0 -22.949928020413573 6.7068213784481188 0 0 0 0 -45.302348130455357 -23.797513424926365 0 -23.797513424926365 74.396489603499504 0 0 0 0 -23.639085362370224 -22.569185445968571 0 -22.569185445968571 -1.7055571660894202 0 0 0 0 -25.206997330344166 -34.70883278018664 0 -34.70883278018664 -18.977753524286982 0 0 0 0 -27.0425868216239 -24.962803083984909 0 -24.962803083984909 -43.498242150792066 0 0 0 0 -29.029378876237388 -23.379618622952876 0 -23.379618622952876 16.44043935242189 0 0 0 0 -20.949885485530103 -40.650726811425557 0 -40.650726811425557 5.4156727355325529 0 0 0 0 -27.604121297077654 -30.201861413614097 0 -30.201861413614097 1.2248662755009718 0 0 0 0 -23.749679269560147 -23.249080595811392 0 -23.249080595811392 17.880214860404521 0 0 0 0 -35.69988079009272 -27.572382822985674 0 -27.572382822985674 18.802344655348861 0 0 0 0 -54.695789909485029 -44.082340986835334 0 -44.082340986835334 -0.62970314521635373 0 0 0 0 17.732831424298638 -46.182514198262652 0 -46.182514198262652 2.994565363133006 0 0 0 0 3.6894963484156307 -3.1475818459029377 0 -3.1475818459029377 -4.8181681497739319 0 0 0 0 -41.93561780334403 -1.9573291304445775 0 -1.9573291304445775 1.1738871793240833 0 0 0 0 -9.4904571241315185 -18.385851412693221 0 -18.385851412693221 -18.975138853634647 0 0 0 0 21.124997901606548 -16.616165913270379 0 -16.616165913270379 -63.195320579830877 0 0 0 0 19.268802056492859 -28.970862506806952 0 -28.970862506806952 0.00096348557781311683 0 0 0 0 -3.8517400505328592 -0.088344935007000913 0 -0.088344935007000913 0.17648364787005733 0 0 0 0 -6.2785926627548179 -6.0580742749807541 0 -6.0580742749807541 -0.79532200641006057 0 0 0 0 -30.962656904877804 -35.659329486315983 0 -35.659329486315983 21.021279563352437 0 0 0 0 -15.263727665202168 -36.923156562597796 0 -36.923156562597796 20.808123518101638 0 0 0 0 -18.33430716669136 -26.40201127787077 0 -26.40201127787077 -3.2086531166642089 0 0 0 0 -4.5841974990026557 -1.9287662665949838 0 -1.9287662665949838 2.595780224157977 0 0 0 0 1.5403185781469801 21.236415512713847 0 21.236415512713847 29.807894022953406 0 0 0 0 -21.629427505659521 -20.500084799649173 0 -20.500084799649173 5.5376627494658273 0 0 0 0 -6.277399612342947 -4.2610223390895783 0 -4.2610223390895783 -1.7224051395226745 0 0 0 0 -21.706604489717151 -23.413101150934331 0 -23.413101150934331 -9.5479610033106255 0 0 0 0 -32.690811080905405 -26.795887842962657 0 -26.795887842962657 24.668052987153715 0 0 0 0 -30.673105212530004 -28.172509847653174 0 -28.172509847653174 25.100973513264762 0 0 0 0 -13.138922714002547 -35.968803945619584 0 -35.968803945619584 -31.256460878284997 0 0 0 0 -67.122141097974236 -22.595550798498152 0 -22.595550798498152 105.86996322901359 0 0 0 0 -17.020827471398661 -4.072049357007927 0 -4.072049357007927 -38.938736370258994 0 0 0 0 -3.1823866029062629 -50.504439692848791 0 -50.504439692848791 -84.843087402339734 0 0 0 0 -31.268026290141279 -56.385532342801525 0 -56.385532342801525 5.3673090451593453 0 0 0 0 -29.558442133558856 -38.834138225764036 0 -38.834138225764036 38.104561717584147 0 0 0 0 -23.314127137902489 -25.200170163857646 0 -25.200170163857646 -15.243730882309194 0 0 0 0 -5.7199608698045523 -5.0160123691064342 0 -5.0160123691064342 -5.7787810599184226 0 0 0 0 -27.005035636437022 -26.750346436320058 0 -26.750346436320058 -1.4045472825621772 0 0 0 0 -31.120622160658968 -38.434178196232097 0 -38.434178196232097 -32.840828186250292 0 0 0 0 -3.9966553508421327 -1.7349040422790551 0 -1.7349040422790551 1.837017820728331 0 0 0 0 -20.791828878402157 39.490380100784023 0 39.490380100784023 138.00790114234223 0 0 0 0 -1.631351019170495 -0.54272801634495238 0 -0.54272801634495238 1.8131925551247434 0 0 0 0 19.785326721865204 0.40744977803478832 0 0.40744977803478832 56.346990833801101 0 0 0 0 -28.28398035016653 -53.238542303875874 0 -53.238542303875874 -72.779540122501203 0 0 0 0 -50.088948000558958 -35.071107318502982 0 -35.071107318502982 -3.9657655076152878 0 0 0 0 -30.587517427233252 -27.472896991612288 0 -27.472896991612288 -19.258934752419009 0 0 0 0 -20.2089831064186 -16.521070855867947 0 -16.521070855867947 -7.7042973750103556 0 0 0 0 1.5827226308265381 -13.989350593921699 0 -13.989350593921699 11.845911582262488 0 0 0 0 -40.521638728758262 -23.335213516334989 0 -23.335213516334989 10.186625112062757 0 0 0 0 -12.989410445927206 -35.899706106834856 0 -35.899706106834856 36.605966789857121 0 0 0 0 -12.969450365121702 -42.087633835858924 0 -42.087633835858924 -13.679523158134543 0 0 0 0 -28.145993361345973 -45.677501572552501 0 -45.677501572552501 30.840073613032018 0 0 0 0 -28.214153504741262 -39.247057583461356 0 -39.247057583461356 11.138505323837308 0 0 0 0 -25.58845658216751 -38.629005253070318 0 -38.629005253070318 0.012473004484490957 0 0 0 0 -29.948269460549199 -27.954396416324357 0 -27.954396416324357 -4.9869991886596416 0 0 0 0 -16.574796500947286 -32.241170448005505 0 -32.241170448005505 16.420057780509524 0 0 0 0 -68.104553238223161 -62.002048698355793 0 -62.002048698355793 -0.026300021750172833 0 0 0 0 -77.372490330049914 -33.014125179663097 0 -33.014125179663097 67.682175036193257 0 0 0 0 -40.233177380701818 11.071873856792081 0 11.071873856792081 -39.015468811401661 0 0 0 0 -27.843050823546946 -18.909777247521561 0 -18.909777247521561 25.816839408198575 0 0 0 0 -16.550696723215879 -57.092420416830464 0 -57.092420416830464 -72.320894037173275 0 0 0 0 -0.17862929093989521 -2.0771866318493153 0 -2.0771866318493153 -1.9100877324342989 0 0 0 0 -95.75695894475939 -45.259771069689123 0 -45.259771069689123 49.674202379064809 0 0 0 0 5.4661568998344592 -17.684260067100695 0 -17.684260067100695 1.1934470326414157 0 0 0 0 9.933359814738651 -42.646780563507491 0 -42.646780563507491 -66.81361578740507 0 0 0 0 -15.715552891128027 -50.612152242605589 0 -50.612152242605589 2.2337676286952046 0 0 0 0 -32.261292158073047 -76.3004042442426 0 -76.3004042442426 -33.147195248129719 0 0 0 0 -35.416951928648828 -27.948243416806292 0 -27.948243416806292 -4.6371244187485807 0 0 0 0 -35.340980913309977 -36.733972771137815 0 -36.733972771137815 -2.5750240428460529 0 0 0 0 -32.730305758883787 -28.206367686172669 0 -28.206367686172669 -4.5217076194802033 0 0 0 0 -31.9492385692065 -32.7961548656167 0 -32.7961548656167 0.019511972161126323 0 0 0 0 -39.35427840297416 -34.258368981339117 0 -34.258368981339117 -0.079022789825103246 0 0 0 0 -37.140768669426819 -29.814484437475102 0 -29.814484437475102 -3.9705918631459767 0 0 0 0 -44.301958565876703 -46.318979498397312 0 -46.318979498397312 -26.038055117889598 0 0 0 0 -64.161534501363349 -29.243425846045284 0 -29.243425846045284 -0.012839120192428843 0 0 0 0 -10.18767463639012 -6.1527634467817904 0 -6.1527634467817904 -3.5741289038145965 0 0 0 0 -66.197193709032945 -29.736264810924695 0 -29.736264810924695 3.7052277513648733 0 0 0 0 -63.834854516286214 -101.93603953368165 0 -101.93603953368165 34.399869696229871 0 0 0 0 -70.324191693460364 -27.309135994886319 0 -27.309135994886319 -2.7472242548465644 0 0 0 0 -14.125596624222453 -47.882903471851023 0 -47.882903471851023 3.9051203777453338 0 0 0 0 -25.312663478265677 -24.523621838265171 0 -24.523621838265171 -8.2026066775615618 0 0 0 0 -1.5268589439001516 -34.942654805074199 0 -34.942654805074199 -14.965186974536664 0 0 0 0 5.4231415455082441 -22.444989004923144 0 -22.444989004923144 2.4128663491628117 0 0 0 0 11.88991416740042 -16.36414540570722 0 -16.36414540570722 4.352816719681968 0 0 0 0 -11.154298231412071 -11.477746994891524 0 -11.477746994891524 -2.9156883585459497 0 0 0 0 -38.038685738727509 -48.347512345377254 0 -48.347512345377254 10.29088510609472 0 0 0 0 -11.674406734091463 -66.320411400563898 0 -66.320411400563898 -47.282360780041927 0 0 0 0 7.4981442448042799 -43.578888909305533 0 -43.578888909305533 -107.16565622815688 0 0 0 0 12.503399663539312 -74.538642518968118 0 -74.538642518968118 -49.781298869769216 0 0 0 0 24.990789624476747 -84.020001106351629 0 -84.020001106351629 -52.183947070254362 0 0 0 0 -95.796746043342864 -257.86401237091923 0 -257.86401237091923 316.23391025266392 0 0 0 0 -69.913641997373077 -24.131803499310365 0 -24.131803499310365 -3.4820479226624812 0 0 0 0 4.4251295179055887 -57.327597853845873 0 -57.327597853845873 -30.181518693756516 0 0 0 0 -68.903841220349932 -26.570380867808126 0 -26.570380867808126 0.007736573741567554 0 0 0 0 -68.396074499814858 -25.450166840568272 0 -25.450166840568272 2.34150783080986 0 0 0 0 -67.48634473790662 -24.621212583628221 0 -24.621212583628221 0.0013432244732244079 0 0 0 0 -59.72531030641403 -22.859060506936657 0 -22.859060506936657 0.0022245436966754732 0 0 0 0 -65.27738573580973 -22.146721544260799 0 -22.146721544260799 1.7904178545468312 0 0 0 0 -65.196071627183173 -22.517952890387434 0 -22.517952890387434 -2.8928379224299654 0 0 0 0 -441.27926129020125 -32.88749184788503 0 -32.88749184788503 498.786302237575 0 0 0 0 4.690225600177655 -292.09554295123871 0 -292.09554295123871 -232.57678458540613 0 0 0 0 -47.512909780540213 -20.620590097241802 0 -20.620590097241802 0.0019761440880880425 0 0 0 0 -54.906803746479412 -19.945920962455645 0 -19.945920962455645 -2.7326509671897838 0 0 0 0 -57.115490964359196 -19.841236158988977 0 -19.841236158988977 1.8621791463338013 0 0 0 0 -6.435066700576499 131.18363608799791 0 131.18363608799791 -136.80293800035724 0 0 0 0 -14.542553887138638 19.564388856246296 0 19.564388856246296 13.548413791839266 0 0 0 0 -91.80597072949422 85.919214598509825 0 85.919214598509825 314.63006856601714 0 0 0 0 -37.435330988770147 7.0394406965579037 0 7.0394406965579037 11.84574408800836 0 0 0 0 -94.552594087328544 -156.094715167289 0 -156.094715167289 -270.48563104015557 0 0 0 0 0.25897847060332424 -3.9454193056490112 0 -3.9454193056490112 -62.52954096897156 0 0 0 0 -68.703012821360062 -8.9426303009170169 0 -8.9426303009170169 -12.956243596509012 0 0 0 0 -51.234245141644351 -76.849548581174531 0 -76.849548581174531 -108.55049497835626 0 0 0 0 39.445272736125389 32.797412978426223 0 32.797412978426223 -462.89833620106947 0 0 0 0 -5.6550246494429643 -1.9989915183526037 0 -1.9989915183526037 -1.6499500449397431 0 0 0 0 -369.13746247350718 -156.82479179111215 0 -156.82479179111215 -19.825017712450062 0 0 0 0 -294.42044939078187 73.188774844104046 0 73.188774844104046 23.643365091087617 0 0 0 0 -191.44939634873322 8.9176952378363694 0 8.9176952378363694 5.6070059297489934 0 0 0 0 -37.688782377495954 -0.92084474812691042 0 -0.92084474812691042 -8.7519602247739385 0 0 0 0 -172.22714576705039 -66.480867278918595 0 -66.480867278918595 20.049657665371342 0 0 0 0 -196.69631756647232 -57.345796774862606 0 -57.345796774862606 19.342270169025142 0 0 0 0 -169.41635023098934 -47.499702608973166 0 -47.499702608973166 22.873364634669997 0 0 0 0 -149.29520065664292 -39.015542812608146 0 -39.015542812608146 -2.4949525232841552 0 0 0 0 -177.74149795260018 -91.364490169587953 0 -91.364490169587953 -12.894189525191905 0 0 0 0 -120.62017469214334 -68.034926766940771 0 -68.034926766940771 -7.0595418329194217 0 0 0 0 -170.3291428997909 -55.258487209775922 0 -55.258487209775922 15.019625189153885 0 0 0 0 -107.85120047197779 -56.552609039483286 0 -56.552609039483286 -3.7825982129652402 0 0 0 0 -92.27586329555561 -66.628672707112855 0 -66.628672707112855 1.8613138304790482 0 0 0 0 -111.09832656622893 -26.118096730035177 0 -26.118096730035177 23.104594292835827 0 0 0 0 -150.59645299350814 -54.717569588043261 0 -54.717569588043261 15.020910189585265 0 0 0 0 -162.86497956814128 -74.346447758796785 0 -74.346447758796785 80.369884338622796 0 0 0 0 -163.43298035165208 -57.650659978971817 0 -57.650659978971817 8.6045436585700372 0 0 0 0 -176.91743042177404 -53.594412353533698 0 -53.594412353533698 7.5920984068307007 0 0 0 0 -194.00359187017602 -146.39644696819596 0 -146.39644696819596 -31.867646973856608 0 0 0 0 -178.2890278340783 -44.082852461029688 0 -44.082852461029688 21.585783176065888 0 0 0 0 -158.62370674369777 -38.763545047549997 0 -38.763545047549997 18.415471300715581 0 0 0 0 -195.1461219190096 -50.480141019910661 0 -50.480141019910661 33.665119956553099 0 0 0 0 -163.08899948094768 -80.387468532389903 0 -80.387468532389903 -10.00553338393911 0 0 0 0 -185.89857991387908 -79.537984789984876 0 -79.537984789984876 -22.921545605786378 0 0 0 0 -195.50617200895795 -62.017042972608579 0 -62.017042972608579 -14.692120346950105 0 0 0 0 -0.08807460449060045 -9.5095724514998921 0 -9.5095724514998921 14.389479281358845 0 0 0 0 -259.45166643193079 -106.49418033708571 0 -106.49418033708571 -3.3743559913382342 0 0 0 0 75.568491513629851 120.32095288507026 0 120.32095288507026 117.45347323530223 0 0 0 0 -237.11839438445168 -122.46812870157373 0 -122.46812870157373 -42.179790983733255 0 0 0 0 -1.8195051659694457 -3.0905932538958609 0 -3.0905932538958609 2.1606325072146362 0 0 0 0 -36.965401347471925 41.553950323368554 0 41.553950323368554 178.04312857828154 0 0 0 0 -9.5916271088717622 -21.982566929715176 0 -21.982566929715176 -22.018192251881374 0 0 0 0 -108.28188543690703 -45.719680487805817 0 -45.719680487805817 -12.376082608207071 0 0 0 0 -11.47844266518041 -14.985775852347139 0 -14.985775852347139 10.47740792213996 0 0 0 0 8.857693962250778 -6.9513131028496815 0 -6.9513131028496815 -3.4720198086582741 0 0 0 0 -17.42508739929508 51.506003056240615 0 51.506003056240615 106.33178001355191 0 0 0 0 -45.005584776983596 -55.718748158620656 0 -55.718748158620656 91.806712909952694 0 0 0 0 -22.290113193785146 -21.942166601509598 0 -21.942166601509598 78.149229224927694 0 0 0 0 -31.322563089255709 -35.802664588058178 0 -35.802664588058178 86.995481934884992 0 0 0 0 -14.241183272579605 -13.777107921840063 0 -13.777107921840063 8.7728961802380603 0 0 0 0 -11.319629110155802 -27.23535799345882 0 -27.23535799345882 -12.998980048059821 0 0 0 0 -45.711632995160471 -12.045182249715253 0 -12.045182249715253 155.29470971185037 0 0 0 0 -19.03646918238519 -18.38313119911254 0 -18.38313119911254 2.0934833579449332 0 0 0 0 -17.813852157763904 -28.367616963036198 0 -28.367616963036198 15.049868759137098 0 0 0 0 -19.920959321433656 -20.133375371012811 0 -20.133375371012811 -10.681379907987086 0 0 0 0 -14.674802579233074 -33.541674748195874 0 -33.541674748195874 13.246779783619786 0 0 0 0 7.6766483997433568 -14.274523581821825 0 -14.274523581821825 5.4484657901631124 0 0 0 0 -8.0120907182117662 -24.692944869663279 0 -24.692944869663279 -2.0318455849592283 0 0 0 0 -45.786860505439108 -15.037108224265467 0 -15.037108224265467 -10.238500713514441 0 0 0 0 -68.942487618856831 -40.286004388992296 0 -40.286004388992296 -2.8222370379735366 0 0 0 0 -18.956679888255167 -21.005820218148074 0 -21.005820218148074 -2.8563995651711593 0 0 0 0 -1.0834627250842459 -1.5656038019333209 0 -1.5656038019333209 15.999831308923604 0 0 0 0 -0.052898618950705689 -2.0936369965929771 0 -2.0936369965929771 19.309953137114903 0 0 0 0 -116.01707130014984 -11.113594631038723 0 -11.113594631038723 130.99955037242034 0 0 0 0 83.893768744688714 44.401523590928264 0 44.401523590928264 -322.10993653399055 0 0 0 0 0.73135750630773089 -1.1153348908629539 0 -1.1153348908629539 1.7983901955029182 0 0 0 0 36.990135522293713 -6.244081020286103 0 -6.244081020286103 -35.31992406212521 0 0 0 0 -0.95182353192487312 -3.5196452877314215 0 -3.5196452877314215 6.2932432213291349 0 0 0 0 -0.070311742525518639 -3.2122750239104789 0 -3.2122750239104789 18.672627026156988 0 0 0 0 -1.6892373474547639 -2.6012445181404473 0 -2.6012445181404473 -63.821538283586051 0 0 0 0 -1.0696966250775979 -2.8919442651264404 0 -2.8919442651264404 19.143077404549871 0 0 0 0 -3.8129167416409473 -4.1217302361201291 0 -4.1217302361201291 18.626887678225103 0 0 0 0 0.010705168384447461 -17.87348392326021 0 -17.87348392326021 24.129162276483839 0 0 0 0 -4.3621123283301131 -3.1436561511654872 0 -3.1436561511654872 16.97837248617725 0 0 0 0 -4.1414229735499992 -8.359196753603598 0 -8.359196753603598 11.999278968612998 0 0 0 0 5.8439460395578067 -17.2419217052433 0 -17.2419217052433 33.979652166308369 0 0 0 0 -0.29718972143535893 -2.03405159856894 0 -2.03405159856894 5.1706518002078212 0 0 0 0 -4.0912167722528352 -1.5113513377468593 0 -1.5113513377468593 3.6252716029507379 0 0 0 0 -23.981706912978552 -7.3705933016317431 0 -7.3705933016317431 33.620307090986898 0 0 0 0 -1.216625418397598 -5.0048777652409626 0 -5.0048777652409626 -63.407818828689415 0 0 0 0 -6.1281534760847194 -8.3214874041203615 0 -8.3214874041203615 1.5711675767801268 0 0 0 0 -6.3503272168381955 -13.504069751805218 0 -13.504069751805218 4.6331863978193724 0 0 0 0 0.47425815592691833 -10.712359291889072 0 -10.712359291889072 11.788632653973764 0 0 0 0 1.1075906752322737 -8.2539451906204135 0 -8.2539451906204135 -0.80083719130126951 0 0 0 0 -2.0121561363412184 -8.0841855990656768 0 -8.0841855990656768 11.311521893869212 0 0 0 0 -6.7808249331905728 -7.8464319999905925 0 -7.8464319999905925 2.1863812117283601 0 0 0 0 -28.956226406918518 -27.251078065084073 0 -27.251078065084073 23.415235564869363 0 0 0 0 -8.6661938646211638 -14.109055451335735 0 -14.109055451335735 10.328218335112979 0 0 0 0 -10.874033164414868 -13.915503903555873 0 -13.915503903555873 12.58137635330786 0 0 0 0 -15.65528977914073 -1.2891459510847199 0 -1.2891459510847199 8.6167609963486029 0 0 0 0 -3.171006095915736 -8.6548633789281553 0 -8.6548633789281553 10.037370307291141 0 0 0 0 -10.178438657191691 -16.979933550914211 0 -16.979933550914211 -0.0074078310062759556 0 0 0 0 -9.3350722233699344 -15.256743850875864 0 -15.256743850875864 9.178967416024534 0 0 0 0 -5.5509918344032485 -20.761765956136514 0 -20.761765956136514 -59.444875520577625 0 0 0 0 -7.5922699242207017 -13.667607148070033 0 -13.667607148070033 -6.1485826851426566 0 0 0 0 -13.758436351688204 -15.274146418698969 0 -15.274146418698969 -1.6802321010860126 0 0 0 0 -18.696619718073634 -11.091741756696138 0 -11.091741756696138 29.651847642940993 0 0 0 0 -19.776470100696315 -15.802156051271595 0 -15.802156051271595 -0.14769591829463025 0 0 0 0 -16.293462087985517 -5.6445643247697035 0 -5.6445643247697035 17.412381486414233 0 0 0 0 -6.7213057463948331 -5.2098711286370758 0 -5.2098711286370758 -1.0877258605498525 0 0 0 0 -10.91659376611733 -16.312458467116357 0 -16.312458467116357 1.0467369080288336 0 0 0 0 12.118323925991717 -17.208040652363707 0 -17.208040652363707 0.58271584205613181 0 0 0 0 -1.5218417971664167 4.8034106646082364 0 4.8034106646082364 34.834009600199352 0 0 0 0 -13.365583477447217 9.8392912129384058 0 9.8392912129384058 -5.7439080963540619 0 0 0 0 -14.539673665331065 2.210186767479172 0 2.210186767479172 13.633911629483919 0 0 0 0 -5.2971477862546408 -2.6983482259462779 0 -2.6983482259462779 -1.1885380190892079 0 0 0 0 -18.451037041988457 -6.0065244203651673 0 -6.0065244203651673 17.448663955170559 0 0 0 0 -20.005325515849108 -16.481919837353871 0 -16.481919837353871 0.0038656346696370747 0 0 0 0 -32.815121774241561 -16.858624477339617 0 -16.858624477339617 1.0057085490589088 0 0 0 0 -23.270131339228101 -6.4815266351461105 0 -6.4815266351461105 55.868645002479752 0 0 0 0 -27.762950869252677 -16.689653187338038 0 -16.689653187338038 -2.7276131069494198 0 0 0 0 -18.15195723438228 8.7539008000112517 0 8.7539008000112517 19.468544078055857 0 0 0 0 -19.538893332508451 -0.060741904146198067 0 -0.060741904146198067 33.609116834410088 0 0 0 0 -33.930317980431028 -18.644417029479882 0 -18.644417029479882 0.00081563224739511497 0 0 0 0 -41.632500288148933 -18.131769098994333 0 -18.131769098994333 -2.673163002197148 0 0 0 0 -45.54344355869398 -18.136615113991866 0 -18.136615113991866 1.2792660753475502 0 0 0 0 -31.461383274421678 39.147138140762763 0 39.147138140762763 124.8364689919531 0 0 0 0 -19.845791037674644 20.955070518510183 0 20.955070518510183 20.392410541411664 0 0 0 0 -9.2917332034448918 13.438071627905629 0 13.438071627905629 -18.501593188857441 0 0 0 0 -9.7454668063037388 4.8461862292851947 0 4.8461862292851947 -39.299451179475 0 0 0 0 -18.731298667411465 2.5553141742730077 0 2.5553141742730077 -16.564678197999456 0 0 0 0 -23.461349011100538 7.2584803189884042 0 7.2584803189884042 -19.585822279279455 0 0 0 0 -136.32044993863383 -13.283959650943871 0 -13.283959650943871 -4.6229582349506018 0 0 0 0 -1.7590899721527222 -0.50135819495701917 0 -0.50135819495701917 0.55964916450652424 0 0 0 0 21.71790251038783 -214.96742928378126 0 -214.96742928378126 176.14359259083722 0 0 0 0 36.093510452974442 -95.309952026304927 0 -95.309952026304927 103.00210946236257 0 0 0 0 -97.903555510321894 -17.651351610956226 0 -17.651351610956226 112.13247356525244 0 0 0 0 -194.83372058437817 -188.10022672988998 0 -188.10022672988998 376.31805128100495 0 0 0 0 -111.90907941613841 -91.105641876813024 0 -91.105641876813024 318.88341521798066 0 0 0 0 -16.257776061776894 -116.85520695968808 0 -116.85520695968808 282.75823912165652 0 0 0 0 -34.206956483903923 -27.531317125158239 0 -27.531317125158239 159.68453188506828 0 0 0 0 31.558889670255667 -95.237984518558733 0 -95.237984518558733 128.29070827667965 0 0 0 0 4.6402800899595604 -19.219791565574269 0 -19.219791565574269 92.975933111254562 0 0 0 0 -3.5845841147369839 -1.5896676415752378 0 -1.5896676415752378 0.02768885036653046 0 0 0 0 5.5969790320634729 -62.812496382485961 0 -62.812496382485961 123.45124039462826 0 0 0 0 11.91956772323465 -28.737045476675121 0 -28.737045476675121 42.427579483544378 0 0 0 0 -24.773445825325325 8.1373067806944164 0 8.1373067806944164 59.529616537187394 0 0 0 0 25.850205746522988 -28.031033971152283 0 -28.031033971152283 79.818399299247176 0 0 0 0 105.25328788832121 134.87343739342759 0 134.87343739342759 96.40058990810212 0 0 0 0 -8.215485903507215 -67.196128817451608 0 -67.196128817451608 44.73807767334074 0 0 0 0 -34.45286947315617 -25.363657458839953 0 -25.363657458839953 163.87599208189931 0 0 0 0 -1.5795266757304489 2.7440926085128012 0 2.7440926085128012 140.31834707791131 0 0 0 0 -124.95674302007137 -60.93655829897034 0 -60.93655829897034 370.84099688215065 0 0 0 0 -47.233251009078231 58.549253198812949 0 58.549253198812949 293.30219287381988 0 0 0 0 -178.66736872601177 -126.62184032431105 0 -126.62184032431105 464.74018012667966 0 0 0 0 -181.78738532323769 -87.449438802732402 0 -87.449438802732402 684.12934949511691 0 0 0 0 -141.74389251391403 70.663245410096351 0 70.663245410096351 535.36461552639594 0 0 0 0 -110.51127360532701 2.365321333760221 0 2.365321333760221 511.2961123136256 0 0 0 0 -109.17002634643177 20.385908143227425 0 20.385908143227425 391.29167992213115 0 0 0 0 -40.462880770953234 88.741930128126569 0 88.741930128126569 402.02909978321986 0 0 0 0 89.41765787240729 322.11019470405881 0 322.11019470405881 388.3379308393196 0 0 0 0 -144.50760223431007 52.267962890408057 0 52.267962890408057 1228.6413445207145 0 0 0 0 123.03578236140311 -487.01820502636474 0 -487.01820502636474 776.18196754549717 0 0 0 0 407.57579860461556 -23.552509671573716 0 -23.552509671573716 1120.2144563309053 0 0 0 0 -38.407933224814769 110.4494494585515 0 110.4494494585515 541.44611786893438 0 0 0 0 -10.521569562952209 -265.71944407918636 0 -265.71944407918636 1173.9864713495517 0 0 0 0 206.57902911391284 -269.23571615435685 0 -269.23571615435685 485.22303545229806 0 0 0 0 0.71720951451425208 -142.84704003043771 0 -142.84704003043771 575.720267661658 0 0 0 0 -0.067254338526254287 -139.42301313921052 0 -139.42301313921052 999.65344336777707 0 0 0 0 0.15346332503974613 -0.85931442629687638 0 -0.85931442629687638 7.3469082339708081 0 0 0 0 220.46073326954138 -136.86008496095565 0 -136.86008496095565 -66.583376003654848 0 0 0 0 -11.903716581233311 47.020983538168366 0 47.020983538168366 -43.676002029853407 0 0 0 0 -31.48072172110551 65.272405546995287 0 65.272405546995287 -57.541928105325269 0 0 0 0 99.174216970815905 42.032545102616496 0 42.032545102616496 -199.01208150124876 0 0 0 0 -86.603388212730351 -168.76145949401689 0 -168.76145949401689 -5.3331026362666307 0 0 0 0 -38.709174767511286 -7.4672712093561131 0 -7.4672712093561131 118.24804769188631 0 0 0 0 -224.52702340336691 -23.559185758775129 0 -23.559185758775129 445.8921936089755 0 0 0 0 -19.7813172091046 -71.964076858916087 0 -71.964076858916087 130.13444490356051 0 0 0 0 -67.211595524753875 41.359187756983943 0 41.359187756983943 -7.1162217524251901 0 0 0 0 0.16727174574771198 25.201715915502064 0 25.201715915502064 -23.649659611168317 0 0 0 0 -0.24789408553096015 -1.4830130402691992 0 -1.4830130402691992 16.882174522948205 0 0 0 0 -33.614549761798116 5.790733727029874 0 5.790733727029874 21.328109578327712 0 0 0 0 -51.371593732314068 17.979395337089954 0 17.979395337089954 13.526349444997322 0 0 0 0 -33.196946158037463 -93.082726208038366 0 -93.082726208038366 -42.518555321411895 0 0 0 0 -49.997724244029087 -189.55436035367711 0 -189.55436035367711 -74.071905467609213 0 0 0 0 55.942537543177863 -152.01811800782886 0 -152.01811800782886 -67.481333395036927 0 0 0 0 56.299199461689568 -65.256445238415836 0 -65.256445238415836 -46.500463997613224 0 0 0 0 -0.060927989863557741 -131.08367339813594 0 -131.08367339813594 158.66826299456807 0 0 0 0 48.256129975292424 -93.078227255035017 0 -93.078227255035017 180.12447749656349 0 0 0 0 0.08825936673747492 -105.68727973122986 0 -105.68727973122986 217.80619373631635 0 0 0 0 -1.6623880217500897 0.19785572787453098 0 0.19785572787453098 2.8172267246041685 0 0 0 0 62.271199383693556 -235.4157346695564 0 -235.4157346695564 267.34741274967382 0 0 0 0 -2.56900899415308 -0.097859177775239559 0 -0.097859177775239559 2.8679568357683678 0 0 0 0 -27.293583152386418 -145.48190470735426 0 -145.48190470735426 304.30708697556111 0 0 0 0 58.304577233571763 -310.03511882112252 0 -310.03511882112252 337.07161915247343 0 0 0 0 -353.82441958309209 -61.283157835592647 0 -61.283157835592647 433.28056274701521 0 0 0 0 -158.99809836461282 -131.56961877293543 0 -131.56961877293543 439.9317853981338 0 0 0 0 -49.114794651067314 -84.118232621965035 0 -84.118232621965035 181.90805472136708 0 0 0 0 61.028240680545423 -382.18055376705888 0 -382.18055376705888 85.884930408417858 0 0 0 0 -1.7864472879240481 -0.27662164466231332 0 -0.27662164466231332 1.2911038841288303 0 0 0 0 -442.39816994734429 23.502632932133565 0 23.502632932133565 168.77318484773787 0 0 0 0 36.013849066552211 -52.957725345246217 0 -52.957725345246217 180.0586842275161 0 0 0 0 -304.35548542429751 -117.35348116803107 0 -117.35348116803107 -91.774204912406276 0 0 0 0 5.3350294389869646 -7.505376243314771 0 -7.505376243314771 8.0336781631089451 0 0 0 0 -191.38214321947453 -225.19634923942795 0 -225.19634923942795 -133.64775366295657 0 0 0 0 -203.77353171840696 -190.58863289128863 0 -190.58863289128863 -61.27573529264555 0 0 0 0 -262.83665196714719 -262.34661120314559 0 -262.34661120314559 -111.86481435740279 0 0 0 0 -407.24800490675443 -334.34624550573744 0 -334.34624550573744 -46.350536714180635 0 0 0 0 13.553903312236798 -347.63631541511404 0 -347.63631541511404 438.46002087499619 0 0 0 0 2.5348082908115828 -3.1572308614930904 0 -3.1572308614930904 3.1532425430284405 0 0 0 0 -298.46705286851284 11.500546856068468 0 11.500546856068468 353.69081894864394 0 0 0 0 -267.96607227233108 -273.33096973941588 0 -273.33096973941588 523.59410013103479 0 0 0 0 239.40444143823697 -344.59839403645401 0 -344.59839403645401 -88.178606750741892 0 0 0 0 87.743284632313589 -486.05370266644422 0 -486.05370266644422 396.63211422865334 0 0 0 0 208.74462739589944 -158.91269828161603 0 -158.91269828161603 187.45238558024357 0 0 0 0 -27.003517366207234 -201.73183686704238 0 -201.73183686704238 202.07872644325107 0 0 0 0 -30.254010456257674 -206.3871360348403 0 -206.3871360348403 561.26457599587593 0 0 0 0 43.6793536544792 -387.1590767530015 0 -387.1590767530015 185.83179808994828 0 0 0 0 9.5754702857884695 -203.22309086351743 0 -203.22309086351743 143.45764745450651 0 0 0 0 -50.012567614336149 -54.15131871554695 0 -54.15131871554695 -77.493303098142292 0 0 0 0 83.87211916932938 -206.91227041162347 0 -206.91227041162347 5.1130091737541079 0 0 0 0 94.358704433048842 -65.307569824152779 0 -65.307569824152779 -70.131949717029784 0 0 0 0 -26.570576541598712 -70.576979196008324 0 -70.576979196008324 -39.576691725333148 0 0 0 0 39.644280705550045 -35.940211633907893 0 -35.940211633907893 -34.547618422485812 0 0 0 0 47.139879242511597 -73.208360360856659 0 -73.208360360856659 -66.831870897531189 0 0 0 0 55.383493708872265 -62.138017425314047 0 -62.138017425314047 -67.885752622903965 0 0 0 0 70.761100821567197 -59.020153720022336 0 -59.020153720022336 -7.3556798517638526 0 0 0 0 28.885783119214466 -28.971249192672076 0 -28.971249192672076 34.245202424743184 0 0 0 0 23.990112646988564 -21.678497756801335 0 -21.678497756801335 -37.164746228489093 0 0 0 0 -12.178685837381636 -89.61306675848391 0 -89.61306675848391 -42.614995337837172 0 0 0 0 29.161532977792376 -61.711490272194169 0 -61.711490272194169 72.773734189839161 0 0 0 0 31.916213607000827 -10.282844489358467 0 -10.282844489358467 -13.514493209344437 0 0 0 0 28.447890281683954 -118.83228617808152 0 -118.83228617808152 -56.367278947942395 0 0 0 0 -1.2152986360086686 -0.091558647600244569 0 -0.091558647600244569 0.59855898319544565 0 0 0 0 -138.38851455658005 -5.0223688946280163 0 -5.0223688946280163 8.946939991104955 0 0 0 0 -8.9754195955174509 -76.493701605664683 0 -76.493701605664683 -88.065244370443907 0 0 0 0 -156.74898655650031 -125.51011697976992 0 -125.51011697976992 -36.64021856141153 0 0 0 0 -154.90399556716147 -121.72287727868752 0 -121.72287727868752 -62.221148747141342 0 0 0 0 -172.84589457289985 -100.00023184415295 0 -100.00023184415295 -36.491270251716742 0 0 0 0 -19.153475489250013 -88.36606814865695 0 -88.36606814865695 -104.19192406357979 0 0 0 0 -244.98388129927298 -196.76959250399295 0 -196.76959250399295 -96.567360032076976 0 0 0 0 -142.29250626693101 -124.77058033389767 0 -124.77058033389767 -143.98492383592952 0 0 0 0 -245.58359096866843 -183.000262211257 0 -183.000262211257 -101.04121787877739 0 0 0 0 6.8569917946284136 -8.8202516991043893 0 -8.8202516991043893 8.756724690105969 0 0 0 0 -269.7614748396154 -379.48213857429437 0 -379.48213857429437 -162.25192938102327 0 0 0 0 -92.573764272379776 -119.71678698256574 0 -119.71678698256574 -177.95390544097972 0 0 0 0 -159.19711726464084 -243.9880035688102 0 -243.9880035688102 -211.66474867530269 0 0 0 0 6.8065372569849956 -8.0504602865493382 0 -8.0504602865493382 7.3119092621193502 0 0 0 0 -108.19021722991238 -150.16390221202073 0 -150.16390221202073 -137.74887862673859 0 0 0 0 -141.89431542025977 -140.26342879992444 0 -140.26342879992444 -135.05164245683955 0 0 0 0 -135.14503647000674 -140.99705554647153 0 -140.99705554647153 -55.308746912858624 0 0 0 0 -149.0817077113752 -102.58706257708945 0 -102.58706257708945 -107.00956996337845 0 0 0 0 -80.180149437139335 -146.3881883566728 0 -146.3881883566728 -163.2292796194015 0 0 0 0 5.1559304201882696 -5.9046642159351137 0 -5.9046642159351137 4.9378497185205177 0 0 0 0 -218.85919863853269 -237.96733142400808 0 -237.96733142400808 -116.5528193361497 0 0 0 0 -72.635047142124677 -101.72526436609041 0 -101.72526436609041 -114.32914476157384 0 0 0 0 -0.034966597246238962 -108.53236773153276 0 -108.53236773153276 -173.19935930626343 0 0 0 0 -47.899950575752882 -131.41479494322448 0 -131.41479494322448 -167.74557004402232 0 0 0 0 -62.08314195436833 -113.20025374285615 0 -113.20025374285615 -157.76147413514673 0 0 0 0 0.064444819466154907 -142.39777859632352 0 -142.39777859632352 -166.03290693312374 0 0 0 0 -340.63112144642218 -161.51159143309269 0 -161.51159143309269 171.73038036700382 0 0 0 0 -209.56627121120619 92.640174505701907 0 92.640174505701907 -82.936772910368916 0 0 0 0 -36.199069762624276 -62.527131707422086 0 -62.527131707422086 -57.318142529831675 0 0 0 0 -16.895126724593865 -150.10495904080108 0 -150.10495904080108 -521.08666184411231 0 0 0 0 -4.3924928090146125 -2.679312969938751 0 -2.679312969938751 -1.5199835147468832 0 0 0 0 -16.315602021408267 -89.313166676489345 0 -89.313166676489345 -91.537335860204621 0 0 0 0 0.095083360567514319 -135.25479991732027 0 -135.25479991732027 -51.512442317036403 0 0 0 0 -49.283684833657389 -79.883205656210976 0 -79.883205656210976 166.21216566850853 0 0 0 0 -25.59126032875065 -57.578831786186129 0 -57.578831786186129 19.174524611438756 0 0 0 0 -2.946645348562356 -2.0213185534630966 0 -2.0213185534630966 1.5970482727094968 0 0 0 0 -48.67348464303177 -31.269268482184088 0 -31.269268482184088 73.701701690268237 0 0 0 0 -69.096206498154061 -124.1417623451598 0 -124.1417623451598 -149.04517059979844 0 0 0 0 -225.25035014383684 -79.496792812854437 0 -79.496792812854437 130.97224654549063 0 0 0 0 -1.6436405273042283 -0.98042942520763177 0 -0.98042942520763177 0.94101541833684621 0 0 0 0 -176.20555756774229 102.23367685246694 0 102.23367685246694 461.04118373627716 0 0 0 0 -124.61355967607778 130.33568649010203 0 130.33568649010203 183.00737698408921 0 0 0 0 191.76630874141483 212.82359185834503 0 212.82359185834503 191.32691905343017 0 0 0 0 62.726309647019661 60.10279858636568 0 60.10279858636568 114.18399107966616 0 0 0 0 1.2995667229110381 -4.3959297672494415 0 -4.3959297672494415 11.485979433877432 0 0 0 0 -314.48108262581809 -188.33501348622303 0 -188.33501348622303 -13.341065499138494 0 0 0 0 1.1195757169852385 -1.9136935243884636 0 -1.9136935243884636 3.6834223992821933 0 0 0 0 47.619662429075106 51.950976546504535 0 51.950976546504535 221.28169790682068 0 0 0 0 51.521544274190092 64.568703093751537 0 64.568703093751537 109.41860750568048 0 0 0 0 -58.085327394750493 -190.94294973401702 0 -190.94294973401702 235.05919474873372 0 0 0 0 -97.806378479588602 -81.722206597855802 0 -81.722206597855802 41.525128851306363 0 0 0 0 -161.85459654945589 -67.520951667549525 0 -67.520951667549525 -64.876544879374705 0 0 0 0 -52.073795737574983 -250.67961667662166 0 -250.67961667662166 173.91062538244842 0 0 0 0 3.4556044871205813 -412.6991858525962 0 -412.6991858525962 -14.94321843063949 0 0 0 0 -79.409286450900254 -426.48119584001142 0 -426.48119584001142 453.34852343605235 0 0 0 0 -23.347130889545952 -343.22776488049931 0 -343.22776488049931 359.06605928533099 0 0 0 0 -36.374994374185917 -261.75056013901485 0 -261.75056013901485 153.45735223634256 0 0 0 0 -4.4728213428315939 -206.98310249191036 0 -206.98310249191036 261.94283859129791 0 0 0 0 54.373991030064644 -70.183660468959715 0 -70.183660468959715 524.83046141549175 0 0 0 0 389.69143014338624 -45.601928441115888 0 -45.601928441115888 210.16608221776369 0 0 0 0 126.25912929738115 -150.82812613055103 0 -150.82812613055103 169.66350729973783 0 0 0 0 189.91314080660959 -53.367460612658761 0 -53.367460612658761 85.289746016189383 0 0 0 0 -142.05904915884093 -72.610044672038384 0 -72.610044672038384 318.55428498750553 0 0 0 0 215.8502958758254 313.36282524954822 0 313.36282524954822 617.68240013716058 0 0 0 0 174.95346263302054 -289.09067145307017 0 -289.09067145307017 461.90855928510337 0 0 0 0 89.376308395592787 -126.10923080874636 0 -126.10923080874636 229.74048173697338 0 0 0 0 90.426706302685488 -130.98071109214379 0 -130.98071109214379 -100.57475924345636 0 0 0 0 -62.551703399978578 -240.96959203175993 0 -240.96959203175993 103.74353976093698 0 0 0 0 59.149913578799897 -201.10896564556197 0 -201.10896564556197 109.3352165416909 0 0 0 0 181.05370244935693 -232.69133575718206 0 -232.69133575718206 -11.51563831355088 0 0 0 0 65.867032011810807 -198.03785224854801 0 -198.03785224854801 11.393582065522423 0 0 0 0 28.464824394548486 -143.69329555133845 0 -143.69329555133845 41.343253049966734 0 0 0 0 90.479288262864429 -115.84332810266096 0 -115.84332810266096 -44.479836901411545 0 0 0 0 34.316565580007591 -92.530855100040753 0 -92.530855100040753 76.962361341527867 0 0 0 0 162.23285971284167 -78.477784322559046 0 -78.477784322559046 50.000597612881393 0 0 0 0 192.91560863953782 -103.67533527370142 0 -103.67533527370142 -51.222920430175236 0 0 0 0 -12.665873125268263 -49.566376850742017 0 -49.566376850742017 -39.616994106283983 0 0 0 0 122.22174264019122 -7.7456222480595898 0 -7.7456222480595898 -261.18943888009926 0 0 0 0 -0.035685489608709986 0.19916749617361162 0 0.19916749617361162 0.011551905844532584 0 0 0 0 51.213755588051754 -98.676914300970111 0 -98.676914300970111 122.03613289842178 0 0 0 0 -12.672911868949086 -83.422724420235227 0 -83.422724420235227 29.831331518780644 0 0 0 0 34.718632689386141 -27.734836595886009 0 -27.734836595886009 -13.444525054730548 0 0 0 0 -0.38560346193099804 -0.22359019057397234 0 -0.22359019057397234 0.035715254004887953 0 0 0 0 -21.503176496064043 -121.98944077353781 0 -121.98944077353781 261.27021963234074 0 0 0 0 -0.21165583081841532 -0.58882910284960843 0 -0.58882910284960843 -0.15225822478268114 0 0 0 0 46.173931431236269 -37.757790826296514 0 -37.757790826296514 -159.30094030473811 0 0 0 0 -42.103214821996517 -125.44639644023573 0 -125.44639644023573 -212.26384274774864 0 0 0 0 -58.889366653522302 -136.10344398099096 0 -136.10344398099096 -188.51552697367515 0 0 0 0 -56.287961966307194 -102.62518232691764 0 -102.62518232691764 -15.842561245255638 0 0 0 0 -34.991657876827958 -55.22521341133961 0 -55.22521341133961 29.715780761188398 0 0 0 0 -106.09687080644858 -159.24919780586112 0 -159.24919780586112 162.20915860244713 0 0 0 0 -112.01836553750036 -228.23227475264321 0 -228.23227475264321 136.80932023155765 0 0 0 0 -152.93756984851643 -149.26981709624124 0 -149.26981709624124 187.44122261644316 0 0 0 0 -246.79891144315297 -83.628218241461127 0 -83.628218241461127 287.87758210593529 0 0 0 0 -348.98313240968491 -221.50330811416916 0 -221.50330811416916 242.37071762376581 0 0 0 0 -116.23543019917997 -361.01094062205448 0 -361.01094062205448 -107.70387139467476 0 0 0 0 -13.223584261442738 -8.7545299925018298 0 -8.7545299925018298 -166.05348505679285 0 0 0 0 -12.088390560915968 -7.7388032328397927 0 -7.7388032328397927 -4.2049367153898771 0 0 0 0 -63.105544729376561 -21.559749445877969 0 -21.559749445877969 217.43718593588164 0 0 0 0 43.3377954296393 -135.20893999723921 0 -135.20893999723921 180.00990784249734 0 0 0 0 25.906682985143561 -144.32554010461354 0 -144.32554010461354 251.99178255120842 0 0 0 0 -7.1442042700218735 -23.916127833112114 0 -23.916127833112114 165.0569519859539 0 0 0 0 -35.135175837045836 -56.189446764191274 0 -56.189446764191274 131.96476281027572 0 0 0 0 2.6026269874203365 -2.6019986447558807 0 -2.6019986447558807 1.1867008929896912 0 0 0 0 -23.568062329250097 -135.33398551153459 0 -135.33398551153459 -219.16089088122817 0 0 0 0 -51.47272633407556 -76.90398269679099 0 -76.90398269679099 -92.413243819682975 0 0 0 0 -43.567733305201045 -69.214874543761653 0 -69.214874543761653 -62.29129647931768 0 0 0 0 -28.111101595648506 -157.47571594226361 0 -157.47571594226361 44.217590747994109 0 0 0 0 -16.788221370632527 -111.76681972570168 0 -111.76681972570168 -67.482155964171284 0 0 0 0 9.5365354471041428 -77.683689147576956 0 -77.683689147576956 -49.008962881358457 0 0 0 0 -2.0812083011855975 -146.36552109816671 0 -146.36552109816671 -4.0950305631085939 0 0 0 0 54.102216655570373 -139.88056834358213 0 -139.88056834358213 -5.593613496330363 0 0 0 0 6.7417424914383446 -189.3095056730408 0 -189.3095056730408 12.062260421949759 0 0 0 0 95.552353546081576 -164.06450035928265 0 -164.06450035928265 14.77670300307534 0 0 0 0 58.971697687611595 -154.84665837147804 0 -154.84665837147804 29.392592753403733 0 0 0 0 28.061947696853167 -362.0790128489798 0 -362.0790128489798 -205.63449957429111 0 0 0 0 -69.518365504431131 -273.8077723864717 0 -273.8077723864717 174.03382311959649 0 0 0 0 -201.82175925419142 -432.57615450765661 0 -432.57615450765661 9.8735158634935942 0 0 0 0 124.39337920982507 -218.7930802559622 0 -218.7930802559622 -18.266123354378635 0 0 0 0 -49.352360266340838 -282.72180006935378 0 -282.72180006935378 -20.089151545587697 0 0 0 0 20.923304178893886 -214.31206765922479 0 -214.31206765922479 44.377447816543281 0 0 0 0 -56.972634852798365 -178.09352664891776 0 -178.09352664891776 29.677039130643607 0 0 0 0 -53.483803287315823 -194.55898542754221 0 -194.55898542754221 105.08967186125301 0 0 0 0 -66.721856791591563 -197.90251147862818 0 -197.90251147862818 112.28999150776872 0 0 0 0 -46.149864770515705 -70.589742047995969 0 -70.589742047995969 89.362888571145845 0 0 0 0 -46.541283679522735 -125.04863737103693 0 -125.04863737103693 -88.945543910962442 0 0 0 0 2.5054076964175067 -3.2490177356225942 0 -3.2490177356225942 1.5454227244838421 0 0 0 0 -27.292134464601986 -90.169183861646161 0 -90.169183861646161 -62.480683925419726 0 0 0 0 -34.023412826774802 -95.731451372200354 0 -95.731451372200354 115.17569552327404 0 0 0 0 -41.264157695855829 -152.14410353018047 0 -152.14410353018047 -212.4407900964452 0 0 0 0 2.1017624548266554 -2.8166689851381221 0 -2.8166689851381221 1.3309962639996122 0 0 0 0 -97.327853745089669 -96.216128576479605 0 -96.216128576479605 -140.13380568746288 0 0 0 0 31.289469186776842 -211.44789076771212 0 -211.44789076771212 -352.10015764796481 0 0 0 0 -29.221022602650919 -73.769003509413778 0 -73.769003509413778 480.2630445528448 0 0 0 0 1.0998968814211878 -0.92366076787001816 0 -0.92366076787001816 0.40864854460425448 0 0 0 0 -29.472032503887021 -63.906971549755326 0 -63.906971549755326 165.45620453188167 0 0 0 0 17.881452312059992 -127.21232164099456 0 -127.21232164099456 -25.119117458332084 0 0 0 0 14.665344589324377 -206.6335402040404 0 -206.6335402040404 105.59149573708419 0 0 0 0 -95.752908719019615 -82.791710937446624 0 -82.791710937446624 182.75223183774006 0 0 0 0 -85.82390908400248 -17.214816544349219 0 -17.214816544349219 68.20011720056209 0 0 0 0 42.126250905916095 -133.01862073560187 0 -133.01862073560187 76.97921890856378 0 0 0 0 0.37231138254719554 -75.973707725744134 0 -75.973707725744134 54.519410469314607 0 0 0 0 -53.905256800120696 -30.034694757379839 0 -30.034694757379839 110.58004828959656 0 0 0 0 -58.384959220602468 -54.009621416553273 0 -54.009621416553273 -0.0245326835411106 0 0 0 0 -66.927678164431995 -201.20132638646609 0 -201.20132638646609 288.12094684271506 0 0 0 0 4.0312690328755707 -202.53761862207102 0 -202.53761862207102 295.92838703018606 0 0 0 0 -32.50682538903493 -42.239729660004741 0 -42.239729660004741 173.44994455385131 0 0 0 0 0.45951399287335448 -1.0388183440465752 0 -1.0388183440465752 0.49761501930270313 0 0 0 0 -205.43293503383757 -305.38152799296222 0 -305.38152799296222 -411.3407598272488 0 0 0 0 -33.988695846317569 -71.226251870004489 0 -71.226251870004489 442.88407517761516 0 0 0 0 -114.16521402814033 -185.69731468430564 0 -185.69731468430564 -363.88494757400622 0 0 0 0 -267.19204778066342 -257.13459831515229 0 -257.13459831515229 -199.84790488279941 0 0 0 0 -118.00285616214023 -142.63545139837925 0 -142.63545139837925 -211.75212271589589 0 0 0 0 -108.57778529777352 -118.75209007288504 0 -118.75209007288504 -95.643687838396545 0 0 0 0 -143.47142209474259 -193.13284279822074 0 -193.13284279822074 -171.21387320941994 0 0 0 0 -168.01246442269985 -118.68402439717147 0 -118.68402439717147 -59.235005683447525 0 0 0 0 -176.00729143081844 -113.32359937852198 0 -113.32359937852198 -62.717830151440467 0 0 0 0 -42.998149286591797 -114.87052276419763 0 -114.87052276419763 -62.301148622617802 0 0 0 0 0.44097811698892997 -3.2413271563444823 0 -3.2413271563444823 2.1413623707670659 0 0 0 0 -78.695663127666194 -178.78250684033083 0 -178.78250684033083 -260.11150683681262 0 0 0 0 0.64505279235282842 -2.8098098364696611 0 -2.8098098364696611 1.7318754505620824 0 0 0 0 -65.672701005267299 -116.88408375156678 0 -116.88408375156678 -167.86111326536411 0 0 0 0 -80.165996549767442 -169.23095142468446 0 -169.23095142468446 -108.36823902243668 0 0 0 0 -60.951700149511453 -136.02166951176196 0 -136.02166951176196 -99.63141166166497 0 0 0 0 -68.25138251250246 -165.59997973754253 0 -165.59997973754253 -72.059020615511599 0 0 0 0 -67.574558669744874 -157.01288901871249 0 -157.01288901871249 -99.778739884569859 0 0 0 0 -63.840979131911809 -158.06356580048862 0 -158.06356580048862 -102.82982465387249 0 0 0 0 -95.871993221319826 -35.703056626451371 0 -35.703056626451371 -3.0029142829134798 0 0 0 0 -108.64625848480864 -134.08736791510637 0 -134.08736791510637 -78.730426395341055 0 0 0 0 -39.192200615481852 -81.585960654203291 0 -81.585960654203291 -41.622280265080917 0 0 0 0 -49.117901579244062 -41.153880052195291 0 -41.153880052195291 -21.965924015781638 0 0 0 0 29.234586719852814 -32.654930234355561 0 -32.654930234355561 -16.719710827926292 0 0 0 0 -3.4267728277748972 -3.3962885741050073 0 -3.3962885741050073 -1.9922074350573808 0 0 0 0 16.688362586092808 -6.0517550045410076 0 -6.0517550045410076 -15.500811695004813 0 0 0 0 -19.916443916175922 9.0808144089960479 0 9.0808144089960479 -3.8126698944104191 0 0 0 0 16.951451416200143 -8.4407924870038187 0 -8.4407924870038187 -8.5073749166695052 0 0 0 0 -4.340432940277168 -3.9937151042874461 0 -3.9937151042874461 -2.8020070992083888 0 0 0 0 28.088857081434981 -27.005712520540328 0 -27.005712520540328 68.917378259210182 0 0 0 0 93.011040248289646 -99.891592727880379 0 -99.891592727880379 48.089654830420841 0 0 0 0 73.819174107578874 -33.189299084935556 0 -33.189299084935556 206.7897561107402 0 0 0 0 78.615641865602811 -75.781992161302696 0 -75.781992161302696 54.418035905714078 0 0 0 0 63.314192245354207 -106.06539265181664 0 -106.06539265181664 137.52597273147694 0 0 0 0 58.927924124952369 -134.00262749249873 0 -134.00262749249873 121.68127588879361 0 0 0 0 55.830386063146761 -140.7246433281631 0 -140.7246433281631 199.80811999794423 0 0 0 0 153.54899877266871 -162.14802905008401 0 -162.14802905008401 79.665726536633883 0 0 0 0 73.0324595815473 -119.01364551963366 0 -119.01364551963366 57.980599856675326 0 0 0 0 61.385271439598 -191.95055707337269 0 -191.95055707337269 4.21184152130445 0 0 0 0 131.29127780140698 -79.146552051196522 0 -79.146552051196522 62.039717969256344 0 0 0 0 -314.42013371257235 -107.12011962957365 0 -107.12011962957365 -12.930890035870107 0 0 0 0 159.44021238318965 -194.54765834074169 0 -194.54765834074169 -128.25060112054234 0 0 0 0 -1.8722133231235745 -1.6503765997460391 0 -1.6503765997460391 -0.53053238681315662 0 0 0 0 -85.793307410949637 43.625471699999252 0 43.625471699999252 23.181877022863773 0 0 0 0 0.019992005487438291 -24.857262976008315 0 -24.857262976008315 5.422219380052411 0 0 0 0 -1.8498866594745778 -6.4713537669886136 0 -6.4713537669886136 -6.6749686665043555 0 0 0 0 3.9798705850021179 -28.45338604408721 0 -28.45338604408721 -15.587861275489558 0 0 0 0 -0.24944072247308213 -26.086827351322427 0 -26.086827351322427 -16.085092662684474 0 0 0 0 5.672410408675205 -11.663682752296154 0 -11.663682752296154 -7.3962928883984205 0 0 0 0 74.666416053834837 -355.19156842400116 0 -355.19156842400116 -377.0997379075543 0 0 0 0 -9.2673719974300184 -17.500770447360082 0 -17.500770447360082 47.392758256190064 0 0 0 0 -3.9513407048723082 -0.76422186025437622 0 -0.76422186025437622 -0.10929740359787843 0 0 0 0 -0.46490323533362243 -680.46609883676683 0 -680.46609883676683 29.469579171511214 0 0 0 0 -189.66753741514549 -480.6440470990201 0 -480.6440470990201 328.25203838362359 0 0 0 0 -256.51862531469305 -183.34407733846456 0 -183.34407733846456 302.94182218092101 0 0 0 0 2.2323350922916632 -2.3831126791058637 0 -2.3831126791058637 1.5271357165905002 0 0 0 0 -0.13091490035731113 -53.668221463380178 0 -53.668221463380178 -84.094276253112184 0 0 0 0 -181.56122277256327 -92.614146413464823 0 -92.614146413464823 -69.433292076832004 0 0 0 0 -65.069514475449978 -271.74975946116137 0 -271.74975946116137 -24.218666062413831 0 0 0 0 -11.301620626680233 -105.56338703402457 0 -105.56338703402457 90.239246001667198 0 0 0 0 -9.3443649787368486 -105.15274561581282 0 -105.15274561581282 76.06612805001896 0 0 0 0 -92.4054345693512 -193.67825019840711 0 -193.67825019840711 41.911236670866856 0 0 0 0 -118.280495754816 -72.904488369788169 0 -72.904488369788169 69.036748093887581 0 0 0 0 -97.199231985145161 -46.536078515426198 0 -46.536078515426198 55.97311165802239 0 0 0 0 -41.386783005211328 -59.590272079201895 0 -59.590272079201895 -34.830808387039724 0 0 0 0 -45.620126096786407 -72.697424685589795 0 -72.697424685589795 158.40638386724459 0 0 0 0 38.805970292327402 -30.772392882980057 0 -30.772392882980057 56.382024296101008 0 0 0 0 40.110357907330126 -98.227238199069802 0 -98.227238199069802 210.26899782202236 0 0 0 0 97.325095836618857 -120.21334806124833 0 -120.21334806124833 173.46429853611335 0 0 0 0 138.83640870689123 -99.094890716045484 0 -99.094890716045484 210.2286902699077 0 0 0 0 76.828642508451594 -67.176816257911923 0 -67.176816257911923 307.42433712755883 0 0 0 0 58.810815591961727 -114.5994166181099 0 -114.5994166181099 495.80663302900939 0 0 0 0 54.653861830156529 -70.546990573131552 0 -70.546990573131552 242.20837601663516 0 0 0 0 -9.224121628933375 -3.6937103676837602 0 -3.6937103676837602 -0.38022803564902929 0 0 0 0 -26.266899579874007 -137.27594868655615 0 -137.27594868655615 255.42414458858457 0 0 0 0 -53.863438235763169 -115.63150334465627 0 -115.63150334465627 244.91581156420943 0 0 0 0 -9.5311620979045983 -26.741795159752655 0 -26.741795159752655 14.602635283898053 0 0 0 0 12.741923555599385 -3.945292618607894 0 -3.945292618607894 -3.3357245569563858 0 0 0 0 131.11911113942188 -185.95741082581117 0 -185.95741082581117 250.39860935870274 0 0 0 0 1.7270030181310858 -0.39012455469137208 0 -0.39012455469137208 -0.29633215678628844 0 0 0 0 12.531170416907116 -9.5426334625226445 0 -9.5426334625226445 -18.472648941953594 0 0 0 0 22.147993521393801 25.706220640156971 0 25.706220640156971 19.192797148101818 0 0 0 0 87.257855472606025 -148.70937109331135 0 -148.70937109331135 328.0962501783647 0 0 0 0 -0.63776435372966489 -0.82676281110391869 0 -0.82676281110391869 -0.40076283943654545 0 0 0 0 118.19014536529721 -37.675650996425247 0 -37.675650996425247 135.1160976453757 0 0 0 0 122.21283448780741 -131.28548849661456 0 -131.28548849661456 265.6434389932183 0 0 0 0 -38.603972485165286 -13.845147331096996 0 -13.845147331096996 179.23280329246882 0 0 0 0 -48.489774427638622 -90.664019061021463 0 -90.664019061021463 70.308518776724668 0 0 0 0 -25.603286457948343 -8.0576187123733689 0 -8.0576187123733689 127.62180393268136 0 0 0 0 -51.163326089757902 -1.9210393246630701 0 -1.9210393246630701 144.25667279287882 0 0 0 0 67.938659508319688 -17.33601777291733 0 -17.33601777291733 124.11425315565086 0 0 0 0 -18.717920426493947 11.449853963908026 0 11.449853963908026 182.8759554749995 0 0 0 0 116.83796526702645 -71.839060900174445 0 -71.839060900174445 166.26387039479596 0 0 0 0 34.266294054140417 -12.166004410140545 0 -12.166004410140545 185.63888250260788 0 0 0 0 -16.989336046375684 3.0873555226789904 0 3.0873555226789904 124.00556914620455 0 0 0 0 9.8390390839485917 4.0418666979330737 0 4.0418666979330737 54.711385081256594 0 0 0 0 -4.1084379766689381 -8.5007096600129444 0 -8.5007096600129444 51.682216084922402 0 0 0 0 0.17900594813545467 3.1462004100321792 0 3.1462004100321792 -3.3904675372286874 0 0 0 0 6.5441077915638743 9.490208619140958 0 9.490208619140958 40.633699437523319 0 0 0 0 -2.0081903358403679 -0.32477376655978674 0 -0.32477376655978674 0.8243657593739826 0 0 0 0 -8.170875456497015 -19.845102277149635 0 -19.845102277149635 69.173536096732278 0 0 0 0 -9.2905848596601572 8.7572304880659431 0 8.7572304880659431 128.18292062092223 0 0 0 0 -2.0886082890962143 -0.3036330434783423 0 -0.3036330434783423 1.0481850888359574 0 0 0 0 -8.413890715004527 -40.49774228129354 0 -40.49774228129354 132.96141467959023 0 0 0 0 34.896545562802203 -78.650343527105633 0 -78.650343527105633 96.722769236390377 0 0 0 0 27.091629307629773 -58.606837293435092 0 -58.606837293435092 72.929233563954767 0 0 0 0 34.745439327634813 -147.52303486430901 0 -147.52303486430901 139.05187924843267 0 0 0 0 -77.961801252058649 -95.585013344913023 0 -95.585013344913023 130.81639770333368 0 0 0 0 -1.3017834911885302 -0.090346151241522676 0 -0.090346151241522676 0.88761631574296018 0 0 0 0 -1.4500521130084962 -26.96198909812756 0 -26.96198909812756 124.05733116564807 0 0 0 0 -62.281824226112803 -57.41877634795037 0 -57.41877634795037 109.59244228118223 0 0 0 0 -84.714619640813908 -110.79973494540354 0 -110.79973494540354 19.680056844533738 0 0 0 0 -13.206242915613984 -39.206510278530004 0 -39.206510278530004 43.935552344553798 0 0 0 0 -58.676958209827717 -45.914643231959417 0 -45.914643231959417 -76.952736572200592 0 0 0 0 -47.955705942471468 -34.240980083702198 0 -34.240980083702198 -23.363071439820487 0 0 0 0 -90.002887629244469 -80.545997588295677 0 -80.545997588295677 114.92603583159143 0 0 0 0 0.15029674239005431 -2.5000009989154606 0 -2.5000009989154606 1.6581863582893277 0 0 0 0 -38.307955548072641 -162.12659047976831 0 -162.12659047976831 -237.79263602437095 0 0 0 0 -58.329751247671084 -136.67063188929251 0 -136.67063188929251 -103.87219574555729 0 0 0 0 -63.962562778036954 -243.16410311948107 0 -243.16410311948107 -223.48146943247593 0 0 0 0 -147.55802129919175 -163.76218681435739 0 -163.76218681435739 20.507924895628094 0 0 0 0 -290.32451911806857 -389.86757639495318 0 -389.86757639495318 -275.14416445483766 0 0 0 0 19.872201853097067 -94.188128117498309 0 -94.188128117498309 16.818173389222352 0 0 0 0 -156.56556271117006 136.09584812081721 0 136.09584812081721 432.07476961565317 0 0 0 0 -162.80506694979613 34.206165791411877 0 34.206165791411877 191.66062341924226 0 0 0 0 -3.1792312299401715 -2.014753739696296 0 -2.014753739696296 -0.77245477931753825 0 0 0 0 148.26073137854837 -217.49773334782367 0 -217.49773334782367 -223.53934914242927 0 0 0 0 81.015507474498008 -190.75058948829792 0 -190.75058948829792 -160.65766389310375 0 0 0 0 183.90623820299152 -15.770248062814517 0 -15.770248062814517 54.036463443680987 0 0 0 0 15.111513348732842 -185.70299897195582 0 -185.70299897195582 186.69760590448726 0 0 0 0 -9.4940206576757191 -288.047801670642 0 -288.047801670642 -378.08306258237826 0 0 0 0 -119.43815384406116 -249.05189251651791 0 -249.05189251651791 -114.25460640064921 0 0 0 0 25.22763554793346 -80.967253022048681 0 -80.967253022048681 -118.54282083997168 0 0 0 0 -59.97323571889865 -113.5725991516756 0 -113.5725991516756 -101.34412344118027 0 0 0 0 8.4161887167283567 -114.02433453870435 0 -114.02433453870435 -334.52952353275941 0 0 0 0 0.48366385772581566 -0.41407287228087597 0 -0.41407287228087597 0.15179845008895754 0 0 0 0 -37.367240769730415 -39.11547396763217 0 -39.11547396763217 -188.69876496264624 0 0 0 0 -119.51048022587202 -132.86006842849429 0 -132.86006842849429 -53.088065526560968 0 0 0 0 123.3213940334972 -127.431672745588 0 -127.431672745588 4.6508141249269102 0 0 0 0 -66.170495893209591 -57.031575769089613 0 -57.031575769089613 -17.255815326924676 0 0 0 0 88.847270038502757 43.162405811931421 0 43.162405811931421 -16.900036678944161 0 0 0 0 47.662399334635438 9.472707453605409 0 9.472707453605409 -35.768373080856691 0 0 0 0 50.62730267888719 -85.966801931254849 0 -85.966801931254849 -118.82610427386317 0 0 0 0 41.361698127477212 9.4249609320536365 0 9.4249609320536365 -14.582753528346075 0 0 0 0 43.005088233483548 10.716467371614272 0 10.716467371614272 -35.055667290876954 0 0 0 0 55.273227606675391 -35.087818516664356 0 -35.087818516664356 -0.0027201990378671326 0 0 0 0 38.675364624737995 8.0754669771085901 0 8.0754669771085901 -10.318709448909431 0 0 0 0 3.6012392443772114 -25.336335400274947 0 -25.336335400274947 3.0418114991298353 0 0 0 0 -12.859009099629475 -35.158855092045997 0 -35.158855092045997 -16.590322632383049 0 0 0 0 12.77840031358015 -4.2169988827050418 0 -4.2169988827050418 -3.952696195381499 0 0 0 0 -12.893476385943359 -78.947324995294366 0 -78.947324995294366 182.84175389326083 0 0 0 0 -3.2284814054874005 -46.026676322217099 0 -46.026676322217099 176.9509886904525 0 0 0 0 -9.1574242572764746 -7.4957233299486354 0 -7.4957233299486354 -3.2737232883883465 0 0 0 0 -67.289937795285368 -144.82712314216178 0 -144.82712314216178 51.535045215015998 0 0 0 0 70.691800127700844 1.2876955647534487 0 1.2876955647534487 -28.340047652467547 0 0 0 0 30.787050796530821 5.2190218726182138 0 5.2190218726182138 23.154044354163489 0 0 0 0 -19.129205299643218 -63.458632702616342 0 -63.458632702616342 -69.944922134221997 0 0 0 0 -7.9950183052718415 -5.1146294023718681 0 -5.1146294023718681 -2.3626162796797168 0 0 0 0 -0.82850686639721971 -82.38412121899637 0 -82.38412121899637 246.21168997071527 0 0 0 0 49.244241102802334 -231.77463514632655 0 -231.77463514632655 233.84137419371837 0 0 0 0 86.011696447152644 -98.937795818575523 0 -98.937795818575523 51.976354673050082 0 0 0 0 34.452697541106318 -175.66178541923455 0 -175.66178541923455 62.986242399769253 0 0 0 0 -40.380014420195948 -186.06031516068106 0 -186.06031516068106 -63.672107575744121 0 0 0 0 86.107524767233599 -73.716591839159378 0 -73.716591839159378 -1.4118939311047143 0 0 0 0 88.555965881534576 -133.90361285725999 0 -133.90361285725999 141.51216644261149 0 0 0 0 -34.964037010115135 -77.473515745205759 0 -77.473515745205759 128.07773314319275 0 0 0 0 -67.853204200218897 -135.42053941032918 0 -135.42053941032918 151.64504607038725 0 0 0 0 -80.474991575116292 -82.449582315823136 0 -82.449582315823136 328.57682777600712 0 0 0 0 -56.891671542027325 -113.7608875326514 0 -113.7608875326514 160.68907997682436 0 0 0 0 -31.855785347761412 -195.39674562275468 0 -195.39674562275468 1.3020378788869493 0 0 0 0 -59.459499392010912 -74.019127281930196 0 -74.019127281930196 63.402507455690738 0 0 0 0 0.027817671347293071 -218.14758514074856 0 -218.14758514074856 344.81615825685913 0 0 0 0 38.818407934464631 -147.81778296343873 0 -147.81778296343873 97.236971649241241 0 0 0 0 -32.262209998181788 102.17320420417036 0 102.17320420417036 582.12506639693129 0 0 0 0 1.7122415236885331 -0.35328457793171708 0 -0.35328457793171708 0.095901418487081003 0 0 0 0 -25.264093141065587 20.407207202781478 0 20.407207202781478 218.87557912215561 0 0 0 0 -2.2292295856314013 -26.386646877301246 0 -26.386646877301246 154.92224488141255 0 0 0 0 -6.0144869110226864 -34.111121736257701 0 -34.111121736257701 -34.93120568543236 0 0 0 0 1.2315524394007014 -3.2431138771999457 0 -3.2431138771999457 0.21214339893702316 0 0 0 0 -9.2654370192885835 -16.100726900434665 0 -16.100726900434665 -25.633190750293579 0 0 0 0 -0.019530944719033702 -18.713318615120539 0 -18.713318615120539 -29.401154773560847 0 0 0 0 -10.709134969889419 -20.885610352199365 0 -20.885610352199365 -15.202377624027577 0 0 0 0 -57.912498097317439 -143.34152801162145 0 -143.34152801162145 -152.66417858551267 0 0 0 0 -36.437374762565014 -86.344930229332022 0 -86.344930229332022 -121.34333186422509 0 0 0 0 -201.3708013614887 -256.632255894227 0 -256.632255894227 -211.69664528253588 0 0 0 0 69.922104811674217 -140.73118102423564 0 -140.73118102423564 -357.3653074989179 0 0 0 0 -0.041612017368606757 -79.924964214726515 0 -79.924964214726515 -265.54954409021093 0 0 0 0 56.238926850102871 -111.41113238719117 0 -111.41113238719117 -345.44634211682296 0 0 0 0 -0.11249547055922449 -180.12248034534196 0 -180.12248034534196 -379.06624908376398 0 0 0 0 -0.059946936856533739 0.89567399780883505 0 0.89567399780883505 -1.4709935942732955 0 0 0 0 36.276361761087173 -151.27989800959904 0 -151.27989800959904 -510.95673695506866 0 0 0 0 0.054266949749015081 -210.79328866014851 0 -210.79328866014851 -139.2240180625904 0 0 0 0 -61.329296752097434 -79.318966074325544 0 -79.318966074325544 -225.47719483331821 0 0 0 0 -29.002071816037642 -55.102213595583635 0 -55.102213595583635 -366.74947333381897 0 0 0 0 -56.640348551632087 -177.57320697910018 0 -177.57320697910018 -204.27464124476683 0 0 0 0 -1.2128822011686964 0.29117546383537984 0 0.29117546383537984 -0.97471673322057129 0 0 0 0 -463.73817911902734 -0.44148515136839706 0 -0.44148515136839706 -288.90495539360973 0 0 0 0 12.117847859892208 -139.83184123472847 0 -139.83184123472847 -449.05746339398138 0 0 0 0 -40.520140153937973 -56.636615394226283 0 -56.636615394226283 -144.48066389069845 0 0 0 0 -83.135567107208772 -75.272188451204784 0 -75.272188451204784 -177.69950166722549 0 0 0 0 30.088309086699155 -161.35200348546869 0 -161.35200348546869 -167.67741010803729 0 0 0 0 -0.82472054351805468 -0.16813341023050299 0 -0.16813341023050299 -0.61156745916688315 0 0 0 0 90.898526647732069 -189.43448083453586 0 -189.43448083453586 -181.42289076347333 0 0 0 0 -19.782693193673367 -215.13509892319212 0 -215.13509892319212 -186.86101326113021 0 0 0 0 41.910191319591831 -307.78838316296333 0 -307.78838316296333 -530.3054833494898 0 0 0 0 11.22786790709506 -329.1548595637571 0 -329.1548595637571 -544.03678401308935 0 0 0 0 38.929268710107863 -315.1498453857364 0 -315.1498453857364 -838.47334710068753 0 0 0 0 98.628352532934514 -107.28254118617042 0 -107.28254118617042 -684.50190228029169 0 0 0 0 47.61089546920266 50.875057022945839 0 50.875057022945839 -455.81631288625977 0 0 0 0 -31.765737290785182 43.67835547431514 0 43.67835547431514 -231.97438265275196 0 0 0 0 62.677100988294114 44.160992150112179 0 44.160992150112179 -67.024325892172783 0 0 0 0 -16.400804194563534 55.451192866584279 0 55.451192866584279 0.48435007831903931 0 0 0 0 95.015018271693407 20.207843792919903 0 20.207843792919903 -1085.6335525004379 0 0 0 0 -2.7753336065695464 -2.3343313739318958 0 -2.3343313739318958 -1.2497872378834902 0 0 0 0 -283.8315008408681 -57.412574731235509 0 -57.412574731235509 82.032614982761515 0 0 0 0 -29.344056842346617 -321.82035287992221 0 -321.82035287992221 -683.10008750540874 0 0 0 0 -112.41061543740216 -154.2686715445534 0 -154.2686715445534 -106.58043121408002 0 0 0 0 -453.56284139526542 -382.61980532454163 0 -382.61980532454163 -147.46728138054641 0 0 0 0 -223.82677815615898 -13.161346855654301 0 -13.161346855654301 13.180269263948503 0 0 0 0 -31.788119077958982 -1.0708351017433415 0 -1.0708351017433415 -48.548868810907493 0 0 0 0 88.4779469889545 -10.074228826160379 0 -10.074228826160379 -87.861236707027274 0 0 0 0 -2.2351679927342545 -7.082797606866734 0 -7.082797606866734 -8.1532041738369543 0 0 0 0 -4.8615216034668265 -46.97827207150317 0 -46.97827207150317 26.254220533645821 0 0 0 0 -60.331628470390569 -47.448085973805973 0 -47.448085973805973 -37.953233762973468 0 0 0 0 14.181268975723469 -3.8191727088069456 0 -3.8191727088069456 -21.359630611366811 0 0 0 0 5.8335400704308995 -7.4759286693979448 0 -7.4759286693979448 -9.5314142755887588 0 0 0 0 1.1001785489024769 2.1054951234536929 0 2.1054951234536929 -21.024832523178702 0 0 0 0 8.2581104704077006 6.8955773072475495 0 6.8955773072475495 -55.147412264327613 0 0 0 0 64.040587626375782 -58.564510187444284 0 -58.564510187444284 -31.866664661554751 0 0 0 0 -17.6553136759685 -108.99502576283294 0 -108.99502576283294 110.55002695482744 0 0 0 0 0.2822139458554318 -0.18586847404933238 0 -0.18586847404933238 -0.052654705778179434 0 0 0 0 -30.65201074741708 -52.562177786991015 0 -52.562177786991015 -30.079626113185441 0 0 0 0 42.532425543708086 -100.84987833985406 0 -100.84987833985406 -198.95209477373646 0 0 0 0 -7.4634014967959956 -146.18637993272478 0 -146.18637993272478 -192.09429568922997 0 0 0 0 96.044660243467661 21.653476775068157 0 21.653476775068157 -105.74637694704143 0 0 0 0 -10.367517036211211 -102.77864170786779 0 -102.77864170786779 -161.74592369577658 0 0 0 0 2.7846003482362107 -0.095447129863437397 0 -0.095447129863437397 -1.7830457122203267 0 0 0 0 36.481546590192011 -151.78122151104617 0 -151.78122151104617 -333.0539338197932 0 0 0 0 75.661296288686572 -119.91432695996036 0 -119.91432695996036 -358.19654739081852 0 0 0 0 -61.965251668916608 -297.04886569293194 0 -297.04886569293194 -358.26898686124451 0 0 0 0 47.335606388704036 -201.90154704147699 0 -201.90154704147699 -152.19457607711502 0 0 0 0 -2.899199340492487 -373.86279965001904 0 -373.86279965001904 -266.89377529879334 0 0 0 0 -226.60050959692308 -283.02757035097056 0 -283.02757035097056 -251.67380567786859 0 0 0 0 -66.856842291541398 -200.96910554121951 0 -200.96910554121951 -238.09492767282245 0 0 0 0 -21.315319725023073 -216.65484812468139 0 -216.65484812468139 -245.88960943556594 0 0 0 0 -87.160715586009246 -80.699965273229679 0 -80.699965273229679 -134.62888159732029 0 0 0 0 -49.33613543480169 -103.58314540420997 0 -103.58314540420997 -216.16452917690549 0 0 0 0 -65.504682521648647 -147.06858245734975 0 -147.06858245734975 -214.63625487271202 0 0 0 0 -145.48021650313603 -68.819149956941146 0 -68.819149956941146 -286.04785867733455 0 0 0 0 -70.69619577719277 -150.09850252875458 0 -150.09850252875458 -204.77754614021887 0 0 0 0 -174.33446450310294 -165.90188855670658 0 -165.90188855670658 -144.88611268099521 0 0 0 0 -48.855074018476444 -5.7441207512088113 0 -5.7441207512088113 -54.86458390820917 0 0 0 0 -104.224865291264 -82.839096212111599 0 -82.839096212111599 -51.679042904939706 0 0 0 0 -18.567095587226504 -27.890634924824553 0 -27.890634924824553 -38.673142565445232 0 0 0 0 -90.170872963466536 25.508582820122228 0 25.508582820122228 25.102006160854216 0 0 0 0 0.36575091256690939 -1.7639803784259556 0 -1.7639803784259556 -1.4816504885229804 0 0 0 0 -0.34101006789921939 -0.55002312760467476 0 -0.55002312760467476 0.34845241802064919 0 0 0 0 -67.306819122895831 -13.052795928201249 0 -13.052795928201249 -46.735994835746169 0 0 0 0 -5.2502588687857497 -65.866710068775319 0 -65.866710068775319 -141.77333357232101 0 0 0 0 -30.544565751697519 -45.651156918177549 0 -45.651156918177549 -24.781520698061286 0 0 0 0 -34.045124222997401 -89.507200662425021 0 -89.507200662425021 166.22868656753917 0 0 0 0 -6.199986880965298 15.333201021013792 0 15.333201021013792 75.749249468723974 0 0 0 0 6.61032190167316 -49.356342728791788 0 -49.356342728791788 20.62390712691996 0 0 0 0 -3.5254043772729347 -3.2746861093748976 0 -3.2746861093748976 2.0046115466720948 0 0 0 0 -0.039967235722279781 -0.77791537042924119 0 -0.77791537042924119 -0.18414419764469869 0 0 0 0 -19.232604648008419 -15.888769386642707 0 -15.888769386642707 -19.222192180512138 0 0 0 0 -27.57519911507552 -37.919651567860456 0 -37.919651567860456 18.792512646077739 0 0 0 0 2.98242717381072 -40.32052111673238 0 -40.32052111673238 -71.609160764152421 0 0 0 0 2.8768668880802579 28.629993304781237 0 28.629993304781237 -116.68362483031524 0 0 0 0 -0.32394851086101539 0.028683624708559563 0 0.028683624708559563 0.17402212530481975 0 0 0 0 -0.10954791747786885 -9.9055595166092463 0 -9.9055595166092463 0.70219172245168782 0 0 0 0 -22.942869893995521 -24.541886512877682 0 -24.541886512877682 43.93096627110026 0 0 0 0 -0.28666017170326086 -6.8934884645736929 0 -6.8934884645736929 23.220977240360298 0 0 0 0 15.44714848510921 -23.268510474254072 0 -23.268510474254072 10.457907916214026 0 0 0 0 0.99503661420021672 -12.430339258341519 0 -12.430339258341519 32.435581911846384 0 0 0 0 10.490840389273217 -13.954861605557653 0 -13.954861605557653 7.8158788613500292 0 0 0 0 24.201691432441294 -8.4562677804865416 0 -8.4562677804865416 21.104921960282809 0 0 0 0 20.418811453244416 -23.409239951453856 0 -23.409239951453856 10.03114367071521 0 0 0 0 -1.6270966668962501 -18.7563685407913 0 -18.7563685407913 17.605945996070659 0 0 0 0 6.9200737148896678 -11.405934073820855 0 -11.405934073820855 -6.7333839963616908 0 0 0 0 11.412086713236931 -9.8705956587565424 0 -9.8705956587565424 4.5643098983396158 0 0 0 0 -1.9728877408269909 -15.778387542827303 0 -15.778387542827303 14.818538962880993 0 0 0 0 2.4265429225845203 -9.4233118995665421 0 -9.4233118995665421 5.0352311124950218 0 0 0 0 -3.6713298976246733 -6.3834607351935233 0 -6.3834607351935233 4.0411215346714471 0 0 0 0 -22.198947646218585 -31.514479722082569 0 -31.514479722082569 12.034790582122241 0 0 0 0 4.3585560393657943 -15.055861607736176 0 -15.055861607736176 -2.1631659551703706 0 0 0 0 4.9556823747407179 -15.87516353873616 0 -15.87516353873616 -7.8252884780304157 0 0 0 0 16.590504747568048 -23.660610872696139 0 -23.660610872696139 3.2166632588476887 0 0 0 0 -3.3485866627512593 -4.0491218712197465 0 -4.0491218712197465 2.5008155863399022 0 0 0 0 0.61492482583035368 -8.9595080929057644 0 -8.9595080929057644 5.0759304936865339 0 0 0 0 1.5386093542037997 -12.492446736407317 0 -12.492446736407317 20.60530850300654 0 0 0 0 5.7566662906920101 -19.573004608496802 0 -19.573004608496802 8.6057445863418707 0 0 0 0 -3.7738364472679677 -9.0591666088021157 0 -9.0591666088021157 12.709963019935344 0 0 0 0 -8.0679994107485982 -13.757998101253008 0 -13.757998101253008 7.5685466057434496 0 0 0 0 1.5566686950915027 -9.5163552155529487 0 -9.5163552155529487 0.35675039018292409 0 0 0 0 5.8508316585721332 -4.8175237230993844 0 -4.8175237230993844 5.4981668043740228 0 0 0 0 -5.3943731749435102 -4.2538945357070119 0 -4.2538945357070119 1.187062934809278 0 0 0 0 2.9157804311689688 -17.089828283559882 0 -17.089828283559882 19.340612944204508 0 0 0 0 9.7445983106590575 -17.65805641606471 0 -17.65805641606471 10.088502492133557 0 0 0 0 -3.3778743858856615 -10.865276143571691 0 -10.865276143571691 24.580448011506633 0 0 0 0 1.0104781947611627 -15.68856509699927 0 -15.68856509699927 1.2847476475758413 0 0 0 0 4.1305856390536064 -13.220875131025309 0 -13.220875131025309 -10.323911581269726 0 0 0 0 -0.17227138815917442 -0.77774736085387008 0 -0.77774736085387008 1.4500005441996098 0 0 0 0 3.511312574850308 -8.4483249078512284 0 -8.4483249078512284 13.388175736753809 0 0 0 0 -0.11760996989212202 -7.1976802385460843 0 -7.1976802385460843 4.8647645660087679 0 0 0 0 0.52113874889619183 -12.214624900024489 0 -12.214624900024489 15.982075702342755 0 0 0 0 1.0272813726769527 -8.4479354612044517 0 -8.4479354612044517 -0.63750405993187087 0 0 0 0 -1.9155011913666264 -7.4102096502849122 0 -7.4102096502849122 5.5389042029578626 0 0 0 0 -0.72421355396727449 -11.212344958157075 0 -11.212344958157075 15.913365458819953 0 0 0 0 6.1828041259432212 -12.956801310013361 0 -12.956801310013361 0.71655010768654392 0 0 0 0 4.2168423832998769 -6.8697896684196316 0 -6.8697896684196316 -4.7174468515041177 0 0 0 0 0.098301926117230209 -7.8774159478381307 0 -7.8774159478381307 -6.1952957532774224 0 0 0 0 3.7754786161967786 -11.909254371845236 0 -11.909254371845236 3.8608635063974361 0 0 0 0 14.891705960908439 -22.432518080426917 0 -22.432518080426917 -8.9381566087922693 0 0 0 0 13.479995013723965 -15.899260130921903 0 -15.899260130921903 -8.626171214356873 0 0 0 0 10.341922978443108 -36.310436237155727 0 -36.310436237155727 -15.603647145178911 0 0 0 0 4.050042071840636 -7.9881823716291356 0 -7.9881823716291356 -5.5506420222537294 0 0 0 0 -0.64465310040395707 -28.998026808420036 0 -28.998026808420036 17.592913972597216 0 0 0 0 7.6385447647990077 -21.025368638008786 0 -21.025368638008786 -11.210623109245716 0 0 0 0 11.288437708630227 -10.584771238068242 0 -10.584771238068242 -37.110683494504883 0 0 0 0 -1.5221139082364061 -6.4959628370626206 0 -6.4959628370626206 -31.560322232218823 0 0 0 0 14.506272460013861 -16.621913700356345 0 -16.621913700356345 -26.424766139528401 0 0 0 0 20.810790963223553 -16.200590833750539 0 -16.200590833750539 -16.699389939209141 0 0 0 0 13.011591441103519 -16.071999686964318 0 -16.071999686964318 -8.5997744854284974 0 0 0 0 -14.97351458322737 -3.9788312660325573 0 -3.9788312660325573 -0.52906336614250904 0 0 0 0 12.323152211523848 5.8356852705046549 0 5.8356852705046549 -9.5319032743554999 0 0 0 0 -0.13971076366733115 -8.1246018884662305 0 -8.1246018884662305 -12.293135076003161 0 0 0 0 44.653175708142953 6.0959740697433631 0 6.0959740697433631 -17.923112263957591 0 0 0 0 -106.62716966281732 -96.750326352425873 0 -96.750326352425873 -24.870493419538434 0 0 0 0 5.4456988992296829 -49.029855775676822 0 -49.029855775676822 -41.535811316767649 0 0 0 0 2.4005005992075894 -10.656992068477734 0 -10.656992068477734 -23.887807366083962 0 0 0 0 3.4270825142084504 -17.518305199893575 0 -17.518305199893575 22.115897499911853 0 0 0 0 0.54074451472325791 -0.59207594178119116 0 -0.59207594178119116 1.0228753871461298 0 0 0 0 -4.0611408284130341 -9.8391057828980735 0 -9.8391057828980735 -0.50498810797758864 0 0 0 0 7.419818531785495 -10.308905269998462 0 -10.308905269998462 -2.0438948277710551 0 0 0 0 2.6869068181476337 -0.84809255506731507 0 -0.84809255506731507 0.71472391262080359 0 0 0 0 7.6556652534127352 -9.4543630633791622 0 -9.4543630633791622 -0.72125993095244212 0 0 0 0 0.19373022365471115 -21.313599616297296 0 -21.313599616297296 16.845055776531638 0 0 0 0 -3.5861149352931534 -13.386378338945661 0 -13.386378338945661 30.758333734993755 0 0 0 0 -2.6517250353717827 -7.3101299830284177 0 -7.3101299830284177 -17.641608601089615 0 0 0 0 -20.265373861097032 -13.540200461894841 0 -13.540200461894841 81.825168668332481 0 0 0 0 1.2910290915218923 1.0204613911698148 0 1.0204613911698148 -0.068973946599287989 0 0 0 0 6.469692536531511 -19.838629504315691 0 -19.838629504315691 -6.1908923213386515 0 0 0 0 3.1577542016129883 -1.1387888288190311 0 -1.1387888288190311 -12.118456717189929 0 0 0 0 -11.966329435490479 -22.921821550735217 0 -22.921821550735217 -37.479608772605843 0 0 0 0 -12.549373723028111 -5.6705490161734815 0 -5.6705490161734815 -9.9762732567760395 0 0 0 0 -39.012472294263716 -12.831927345002612 0 -12.831927345002612 140.59739401200301 0 0 0 0 -3.4715959692985052 -22.341444221882057 0 -22.341444221882057 -46.84965127272082 0 0 0 0 0.34905057565981679 1.1149009939098393 0 1.1149009939098393 0.00092485594956760731 0 0 0 0 -0.0097057214079541154 -26.658424879191898 0 -26.658424879191898 -41.481261077966792 0 0 0 0 -7.3361811676368234 -27.994916456073497 0 -27.994916456073497 -32.040837703109446 0 0 0 0 -37.272244401814532 -62.349921215257609 0 -62.349921215257609 -43.956791870828397 0 0 0 0 -42.971654259403294 -22.634815530138667 0 -22.634815530138667 7.7566339519103167 0 0 0 0 -0.073310646658627104 -48.77591181517554 0 -48.77591181517554 -86.852172549101397 0 0 0 0 6.1870419081315049 -20.69112701150857 0 -20.69112701150857 5.0562028741919676 0 0 0 0 4.0110749002997181 -4.5817522515794735 0 -4.5817522515794735 29.053168192303929 0 0 0 0 20.108026508212788 -13.623379543595547 0 -13.623379543595547 0.44629705606894277 0 0 0 0 45.303441628580913 -18.932136913450449 0 -18.932136913450449 1.173213271397799 0 0 0 0 2.3336724064427017 -1.2759802596748386 0 -1.2759802596748386 -1.9033178604464069 0 0 0 0 -29.599905442693853 -4.089277312460581 0 -4.089277312460581 8.2418408985763563 0 0 0 0 0.190116316676324 -1.2240598840919361 0 -1.2240598840919361 2.1386978289855101 0 0 0 0 -16.273181185642898 -10.258065330938734 0 -10.258065330938734 9.1692940380398795 0 0 0 0 -25.329750050470466 -15.604170470631061 0 -15.604170470631061 13.622957232300905 0 0 0 0 4.5632189244714567 -7.5714137863934496 0 -7.5714137863934496 10.561084496569631 0 0 0 0 -17.677712717513714 -17.78560652638464 0 -17.78560652638464 13.217045678798968 0 0 0 0 2.5311925407293643 -3.5854469028355496 0 -3.5854469028355496 -7.3383082127927821 0 0 0 0 7.8564135285560042 -8.9837235898548897 0 -8.9837235898548897 -4.1386728231732377 0 0 0 0 -16.4047528686242 -14.012553781766655 0 -14.012553781766655 9.0986396347861955 0 0 0 0 1.1293670080911653 -8.2415643363717237 0 -8.2415643363717237 -1.317973851427432 0 0 0 0 15.155011247636139 -22.340565989777133 0 -22.340565989777133 4.6806330377967242 0 0 0 0 14.774423279741313 -12.35508690669667 0 -12.35508690669667 0.88636416669623941 0 0 0 0 1.8857227263652021 -5.5621088119723936 0 -5.5621088119723936 19.903900934932608 0 0 0 0 17.095772102184128 -4.8499927640332317 0 -4.8499927640332317 -3.3191888174751512 0 0 0 0 1.4611062017393124 -9.1388730872625956 0 -9.1388730872625956 -7.7447990649252461 0 0 0 0 -4.4653182048677991 4.8620853030577109 0 4.8620853030577109 -1.4521702533511416 0 0 0 0 -5.8610511208062235 -12.979931238872268 0 -12.979931238872268 13.540995978057254 0 0 0 0 -3.3406770081968915 -5.5792618606332027 0 -5.5792618606332027 -4.1265705064500722 0 0 0 0 5.5150683639694762 -6.4194886699315248 0 -6.4194886699315248 -8.79673765244479 0 0 0 0 12.276856188611418 1.1486403568032983 0 1.1486403568032983 -1.6190161290051037 0 0 0 0 -13.004260927686119 -11.419894550479512 0 -11.419894550479512 2.0350139906561253 0 0 0 0 15.181596643597004 -0.19877478745092958 0 -0.19877478745092958 -14.015489749564949 0 0 0 0 37.115194981084642 -17.51708438950277 0 -17.51708438950277 2.7658087611052906 0 0 0 0 22.550103563815355 8.4872621732438347 0 8.4872621732438347 25.970721478279302 0 0 0 0 18.235491159102821 -24.659733151233695 0 -24.659733151233695 32.089356013038923 0 0 0 0 -7.9309854966413695 -30.575520453050558 0 -30.575520453050558 28.139130652137112 0 0 0 0 -25.407308727066265 -12.794542118866048 0 -12.794542118866048 10.902570097898206 0 0 0 0 -11.439231589511564 -26.162047328452275 0 -26.162047328452275 3.1199202299976605 0 0 0 0 -32.579973004510975 -12.960286876117607 0 -12.960286876117607 -4.6369671672227923 0 0 0 0 -55.443445029406575 -33.178851320582453 0 -33.178851320582453 5.7764429189664952 0 0 0 0 -3.5464358478529903 -26.414079211642729 0 -26.414079211642729 -3.2564764988692332 0 0 0 0 -26.948201688159315 -62.863982875675902 0 -62.863982875675902 -57.858782320033697 0 0 0 0 -7.9015580284831231 -45.132918565395812 0 -45.132918565395812 6.5847979071618283 0 0 0 0 -18.317951294600789 -18.761728991463769 0 -18.761728991463769 10.272183120510817 0 0 0 0 -30.461432798394526 -17.332416053706766 0 -17.332416053706766 14.23737371448442 0 0 0 0 -22.798132706542674 -24.150418081530916 0 -24.150418081530916 3.7908389014214663 0 0 0 0 164.04121534272781 6.3744489327837073 0 6.3744489327837073 -36.419426445735553 0 0 0 0 0.48063926156467573 -1.0006562459118129 0 -1.0006562459118129 -0.9840531608153853 0 0 0 0 57.241478301824827 -92.938088735627389 0 -92.938088735627389 -105.96207223646508 0 0 0 0 36.646966848355078 -37.351140512656457 0 -37.351140512656457 2.223976314385709 0 0 0 0 72.671373705103179 -16.256019237422151 0 -16.256019237422151 -5.8663461534779344 0 0 0 0 27.310322475790599 -24.381589987872303 0 -24.381589987872303 4.3026034278263978 0 0 0 0 10.677550716529367 -31.6706863910008 0 -31.6706863910008 7.1194551066710119 0 0 0 0 37.035665638919454 -23.647839284839392 0 -23.647839284839392 2.3002209131855125 0 0 0 0 11.263903046557971 -22.889069703442146 0 -22.889069703442146 4.3066302537813499 0 0 0 0 34.668684036623745 -14.670863103395277 0 -14.670863103395277 4.1932347902611582 0 0 0 0 -18.995410487092158 -14.351386224929229 0 -14.351386224929229 10.141720129893656 0 0 0 0 -19.416421917218713 -23.019478752087423 0 -23.019478752087423 15.262167734990726 0 0 0 0 10.466713219779194 -24.168355186757253 0 -24.168355186757253 6.1439843857069718 0 0 0 0 -1.6073136311933922 -21.618398498880197 0 -21.618398498880197 10.253277779462223 0 0 0 0 -4.8020339685826912 -25.442743456399512 0 -25.442743456399512 10.819145529655088 0 0 0 0 -12.890632227543392 -16.766597336595169 0 -16.766597336595169 8.9850123616224664 0 0 0 0 -12.022253136841755 -24.14322395010322 0 -24.14322395010322 9.7026614898852586 0 0 0 0 -4.5797380341791722 -15.565913127068598 0 -15.565913127068598 5.9683360451472254 0 0 0 0 4.5884399109983462 -7.8395179515398326 0 -7.8395179515398326 13.555678681630482 0 0 0 0 1.5481494503619615 -24.928292077041988 0 -24.928292077041988 9.4612962443752622 0 0 0 0 3.978511447829078 -22.16532837927798 0 -22.16532837927798 7.3455042542059346 0 0 0 0 8.8466543836657365 -17.393148369575101 0 -17.393148369575101 5.1390807483876415 0 0 0 0 5.9014102326064801 -9.7672737587483027 0 -9.7672737587483027 13.983213127589558 0 0 0 0 -22.96694897621046 -32.525237349520069 0 -32.525237349520069 -2.5902456482490379 0 0 0 0 28.542438043230504 -18.286531345360345 0 -18.286531345360345 2.1779605352112412 0 0 0 0 -1.6149642730143796 -1.8749967221057915 0 -1.8749967221057915 -1.0102443378505619 0 0 0 0 13.350502270870493 -21.453892188773352 0 -21.453892188773352 7.5614995398909741 0 0 0 0 28.330091580697626 -18.269661959436235 0 -18.269661959436235 4.8011612250720646 0 0 0 0 15.594999014654604 -20.473668513333905 0 -20.473668513333905 4.7498307868618213 0 0 0 0 16.943011381161341 -23.105094564548835 0 -23.105094564548835 5.2231937181286412 0 0 0 0 4.8616072297809296 -16.599900366276415 0 -16.599900366276415 20.40047231661265 0 0 0 0 -0.77024635027837007 -4.6920519595272054 0 -4.6920519595272054 1.4099250517005153 0 0 0 0 2.3068612122242484 -10.695369195934518 0 -10.695369195934518 17.959650602449983 0 0 0 0 4.460059094464242 -12.703372671892801 0 -12.703372671892801 -6.8621366552118737 0 0 0 0 2.8933777310885489 -23.144484493111236 0 -23.144484493111236 2.3158032457723152 0 0 0 0 7.4622408763389103 -17.398221459515526 0 -17.398221459515526 3.5609445787406457 0 0 0 0 9.8995311969934789 -8.935955059273752 0 -8.935955059273752 -2.0675873494408474 0 0 0 0 10.338126107264543 -24.685949990801589 0 -24.685949990801589 -5.9271901830106799 0 0 0 0 19.186048416537233 -24.9647521466174 0 -24.9647521466174 -14.313328298570013 0 0 0 0 -3.6455580981820503 -13.456633046430653 0 -13.456633046430653 -4.2769440084301777 0 0 0 0 7.7259931936932844 -18.429431863899254 0 -18.429431863899254 2.4764973622614832 0 0 0 0 -2.3428187260470139 -3.32364702336384 0 -3.32364702336384 9.1963558065347399 0 0 0 0 7.8037307907798095 -18.837438173810256 0 -18.837438173810256 -24.067909346258602 0 0 0 0 -17.126687956861133 -31.031641669217208 0 -31.031641669217208 -3.5941536987102154 0 0 0 0 -22.386902566388017 -27.668260312976372 0 -27.668260312976372 3.684824158626725 0 0 0 0 -61.849632852972718 -32.916693938021581 0 -32.916693938021581 14.444756534482622 0 0 0 0 -10.295658172894036 -38.419676409160388 0 -38.419676409160388 -25.432857861618004 0 0 0 0 26.588381437606586 -14.471818679023499 0 -14.471818679023499 -1.3410173501582676 0 0 0 0 5.5220237466928666 -18.012681829764915 0 -18.012681829764915 6.7839707565744902 0 0 0 0 -20.120835258829175 -47.082969922306347 0 -47.082969922306347 -58.440715076429171 0 0 0 0 0.33326444655003229 -1.4634812309245628 0 -1.4634812309245628 2.8135220849287177 0 0 0 0 -28.61137643668917 -51.539075738343058 0 -51.539075738343058 -12.811849609143792 0 0 0 0 11.355511811852921 -17.723753351796404 0 -17.723753351796404 -18.168812928524858 0 0 0 0 -30.992113079104456 -32.094039905339059 0 -32.094039905339059 14.244445111467826 0 0 0 0 3.5958733440904211 -2.0477373547626456 0 -2.0477373547626456 -3.6267534623191677 0 0 0 0 -0.091730524515384104 -18.850394890848335 0 -18.850394890848335 3.2399732479730252 0 0 0 0 -40.807265294490207 -22.247587569605059 0 -22.247587569605059 -8.6068678005128731 0 0 0 0 26.724886576870631 -24.072796474570055 0 -24.072796474570055 -13.038135180182735 0 0 0 0 -6.5732859065064986 -7.4287789946615419 0 -7.4287789946615419 17.630758490346352 0 0 0 0 47.641569379542489 -96.199497742414678 0 -96.199497742414678 -31.740860446336228 0 0 0 0 3.3450028951599506 -18.524550746480301 0 -18.524550746480301 3.6881549383088674 0 0 0 0 6.4203115250369081 -18.335852316582411 0 -18.335852316582411 3.545370759384793 0 0 0 0 10.223116538254544 -14.212201392766246 0 -14.212201392766246 -2.0454538252416796 0 0 0 0 8.7635434120165883 -18.769351189039526 0 -18.769351189039526 -1.4746848811341806 0 0 0 0 7.6504774674867804 -14.727004697636062 0 -14.727004697636062 2.0284388878201298 0 0 0 0 2.2452853443028289 -20.518811189599546 0 -20.518811189599546 1.018114890679044 0 0 0 0 3.1751162308864878 -20.048181655057078 0 -20.048181655057078 -3.5308022258045639 0 0 0 0 13.865350686690363 -18.370737537032483 0 -18.370737537032483 -1.3480007890864272 0 0 0 0 -3.5785326536733919 -23.36005599179839 0 -23.36005599179839 2.5918535165851608 0 0 0 0 -1.9969446803879691 -16.009952206300568 0 -16.009952206300568 4.6152982384075756 0 0 0 0 -4.6967612122389255 -21.02607018062713 0 -21.02607018062713 0.51318348470431374 0 0 0 0 -10.276405589662318 -27.350229565691734 0 -27.350229565691734 2.7954519201634866 0 0 0 0 16.492135069765936 -22.504083353686156 0 -22.504083353686156 -0.81959878790758012 0 0 0 0 3.3752629610244185 -20.785437943964098 0 -20.785437943964098 5.3670214357182431 0 0 0 0 0.37700548918989973 -9.6507406536820213 0 -9.6507406536820213 0.38050659964864053 0 0 0 0 2.2244012893187772 -4.3047542583811804 0 -4.3047542583811804 -9.7549842834894562 0 0 0 0 19.84676617509831 -15.923127219508956 0 -15.923127219508956 -4.9163001597753464 0 0 0 0 26.804589469094935 -24.487056403199176 0 -24.487056403199176 -0.65544972900033827 0 0 0 0 24.729719615948852 -19.82213075945765 0 -19.82213075945765 -2.2356064699622493 0 0 0 0 -0.2373913422914633 -4.5046493778657322 0 -4.5046493778657322 -0.6055612348538908 0 0 0 0 -11.598158726229485 -26.177664033823106 0 -26.177664033823106 2.8433453555549022 0 0 0 0 90.513391470056376 -29.393828593118428 0 -29.393828593118428 -3.5639864476528373 0 0 0 0 26.863004315389844 -16.002839480960574 0 -16.002839480960574 2.6696734252559509 0 0 0 0 0.11674649255919789 -0.61732248846834636 0 -0.61732248846834636 -0.0093668409113423223 0 0 0 0 -63.733148152248759 -27.998329645089143 0 -27.998329645089143 19.777082400329618 0 0 0 0 8.0861079650439933 -20.774606397620175 0 -20.774606397620175 12.925921212515277 0 0 0 0 7.197635794756934 -9.2149524946363499 0 -9.2149524946363499 7.175889299872324 0 0 0 0 10.458699850118137 -13.92365960295956 0 -13.92365960295956 -93.018884365041231 0 0 0 0 18.234068443814976 -48.830598117468384 0 -48.830598117468384 24.781674748515343 0 0 0 0 30.578244090720546 -33.272225789697131 0 -33.272225789697131 14.057814879144871 0 0 0 0 11.235761210278724 -15.987711026931265 0 -15.987711026931265 -43.314386121460302 0 0 0 0 8.3813626115790498 -19.900733609263249 0 -19.900733609263249 3.4782862345201417 0 0 0 0 -31.585568562120898 -42.737988855847334 0 -42.737988855847334 12.733854749879129 0 0 0 0 9.1992151443660077 -10.048412749035862 0 -10.048412749035862 -20.433280800249452 0 0 0 0 -0.26830050673015648 -23.021232822160073 0 -23.021232822160073 -20.813214832400263 0 0 0 0 5.6468292043136898 -25.665460263302521 0 -25.665460263302521 -34.761404153323156 0 0 0 0 -1.0187173066478294 -4.9956327850209536 0 -4.9956327850209536 0.005135318761101626 0 0 0 0 8.805107452244556 -34.911640830772512 0 -34.911640830772512 -7.8428278343362763 0 0 0 0 7.6560330957508995 -14.011913024770365 0 -14.011913024770365 -15.829697315951307 0 0 0 0 38.502058993952232 -31.016259973484921 0 -31.016259973484921 -9.1622387007632824 0 0 0 0 16.372161758081347 -23.20233663112981 0 -23.20233663112981 9.6437477140116243 0 0 0 0 -73.149629208688566 -78.892991933098529 0 -78.892991933098529 -9.3876966166017155 0 0 0 0 4.4819940199669759 -8.3586026911550348 0 -8.3586026911550348 -17.51702988389609 0 0 0 0 10.944159828868578 -44.767237445344847 0 -44.767237445344847 17.251137059266739 0 0 0 0 5.0426384181664616 -16.149739014876786 0 -16.149739014876786 -7.7035205201364079 0 0 0 0 -27.840116084225883 -4.6720914259622077 0 -4.6720914259622077 -0.95560300373881546 0 0 0 0 15.448726948648982 -33.846296151506976 0 -33.846296151506976 17.452681402767197 0 0 0 0 6.1975214641511371 -19.187899968486647 0 -19.187899968486647 11.027832643781625 0 0 0 0 20.744066937218008 -30.865713914852087 0 -30.865713914852087 22.13776172349823 0 0 0 0 -9.197093523456715 -924.49579307504155 0 -924.49579307504155 491.61780395095411 0 0 0 0 17.064584915751766 -36.426669453409886 0 -36.426669453409886 11.118358883447854 0 0 0 0 2.4997055546846241 121.06244080716363 0 121.06244080716363 -213.57300033960934 0 0 0 0 -159.85466974574956 347.2543830902332 0 347.2543830902332 56.479372628387864 0 0 0 0 343.24032737438392 -153.72001978432809 0 -153.72001978432809 -152.30443259242111 0 0 0 0 4.5257320170999833 -15.670552276285576 0 -15.670552276285576 -15.190345843817743 0 0 0 0 33.535811675101286 -44.565047676747326 0 -44.565047676747326 4.8202443326749744 0 0 0 0 -530.32658755110606 125.50124496603962 0 125.50124496603962 1413.4193988609459 0 0 0 0 45.821253153815633 -183.6982548752917 0 -183.6982548752917 -83.193978271045808 0 0 0 0 113.21592029571912 -47.183919626007537 0 -47.183919626007537 -4.0582968924245506 0 0 0 0 74.001863370918727 -141.95643237101103 0 -141.95643237101103 -89.327553584131238 0 0 0 0 4.0701829661236957 -4.3447733248179361 0 -4.3447733248179361 7.6318857605500554 0 0 0 0 359.78506019969473 134.66401427179829 0 134.66401427179829 -43.253007864168467 0 0 0 0 28.779965898102091 51.052273984833846 0 51.052273984833846 74.453821488204994 0 0 0 0 111.71488400442104 -65.330341083547751 0 -65.330341083547751 -117.22082273628439 0 0 0 0 138.81188163202023 -162.30528911437068 0 -162.30528911437068 35.643749671773548 0 0 0 0 -24.114146037572937 50.285829106943311 0 50.285829106943311 -98.246511174800162 0 0 0 0 29.520620364353817 -72.402493667969338 0 -72.402493667969338 -164.46215542376467 0 0 0 0 58.534555637183075 -162.41710499418514 0 -162.41710499418514 209.16192794033304 0 0 0 0 146.93473243237304 -222.19856858254167 0 -222.19856858254167 133.64452633522524 0 0 0 0 -1.2604602443324637 -1.2927457290940154 0 -1.2927457290940154 -0.37599072839116943 0 0 0 0 32.860208614494695 -51.905414439508604 0 -51.905414439508604 40.375974998298261 0 0 0 0 11.143319327020436 -99.995274191055614 0 -99.995274191055614 138.65356153633184 0 0 0 0 -8.4227746335964184 -24.455750760251249 0 -24.455750760251249 -4.9993629463751859 0 0 0 0 1.4746246834293544 -3.9807219604383448 0 -3.9807219604383448 -2.3087560042277708 0 0 0 0 -5.4523479857820689 -11.552460155025443 0 -11.552460155025443 -7.1446961442768711 0 0 0 0 84.567865015400457 -9.9780488449150653 0 -9.9780488449150653 -61.008483039408929 0 0 0 0 26.974852406245191 -40.716403907664244 0 -40.716403907664244 -1.8413902967249669 0 0 0 0 -5.0267527338091895 -13.228480309568454 0 -13.228480309568454 6.5446801709549618 0 0 0 0 35.413765840472479 0.82449379408899404 0 0.82449379408899404 -19.302796744347688 0 0 0 0 15.754846580523008 -18.424018890173102 0 -18.424018890173102 -9.3862076221530515 0 0 0 0 10.098917536100089 -15.736667731959528 0 -15.736667731959528 -8.0235217820154503 0 0 0 0 11.734429670599638 -9.3720942395029851 0 -9.3720942395029851 0.50940031811569497 0 0 0 0 2.3759677398007284 -0.54624612789705651 0 -0.54624612789705651 -2.8097042696660566 0 0 0 0 16.334433542928309 -5.0857139768254456 0 -5.0857139768254456 -3.093618877624067 0 0 0 0 141.88358035396232 32.073487719845616 0 32.073487719845616 53.543017105703257 0 0 0 0 21.747383834859647 8.5162607870888678 0 8.5162607870888678 111.66304420101642 0 0 0 0 4.153368568404403 5.8202780822703062 0 5.8202780822703062 -13.818328930472035 0 0 0 0 -0.57775287641331374 -1.6311582548634576 0 -1.6311582548634576 -2.6884732163470915 0 0 0 0 280.5032627778055 -317.0315972474491 0 -317.0315972474491 -194.90267706372833 0 0 0 0 -3.5672596895988704 -0.32794707950619895 0 -0.32794707950619895 -0.97281088306365504 0 0 0 0 124.41508335269464 141.55389579008806 0 141.55389579008806 -308.1862570742187 0 0 0 0 137.78318842095177 -5.7298767835491162 0 -5.7298767835491162 156.64631734113482 0 0 0 0 75.367500148367071 -125.44872140257871 0 -125.44872140257871 -65.848028146161596 0 0 0 0 160.05126742361244 -70.32233629490247 0 -70.32233629490247 -30.799064886845372 0 0 0 0 141.41913481663505 -19.454768711551878 0 -19.454768711551878 -53.083471522406398 0 0 0 0 0.41341540533149157 0.67716727753462891 0 0.67716727753462891 1.5339411881903047 0 0 0 0 66.437425638570858 -59.908320830620141 0 -59.908320830620141 39.113859320122174 0 0 0 0 -72.984397778387574 -155.5172685351838 0 -155.5172685351838 -4.6339440974606987 0 0 0 0 267.82802597673435 -51.160825495666359 0 -51.160825495666359 -66.022868210803153 0 0 0 0 196.60303468002894 -137.88492917322083 0 -137.88492917322083 27.76633192045847 0 0 0 0 647.19192691161152 -304.84833235606311 0 -304.84833235606311 96.85055638274207 0 0 0 0 365.55191991149331 168.7117058365784 0 168.7117058365784 269.30532670833963 0 0 0 0 159.76787862474157 -132.26777554328237 0 -132.26777554328237 41.079057494264816 0 0 0 0 290.56960695356975 21.855302825068975 0 21.855302825068975 1.6210227016017598 0 0 0 0 -13.331862031922356 87.3203706397926 0 87.3203706397926 51.522845078712635 0 0 0 0 0.84965459708448066 1.8553919731073236 0 1.8553919731073236 3.7993398343117377 0 0 0 0 97.087750646409404 -71.16357140697437 0 -71.16357140697437 47.072682054266807 0 0 0 0 91.917512693544268 -30.731291369553219 0 -30.731291369553219 20.784062706451095 0 0 0 0 201.36933887528721 -59.313845483015029 0 -59.313845483015029 -5.1840166902675264 0 0 0 0 0.037897532062078909 -1.6527142627080167 0 -1.6527142627080167 0.5474338356890911 0 0 0 0 145.93857410318014 -42.333135159816266 0 -42.333135159816266 18.237207368187228 0 0 0 0 180.97568217197477 -48.082159644134663 0 -48.082159644134663 16.590824670691291 0 0 0 0 62.481532939451427 -21.443690508149757 0 -21.443690508149757 48.141243409445451 0 0 0 0 36.304011244006688 -44.804090901927339 0 -44.804090901927339 47.395313959019404 0 0 0 0 22.333240880854646 -49.863619180524779 0 -49.863619180524779 14.145919311336456 0 0 0 0 35.650052717890446 -45.039533722239909 0 -45.039533722239909 50.720817655826558 0 0 0 0 -162.10274805904919 -227.47509701741137 0 -227.47509701741137 28.409847706048822 0 0 0 0 18.527907970201341 -21.341148368824179 0 -21.341148368824179 96.999885694676777 0 0 0 0 -127.10263544241934 -76.80937733112512 0 -76.80937733112512 149.41101866034842 0 0 0 0 -213.13432053780707 -100.12079460944278 0 -100.12079460944278 275.30795084276542 0 0 0 0 99.931594882131321 -221.99140851401444 0 -221.99140851401444 230.09983946780039 0 0 0 0 116.61190573664499 -77.649822368467539 0 -77.649822368467539 -17.386528988946338 0 0 0 0 102.24163864015281 -153.51464273337206 0 -153.51464273337206 -14.22265922671977 0 0 0 0 -11.509615684299206 -94.468876410969642 0 -94.468876410969642 105.88046072869565 0 0 0 0 -9.4916724373833858 -109.59079590411147 0 -109.59079590411147 -32.013371151926549 0 0 0 0 -106.46901199614513 -220.51027567827805 0 -220.51027567827805 -18.084265692655663 0 0 0 0 -48.950651166640455 -115.31940156957944 0 -115.31940156957944 2.2602536590256932 0 0 0 0 36.409776960499585 -85.404094624179379 0 -85.404094624179379 3.2408208631786692 0 0 0 0 35.30395594860363 -123.66867455011965 0 -123.66867455011965 -51.260123781397851 0 0 0 0 -5.1991759113661828 -117.44414930981111 0 -117.44414930981111 -52.035487041775013 0 0 0 0 28.700234753027011 -44.893996787473483 0 -44.893996787473483 44.699858269221998 0 0 0 0 -5.6277575867570704 -80.504506255477509 0 -80.504506255477509 18.379173464026621 0 0 0 0 36.504824985603165 -44.342775319008268 0 -44.342775319008268 48.104405975028797 0 0 0 0 6.3935009994384018 -86.858789974375441 0 -86.858789974375441 21.094189177707449 0 0 0 0 0.42704004061488376 -99.052513156560508 0 -99.052513156560508 13.685082942006375 0 0 0 0 10.221247116112863 -91.876689848668093 0 -91.876689848668093 -0.57629053491291415 0 0 0 0 -3.9401174069189437 -95.370216960652158 0 -95.370216960652158 60.477649093730179 0 0 0 0 -12.8592130679408 -99.721885244465057 0 -99.721885244465057 122.19346542313133 0 0 0 0 -10.8392080458907 -74.679980605567721 0 -74.679980605567721 51.557077517089454 0 0 0 0 -31.206231948126515 -38.508196816191685 0 -38.508196816191685 88.706954826913829 0 0 0 0 25.171186492247216 -65.64627471914082 0 -65.64627471914082 -116.46337303726432 0 0 0 0 -2.5235342448006861 -12.216004907762759 0 -12.216004907762759 5.9521011764075844 0 0 0 0 -10.98515778593017 -90.029738684992765 0 -90.029738684992765 66.309484678779882 0 0 0 0 -25.048916768819254 -78.995036295112186 0 -78.995036295112186 60.489363186804439 0 0 0 0 -37.202626413592952 -55.302803071726657 0 -55.302803071726657 33.516678330980767 0 0 0 0 -35.315294603689495 -19.477243046039469 0 -19.477243046039469 10.495716525451456 0 0 0 0 111.23910511322993 -56.214317076860993 0 -56.214317076860993 34.889215273682566 0 0 0 0 3.7304736059090402 -17.288583303431963 0 -17.288583303431963 23.902194928843784 0 0 0 0 -19.465528843818902 -14.985930874413043 0 -14.985930874413043 54.685240260697356 0 0 0 0 19.460270132911589 -27.370738760469202 0 -27.370738760469202 30.324099016965384 0 0 0 0 -80.758493163502862 -162.02850410499113 0 -162.02850410499113 -12.143643938282594 0 0 0 0 31.195971362074488 -23.723557016735867 0 -23.723557016735867 25.481886342189682 0 0 0 0 11.575358089881462 -30.773256295400707 0 -30.773256295400707 25.73519413941856 0 0 0 0 -3.3232683462920249 -18.583107555640709 0 -18.583107555640709 24.725224653081796 0 0 0 0 18.869435350751019 -44.391130566797841 0 -44.391130566797841 -7.9346738963649841 0 0 0 0 9.0003963921553805 -49.731730286343918 0 -49.731730286343918 -1.9224369973871944 0 0 0 0 15.024310835397955 -44.188857133655574 0 -44.188857133655574 4.0192182208065788 0 0 0 0 17.699572550685843 -31.349339646182671 0 -31.349339646182671 11.132366902200374 0 0 0 0 -77.701525907825271 -65.741726000117524 0 -65.741726000117524 118.47195482491952 0 0 0 0 -16.292073986746388 -23.873785699791085 0 -23.873785699791085 -13.240202973922226 0 0 0 0 -131.90182457461924 16.887127390095884 0 16.887127390095884 105.18452287354512 0 0 0 0 12.101931080353097 -51.208391306186968 0 -51.208391306186968 30.241985668093548 0 0 0 0 9.6866421398735838 -50.461840605217731 0 -50.461840605217731 31.534833530452488 0 0 0 0 -6.6583573848329252 -74.917166495342826 0 -74.917166495342826 -98.08913876969018 0 0 0 0 -42.297494233200268 31.231352186408003 0 31.231352186408003 -59.313584469950911 0 0 0 0 9.9327198775717989 -43.054783466808658 0 -43.054783466808658 -36.899031905922811 0 0 0 0 1.1788638817663752 2.5016623991854132 0 2.5016623991854132 -2.6174376523056928 0 0 0 0 59.114866885876836 7.1916136120698866 0 7.1916136120698866 -48.723742750647943 0 0 0 0 -217.68402924802649 -22.283986337655733 0 -22.283986337655733 -11.474661737720453 0 0 0 0 64.266430245650554 -122.89824116647605 0 -122.89824116647605 -105.701691583914 0 0 0 0 42.73206994278371 -112.61898992046827 0 -112.61898992046827 27.259468921351072 0 0 0 0 18.324980965648137 -78.518200850583412 0 -78.518200850583412 89.292899561966578 0 0 0 0 16.653176989668282 -30.701024915540984 0 -30.701024915540984 32.646932839405054 0 0 0 0 61.683969505567802 -13.945281420879837 0 -13.945281420879837 -87.179464968465254 0 0 0 0 24.684563502858509 -1.6923707562348227 0 -1.6923707562348227 34.272362005477476 0 0 0 0 25.841782215749845 -74.969878272968344 0 -74.969878272968344 80.327870629276731 0 0 0 0 26.496683519384533 -4.429691811237717 0 -4.429691811237717 -30.56244763128052 0 0 0 0 50.969654882894247 -29.397110717960459 0 -29.397110717960459 -23.777349702723768 0 0 0 0 41.802745398745174 -49.396733225681601 0 -49.396733225681601 3.5592659201715833 0 0 0 0 25.825681433998398 -28.837604978161835 0 -28.837604978161835 -9.0471353507182357 0 0 0 0 17.666838868346531 -25.149490078490999 0 -25.149490078490999 -0.40412430459400639 0 0 0 0 -10.259258152647206 -18.813572792319693 0 -18.813572792319693 -16.254381887307865 0 0 0 0 -0.43394317918344427 -1.6641843018120017 0 -1.6641843018120017 -1.8490557031568455 0 0 0 0 44.571653076680377 -11.156172899551166 0 -11.156172899551166 2.7764927413809346 0 0 0 0 73.260724282765295 -30.496475558085876 0 -30.496475558085876 -23.296610529905593 0 0 0 0 30.192244254582874 -50.983962693187095 0 -50.983962693187095 -21.777299399007461 0 0 0 0 16.546794600122666 -40.89470148795499 0 -40.89470148795499 -7.0910880195660866 0 0 0 0 31.757083739561494 -24.341036562826048 0 -24.341036562826048 5.3126902926537696 0 0 0 0 -13.959006502554985 -33.398234627959027 0 -33.398234627959027 -17.419124744435976 0 0 0 0 25.43045591347618 -73.71825794088727 0 -73.71825794088727 27.976503507649795 0 0 0 0 19.960437710091355 -44.088578148046508 0 -44.088578148046508 -51.315144540771144 0 0 0 0 -3.1066184360201987 1.2066115786191176 0 1.2066115786191176 5.4754273303204215 0 0 0 0 -30.631591158919036 -59.892851777520264 0 -59.892851777520264 -11.743291961905925 0 0 0 0 15.673876777349506 -57.224550237686344 0 -57.224550237686344 -18.354881147010019 0 0 0 0 21.143751396157313 -48.723932148939639 0 -48.723932148939639 -17.42792995414311 0 0 0 0 -28.76399084850209 -27.59753230949724 0 -27.59753230949724 -13.255382843937696 0 0 0 0 -5.7704823507229435 -16.765838680690031 0 -16.765838680690031 3.2412968656416239 0 0 0 0 -13.126221547263413 -28.483105209727 0 -28.483105209727 -36.704621842442975 0 0 0 0 2.9388756265034317 -29.322373673551283 0 -29.322373673551283 -37.332842870766399 0 0 0 0 -3.2898691384325502 -36.172030706991791 0 -36.172030706991791 -23.243752398308061 0 0 0 0 0.53388195267528715 -19.257738861294577 0 -19.257738861294577 5.5568658133286233 0 0 0 0 8.5421219262043451 -23.478543382339467 0 -23.478543382339467 -43.912244983232085 0 0 0 0 -10.771073185849673 -20.274585527769887 0 -20.274585527769887 -10.235488863343221 0 0 0 0 1.2829387176770979 -36.268980818734008 0 -36.268980818734008 58.10487288682441 0 0 0 0 -21.903215534297487 -40.567083865489622 0 -40.567083865489622 121.07957296539394 0 0 0 0 10.513299853140779 -34.449665877812436 0 -34.449665877812436 -5.3422326253799497 0 0 0 0 -38.629732769096336 -39.266260068991471 0 -39.266260068991471 181.36306236492032 0 0 0 0 -29.151122615850909 -27.894935418732416 0 -27.894935418732416 151.33454682875663 0 0 0 0 -31.549044254294131 -36.753377617648766 0 -36.753377617648766 121.35280926972656 0 0 0 0 -182.324286389181 22.030932412568291 0 22.030932412568291 155.92484481315876 0 0 0 0 -0.20614567399907102 0.33810666290020208 0 0.33810666290020208 1.8217333833207103 0 0 0 0 16.649765401718469 -80.071432340541833 0 -80.071432340541833 27.777520890977485 0 0 0 0 75.857625708495107 -161.46380403907278 0 -161.46380403907278 137.34262162991507 0 0 0 0 -30.869070843988084 -43.388130909617473 0 -43.388130909617473 145.93860396586274 0 0 0 0 69.096767099457793 -111.75843769543212 0 -111.75843769543212 -357.96138244639951 0 0 0 0 14.640660054742874 -7.8056626739742789 0 -7.8056626739742789 2.4464870250463608 0 0 0 0 61.144925747164962 -132.40630184366114 0 -132.40630184366114 364.04416942400064 0 0 0 0 -60.076105572281904 -162.93291729344867 0 -162.93291729344867 -49.982288694169256 0 0 0 0 24.955140767844568 -12.239932839845096 0 -12.239932839845096 11.32471899596203 0 0 0 0 -11.559979264711728 -137.13190025549363 0 -137.13190025549363 -93.62588539402168 0 0 0 0 -41.58533958623957 -49.93488570205318 0 -49.93488570205318 -30.934984172700979 0 0 0 0 26.759348623634651 -105.73878331160631 0 -105.73878331160631 -1.4743860710277659 0 0 0 0 57.836650448953151 -25.026710259747688 0 -25.026710259747688 91.417489459875071 0 0 0 0 22.551709735072095 -12.034315240040193 0 -12.034315240040193 -0.14405723906240286 0 0 0 0 25.584034685773076 -27.469159325335113 0 -27.469159325335113 91.347048010137186 0 0 0 0 26.579189688773113 -116.66753626125956 0 -116.66753626125956 -160.83747884579407 0 0 0 0 0.90916634048699052 -70.221411380414793 0 -70.221411380414793 -112.01656211977843 0 0 0 0 -23.724948108068929 -91.379354168017926 0 -91.379354168017926 -1.4616040195996902 0 0 0 0 -29.788908541151613 -78.128328890632929 0 -78.128328890632929 -13.860525856217949 0 0 0 0 17.655352687390106 -7.2442015903610208 0 -7.2442015903610208 -9.3060351111177937 0 0 0 0 -104.79664673876687 2.1427954554437747 0 2.1427954554437747 -79.124463341806859 0 0 0 0 13.649641458912811 -17.736431247671817 0 -17.736431247671817 100.26566873582624 0 0 0 0 -6.1291536642529536 -8.8691974285493416 0 -8.8691974285493416 112.41845195894507 0 0 0 0 9.1330896076766948 -3.0907204391730012 0 -3.0907204391730012 -10.569741469762221 0 0 0 0 -1.7199809275080042 -21.791250223618363 0 -21.791250223618363 146.41499369172652 0 0 0 0 133.57405205180476 -126.57137227264411 0 -126.57137227264411 141.39933706138825 0 0 0 0 136.45015129746571 1.3900673000933921 0 1.3900673000933921 110.29627049665714 0 0 0 0 10.815840804639265 -13.001151416411005 0 -13.001151416411005 154.24722264004458 0 0 0 0 36.014127654609183 -55.82009331974416 0 -55.82009331974416 152.04690569025661 0 0 0 0 20.036896671572322 -38.100303336986485 0 -38.100303336986485 153.78922376273476 0 0 0 0 250.42987009741046 -147.33245972820487 0 -147.33245972820487 156.71578213704055 0 0 0 0 37.092792340650703 -77.18038263078688 0 -77.18038263078688 -64.679208648592521 0 0 0 0 37.017778761938558 -212.12050419722863 0 -212.12050419722863 337.90179500193972 0 0 0 0 188.15267616628262 -246.70996306218467 0 -246.70996306218467 212.80692687120927 0 0 0 0 64.122639632947539 -211.67155101117555 0 -211.67155101117555 248.38966418221344 0 0 0 0 -2.3275654638223386 -6.4162996927273639 0 -6.4162996927273639 16.578474893734892 0 0 0 0 1.9739138241511682 -1.6724911764357113 0 -1.6724911764357113 1.587815079566993 0 0 0 0 306.82285725283236 -124.13455854255403 0 -124.13455854255403 -10.832217589175343 0 0 0 0 221.70429470358431 38.593590465337911 0 38.593590465337911 -27.980709011996169 0 0 0 0 93.549784014288889 -67.396303817992703 0 -67.396303817992703 -10.586916651519225 0 0 0 0 131.41254578263579 -20.847074274663555 0 -20.847074274663555 -8.7718466432852438 0 0 0 0 66.793142506910954 -212.58642945499082 0 -212.58642945499082 354.3623626819674 0 0 0 0 -7.1727195341281913 -37.356719747888746 0 -37.356719747888746 71.244591217603102 0 0 0 0 0.40980379968381442 -0.21235067691675624 0 -0.21235067691675624 -0.97697300137766163 0 0 0 0 89.90891764096159 -122.64309212587295 0 -122.64309212587295 108.50513751601738 0 0 0 0 93.042923176807562 -121.26185738140055 0 -121.26185738140055 84.381018067866535 0 0 0 0 98.844070504551155 -111.40711889184625 0 -111.40711889184625 89.28182097797162 0 0 0 0 53.350327091724466 -75.417205634058064 0 -75.417205634058064 36.259810600424544 0 0 0 0 96.773190068374788 -78.777586852206994 0 -78.777586852206994 21.634295794794525 0 0 0 0 139.2355946004518 -132.81722837130019 0 -132.81722837130019 50.994679700728739 0 0 0 0 34.789440017433662 -5.6224927811026646 0 -5.6224927811026646 -2.9393807522042152 0 0 0 0 75.816693940885671 -50.973398050824471 0 -50.973398050824471 -3.7608552260517172 0 0 0 0 18.283993420678598 -16.367347228147537 0 -16.367347228147537 -5.07949091323826 0 0 0 0 24.645332816362497 -22.635507619835607 0 -22.635507619835607 10.496940221544719 0 0 0 0 -24.995859805751934 -59.988121534920367 0 -59.988121534920367 20.068547945189948 0 0 0 0 -89.100021688889683 -91.07735926075793 0 -91.07735926075793 14.128629552218626 0 0 0 0 -0.26347926564873347 -0.38794485052780203 0 -0.38794485052780203 3.4682698661290612 0 0 0 0 13.609896094309079 -23.068381330964257 0 -23.068381330964257 -29.288548252993223 0 0 0 0 14.752246398826173 -8.4891437858930203 0 -8.4891437858930203 75.614372238051146 0 0 0 0 -0.080897077985468968 -1.004075080698307 0 -1.004075080698307 -1.5710182985841659 0 0 0 0 119.33539599968935 -137.12414153159534 0 -137.12414153159534 22.380261517376994 0 0 0 0 -195.32088245737577 -81.094978256680406 0 -81.094978256680406 73.763692399521915 0 0 0 0 8.698899006103602 31.049362629756956 0 31.049362629756956 24.762895571230729 0 0 0 0 163.89946427474206 -78.641219860809088 0 -78.641219860809088 31.362930091775524 0 0 0 0 201.20150629807358 -182.84555058876367 0 -182.84555058876367 26.268570518543129 0 0 0 0 70.616742572001385 -227.49838038795554 0 -227.49838038795554 -35.546237844933785 0 0 0 0 0.19672102927916768 -0.54086234282906531 0 -0.54086234282906531 -1.1111620155881319 0 0 0 0 -11.619474952873134 -114.08174127927532 0 -114.08174127927532 30.006465564525413 0 0 0 0 -0.24778492403687125 0.00040276152498108786 0 0.00040276152498108786 1.7860513811569625 0 0 0 0 -275.14094003928585 -134.26723798580065 0 -134.26723798580065 83.873781109550691 0 0 0 0 -226.45982439820727 -54.718991911531248 0 -54.718991911531248 61.868792452666639 0 0 0 0 -66.971637923932576 -26.769984959769772 0 -26.769984959769772 -35.727576387833551 0 0 0 0 -29.8033866011192 -101.78194928480934 0 -101.78194928480934 28.582910555734998 0 0 0 0 -37.928984720170774 -97.155817732820196 0 -97.155817732820196 25.959771618785453 0 0 0 0 12.92176328588539 -8.4321655293169897 0 -8.4321655293169897 35.705240702088048 0 0 0 0 -70.707676306832582 -90.083154792967434 0 -90.083154792967434 51.168065331146408 0 0 0 0 -3.8142714258038382 -8.8990199790271021 0 -8.8990199790271021 15.465997601227405 0 0 0 0 -65.184819887923368 -76.02839817901895 0 -76.02839817901895 121.28615700869636 0 0 0 0 17.468311159246589 -31.260087249252564 0 -31.260087249252564 48.026805800757074 0 0 0 0 -52.609809150811998 -55.754425368491525 0 -55.754425368491525 -84.03591718730604 0 0 0 0 49.347771079992526 -143.68598298810048 0 -143.68598298810048 -12.533494609957415 0 0 0 0 -59.410307545145315 -93.875644641059353 0 -93.875644641059353 35.332926013674296 0 0 0 0 -129.83372708670504 -112.55574778808295 0 -112.55574778808295 41.378697277298215 0 0 0 0 -68.288745779616875 -59.54785214431422 0 -59.54785214431422 34.806278381382072 0 0 0 0 -94.322203848572826 -167.32618964895801 0 -167.32618964895801 45.383321573677676 0 0 0 0 -42.554710410917323 -175.10761547163156 0 -175.10761547163156 54.416963883364588 0 0 0 0 -91.253632704523625 -143.00998214441643 0 -143.00998214441643 170.02208830643394 0 0 0 0 6.7278344425212708 -49.612114296988693 0 -49.612114296988693 -14.763302017103342 0 0 0 0 44.130915479639953 -178.56387228164567 0 -178.56387228164567 50.212686209416461 0 0 0 0 136.01165352584394 -130.23676873703607 0 -130.23676873703607 2.695937292900453 0 0 0 0 59.875728450218958 -117.23379617509681 0 -117.23379617509681 9.7430249149210795 0 0 0 0 194.91582825409387 -73.434554858579759 0 -73.434554858579759 29.542368047446871 0 0 0 0 5.6518308776967388 -169.21958982467493 0 -169.21958982467493 4.4092448591591165 0 0 0 0 0.38105745852948303 0.39580029644461678 0 0.39580029644461678 -1.0033376458618388 0 0 0 0 -36.825070338803926 -66.840827494634141 0 -66.840827494634141 361.82248113538708 0 0 0 0 73.646416363579192 -132.47184030722747 0 -132.47184030722747 -261.53659046772736 0 0 0 0 32.364727149353712 -199.52151119977407 0 -199.52151119977407 -108.12517980141502 0 0 0 0 72.906603366925992 -140.18737836655828 0 -140.18737836655828 59.768619076254254 0 0 0 0 24.14934236928093 -57.201711951469406 0 -57.201711951469406 25.704004945437191 0 0 0 0 66.899103855646899 -65.604784028254471 0 -65.604784028254471 -24.674423671589466 0 0 0 0 -5.6592747404356487 -65.893393631574781 0 -65.893393631574781 55.636901968275197 0 0 0 0 47.272377311657692 -74.928091055659934 0 -74.928091055659934 3.3115735061237501 0 0 0 0 5.526598053984344 -53.736829645215039 0 -53.736829645215039 2.157464631338371 0 0 0 0 3.2970406047315919 -25.742812710965154 0 -25.742812710965154 79.263254891209726 0 0 0 0 -20.739071905758465 -8.1778122534251452 0 -8.1778122534251452 54.794764898938865 0 0 0 0 44.912826144409337 13.227502954266129 0 13.227502954266129 -196.5205388712584 0 0 0 0 -0.29784635910156965 -1.5628781973354577 0 -1.5628781973354577 0.6043835621507494 0 0 0 0 29.872158448833943 -99.457147767309834 0 -99.457147767309834 -139.08685612127374 0 0 0 0 45.598388080896257 -73.733000065932174 0 -73.733000065932174 -69.461530207257965 0 0 0 0 -6.3132270040332514 -6.5544094577626311 0 -6.5544094577626311 -58.384731027825183 0 0 0 0 19.924711246989318 -10.621497074133003 0 -10.621497074133003 54.526396339472967 0 0 0 0 -37.854881981154904 -37.203673254285604 0 -37.203673254285604 82.233700240990402 0 0 0 0 0.79828112707764376 -45.742516243669343 0 -45.742516243669343 -16.390709911671365 0 0 0 0 12.112174078822136 -49.127488888871085 0 -49.127488888871085 -25.541192796473297 0 0 0 0 8.0026849771966226 -38.702328023360678 0 -38.702328023360678 -37.271273420637044 0 0 0 0 22.379604645029758 -45.392521997203403 0 -45.392521997203403 -34.426692999790248 0 0 0 0 -2.0378018845034376 -5.1583799524276515 0 -5.1583799524276515 12.415767610968551 0 0 0 0 9.3526187462266535 -30.735398728496875 0 -30.735398728496875 8.1632556806289358 0 0 0 0 -16.048080739903526 -105.84996241768386 0 -105.84996241768386 6.8890159722886892 0 0 0 0 -3.2458812038157703 -43.329804295585674 0 -43.329804295585674 18.57464821214171 0 0 0 0 16.20183527230202 -29.631012234894044 0 -29.631012234894044 35.670328421963738 0 0 0 0 -2.7746820439388102 -38.938264869499108 0 -38.938264869499108 26.074063904190098 0 0 0 0 -10.537830426030268 -38.911658868999439 0 -38.911658868999439 35.195415029839751 0 0 0 0 -13.802356638112542 -46.634078205864853 0 -46.634078205864853 37.346528092005428 0 0 0 0 41.13560317676729 -127.51287304443497 0 -127.51287304443497 15.014807284769631 0 0 0 0 5.8251814668092265 7.781253974014362 0 7.781253974014362 66.736569063183197 0 0 0 0 -4.2501049487909768 -13.880215583331847 0 -13.880215583331847 -9.3184690017878893 0 0 0 0 1.5324942217630451 -24.320136683670171 0 -24.320136683670171 -38.187010980397645 0 0 0 0 -2.2329262125349487 -2.0918788957937977 0 -2.0918788957937977 -8.5604957246250706 0 0 0 0 25.015753484862216 -38.546720061200404 0 -38.546720061200404 -31.317017151983237 0 0 0 0 48.968088790908951 -21.335992861367686 0 -21.335992861367686 -19.239047246609061 0 0 0 0 -0.52029004944166957 0.50524243398938395 0 0.50524243398938395 1.2345094701682449 0 0 0 0 -50.446733035114448 -47.208393121102745 0 -47.208393121102745 -25.584696480724915 0 0 0 0 63.629308381162446 14.672102439400419 0 14.672102439400419 -29.17157926064101 0 0 0 0 30.269109504301014 -47.403889337818327 0 -47.403889337818327 20.583865567277826 0 0 0 0 82.058606664952094 -81.494308333435129 0 -81.494308333435129 36.178019903929908 0 0 0 0 83.438800396219449 -92.250748791010437 0 -92.250748791010437 -10.709606787899247 0 0 0 0 -133.51691707636564 -46.300505818769125 0 -46.300505818769125 7.2635832281139301 0 0 0 0 -0.005604117480912052 0.99630560555188907 0 0.99630560555188907 0.53968532809486547 0 0 0 0 0.28645497518482443 -93.612002523124374 0 -93.612002523124374 -10.526547723213298 0 0 0 0 -44.170924930299407 -44.114198424857477 0 -44.114198424857477 -10.052769778194488 0 0 0 0 0.91001005937141599 -47.490081784636459 0 -47.490081784636459 -21.522164505204273 0 0 0 0 5.277425060630776 -116.41222525278681 0 -116.41222525278681 -18.448559721046877 0 0 0 0 -2.2636745806290506 -4.0505127232087617 0 -4.0505127232087617 -0.61266960201442444 0 0 0 0 64.377469034378009 21.903414555313248 0 21.903414555313248 -160.25912502473147 0 0 0 0 -14.460517304920359 -78.779314142067051 0 -78.779314142067051 58.493070457433532 0 0 0 0 -75.904356372528127 -30.88216611261214 0 -30.88216611261214 81.189367911965746 0 0 0 0 -33.904054441263725 -104.99959474115713 0 -104.99959474115713 203.56139306315163 0 0 0 0 1.4062090404492267 -3.8743987042626706 0 -3.8743987042626706 -5.2647650203112057 0 0 0 0 42.844204885215731 -1.6039856621646322 0 -1.6039856621646322 -71.307716925372006 0 0 0 0 -0.31536788095500157 -36.841764777730681 0 -36.841764777730681 -44.442149758030077 0 0 0 0 -6.4893304495781194 -15.656006101993853 0 -15.656006101993853 -28.047818197726428 0 0 0 0 -5.8316491916138062 -17.117471559175772 0 -17.117471559175772 -7.0941098625927452 0 0 0 0 4.8255355477122066 -26.375505988478551 0 -26.375505988478551 -36.320462757214784 0 0 0 0 -16.224545028329885 -23.741516476029574 0 -23.741516476029574 -9.947444594163926 0 0 0 0 -13.215956262743255 -20.724847780419211 0 -20.724847780419211 -5.9046608355443908 0 0 0 0 2.5155439789360798 -19.116315437480466 0 -19.116315437480466 -15.066194271541463 0 0 0 0 -1.8510017938351666 -24.673752708848497 0 -24.673752708848497 -20.116364074293415 0 0 0 0 -2.1256049824650276 -3.6769122383496722 0 -3.6769122383496722 -4.148074074127976 0 0 0 0 -27.0112126817221 -8.725918362040602 0 -8.725918362040602 -9.1809133616443432 0 0 0 0 4.3120258971894145 -16.636530784347997 0 -16.636530784347997 -27.991341684305553 0 0 0 0 -8.1893672703520508 -18.71127448630974 0 -18.71127448630974 -4.9084932259010055 0 0 0 0 -2.9323674340921571 -19.658019857764657 0 -19.658019857764657 -28.056915190236055 0 0 0 0 -8.2711716674437668 -17.904002236773096 0 -17.904002236773096 -0.68438325085263851 0 0 0 0 -4.8857271085127323 -13.884104219429755 0 -13.884104219429755 -17.329871245041868 0 0 0 0 23.322235871462908 -3.3511929758577708 0 -3.3511929758577708 -45.319193544995755 0 0 0 0 -19.070248269971671 -40.274707580717092 0 -40.274707580717092 -15.203407878695998 0 0 0 0 -9.1056357696991057 -18.951191735644198 0 -18.951191735644198 -7.7523969419957668 0 0 0 0 -16.017959411401534 -15.139527716876728 0 -15.139527716876728 -16.602927442046166 0 0 0 0 -21.592654921507346 -42.58985817293069 0 -42.58985817293069 -29.864766750726631 0 0 0 0 1.0673610981612001 -25.060885959330903 0 -25.060885959330903 -28.442545446070653 0 0 0 0 -178.64130801803185 -124.55019933399944 0 -124.55019933399944 366.09901757712214 0 0 0 0 32.053059833040606 -79.178378582431833 0 -79.178378582431833 -253.9825216721074 0 0 0 0 0.61435750654322163 -0.40187829444748857 0 -0.40187829444748857 0.11542746045193919 0 0 0 0 -23.295080654353114 -9.4253914228462463 0 -9.4253914228462463 -145.69254059599189 0 0 0 0 -11.476305391828646 -150.0062060594264 0 -150.0062060594264 -177.09523943675322 0 0 0 0 -17.071258233132539 -62.866522507441914 0 -62.866522507441914 -153.54470741780051 0 0 0 0 84.756581566485693 5.6764274301031037 0 5.6764274301031037 27.481951779915107 0 0 0 0 55.338093788490369 48.219938362387609 0 48.219938362387609 27.648247046337929 0 0 0 0 -134.12495304188997 -119.25672818966814 0 -119.25672818966814 -61.153354343685351 0 0 0 0 -177.8244327657012 -94.216278486550436 0 -94.216278486550436 131.73448566069965 0 0 0 0 68.60493794919239 20.318517946823704 0 20.318517946823704 -193.8772473488707 0 0 0 0 -63.335403678487637 2.1485854474849475 0 2.1485854474849475 44.384961089360104 0 0 0 0 -1.6839145511424576 0.31561282202572549 0 0.31561282202572549 0.10422183854301714 0 0 0 0 45.268265997234266 -37.803081161431692 0 -37.803081161431692 -126.56757254377226 0 0 0 0 -16.33819346450764 24.953039266625638 0 24.953039266625638 -142.22653893549341 0 0 0 0 -50.976057670111913 -51.20605057567991 0 -51.20605057567991 92.107098611324545 0 0 0 0 95.103209297318244 -118.02396990079069 0 -118.02396990079069 86.993266615050743 0 0 0 0 -54.435846444819617 -156.44786659715282 0 -156.44786659715282 -103.20593556777749 0 0 0 0 -45.263854271324817 -106.4921780447512 0 -106.4921780447512 29.589557150391556 0 0 0 0 106.81370084348418 29.390269089972207 0 29.390269089972207 -2.4961883943078647 0 0 0 0 -0.58737985759821498 -1.0188553473101649 0 -1.0188553473101649 0.5519356559093147 0 0 0 0 -3.4730398527060515 -4.279394225342994 0 -4.279394225342994 -1.7929540664692798 0 0 0 0 20.976871200804453 -23.150173690020893 0 -23.150173690020893 21.641547983186214 0 0 0 0 -26.762337945935542 -37.589076885264603 0 -37.589076885264603 21.790329451010621 0 0 0 0 -18.085148541078524 -9.5901379831157101 0 -9.5901379831157101 0.74200178983255682 0 0 0 0 -21.358023834829282 -33.143623151135955 0 -33.143623151135955 -57.978495889838086 0 0 0 0 3.3881966308908886 -30.898758504231409 0 -30.898758504231409 -74.940542564714633 0 0 0 0 -19.536493237708783 -46.986666876898198 0 -46.986666876898198 -8.384586492692506 0 0 0 0 5.3912975476796419 -81.265356045682438 0 -81.265356045682438 -54.076117405642435 0 0 0 0 -3.3937464768569043 -27.529013970491633 0 -27.529013970491633 -12.587604641547841 0 0 0 0 -2.2114536262961337 -28.470946238095166 0 -28.470946238095166 -16.315664856454532 0 0 0 0 -6.6934942341140413 -29.288736599857657 0 -29.288736599857657 -12.615707925838251 0 0 0 0 -2.1514755644384422 -22.585312517300736 0 -22.585312517300736 -44.439427967961819 0 0 0 0 -1.0515147207111504 -16.026636947778087 0 -16.026636947778087 -21.001186049025581 0 0 0 0 -0.38155423854379933 -27.40572628675319 0 -27.40572628675319 -9.423649815333528 0 0 0 0 -4.2639524921887642 -19.607695716014632 0 -19.607695716014632 10.904165740874305 0 0 0 0 -7.5900002850248711 -21.449251729971365 0 -21.449251729971365 12.753035487769921 0 0 0 0 -8.0876527918843664 -19.094396046797609 0 -19.094396046797609 -6.4255376245173066 0 0 0 0 -8.6216627903322944 -11.535101233227689 0 -11.535101233227689 4.0387194146358141 0 0 0 0 -26.301555343930886 -17.966586602773077 0 -17.966586602773077 16.831070617894511 0 0 0 0 8.184639061895723 10.039975116253117 0 10.039975116253117 12.263577810786956 0 0 0 0 -15.349489204800548 -11.962794134559781 0 -11.962794134559781 2.5906151718343224 0 0 0 0 -53.57615326447285 -30.062963226496777 0 -30.062963226496777 16.946278142228039 0 0 0 0 -28.943746591391573 13.550331884922343 0 13.550331884922343 25.693559319945052 0 0 0 0 -43.857320736147813 20.386670298123136 0 20.386670298123136 34.624067220280267 0 0 0 0 -94.935953496235015 13.451218333806537 0 13.451218333806537 44.136648097759462 0 0 0 0 -129.01414739021493 43.110668114903092 0 43.110668114903092 29.149381623799854 0 0 0 0 -55.578268869190651 52.924451295022664 0 52.924451295022664 -33.665192710923293 0 0 0 0 64.237156261803648 -778.74079400265555 0 -778.74079400265555 -160.22927024115779 0 0 0 0 -13.400339341802464 23.928298716455174 0 23.928298716455174 -19.211021475086454 0 0 0 0 -22.858333922885322 45.104552216479533 0 45.104552216479533 92.447106497831555 0 0 0 0 -17.689356952298112 1.1398123519329602 0 1.1398123519329602 24.48231274614227 0 0 0 0 151.52315428845577 -33.912284637358425 0 -33.912284637358425 8.4007583522470668 0 0 0 0 0.27992786634190736 -0.49876352120887191 0 -0.49876352120887191 1.4555026841878984 0 0 0 0 76.243060875451192 51.692815413242897 0 51.692815413242897 4.8458739761990728 0 0 0 0 52.049805924105385 -78.895008649669762 0 -78.895008649669762 93.938693248579511 0 0 0 0 -1.6988268066452559 -2.420644842658028 0 -2.420644842658028 4.2302053452705408 0 0 0 0 45.750648635616926 -13.838920404486771 0 -13.838920404486771 -0.72570556971186306 0 0 0 0 48.249291636053385 -8.0841924962951452 0 -8.0841924962951452 5.7559895283629885 0 0 0 0 -9.8894289789495815 -38.26222746096937 0 -38.26222746096937 -2.6392742597927281 0 0 0 0 -6.5785379355711484 -71.228617197254152 0 -71.228617197254152 -29.865850271518866 0 0 0 0 -14.406222024094859 -75.314566881586984 0 -75.314566881586984 -43.301967328425235 0 0 0 0 46.109659702546992 -58.307624631282494 0 -58.307624631282494 0.32360785076889442 0 0 0 0 -9.2189811242781161 -47.14761222483412 0 -47.14761222483412 11.758596350944572 0 0 0 0 -6.1749888765989454 -27.512099562984076 0 -27.512099562984076 51.192252271730467 0 0 0 0 -16.864941091254877 -41.4741867935345 0 -41.4741867935345 9.637760100493324 0 0 0 0 -25.773230169892486 -25.264784350639275 0 -25.264784350639275 50.261078827057645 0 0 0 0 -32.010989970061928 -39.658291074321824 0 -39.658291074321824 11.806432733039401 0 0 0 0 -37.022932799576665 -69.615149869494417 0 -69.615149869494417 -8.812607291319182 0 0 0 0 -36.114302051406412 -38.288991086647911 0 -38.288991086647911 10.576406777847296 0 0 0 0 -52.640792590427736 -76.466815293784748 0 -76.466815293784748 -38.69475835060075 0 0 0 0 -25.496959139130468 -51.243181315708171 0 -51.243181315708171 -57.25973539464394 0 0 0 0 -32.498954767048417 -72.455771736358656 0 -72.455771736358656 -61.58145235905431 0 0 0 0 2.3830153046204856 -23.776300537843959 0 -23.776300537843959 -0.42137462558380179 0 0 0 0 5.2270316588546848 -34.677953647711547 0 -34.677953647711547 4.932985902353721 0 0 0 0 -61.152786145714344 -32.058874015719994 0 -32.058874015719994 -14.927866969002935 0 0 0 0 83.366672269381525 -36.170412356064844 0 -36.170412356064844 -141.35838725198846 0 0 0 0 76.842849123648193 24.158620298718233 0 24.158620298718233 -142.43656674849626 0 0 0 0 -118.85514402086847 -1.2945777789209387 0 -1.2945777789209387 -35.403656725430665 0 0 0 0 56.441925498249475 -11.201910770978429 0 -11.201910770978429 -34.920908270270957 0 0 0 0 2.019150235078996 -47.02518011470238 0 -47.02518011470238 -213.88766145701447 0 0 0 0 1.2399838302117132 -37.888668279926605 0 -37.888668279926605 15.434420950767162 0 0 0 0 2.6570681802622858 -21.960267952505092 0 -21.960267952505092 51.235777388870702 0 0 0 0 -0.30599874777280434 -4.6663519586778719 0 -4.6663519586778719 4.2206923361123785 0 0 0 0 -22.119713012158172 -7.6358728992272518 0 -7.6358728992272518 -36.495462257640611 0 0 0 0 9.3416502310428768 -63.564969096260029 0 -63.564969096260029 -97.387032980332151 0 0 0 0 1.9293414698855145 -1.1150740752955528 0 -1.1150740752955528 -3.9572745455274259 0 0 0 0 -0.18082338073145365 -3.1762351534725894 0 -3.1762351534725894 -158.59131338987936 0 0 0 0 -3.1362593474033957 -26.96011324013449 0 -26.96011324013449 14.810654937642092 0 0 0 0 -6.1222043454275337 -21.364230766069873 0 -21.364230766069873 -6.0465335317392563 0 0 0 0 -4.8630799236243547 -37.318251725226816 0 -37.318251725226816 24.900070742472053 0 0 0 0 -3.0649139458849675 -24.234988805375735 0 -24.234988805375735 -5.2179639189077029 0 0 0 0 1.5806047749174468 -38.562002439254684 0 -38.562002439254684 22.208962480612172 0 0 0 0 2.5703624019426741 -25.596392186722941 0 -25.596392186722941 -4.3079589768621185 0 0 0 0 -4.2386280328501016 -26.637483224402786 0 -26.637483224402786 -17.988856138704705 0 0 0 0 7.8697922378196381 -29.638928573996054 0 -29.638928573996054 -24.907039472363032 0 0 0 0 5.7441659998221439 -30.792637083226055 0 -30.792637083226055 -16.267820122658122 0 0 0 0 9.0094598993079558 -38.16710184459243 0 -38.16710184459243 1.5265952627893302 0 0 0 0 8.8617006670872911 -20.215222678906507 0 -20.215222678906507 3.594478316204281 0 0 0 0 -0.36266170749877347 -28.426981632455863 0 -28.426981632455863 -13.663626150046184 0 0 0 0 -0.40129284808062948 -28.419045555000594 0 -28.419045555000594 -11.158509960350784 0 0 0 0 -0.65114420300960774 -25.951205504628888 0 -25.951205504628888 -11.039290187994936 0 0 0 0 -0.55219355128065217 -25.825568527179712 0 -25.825568527179712 -13.033128336381765 0 0 0 0 -9.4825064643882797 -25.385575976726614 0 -25.385575976726614 4.7940710816717456 0 0 0 0 -0.22464464807126205 -36.290664341404408 0 -36.290664341404408 5.0389662195111669 0 0 0 0 -3.2188850658810964 -20.190751063940152 0 -20.190751063940152 0.99267252547258478 0 0 0 0 0.24154021527741065 -20.479251774712836 0 -20.479251774712836 13.132421022254718 0 0 0 0 6.7141260484258964 -32.12202271130468 0 -32.12202271130468 -5.0191508342268207 0 0 0 0 -43.055256654100958 -83.278397486155882 0 -83.278397486155882 16.580366925111775 0 0 0 0 0.32734360392541362 -26.724664936171294 0 -26.724664936171294 -2.1165494614597131 0 0 0 0 -27.920976032539329 -145.58621715155277 0 -145.58621715155277 -122.6552873387518 0 0 0 0 68.974721923885227 -103.19237590955345 0 -103.19237590955345 -276.38453145798121 0 0 0 0 -35.743920171100854 -0.85750647932616175 0 -0.85750647932616175 49.444176184784737 0 0 0 0 -16.887703968684676 -23.832413120489008 0 -23.832413120489008 -4.9926198853429185 0 0 0 0 39.643323384050746 -174.30569969093995 0 -174.30569969093995 76.380097816447233 0 0 0 0 -20.138912574286223 -32.224371865389912 0 -32.224371865389912 10.711080008471981 0 0 0 0 -22.786602554137062 -125.95997360414731 0 -125.95997360414731 262.59723533235228 0 0 0 0 -96.885353430128816 -35.8795499025141 0 -35.8795499025141 30.520651186208852 0 0 0 0 2.596351635415143 -17.807273608753434 0 -17.807273608753434 26.569351689432089 0 0 0 0 -20.682546000552975 -36.876445726453312 0 -36.876445726453312 54.02987730447785 0 0 0 0 -128.9881866262495 -29.671898999271676 0 -29.671898999271676 47.016673836707923 0 0 0 0 -11.24940413490458 -81.308759593938703 0 -81.308759593938703 -27.164798193953175 0 0 0 0 -57.425111061282223 -116.30095414779862 0 -116.30095414779862 186.64081491637626 0 0 0 0 -10.984781284499604 -32.041701907684569 0 -32.041701907684569 2.4338740620805766 0 0 0 0 -9.8296546109377232 -41.93115265538836 0 -41.93115265538836 17.255912372473176 0 0 0 0 -3.4719929282073281 -51.856047015684908 0 -51.856047015684908 4.2024498572536686 0 0 0 0 -5.047209971009579 -40.322094162354915 0 -40.322094162354915 45.08913737513285 0 0 0 0 -9.6846549066067382 -36.517685488399366 0 -36.517685488399366 6.3810354662418831 0 0 0 0 -0.28571403025355835 -19.462087586194571 0 -19.462087586194571 14.19435184655967 0 0 0 0 44.251585100704688 -82.358353095161874 0 -82.358353095161874 37.841333424436016 0 0 0 0 -0.13995357389648433 -10.329345990501011 0 -10.329345990501011 -2.322793793307909 0 0 0 0 -44.698111267891363 -50.89584953020676 0 -50.89584953020676 306.88212137028495 0 0 0 0 99.254095680225873 -4.8185460989770945 0 -4.8185460989770945 -305.7033912434697 0 0 0 0 -14.144926089677028 -41.959757223699853 0 -41.959757223699853 224.95156451502407 0 0 0 0 -3.4634072053449927 -44.956940054747975 0 -44.956940054747975 197.98997003165277 0 0 0 0 -17.193230976710765 -23.306724941562564 0 -23.306724941562564 -9.7660363722930761 0 0 0 0 -0.75840853753246051 -4.1771983089730078 0 -4.1771983089730078 -0.10347671019996191 0 0 0 0 -13.204371389525477 -11.467176944730454 0 -11.467176944730454 248.0567517753625 0 0 0 0 9.1298280759565387 -102.03395635160678 0 -102.03395635160678 85.643544214588474 0 0 0 0 -21.82567541442404 -62.47870846972728 0 -62.47870846972728 178.95328732293274 0 0 0 0 3.3245650801982265 38.91981370052963 0 38.91981370052963 240.60308070146584 0 0 0 0 30.414719568652799 -31.710479883469816 0 -31.710479883469816 141.37521248323173 0 0 0 0 28.485821927453799 0.67636043882521335 0 0.67636043882521335 178.10309125481581 0 0 0 0 23.429172854426724 -22.176376345159952 0 -22.176376345159952 133.54653369862353 0 0 0 0 10.130815707554575 -29.618772632515174 0 -29.618772632515174 145.57095238164038 0 0 0 0 3.8801720460760407 -9.2751569346801261 0 -9.2751569346801261 233.65895624301629 0 0 0 0 -38.282223685178906 104.62204331165776 0 104.62204331165776 -237.97874858897558 0 0 0 0 75.677021348499693 36.745590687583899 0 36.745590687583899 84.372560870622692 0 0 0 0 63.782972234068438 54.275845785290585 0 54.275845785290585 151.84598235605517 0 0 0 0 -147.06500925739238 56.628383913717698 0 56.628383913717698 -109.02624169181217 0 0 0 0 -77.363234109187033 -19.343125932209659 0 -19.343125932209659 -70.356832544697681 0 0 0 0 -102.09700653122854 103.73204579949015 0 103.73204579949015 -188.2602209593897 0 0 0 0 -17.475512521981727 60.801510506092427 0 60.801510506092427 -229.06738057261828 0 0 0 0 -11.499109939846676 19.138055752941 0 19.138055752941 -152.07047126116231 0 0 0 0 -13.39141524246952 -21.252316121501281 0 -21.252316121501281 101.62012807999599 0 0 0 0 -24.285298547125421 -68.830061196269526 0 -68.830061196269526 -164.79913610368021 0 0 0 0 8.5524044259218499 -59.216342426234405 0 -59.216342426234405 -162.0757022766993 0 0 0 0 -12.352132682033698 -39.763713396559979 0 -39.763713396559979 114.64953232877269 0 0 0 0 -0.6921092210333768 -3.6876570830032307 0 -3.6876570830032307 -0.026342761580835372 0 0 0 0 16.291399326712053 -40.684216296473096 0 -40.684216296473096 -1.8104069424844056 0 0 0 0 -3.0301707276680929 -5.3205396276562169 0 -5.3205396276562169 0.20343684900212744 0 0 0 0 17.118134783522692 -48.256027655632352 0 -48.256027655632352 -172.66459034549189 0 0 0 0 123.11313178304408 -34.645811404239794 0 -34.645811404239794 -140.67275618264102 0 0 0 0 -70.442205822073447 -66.157687874552721 0 -66.157687874552721 -144.42182256399246 0 0 0 0 40.106043022507947 -34.863821699484106 0 -34.863821699484106 101.67073679195164 0 0 0 0 15.149501891650289 -66.766540484824873 0 -66.766540484824873 94.991719820645812 0 0 0 0 2.4103221340919845 -43.857729813411424 0 -43.857729813411424 78.396985934658005 0 0 0 0 11.275197382827173 -52.943508245458361 0 -52.943508245458361 67.80363297558506 0 0 0 0 25.038160539872479 -38.50031651160316 0 -38.50031651160316 25.18981340429491 0 0 0 0 2.6942392005203146 -30.747176139750991 0 -30.747176139750991 12.23046560513103 0 0 0 0 -4.9353884969968931 -43.701368206933694 0 -43.701368206933694 64.925622388379452 0 0 0 0 2.8805374290487578 -20.584894595849107 0 -20.584894595849107 -17.482576283457576 0 0 0 0 -7.6052454067412896 -28.407102239664123 0 -28.407102239664123 -13.160268088490859 0 0 0 0 -1.5801352899579797 -43.684908020594776 0 -43.684908020594776 32.293806564018269 0 0 0 0 -4.7324483807315119 -54.698577680386734 0 -54.698577680386734 8.5169503505021567 0 0 0 0 3.1058014246445964 -54.606006843542673 0 -54.606006843542673 45.556298111787328 0 0 0 0 -29.694290887066018 -58.503309036775136 0 -58.503309036775136 9.1985974570488906 0 0 0 0 3.0633905493596103 -74.549910547621039 0 -74.549910547621039 -10.036869211842713 0 0 0 0 6.2954718299483545 -31.686907744588481 0 -31.686907744588481 13.670393068441584 0 0 0 0 1.1934915262900176 -10.02016216891252 0 -10.02016216891252 -7.902286211392493 0 0 0 0 2.2372196894307024 -9.2279030267792308 0 -9.2279030267792308 0.21343463404566165 0 0 0 0 -34.060905336598807 -26.451520718177562 0 -26.451520718177562 34.179446444903988 0 0 0 0 14.355276736227097 -6.2202925956116815 0 -6.2202925956116815 -4.092187402115087 0 0 0 0 -8.3719000400650145 -8.804590597281063 0 -8.804590597281063 1.7379003028055711 0 0 0 0 2.5882151420446462 -39.172959245936909 0 -39.172959245936909 -34.38860898936764 0 0 0 0 13.774881827387759 -17.618064676044725 0 -17.618064676044725 9.7163766484928615 0 0 0 0 5.0506323257868644 -12.372427319776762 0 -12.372427319776762 -7.7965502516854031 0 0 0 0 0.64244195523497183 -7.1594372198042038 0 -7.1594372198042038 5.190312911538058 0 0 0 0 7.7508479419463043 -7.2121410781971917 0 -7.2121410781971917 -7.4341364106427932 0 0 0 0 0.17228068839180821 -10.69366891486338 0 -10.69366891486338 -5.0929464930060178 0 0 0 0 -5.7447815139821614 -26.207297826804279 0 -26.207297826804279 22.755800979506603 0 0 0 0 0.025496411602944136 -2.731604018870712 0 -2.731604018870712 51.059443007160553 0 0 0 0 -65.184257516577418 71.536247866817348 0 71.536247866817348 -69.786733152664965 0 0 0 0 -26.631501234791358 -94.211393154568214 0 -94.211393154568214 -189.57919666590897 0 0 0 0 -18.266839521093999 -29.865417009104206 0 -29.865417009104206 -6.7474537795132115 0 0 0 0 -111.47125729424442 -71.255745190885136 0 -71.255745190885136 108.70809245271084 0 0 0 0 81.731521466630511 -59.572392348321955 0 -59.572392348321955 -130.80115125677548 0 0 0 0 -10.270145422380097 -23.795213446798634 0 -23.795213446798634 -11.202658134940034 0 0 0 0 44.364266981399851 -74.695665865268893 0 -74.695665865268893 1.5813765231396246 0 0 0 0 -25.959082315021078 -48.468185597876072 0 -48.468185597876072 28.955484661634728 0 0 0 0 -20.22381570278958 -32.88351552935319 0 -32.88351552935319 4.6058270393486964 0 0 0 0 -15.848228221308091 -34.421447800771148 0 -34.421447800771148 -13.328041133261195 0 0 0 0 -4.2589151823440261 -34.097322106047955 0 -34.097322106047955 25.880145092006842 0 0 0 0 -15.341931743423629 -55.283364520633313 0 -55.283364520633313 -4.07424965060045 0 0 0 0 9.235026973411351 -19.875702443638225 0 -19.875702443638225 13.236317999706198 0 0 0 0 27.436503613622335 -16.790215404538685 0 -16.790215404538685 17.470276657157228 0 0 0 0 39.920910276552604 -14.092983258389722 0 -14.092983258389722 8.5153880449688586 0 0 0 0 0.22273706888699962 -17.478140795236413 0 -17.478140795236413 21.547013158990012 0 0 0 0 4.2878625256507803 -29.354095512991307 0 -29.354095512991307 7.6173388644274382 0 0 0 0 -10.406638894986827 -12.326150158804012 0 -12.326150158804012 18.640722063964859 0 0 0 0 -31.312821415420331 -28.238973724540301 0 -28.238973724540301 33.33114619648768 0 0 0 0 -9.9428738421702292 -23.866215045698482 0 -23.866215045698482 23.025395775079232 0 0 0 0 3.8732762532499692 -17.30968428070446 0 -17.30968428070446 26.400012357133775 0 0 0 0 -24.24969941629206 -47.257675043022005 0 -47.257675043022005 2.8938249818929762 0 0 0 0 -0.38078727194806561 -2.9117601273246692 0 -2.9117601273246692 19.818738895963179 0 0 0 0 -2.3992745091381948 -19.075524756066443 0 -19.075524756066443 46.171786975230134 0 0 0 0 -14.67342359155009 -15.356492952230838 0 -15.356492952230838 45.079035221002414 0 0 0 0 1.5354994596345932 -28.29400937643004 0 -28.29400937643004 39.70478748720052 0 0 0 0 -0.83978082989051472 -13.250574014218728 0 -13.250574014218728 39.591540257970337 0 0 0 0 4.0767129638115875 -15.224848250722061 0 -15.224848250722061 39.556958408018545 0 0 0 0 -28.131012918824126 -37.415053945127511 0 -37.415053945127511 -171.86531290726271 0 0 0 0 -15.193195902218577 -13.148643992280995 0 -13.148643992280995 51.711900443202467 0 0 0 0 5.1934970713919029 -6.4690738797362428 0 -6.4690738797362428 -5.5938498745827019 0 0 0 0 -0.71053698176231705 -0.98537213831554027 0 -0.98537213831554027 1.2419351897319268 0 0 0 0 -0.23222375268284168 0.63365594786190726 0 0.63365594786190726 0.87352480270346233 0 0 0 0 1.0316767350304872 -80.89088681479916 0 -80.89088681479916 -243.74292009073361 0 0 0 0 -44.174994817636616 -37.32001782131465 0 -37.32001782131465 21.301447666817694 0 0 0 0 -6.1984657570719719 -33.886580483667785 0 -33.886580483667785 -255.4379052283839 0 0 0 0 -18.622141593019478 -72.183430984337974 0 -72.183430984337974 -176.33963661410962 0 0 0 0 -35.912741604613984 -45.187805390307403 0 -45.187805390307403 -121.87691182668641 0 0 0 0 -21.359605923033087 -82.295532796058978 0 -82.295532796058978 -164.82043295971562 0 0 0 0 -5.5178470750106499 -32.604341629543342 0 -32.604341629543342 -184.81784197050001 0 0 0 0 -26.739139637138578 -47.996850452222134 0 -47.996850452222134 -87.15035267440544 0 0 0 0 -22.227291018338292 -47.499516172090807 0 -47.499516172090807 -174.86941448835569 0 0 0 0 -63.917898319006781 -88.541684960851853 0 -88.541684960851853 -152.65881100090337 0 0 0 0 -1.6112879215797875 -7.3031479403871344 0 -7.3031479403871344 5.3306747134174657 0 0 0 0 8.2967772879089523 -6.0996774749626503 0 -6.0996774749626503 -0.047342443320473993 0 0 0 0 11.448054919819697 -45.850084423294902 0 -45.850084423294902 -60.652618275797664 0 0 0 0 1.2991177531366702 -11.422574322687979 0 -11.422574322687979 3.8328807417165081 0 0 0 0 -0.35862098573778667 -8.5578820563722999 0 -8.5578820563722999 1.4231824875453327 0 0 0 0 -6.6565574887691241 -8.2529488402618831 0 -8.2529488402618831 7.4152858047251513 0 0 0 0 -0.68172212612898875 -2.1515325962770486 0 -2.1515325962770486 3.4235871740453092 0 0 0 0 -0.46168745773596243 0.34264832153814773 0 0.34264832153814773 0.8001652520323006 0 0 0 0 2.8318575956600398 -44.001237981699887 0 -44.001237981699887 -57.922886521540931 0 0 0 0 3.8618413859658176 -47.244873494664716 0 -47.244873494664716 -152.38430835275358 0 0 0 0 -21.220926759313443 -67.575252854559949 0 -67.575252854559949 -24.650616405040637 0 0 0 0 5.3717735735117458 -69.337021475865185 0 -69.337021475865185 -62.8567112589717 0 0 0 0 -15.514676028069516 -98.708373434519672 0 -98.708373434519672 -7.4358001035543566 0 0 0 0 -25.69946339901071 -54.594208519363747 0 -54.594208519363747 41.469320072772007 0 0 0 0 -35.225647916377056 -44.126767096005096 0 -44.126767096005096 -68.816047246767994 0 0 0 0 -2.0179239116259851 -66.631034789468686 0 -66.631034789468686 -113.74121635586198 0 0 0 0 -27.024345610363525 -97.864830905618874 0 -97.864830905618874 -59.497989275436339 0 0 0 0 5.1515250723732606 -54.679630494907315 0 -54.679630494907315 -12.124771431575937 0 0 0 0 13.15706302876788 -85.14837885171255 0 -85.14837885171255 -47.428644615143639 0 0 0 0 68.144016442354769 -68.257934552760162 0 -68.257934552760162 -92.603002146443032 0 0 0 0 63.898644927663554 -58.794113413431432 0 -58.794113413431432 -93.904560409831902 0 0 0 0 59.605465190332325 -72.793570838968662 0 -72.793570838968662 -73.979727644140439 0 0 0 0 60.781696630918304 -52.226947181972719 0 -52.226947181972719 -68.975123205585987 0 0 0 0 30.349542888212454 -94.08061525334233 0 -94.08061525334233 -193.2043383649434 0 0 0 0 32.135259369650157 -60.07408754113203 0 -60.07408754113203 -236.92280983416003 0 0 0 0 16.56655794987455 -81.401471427130673 0 -81.401471427130673 -85.368550798324577 0 0 0 0 -0.071367714070333932 0.68482160122118074 0 0.68482160122118074 -0.17456697349250927 0 0 0 0 -8.9785436760867015 -91.487295688428276 0 -91.487295688428276 -104.40434891273799 0 0 0 0 0.48883720486992388 -30.821173663538502 0 -30.821173663538502 -140.55253214182812 0 0 0 0 56.52583444044285 -69.796282229111057 0 -69.796282229111057 -113.45816659181037 0 0 0 0 56.430636016637436 -58.803223115432957 0 -58.803223115432957 -86.392850459271358 0 0 0 0 21.322325726519921 -65.137647554311116 0 -65.137647554311116 -64.864420278889156 0 0 0 0 29.61205036406318 -92.173469673320142 0 -92.173469673320142 -89.861361192541153 0 0 0 0 29.23255371315463 -106.77527894430477 0 -106.77527894430477 -7.3723233718883421 0 0 0 0 68.430040565035597 -72.143559651063697 0 -72.143559651063697 -63.8366378645228 0 0 0 0 72.810274825365923 -59.094859164461013 0 -59.094859164461013 -64.665496348199667 0 0 0 0 53.869517379811441 -67.532661678902059 0 -67.532661678902059 -19.31003770519419 0 0 0 0 102.35506625568087 -74.153743655340804 0 -74.153743655340804 -20.45081293303565 0 0 0 0 71.067286678277014 -78.531682090112099 0 -78.531682090112099 35.345803583451925 0 0 0 0 104.5565284162949 -104.07054048478221 0 -104.07054048478221 -7.825224040326475 0 0 0 0 35.588967721298104 -59.586941710515021 0 -59.586941710515021 40.477025511210741 0 0 0 0 1.9944128345723584 -17.221375727121767 0 -17.221375727121767 114.36733182836542 0 0 0 0 48.775333694647998 -53.747399063719058 0 -53.747399063719058 -5.1767635249909745 0 0 0 0 43.93902216522838 -81.238336906393215 0 -81.238336906393215 -57.659847856153647 0 0 0 0 72.132566110711196 -55.919328156882329 0 -55.919328156882329 -4.9989759955794852 0 0 0 0 62.530987352969532 -49.810886816437232 0 -49.810886816437232 14.43692700657266 0 0 0 0 30.251514413102996 -21.999046954942969 0 -21.999046954942969 25.492635075357612 0 0 0 0 55.738499919785681 -20.104726351118643 0 -20.104726351118643 12.181641454004421 0 0 0 0 41.589604173779662 -23.747467012450215 0 -23.747467012450215 15.973821149863397 0 0 0 0 101.95259880335652 -46.512136218114392 0 -46.512136218114392 14.438935866809516 0 0 0 0 81.493634306491003 -18.19823720124441 0 -18.19823720124441 3.6896879285995965 0 0 0 0 121.81051410104556 -67.835497924090305 0 -67.835497924090305 15.072547135170055 0 0 0 0 73.690580694194068 -47.779338073347844 0 -47.779338073347844 32.73127876644503 0 0 0 0 122.29733291800949 -64.28179100989837 0 -64.28179100989837 31.928160259577169 0 0 0 0 94.353354860206309 -53.662658556246242 0 -53.662658556246242 46.134330166245491 0 0 0 0 134.81240574226103 -155.36397269840018 0 -155.36397269840018 122.73437930387377 0 0 0 0 133.65429776505334 -129.24078235713387 0 -129.24078235713387 61.498725879089761 0 0 0 0 182.06590680837689 -111.50535279055111 0 -111.50535279055111 55.909124642832467 0 0 0 0 123.09262288174068 -64.709059096221608 0 -64.709059096221608 29.923569835940725 0 0 0 0 139.98706336298346 -40.258577013179092 0 -40.258577013179092 14.713109462943976 0 0 0 0 18.376736139493005 38.014165466855957 0 38.014165466855957 30.295729642170045 0 0 0 0 46.383353809948858 -6.2765445656724523 0 -6.2765445656724523 21.800746713048284 0 0 0 0 118.65386141988711 -113.60709635764124 0 -113.60709635764124 50.403252539195819 0 0 0 0 112.22065878166177 -54.932349393247023 0 -54.932349393247023 49.131423116870792 0 0 0 0 113.39373049156529 -91.963410937504705 0 -91.963410937504705 119.67590000848941 0 0 0 0 141.27875777601366 -51.495453069973337 0 -51.495453069973337 157.16669834291497 0 0 0 0 86.00895462983317 -160.94612808628608 0 -160.94612808628608 251.99516521312853 0 0 0 0 155.40756776648777 -221.83529108786115 0 -221.83529108786115 200.9095744143151 0 0 0 0 118.73762542386612 -29.442355161742853 0 -29.442355161742853 33.005671179347701 0 0 0 0 -0.11735608367371242 0.2922456144242318 0 0.2922456144242318 2.1995190794997583 0 0 0 0 100.89677569544074 -162.09230998013072 0 -162.09230998013072 136.8205262699812 0 0 0 0 88.871083908936271 -151.88246748242227 0 -151.88246748242227 169.04711209857123 0 0 0 0 77.389352186532051 -186.88346757344061 0 -186.88346757344061 177.48037338145514 0 0 0 0 -57.000442256340193 -138.23978272421891 0 -138.23978272421891 266.76398446664462 0 0 0 0 -64.400550973633472 -14.567566244452109 0 -14.567566244452109 133.62270754086057 0 0 0 0 0.37757529955788982 1.5567157583754252 0 1.5567157583754252 4.3245158286041345 0 0 0 0 105.64751032616914 -98.010601725007291 0 -98.010601725007291 95.242121373721602 0 0 0 0 141.87435907878898 -73.551232658082881 0 -73.551232658082881 18.340628227731941 0 0 0 0 473.30746762168565 -118.03198669934818 0 -118.03198669934818 35.196556917828275 0 0 0 0 1.7514597902375186 -3.1095144958712098 0 -3.1095144958712098 6.9668114398077776 0 0 0 0 212.50344747732379 10.66803146778102 0 10.66803146778102 -26.285682263976923 0 0 0 0 313.49361452153244 -119.58342777798316 0 -119.58342777798316 -10.239615800481261 0 0 0 0 211.05786174205423 -206.43602586620273 0 -206.43602586620273 138.42562603453189 0 0 0 0 161.11697735376947 -186.23758215888392 0 -186.23758215888392 161.07355389833447 0 0 0 0 151.68825384831871 -236.71904545205871 0 -236.71904545205871 171.79226037288026 0 0 0 0 132.07932557521053 -45.323081023019313 0 -45.323081023019313 524.56129609169147 0 0 0 0 72.96585208750912 -190.40432994373805 0 -190.40432994373805 168.50010435106651 0 0 0 0 321.4753799927712 -356.38910739156472 0 -356.38910739156472 340.03637911626538 0 0 0 0 81.457692944313749 -475.45633523939887 0 -475.45633523939887 522.32948970146936 0 0 0 0 -211.81838698242973 -186.7689615094796 0 -186.7689615094796 -115.12194353537416 0 0 0 0 -312.46745679204469 255.82535476017802 0 255.82535476017802 342.59658532954927 0 0 0 0 -24.444988652452594 292.34012649190481 0 292.34012649190481 94.996776060763295 0 0 0 0 343.36919996337383 -40.501936688202477 0 -40.501936688202477 -136.63949059061997 0 0 0 0 34.356355159703526 344.53778266874906 0 344.53778266874906 81.346378724087117 0 0 0 0 1.8728793595073512 -221.25071657908666 0 -221.25071657908666 221.65106943754427 0 0 0 0 -99.508042737106734 22.389572998295989 0 22.389572998295989 -50.492453542115982 0 0 0 0 -4.6691557063556388 -1.778594588796615 0 -1.778594588796615 0.89135115584880431 0 0 0 0 -64.150774668654776 45.798458649935128 0 45.798458649935128 415.27089535468804 0 0 0 0 134.87576472359069 -197.13964263041362 0 -197.13964263041362 -496.48783933922641 0 0 0 0 -33.892612641160667 21.629393586205879 0 21.629393586205879 57.846446469712987 0 0 0 0 -12.350709691790883 -0.037376022233388539 0 -0.037376022233388539 -0.070672381451768906 0 0 0 0 -82.277667348487739 -17.156670183912865 0 -17.156670183912865 328.80226222211877 0 0 0 0 32.451822260678107 -45.536133043094168 0 -45.536133043094168 51.775220832432737 0 0 0 0 -129.05990350683714 -109.92261857461199 0 -109.92261857461199 147.00404160128528 0 0 0 0 -29.99952420534828 -68.672080768089927 0 -68.672080768089927 16.747654352072914 0 0 0 0 -56.942100100755852 -47.271897606103721 0 -47.271897606103721 59.427172661041368 0 0 0 0 -24.788025546301213 -7.6694689708065766 0 -7.6694689708065766 16.818707862934993 0 0 0 0 -39.519597606282332 -12.155785450229814 0 -12.155785450229814 44.19774883925129 0 0 0 0 -51.402215661933042 -159.40795428551246 0 -159.40795428551246 -121.99868483112368 0 0 0 0 -7.3437526841080398 -31.795768490321734 0 -31.795768490321734 53.298927389169876 0 0 0 0 -12.897830343958049 -20.082227399480757 0 -20.082227399480757 52.257990632471575 0 0 0 0 -16.542645102261304 -29.899598877445101 0 -29.899598877445101 27.444691986560429 0 0 0 0 6.628116802351343 -8.6903279232308535 0 -8.6903279232308535 12.45614280227618 0 0 0 0 -29.684527067438466 -46.3962184903462 0 -46.3962184903462 -20.31059418027553 0 0 0 0 -20.704089248498349 -2.7066133111158024 0 -2.7066133111158024 91.675057887540788 0 0 0 0 6.3354236616197426 -11.757562155659201 0 -11.757562155659201 23.216016770504112 0 0 0 0 -44.786716844017064 -87.224972594025303 0 -87.224972594025303 -59.52330672831522 0 0 0 0 -33.509087291589822 -37.60369396729584 0 -37.60369396729584 23.309093766914884 0 0 0 0 -12.295013554125035 -0.5875701779668816 0 -0.5875701779668816 18.898228560832649 0 0 0 0 44.495320788839308 -20.278532054523112 0 -20.278532054523112 -8.861231351558672 0 0 0 0 4.2516448208146329 -8.8109206253499224 0 -8.8109206253499224 16.858300180016464 0 0 0 0 -26.033012845942721 -41.844840416204988 0 -41.844840416204988 38.692256385425935 0 0 0 0 -47.407799320004415 -364.40024823272006 0 -364.40024823272006 178.32656048077178 0 0 0 0 0.93164431871905151 -2.9147825713420588 0 -2.9147825713420588 4.9542147098897047 0 0 0 0 -10.24475077095849 131.36054009787358 0 131.36054009787358 300.04659163998031 0 0 0 0 -105.04525698154066 -6.3408899823971296 0 -6.3408899823971296 -15.275353395554703 0 0 0 0 
</DataArray>
<DataArray type="Float64" Name="cross_section_updated" format="ascii">
1 1 1 1 1 0.011804746213188558 1 1 1 0.010817235977108781 1 1 1 1 1 1 0.0095398612067818574 1 1 1 0.0088560541714354981 1 1 1 1 1 1 1 1 1 0.010989308171800244 1 1 1 1 1 0.01078332643812285 1 1 1 1 0.015890196551357975 1 1 0.0073846269258996174 1 1 1 1 1 1 1 1 0.0091049620322257736 1 1 1 1 1 1 1 1 1 1 1 1 1 1 1 1 1 1 1 1 1 1 0.014091883107804097 1 1 1 1 1 0.010997763288222311 0.011567618362313551 1 1 1 1 1 1 1 1 1 1 0.011550198484943416 1 1 1 1 1 1 1 1 1 1 1 1 1 1 1 1 1 1 0.010650174753842685 1 1 1 1 1 1 0.010097308707757104 1 1 1 1 1 1 1 1 1 1 1 1 1 1 0.014458034513320138 1 1 1 1 1 1 0.008760802296030842 1 0.011788395082969801 1 1 1 1 1 1 0.01270215611364588 1 1 1 1 0.011139343571787369 1 1 1 1 1 1 1 1 1 1 0.013073284541958583 1 1 1 1 0.010045768741074301 1 1 1 1 1 1 1 1 1 1 0.012048435774302117 1 1 0.01272894987403401 1 1 1 1 1 1 1 1 1 1 1 1 0.010141181895306897 1 1 1 1 1 1 1 1 1 1 1 1 1 1 1 0.0066171952498138079 1 0.011062758157758158 1 1 0.010491987640754119 1 1 0.01112105008773924 1 0.0095122960622061499 1 1 0.011139229248233512 1 1 1 1 1 1 1 1 0.010605102947843788 1 1 1 1 1 0.010229608314769533 1 0.011493421393676635 0.010615879249059539 1 1 1 1 1 1 1 1 1 1 1 1 0.011646597517717953 1 0.010769055373100854 1 1 1 1 1 1 1 1 1 1 1 1 1 1 1 0.010505190236561907 1 1 1 1 0.011121287588936428 1 1 1 0.01078953002331374 1 1 0.0095247292716147212 1 1 1 1 1 0.0097237763515701393 1 1 1 1 1 1 0.010616097352374509 1 1 1 1 1 0.010052334356922743 1 1 1 1 1 1 1 1 1 1 1 1 0.010452663158552349 1 1 0.01111521240270631 1 1 1 1 1 1 1 1 1 1 0.010107353297860095 1 0.010055195053342096 1 1 1 1 1 1 1 0.010257855646320322 1 1 1 1 1 1 1 1 1 1 1 1 0.010063874057189085 1 0.010155033856329231 1 1 1 1 1 1 1 0.010346600375813978 1 1 0.010023465965187791 1 1 0.011065325275030898 1 1 1 1 1 0.01041178089155809 1 1 1 1 0.010328780798352163 1 1 1 0.0098129410314725662 1 0.0093555884839053669 1 1 1 1 1 1 1 1 1 1 1 1 1 1 1 1 1 1 1 0.011405295902152867 1 1 1 1 1 1 1 1 1 1 1 1 1 0.010201372222939181 1 1 1 1 1 0.010120743916650609 1 1 1 1 1 0.008892009043458016 1 0.011625302113925458 1 0.0098288938389774084 1 1 1 1 1 1 1 1 1 1 1 1 1 1 1 1 1 1 1 1 1 1 1 1 1 1 1 1 1 1 1 1 1 1 1 1 1 1 1 1 0.010072140276950138 1 1 1 0.010452793837342648 1 1 1 0.01005610742099616 1 0.010128247697946293 1 1 1 1 0.010435256510804151 1 1 0.01078185688661812 1 1 1 1 1 1 1 1 1 1 1 1 1 1 1 1 1 1 0.010942595039296506 1 1 0.0096559673557606081 1 1 0.0099189276296660408 1 1 1 1 1 1 1 1 0.010050125090222994 1 1 0.010008640722415058 1 1 1 1 1 1 1 1 1 1 1 1 1 1 1 1 0.0098917887918267989 1 1 1 1 1 1 0.010198920585755248 1 1 1 1 1 1 1 0.011300352843939121 1 1 1 0.010440995965669164 1 1 1 1 0.010136039509356876 1 1 1 0.010334701248465857 1 1 1 1 1 1 0.010061508390251502 1 1 1 1 1 1 1 1 1 1 0.010161859877341448 1 1 1 0.012086832733861368 1 1 1 1 1 1 1 1 1 1 1 1 0.0099102005421365692 1 1 1 1 1 0.0097907914184537804 1 1 1 1 1 1 1 1 1 0.010005074099916338 0.0096605177110738755 1 0.011068089905096072 1 1 1 1 1 1 1 0.0099870235347090611 1 1 1 0.0099134564941177651 1 0.011727533595274092 0.010348870614172173 1 1 1 0.011640743238831906 1 0.0086840960812082108 0.010205204310726761 1 1 1 1 0.010708633193786036 1 1 1 1 1 1 1 1 0.010135356965040716 1 1 1 0.010195749152008974 1 1 1 1 0.010763903154260535 1 1 0.010483236355417159 1 1 1 1 1 0.010155300414031867 1 1 1 1 1 1 1 1 1 1 1 1 1 1 1 1 1 1 1 1 1 1 0.011270106804097322 1 1 1 1 1 1 1 1 1 1 1 1 1 1 1 1 1 1 1 1 1 0.010616562420624514 1 1 1 1 1 1 1 1 1 1 1 1 1 1 1 1 0.0057248367012191076 1 1 1 0.0099480489622148244 1 1 1 0.0064297013777189285 1 1 1 1 1 0.010590167927984015 1 1 1 1 0.0073910335855677193 1 1 1 1 1 1 1 0.0087486198802911204 1 1 1 1 1 0.0077136274768743445 1 1 0.0089571315091165234 1 1 1 1 1 1 1 1 1 1 1 1 1 1 1 1 1 1 1 1 1 1 1 0.0091451008626655724 1 1 1 1 1 1 1 0.0089650075965832226 1 1 1 1 0.0073295128833556003 1 1 1 1 1 1 1 1 1 1 1 1 1 1 1 1 0.0062705612655956314 1 0.010830469347330469 1 1 1 1 1 1 1 1 1 1 1 1 1 1 1 1 0.0092785491488278637 0.010117554900886689 1 1 0.0099711169110089769 1 1 1 1 1 0.0082279646860201304 0.009419660975158152 1 0.010605252500935556 0.0091556949819793856 0.0090219571542422532 1 0.01022157815210745 1 1 1 1 1 0.010063575183893607 1 1 1 1 0.0088304351046544632 1 0.00973644048564078 1 0.0096779400513659058 0.0088022606319345144 1 1 0.0097267211255392637 1 0.0094831945408572239 1 1 0.0097999407386910355 1 1 1 1 1 0.0098335409479905177 1 1 1 0.010008557633930206 1 1 1 0.012006599438747595 1 1 1 1 1 1 1 0.010024881549223002 0.01010336714754204 1 0.010000517888614138 1 1 0.010347593895261345 0.00812154581577057 1 1 0.011137411033560318 1 0.01145007978284901 1 1 1 0.006497162153571082 1 1 0.011458208864150249 1 0.014612725086598943 0.0090685513417215532 0.011388802169091725 1 1 1 1 0.011161748729783656 1 1 1 1 1 1 0.007045804863339486 1 1 1 0.01282691162312459 1 1 0.010001316083286055 1 1 1 1 0.010003722279952163 1 1 1 1 1 1 1 1 1 1 1 0.0099759705977080799 1 1 1 1 1 0.0095616160963424863 1 1 1 1 1 1 0.012259928088231224 0.011619641372641007 1 1 1 0.010210841674793726 1 1 1 1 1 1 1 1 1 1 0.0057501201688576892 1 1 1 1 0.010097341793748108 0.010979878651877526 1 0.011067465319025797 1 1 0.0080856205063469678 0.0076044827701583096 1 1 1 1 1 1 0.012744785288212533 1 1 1 1 0.010043197413918091 1 0.013555623801511405 1 1 1 0.010933900261437106 1 1 1 1 1 1 1 1 1 1 1 1 1 0.0087582585743558906 1 1 1 1 1 1 1 1 1 1 1 1 1 1 1 1 1 1 1 1 1 0.0099182086975490007 1 1 1 1 1 1 1 1 0.012036873198802013 0.011074610768042127 1 1 1 1 1 1 1 1 1 1 1 1 1 1 1 1 1 1 1 0.010233910720551558 1 1 1 1 0.011580213204668599 1 1 0.0097452300285439646 1 1 1 1 1 1 1 1 1 1 1 1 1 1 0.013610910396538566 1 1 0.0071907072158086602 1 1 1 1 1 1 1 1 1 1 1 0.01034162797596566 1 1 1 1 0.010703761051362551 1 1 1 1 1 1 1 1 0.012630520717569727 0.011909235541728441 1 1 1 1 0.010859898136759494 1 1 1 1 0.012381672151084717 1 1 1 1 1 1 1 1 1 1 1 0.010121100187018471 1 1 1 1 1 1 0.010246569671410738 1 1 1 0.011622918704488245 1 1 1 1 1 1 1 1 1 1 0.0086613303179083508 0.0099617688625737826 1 0.010479583317119675 1 1 1 1 1 1 1 1 1 1 1 1 1 1 1 1 1 1 1 1 1 1 1 1 1 1 1 1 0.010219184026747014 1 1 1 1 1 0.010699259666702578 1 1 1 1 0.011632363878955092 1 1 1 1 1 1 0.0099832811184061669 1 1 1 1 1 1 1 0.010679759757524552 1 1 1 1 1 1 1 1 1 1 1 1 1 1 1 1 1 1 1 1 0.0093696997846386496 0.011344887475102112 1 1 1 1 1 1 1 1 1 1 1 1 0.0097482065650874652 1 1 1 1 1 1 1 1 1 1 1 1 1 1 1 1 1 1 1 1 1 1 1 0.0098284623761480689 1 1 1 1 0.01268783503477147 1 0.010152050567288025 0.009817819342892168 1 1 1 1 0.011375031315703834 1 1 0.011119049504879847 1 1 1 1 1 1 1 1 1 1 1 1 1 1 0.012968933206534744 1 1 0.012140303363044854 1 1 1 1 1 0.010833410082246798 1 1 1 1 1 1 1 1 1 1 1 1 1 1 1 1 1 1 1 1 1 1 1 0.0098583639721026555 1 1 1 1 1 1 1 1 1 1 1 1 1 1 1 1 1 0.0097628069999510028 1 0.009191111656932616 1 1 1 1 0.010346340754251187 1 1 1 1 1 1 1 0.009458569440408255 1 1 1 1 1 1 1 1 1 0.011152463631013482 1 0.0095324821177723944 1 1 0.0090287758337940036 0.011279735226174073 1 1 1 1 1 1 0.0096284686973311367 1 1 1 1 1 1 0.0091701596173975417 1 1 0.0077535133041532721 1 1 1 1 1 1 1 1 1 1 1 1 1 1 1 1 1 1 1 1 1 1 1 1 1 1 1 1 1 1 1 1 0.01021026397633892 1 1 1 1 0.011709127564178209 1 1 1 0.0095916217651352571 0.010734244191379886 1 1 1 1 1 1 1 1 1 1 1 1 0.0094644024255521667 1 1 1 1 1 1 1 1 1 1 1 1 1 1 0.0092841227291614262 1 1 1 0.01032061376917982 1 1 1 1 0.010973497492102377 1 1 1 1 1 1 1 1 1 1 1 1 1 1 1 1 0.010074599390817854 1 1 1 1 1 0.010115867236631059 1 0.011633685203194301 1 0.009833313481257884 1 1 0.010634038664615843 1 1 1 1 1 1 1 0.007777058710120844 1 0.010968763652009744 1 1 1 1 0.010745981352921291 1 1 1 1 0.008099995357951497 0.01000222946131008 1 1 1 0.011619693889487127 1 1 0.0083924544143575072 1 1 1 1 1 1 1 1 1 1 1 0.011426919227783657 1 0.0085932947148742306 1 1 1 0.0096265697767556491 0.010396904687432101 1 1 1 1 0.010111089218749559 1 1 1 1 1 1 1 1 1 1 1 0.010271740808255513 1 1 1 1 0.010232865926579675 1 1 1 1 1 1 1 1 1 1 1 1 1 0.011146696091771265 1 1 1 1 1 1 1 1 1 1 0.010469537424889236 1 1 1 0.013850309295255539 1 1 1 0.015274238326375134 1 1 0.010007735990018651 1 0.0070559615602488052 1 0.011811715688497733 1 1 1 0.010211381107034 1 1 1 1 0.010063086532695895 1 0.01232119795320746 1 1 1 1 0.012259088378449395 1 1 1 1 0.0089090919446113363 1 1 1 1 1 1 1 1 1 1 1 1 0.012868243624088831 1 1 1 0.010892744621900862 1 1 1 1 0.011825078562205523 1 1 0.010932333940304666 1 1 1 1 1 1 1 1 1 1 1 1 1 1 1 1 1 1 1 1 1 0.010514375191655231 1 1 1 1 1 1 1 1 1 1 1 1 1 1 1 1 1 1 1 1 1 1 1 1 1 1 1 1 1 1 1 1 1 0.0088833158725110783 1 1 1 1 1 1 1 1 1 1 1 1 1 1 0.010036575196403894 1 1 1 1 1 1 0.010082343937478203 1 1 1 0.010829957900368175 1 1 1 1 1 1 1 1 1 1 1 1 1 1 1 1 1 1 1 1 1 1 0.0045852473794030686 1 1 1 1 0.0060683120300770652 1 1 1 1 1 1 0.0071892785931816586 1 1 1 1 1 1 1 1 1 1 1 1 1 1 0.01223770851853999 1 1 1 1 1 1 1 1 1 0.016013089379140148 0.0064767065546146446 1 1 1 1 1 1 1 1 0.009161424840659245 1 1 1 1 0.010058462632563069 1 1 1 1 0.015901893165559226 1 0.017797342632639823 1 1 1 1 0.010497643888800749 1 1 1 1 1 1 1 1 1 1 1 1 1 1 1 1 1 0.011617238673097451 1 1 1 1 1 1 1 1 0.012111559936568693 0.012559581213117033 1 1 1 1 1 1 0.0099748614792332362 1 1 0.010001655551365824 1 1 0.011244995390512956 0.010898920342979896 0.010498953244468649 1 1 0.012758972443311551 0.010998627731683676 1 0.011265286947423382 0.012640147066824606 1 1 0.010036052916790463 1 1 1 1 0.015709728573259838 1 1 1 0.0094347235570178892 1 0.010096169893057508 1 1 1 1 1 1 1 0.0098063845915703531 1 1 1 0.0095411830964651449 1 1 0.0097912511054086254 1 1 1 1 1 1 1 1 0.010337630885342414 0.009665724260533708 1 1 1 1 1 0.010631357523764208 1 1 1 1 1 0.0093625903255289081 1 1 1 1 1 0.010115309763225252 1 1 1 1 0.0091954206922581962 1 1 1 1 1 0.015140892773046529 1 0.014354842667177948 1 1 1 1 1 0.01067715866688203 1 1 1 1 1 1 1 1 1 0.014734086260400327 0.014710645980972771 1 1 0.014790815517588029 1 0.014006385155649441 1 1 1 1 1 1 1 1 1 1 0.0098607058109944981 1 1 0.017186881139276893 1 1 1 0.012730093181471117 1 1 1 1 1 1 1 1 1 1 1 1 1 1 1 1 1 1 1 1 1 0.01024123974822698 1 0.010613724046590299 1 1 1 1 1 1 1 1 1 1 0.010386912811582561 0.0096001625098520327 1 1 1 1 1 0.009990292995933809 1 1 1 1 1 1 1 1 1 0.010852558847366339 0.010153549459611994 1 1 1 1 0.0099990630892786425 1 1 1 1 1 0.0099961650386358458 1 1 1 1 1 1 0.011798504562530921 1 0.011475535596909952 0.008616195773662674 1 1 1 1 1 1 1 1 1 1 1 1 1 0.010627523929901829 1 1 0.010018869993386987 1 1 0.0094382678773017297 1 1 0.0092283434583355049 1 1 1 1 1 1 1 1 1 0.0089545469471683081 1 1 0.0095770334133222796 1 1 1 1 0.0099200961556131523 1 0.0099182876754437769 1 1 1 1 1 1 1 1 0.0099926319625189743 1 1 0.010478138453056918 1 1 1 1 1 1 1 1 1 1 1 0.010470396946672443 1 1 1 1 0.0097297464899094022 1 1 1 0.010361674359255002 1 1 1 1 0.011088956376167053 1 1 1 1 1 1 1 1 1 0.010099916186720855 1 1 1 0.010273751290823072 1 0.010418521247449635 1 1 0.01070225870841226 1 1 1 1 1 1 1 1 1 1 1 0.010061181713734034 1 1 1 1 1 1 1 1 1 1 0.0099043408831523908 1 1 1 1 1 1 1 1 0.010229791899500854 1 1 1 0.010460222989533668 1 1 0.010838752534975096 1 0.011493323715313204 1 0.010008969016140941 1 1 1 0.01232666529642654 1 1 1 1 1 1 1 1 1 1 0.010027125061564345 1 1 1 1 0.014041777114271077 1 0.01159803172188136 1 1 1 1 1 1 1 0.013208420896369269 1 1 1 1 1 1 1 0.0099963802435714625 1 1 1 1 0.0099983449644092965 1 1 1 1 1 1 1 1 1 1 1 1 1 1 1 0.011338958346040491 1 1 0.0098351225181555792 1 0.011801624989119521 1 1 1 0.0099839561778201549 1 1 0.010010375765628535 1 1 1 0.009377100747712884 0.010302292213794841 0.0095949175869190252 1 1 0.0084188127157144039 0.010350696898038731 1 1 0.0073353528224701101 1 0.0090072564512689544 1 1 1 0.0097924826792434826 1 0.0098339022366551246 1 1 0.0094184172871660098 1 1 0.0095034320552726936 1 0.0097061972440318639 1 1 1 0.0094821339960150033 1 0.010835842741365027 1 1 0.0092747945687140475 0.011712382259922764 1 1 1 0.010038288507719182 1 0.0098521184245381754 1 1 0.0084156275327094878 0.01035858748979614 0.01133152822584165 1 1 1 1 1 1 1 0.0087002380285239218 0.010533304199438105 1 0.010608085041243059 1 0.0091686968478730015 0.010400498895513362 1 0.0098995726960329072 1 1 0.0089991478438569 1 1 1 1 1 0.0095746893279438638 1 1 0.0097764711439039375 1 1 1 1 1 1 1 1 1 1 1 1 1 1 1 0.009950724111313182 1 1 1 1 1 1 1 1 1 1 1 1 1 1 1 1 1 1 1 1 1 1 1 1 1 1 1 1 1 1 1 1 1 1 1 1 1 1 1 1 1 1 1 1 0.0099961369308428534 0.009030339450688589 1 1 1 0.0088682081312226341 1 1 1 1 1 1 1 1 0.009057224930107655 1 1 1 1 1 0.0091945978797030713 1 1 1 1 1 1 1 1 1 1 0.0092877869483100773 1 0.0094133162636338766 1 1 1 0.0095820148122735035 1 1 1 0.0096865487989091139 1 1 1 0.010028439789061872 1 0.0097450397695118089 1 1 1 1 1 1 1 1 1 1 1 1 1 1 1 1 1 1 0.013214750328009528 1 1 1 1 1 1 1 0.013373625864791648 1 1 0.010139885177143931 0.013395641377800454 1 1 1 1 0.013550549403404621 1 1 1 1 1 1 0.010061618667335993 1 1 0.013286853270695015 1 1 1 1 1 1 1 0.01134784387891857 1 1 1 1 1 1 1 1 1 1 1 1 0.01055515922061725 1 1 1 0.011332317217717712 1 1 1 1 1 1 0.010477037552521809 1 1 1 1 1 1 1 1 1 1 1 1 1 1 1 1 1 0.013310519545983716 0.012223405768307351 1 0.012666636432577691 1 0.011886873197545627 1 1 1 1 1 1 1 1 0.0096126546623577589 1 1 1 0.010696383148030356 0.0087837654889813214 1 0.010608082909843204 1 0.011444926515100522 1 0.011588568145764607 1 1 1 1 0.011325335398113499 1 1 1 0.01204670896089141 1 0.010001692050556498 0.010086676429456187 1 1 0.012042421123346195 1 1 1 0.011356710813286611 0.011659263109217416 1 0.01169137006786514 1 1 0.0095527062743538827 0.011234081210113166 1 1 0.0098125478191861959 0.0093582559931668814 1 1 1 1 1 1 1 0.0099281885402656318 1 0.0099656325527656756 1 1 1 1 1 1 0.010165227728486246 1 1 1 1 1 1 1 1 1 1 1 1 1 1 1 1 1 0.012806125084509509 1 0.010176264341446285 0.01170579425694436 1 1 0.011905006986811344 1 1 1 1 1 1 1 1 1 1 1 1 1 1 1 1 1 1 1 1 1 0.0089511014970166513 1 1 0.0099821867822017241 1 0.0094513591867628286 1 1 1 0.01007014662399367 1 1 1 1 1 1 1 1 0.010119086504852886 1 1 0.009651469344867181 0.0091363822323625235 1 1 0.0084442473025209928 1 1 1 1 1 1 0.0095256762318911212 1 1 1 1 1 0.0089470953020116505 1 1 1 1 1 0.0099415611945143593 0.0085686345852974393 1 0.0099479521288264074 0.0087448388768703207 1 0.0080613660224509633 1 0.010108817450471408 0.0090383045303254993 1 1 0.0099509464565767959 0.0091339573201474501 0.01005006724283633 1 1 1 1 1 1 1 1 0.010020028929314129 1 1 1 1 0.0099888258450914497 1 0.0079715057008624985 1 1 0.0085134967388983927 1 1 0.0084580687343719738 1 1 1 1 1 1 1 1 1 1 1 1 0.0086276736121082519 0.011262503431706981 1 1 1 0.010440994326769662 1 1 1 1 1 1 1 1 1 1 1 1 1 0.010038014514023676 1 1 1 1 1 1 0.0098477705690864156 1 1 1 1 1 1 0.0095719513869356992 1 1 0.0093363865107667504 1 1 1 1 1 1 1 0.0077878423740388204 1 1 1 0.0077563814947537741 0.0082075749074656153 1 1 0.0099970202559442941 1 1 1 1 1 1 1 1 1 1 1 1 1 1 1 1 1 1 1 1 1 1 0.0083638010483678051 1 0.0078673656078755358 1 1 0.0097435691100234562 1 1 0.0081217482161292237 1 1 1 1 0.0079034238821244357 1 1 0.011039113159147714 1 1 1 1 0.010007136583290634 0.009863422026427154 1 1 0.0099518311230158349 1 1 1 1 1 0.0090934584096045122 1 1 1 0.0080379991450621399 1 1 0.0093076823381226005 1 1 0.0090441168345045866 1 1 0.011278588193005474 1 1 1 1 1 1 1 1 1 1 1 1 1 1 1 1 1 1 0.0095952280889522509 1 1 1 1 1 1 1 1 1 0.0099993202994182635 1 0.009066500527707317 1 1 1 1 1 1 1 1 1 1 1 1 1 0.0099992552884851128 1 1 0.0074325526889587289 1 0.0076296969159929534 1 1 1 1 1 1 0.010947275928193959 1 1 1 1 1 0.011050938320397118 1 0.0098428706575826308 1 0.0098539978222912123 1 1 1 1 1 1 1 1 1 0.010077380603013325 1 1 1 1 1 1 1 1 1 1 1 1 1 1 1 1 1 1 1 1 1 1 1 1 1 1 0.0096624367204165111 1 1 1 1 1 1 1 1 1 1 0.0098708142782232538 1 1 1 0.011255593091398761 1 1 1 1 1 1 1 1 1 0.0096034352612295593 1 1 1 0.012397292770037987 1 0.0099874710185067737 1 1 1 1 1 1 1 1 1 1 0.009692001465776038 0.0098835625676507426 1 1 1 1 0.010006166649122931 1 1 0.010026860128263064 1 1 1 1 1 0.0094681772821262854 0.010003808468344042 1 1 1 1 0.0099843613165535722 1 1 0.0052192427254222195 1 1 1 1 1 1 1 1 1 1 1 1 1 1 1 1 1 0.0093648065368468602 1 0.010018534708037515 1 0.0079051600534400888 0.010018782631645629 1 1 1 1 0.0049719385404121685 1 1 1 1 1 1 0.0094695463247904954 1 1 1 1 1 1 1 1 0.0096457240138902167 1 1 0.0083408809280388005 1 0.0094726455828969304 1 1 1 1 1 1 1 1 1 1 1 1 1 1 1 1 1 1 1 1 1 0.0088744011039927767 1 1 0.0093099459851484004 0.01038977615842899 1 1 1 1 0.0080366782773062216 1 1 1 1 1 0.010440171321845155 1 1 0.0096803645942234728 1 1 0.010049652526703525 1 0.01029894413736958 1 1 1 1 1 1 1 1 0.010019316098378707 1 1 1 1 1 1 0.010110613166124695 0.0087754069449093863 1 1 1 1 0.0098905404493914093 1 1 0.0096822509992254557 1 1 0.0096862117927323764 1 1 1 1 1 1 1 1 1 1 1 1 1 1 1 1 1 1 1 0.0099046107065915573 1 1 1 1 1 1 1 1 1 1 1 0.0097122042853624302 0.010399318678432135 1 1 1 1 1 1 0.010153078414580494 1 1 1 1 1 1 1 1 1 1 1 0.0088257631893453349 1 1 0.0085563578069554058 1 1 1 1 1 1 1 1 0.0097242451292862513 1 1 0.010048969540452648 1 1 1 1 1 0.0099038766221654605 1 0.0094999070353557862 1 1 0.009224327973839137 1 0.0099740421398502727 1 1 0.0099932248836458702 1 1 1 1 1 1 1 1 1 1 1 1 1 1 0.0099709983449349782 0.010020626198056284 1 1 1 1 0.0084442448675015776 1 1 1 1 1 1 1 1 1 0.0087614278919950425 1 1 1 1 1 0.0095334783386176458 1 1 1 1 1 1 1 1 1 1 0.0096347871412071785 1 1 1 1 1 0.009614858202204847 1 1 1 0.0096022405786001016 1 1 1 1 1 1 1 1 1 1 1 1 1 0.009999622101888787 0.010003264397659853 1 1 1 1 1 1 1 1 1 0.0094484943469731256 1 0.010219739581058785 1 1 1 0.009989127306445772 1 1 1 0.0096835798676076605 1 1 1 1 1 1 1 0.0088662928857168744 0.010144075979367326 1 1 1 1 0.0099146824942396589 1 1 0.0078359834860305434 1 1 1 1 1 0.0099824626713250816 1 1 1 1 1 1 1 0.0091656939250937056 1 1 1 1 0.0096799932285796027 1 1 1 1 0.0074355557620746759 1 0.0098778774826308591 1 0.011708784562904504 1 0.0083379731439786383 1 1 0.008901086512610604 0.0094854228755967603 1 1 1 0.011266529402207001 1 1 1 0.010825611498453359 1 1 1 1 1 1 1 1 1 1 0.006729936610363238 1 1 1 1 0.010078894794634625 1 1 1 0.0057100782203261275 1 1 1 1 1 0.0053091106018624372 1 1 1 1 1 1 1 1 1 1 1 1 1 1 1 1 1 1 1 0.0111877957680621 1 1 1 1 1 1 1 1 1 1 1 1 1 1 1 1 1 1 1 1 1 1 1 1 1 1 1 1 1 0.0097104843752434909 1 1 1 0.0091896361435823814 1 1 1 0.0099127708943670626 1 0.010604409536591903 1 1 1 0.0099959614516267788 0.0095431363383373432 1 1 1 0.0092325028584540822 1 0.008804944173965365 1 1 0.0095579691600132868 0.0099154079460436074 1 0.0088428466696669657 1 1 1 1 0.0097055699537713074 1 1 1 0.0096157468979302645 0.010964906247544131 1 1 1 1 0.010086615122443909 1 0.0096249140267003503 1 1 1 1 0.0098694349713304118 1 1 1 1 0.0073269740251991136 1 1 1 1 1 1 1 0.0084301585273646312 1 1 1 0.010043959243251552 1 1 1 1 1 1 1 1 1 1 1 1 1 1 1 1 0.0087789891830804389 1 1 1 0.010138965921335105 1 1 1 0.010172866526911642 1 1 1 0.005509391912036107 1 1 1 0.0072349667802822336 1 1 1 0.010003429417470348 1 0.010442557982427552 1 0.0093618122490792873 1 1 0.0096598611546867691 1 1 0.0092808681313672863 1 1 0.010284825749064681 0.0099159102453015985 1 1 0.0073211917459357952 1 1 1 0.007393068256616538 1 0.011359396728387825 0.0067642868314931976 1 0.0077159658795141481 1 1 1 1 0.0084671658110951273 0.010002153588509061 1 1 1 1 0.0087457882787538091 1 1 1 0.0089722350074246549 1 1 0.011545807951585323 1 0.01098802163652237 1 1 1 1 0.0080146713054121844 0.010398898841004225 1 1 1 1 1 1 1 1 1 1 1 0.011502342817422314 0.0099983544454013452 1 1 0.0094640555965073946 0.0081800276074084806 0.010643264309149976 1 1 0.0099844103123326571 1 1 1 1 0.01087911818098182 1 0.010036148269616218 1 1 1 1 1 0.010105487475572484 1 1 1 0.010479847603912035 1 1 1 1 0.0089862475165807913 0.0067249370916995215 1 1 0.0099458682458538391 0.0085096177624329455 1 1 1 1 1 1 1 1 1 1 1 1 1 1 1 1 1 1 1 1 1 1 1 1 1 1 1 1 1 1 1 1 1 1 1 1 1 1 1 1 1 1 1 1 1 1 1 1 1 1 0.010026532293873798 1 1 1 1 1 1 0.0084762204421047274 0.010011441320796226 1 0.010089725374092801 1 1 1 1 0.0075863462016044518 1 1 0.0091938929624706175 1 1 1 1 1 1 1 1 1 1 1 1 1 1 0.010181557481412388 1 1 1 1 1 1 0.01018890998414514 1 1 1 1 0.010130957262084702 1 1 1 1 1 1 1 1 1 1 1 1 1 1 1 1 1 1 1 1 1 1 1 1 1 1 1 1 1 1 1 1 1 1 1 1 1 1 1 1 1 0.0098092026380742822 1 1 1 0.0098573252715847479 1 1 1 1 1 1 1 1 1 1 1 1 1 1 1 1 1 1 1 0.010049337082009458 1 1 1 1 1 0.010353827537882917 1 1 0.0099985773450982779 0.010003736051525212 1 1 1 1 1 1 0.010044709964717317 1 1 1 1 1 1 1 1 1 0.011481084080871066 1 1 1 1 1 0.010004706572078061 1 1 1 1 1 0.010803771996506352 0.011124362264633612 1 1 1 0.0097528207657262469 1 1 1 1 1 1 0.012340250813515235 1 0.010009572387197904 1 1 1 1 1 1 1 0.010837433458970619 0.011895756155880293 1 1 1 1 1 0.010048827628682901 0.013531911628026923 0.0093651695998258361 1 1 1 0.011191930075926563 1 1 0.0090635791258745282 1 0.0099705244750019854 1 1 1 0.0099936605866317828 1 1 1 1 0.010581889311214555 0.011591928414686981 1 1 1 1 1 1 1 1 1 1 1 1 1 1 1 0.010212040286344799 1 1 0.010662015408333458 1 1 1 1 1 1 1 1 1 1 0.0089085522494253312 1 1 0.010062884121992473 1 1 1 1 0.0099043074420895501 1 1 1 0.0096483944151063063 1 1 1 0.0096784329387891652 1 1 1 1 1 1 1 1 1 1 1 1 0.012114205228693496 1 1 1 1 1 1 0.011633205774434299 1 1 1 1 1 1 1 1 1 1 0.0076637437534871448 1 1 1 1 1 0.0067790031432608221 1 1 1 0.011901223601638394 1 1 1 0.010335207204596127 1 0.0093507679301553428 1 0.011382832948774723 1 1 1 1 1 0.010333570357268796 0.009833568964960784 1 1 1 1 1 1 1 1 1 1 1 1 1 1 1 1 1 1 1 1 1 1 0.011449485927368913 0.012713006602093891 1 1 1 0.010105719329952944 1 0.012390757892553993 1 1 1 0.01308728176868724 1 1 1 1 0.013003261075779704 1 1 1 1 1 1 1 1 1 0.012972939476652148 1 0.012156186855391594 1 1 0.011469273412449155 1 1 1 1 1 1 1 1 1 0.007318314801892583 0.013245025447967015 1 1 1 1 1 1 0.0099830531994011956 0.0099427791824079296 1 1 1 1 1 1 1 1 1 1 1 1 1 1 1 0.0088067048252106084 1 1 0.0079597120309753289 1 1 1 1 1 1 1 1 1 1 0.0079869876233896707 0.0079102083315354503 1 1 1 1 1 0.0086879795291575513 1 1 0.0074307025888454663 1 1 1 0.0049769345385495441 0.013082961005158995 0.0048937681681587297 1 0.0073993567401433348 1 1 1 1 0.0099437490903408615 1 0.0096510630120307632 1 1 1 0.013006928242377815 1 1 0.0080206369437169339 1 0.014041477294378595 1 0.007945576108871772 1 1 1 1 0.011765000577351029 0.0088875676141302873 1 1 0.014883152096348124 1 1 1 0.0080119797709328634 0.012807334600704332 1 1 1 0.01042367939448588 1 1 1 1 0.010825945078062442 1 1 1 1 0.011193717279677041 1 1 1 0.012814249249213512 1 1 0.013426915188361529 1 1 1 1 1 1 1 1 1 0.0089989528123586293 1 1 0.010306431911696161 1 1 1 1 1 0.015075138721125161 1 1 1 1 0.010247941394743672 1 1 0.01010841279808833 1 1 1 0.015912132838121134 1 1 1 1 1 1 0.0097568225966547812 1 1 1 1 1 1 1 1 1 1 1 1 1 0.01617080406693212 1 1 1 1 1 1 1 1 1 1 1 1 1 1 1 1 1 1 1 1 0.010188905238612461 1 1 1 1 1 1 0.012093935256524637 1 1 1 1 1 1 0.010424217891391214 1 1 0.016266164790912127 1 1 0.01194851404430535 0.011301658005901716 1 1 1 1 1 1 0.016973225668664202 1 1 0.010256695369767038 1 1 1 0.010254408974685278 1 1 1 1 0.013630958259135465 1 1 1 0.0070312635159982175 1 0.018098403639987784 1 1 1 1 1 1 1 0.010037736958720376 0.016032696559369144 1 0.0092647158959712692 1 0.010177455911343135 1 1 1 0.0096575498475319384 1 1 1 1 0.01042014625205879 1 1 0.010468151252107774 1 0.013851042650501879 0.0057793456551365439 1 1 0.0099838142501993705 1 1 0.013533238858422298 1 0.0098463049861718822 1 1 0.010797201545051241 1 0.01294228772716755 1 1 0.0099981218472077592 1 0.0099992089284910539 1 1 1 1 1 1 1 1 1 1 0.0098616156272868238 0.010143870041186389 1 1 1 1 1 0.0099455443633935294 1 1 1 0.0099768237064991674 1 1 1 1 1 1 1 1 1 1 1 1 1 1 1 0.010155787796842161 1 1 1 1 1 1 1 1 1 1 1 1 1 1 1 1 1 1 0.010505568809640264 1 1 0.0098756827127206882 1 1 1 0.010093880055735568 1 0.0096054199312352491 1 1 1 1 1 1 0.0065128410073240954 1 0.0099888094384173957 1 0.010128937020624691 1 1 1 1 1 0.01047216564580087 1 1 1 1 1 1 1 1 1 1 1 1 0.010149198657901882 1 1 0.012259715581673986 1 1 1 0.006439461957230129 0.010496335775151784 1 1 1 1 1 0.0068886830569927747 1 1 1 1 1 1 1 1 0.0092937943810290809 1 1 1 1 1 1 0.0083053766802206677 1 1 1 1 1 1 1 1 0.007748590057674626 1 1 1 0.00963538037161666 1 0.01013246170558817 1 1 1 1 1 1 1 1 1 1 1 1 1 1 1 1 1 1 0.0098975397149640709 1 1 1 1 1 1 1 0.010571799516579588 1 1 1 0.010389618343834979 1 1 1 1 1 1 1 1 1 1 1 1 0.0097413924347885955 1 1 1 1 1 1 0.010845431374000205 0.0097143414089144314 1 1 1 0.0092612560807025721 1 1 1 1 1 1 1 1 1 0.0098884625848886416 1 1 1 1 1 1 1 1 0.0089474792713586764 1 1 1 0.0093022818447928736 1 1 1 1 0.0098122583994878169 1 1 1 1 1 1 1 1 1 0.009314232636273314 1 1 1 1 1 1 1 1 1 1 1 1 1 0.0096934042376086941 1 1 1 1 1 1 1 1 1 1 0.0083740572603584612 1 1 1 0.009651597931654014 1 1 1 1 1 0.0099105293450692765 1 0.010190281230268093 1 1 1 0.009814412341152913 1 1 1 1 1 1 1 1 1 0.010474719005500484 1 1 1 1 1 1 1 1 1 1 1 1 1 1 1 1 1 1 1 1 1 1 1 1 1 1 1 1 1 1 1 0.010710189421971918 1 1 1 1 1 1 1 1 1 1 1 1 1 1 1 1 1 1 1 1 1 1 1 1 1 1 1 1 1 1 1 1 1 1 1 1 1 0.007904310343045437 1 1 1 1 1 1 1 1 1 1 1 1 1 1 1 1 1 1 1 1 1 0.012328873415215944 1 0.0063085472046793458 1 1 1 1 1 1 1 1 1 1 1 1 0.0094399765029448447 1 0.0098880242990133926 1 1 1 0.0055787155114596712 0.0083246656220507358 1 1 1 1 1 1 1 1 1 1 1 1 1 0.0066430242594632972 1 1 0.0094683193263046441 0.0098217489552102025 1 1 1 1 1 1 0.010134842317727159 0.010209828548026326 0.0052029977611675301 1 0.0098243663071946891 1 1 1 1 1 1 1 1 1 1 1 1 1 1 1 1 1 1 1 1 1 1 1 1 1 1 1 1 1 0.0087418891074399676 0.0094150103934874871 1 1 1 1 1 1 1 1 1 1 1 1 0.010066801823809025 1 1 0.010720133385499386 1 1 1 1 1 0.012003633674548824 1 0.011020952059609315 0.0070076781343524639 1 0.0099781674871239484 1 1 1 1 1 0.0046053588089565427 0.0067671576083879687 1 1 0.0063969230792430571 1 1 1 1 1 1 0.0071676238190188585 0.0058390677185622495 1 0.0093129575002555039 1 1 1 1 1 1 1 1 1 1 1 1 1 0.010275799643279526 1 1 1 1 1 1 1 1 1 1 1 1 1 1 1 1 1 0.010014081990873849 1 1 1 1 1 1 1 1 0.0099765305262162103 1 1 1 1 0.0099075472670693172 1 1 0.0095087196284765613 1 0.01125215400606493 1 0.0082022352192642079 1 1 1 1 1 0.010391729942149253 1 1 1 1 1 1 1 1 1 1 0.0098152914397760631 1 1 1 1 1 1 1 1 1 1 1 1 1 1 1 1 1 1 1 1 1 1 1 1 0.0064710606118692799 1 0.0061134781505445285 1 1 1 1 0.0099961684621865041 1 0.010637985068582927 1 1 1 0.0033239218568105926 1 1 1 1 0.0047261215829948154 1 1 0.0095999128896383425 1 1 1 1 1 1 1 1 1 0.010121507319472235 0.002015739020370156 1 1 1 1 1 1 0.0098646285305148598 1 1 1 0.012488794087195904 1 1 0.0087675025716352425 1 1 1 1 1 1 0.010977998755707399 1 1 1 1 1 1 0.012367074503167859 1 0.00017225589740906466 1 1 1 0.0093576796831755897 1 1 1 1 1 1 0.0098576455543629097 1 0.010009720884083546 1 1 1 1 0.0026428069219398883 1 1 1 1 1 1 1 1 1 1 1 1 0.010299028501017424 1 1 1 1 1 0.010343340235011014 1 1 1 1 1 1 1 0.0081604584982872264 1 0.011166351069611169 1 1 1 0.0082419201029742296 0.01116236912644749 1 1 1 1 1 1 1 0.0093517785415093094 1 1 1 1 1 1 1 0.0089138326464051447 1 1 1 1 0.0095358261245814847 1 1 1 1 1 1 1 1 1 1 1 1 1 1 1 1 1 0.012778852473718471 1 1 1 1 0.013022184064478384 1 1 1 1 1 1 0.010243605846426694 1 1 1 1 1 1 1 1 1 0.010013439408287722 1 0.0099931587039139656 1 0.010487934278093417 1 1 1 1 0.012895821648605199 1 1 0.010002636343515257 1 1 0.010022878170348339 1 1 0.0099989039532006607 1 1 1 1 0.0097044190730693081 1 0.0099903073557115491 1 1 1 0.010041530586260755 0.010359029561523767 1 1 1 1 1 0.0094934845233651706 1 0.0091148259565663661 1 1 0.0099837745521746055 1 1 0.0081894911396898588 1 1 1 1 0.0085628967529750161 1 1 1 1 1 0.010000183778045162 1 1 1 1 1 0.0073427657871795102 1 1 0.0078138928552659737 1 1 1 1 1 1 1 1 0.0099466936168597503 1 1 1 0.0098241609123762928 1 1 1 0.0095230384080996315 1 1 1 1 1 1 1 1 1 1 1 1 1 1 1 1 1 1 1 1 1 1 1 0.0099477603443287408 1 1 1 1 1 0.0099509890462189526 1 1 1 1 1 1 1 1 1 1 1 0.010038278121216765 0.0099917540060359307 1 1 0.0099114359287866324 1 0.010063864940407374 1 1 1 0.0099796105853393741 1 0.0099967495427052255 1 0.01060366236214119 1 1 0.0098453643428111793 1 1 1 1 1 0.0090950454144724125 1 1 1 1 1 1 0.010466664281121162 1 1 1 0.0088840080204208235 1 1 1 0.009610975064370782 1 1 1 1 1 1 1 1 1 1 1 1 1 1 1 1 1 1 1 0.0099671041498794553 1 1 0.009714498337293374 1 0.010070785119400167 1 0.010491234231308873 1 1 1 1 1 1 1 1 0.0099461168820804517 1 1 1 0.0098034800888879906 1 1 1 1 1 1 0.010592638603086776 1 1 0.0092809304461633213 1 1 1 1 0.010517654015455936 1 1 1 1 1 1 1 0.010363920666481553 1 1 1 1 1 1 1 1 1 1 1 0.010371681625192041 0.0084463199656637615 1 0.0092210649692832606 1 1 1 1 1 1 1 1 1 1 1 1 1 1 1 1 1 1 1 1 1 1 1 1 1 1 1 1 1 1 1 1 1 1 1 1 1 1 1 0.009759059272313084 1 1 1 1 1 1 1 1 0.01119167060565939 1 1 1 1 1 1 1 1 1 1 1 1 1 0.010637575785807136 1 1 1 1 1 1 1 0.011247099349251888 1 1 1 1 1 0.011459622197986069 1 1 1 0.0098160104320073119 1 1 1 1 1 0.0097034559618256657 0.0099910033489403541 1 1 0.01202094026694505 1 1 1 0.013216040870861463 1 0.010751516744226131 1 1 1 1 1 1 0.010485052510110211 1 1 1 1 1 1 1 0.0099718226818505881 1 1 1 1 1 1 1 1 1 1 1 1 0.0099636166494315725 1 0.012354273231998074 0.010488072772850174 1 1 1 1 0.012176416963575387 1 1 1 0.0084947821345520286 0.011428083133228606 1 0.010112282393258723 0.0090160474682911187 1 1 1 1 1 0.010116629172550745 0.011741191749881854 1 1 1 1 1 0.01016913459154835 1 1 1 1 0.011690441281759242 1 1 0.0081616482767151114 1 0.0099489552229824474 1 1 1 1 1 1 1 0.011333438029271803 1 1 0.0097880098750219042 1 0.010072175382648605 1 1 1 0.0095089613651124331 0.010410409360382089 1 1 0.0095925229087292872 1 0.01250532386467929 0.011892436878511953 1 1 1 1 1 1 0.008281025852731827 0.009966873945266453 0.0095173711380119614 1 1 1 1 1 0.010167060870468923 0.010236845168244756 1 1 1 1 1 1 0.0099878379060053535 1 1 1 1 0.0076428779962888745 1 1 1 1 0.0070330130925342106 1 1 0.010074875338135576 1 1 1 1 1 1 1 1 1 1 1 1 1 0.008919411117494818 1 0.0098961001355075719 0.0089487346826441147 1 1 1 1 1 0.012258513656934939 1 0.011647441490006738 1 1 1 1 1 1 0.0097377145842222623 1 1 1 1 1 0.0088458506728252666 1 1 0.009203506589011947 1 1 0.0099921238131788284 1 1 1 1 1 1 1 1 1 1 1 0.010608493547671842 1 1 1 1 1 1 1 1 1 1 1 0.010476870182730833 1 1 1 1 0.0083779090819067516 0.011360239424657834 1 1 1 1 1 1 0.0086893721947900546 1 1 1 0.011009475359999622 1 1 1 1 1 1 0.010368859788488987 1 1 1 1 1 1 1 1 1 1 1 1 1 1 1 1 0.0082151984811753929 1 1 1 0.009453629034539111 1 1 1 1 1 1 1 1 1 1 1 1 1 1 1 1 1 0.0094338450923946767 1 1 1 1 1 1 1 0.0067197316487323487 1 1 1 1 1 1 0.0049683584248559256 0.015817616132588423 1 1 0.016459594687501213 1 0.010791286491919367 1 1 1 1 1 1 1 1 0.008516159069631421 1 1 1 1 1 1 1 1 1 1 1 1 0.01649322293233698 0.01228412773193739 0.0068657670793574755 1 1 1 1 1 1 1 1 1 1 1 1 1 1 1 1 1 1 1 1 1 1 1 1 1 1 1 1 1 1 1 1 1 1 1 1 1 1 1 1 1 1 1 1 1 1 1 1 1 1 1 1 1 1 1 1 1 1 1 1 1 1 1 1 0.0096263054413169187 0.0099054516774908265 1 1 1 0.0099776051092968047 1 0.010130818235388056 1 1 1 1 1 1 1 1 1 1 1 0.0094711604154097198 1 1 1 1 1 1 1 1 1 1 0.012412984467423234 1 0.010427409132118287 1 1 0.01005826956411964 1 1 1 0.014721798019172047 1 1 1 0.015346789959631752 1 1 1 1 0.010037040639334307 1 1 1 1 1 1 1 1 1 1 1 1 1 1 1 1 1 1 1 1 1 1 1 1 1 1 1 1 1 1 1 1 1 1 0.010385318649499244 0.010763559044434054 1 1 1 1 1 1 1 1 1 1 1 1 1 1 0.0098685713311330667 1 1 1 1 1 1 1 1 1 0.010139991489112439 1 1 0.011486480038314765 1 1 1 1 1 1 0.009805260394841208 1 0.0099366890637081554 1 1 0.010290859411937759 1 1 1 1 0.01102770174299042 0.010693375432851879 1 1 1 1 1 1 0.013444340127358931 1 1 1 0.0099879972706974993 1 0.010013505576589431 1 0.01037279620367185 0.011452578977458711 1 1 1 1 1 0.012059182848708622 1 1 1 1 1 1 0.01265529869300207 1 1 1 0.01018792942729449 1 0.010316682357097122 1 1 0.010414395221368297 1 1 0.010950666859207633 1 0.0098045056608835838 1 1 1 1 1 1 1 1 0.010390456083732048 1 1 1 1 1 1 1 1 1 1 1 1 1 1 1 1 1 1 1 1 1 1 1 1 1 1 1 1 1 1 1 1 1 1 1 1 1 0.011094514252951319 1 1 1 1 1 1 1 1 1 1 1 1 1 1 1 0.0099615970719602129 1 1 1 1 1 1 1 1 1 1 1 1 1 1 1 1 1 1 1 1 1 1 1 1 1 1 1 1 1 1 1 1 1 1 1 1 1 1 1 1 1 1 1 0.011703843088609861 1 1 1 1 1 1 1 1 1 1 1 0.0099757149433341557 1 1 1 0.011794691396949112 1 0.0097513745755436754 1 1 1 1 1 1 1 1 1 1 1 1 1 1 1 1 1 1 1 1 1 1 1 1 1 1 1 1 1 1 0.010734748218882796 1 1 1 1 1 1 1 0.010466881005940771 1 1 1 1 1 1 0.010088640611005973 1 1 1 1 1 1 1 1 1 1 1 1 1 1 1 1 1 0.010011246420017673 1 1 1 1 1 1 1 1 1 1 1 1 1 1 1 1 1 1 1 1 1 1 1 1 0.0097446595521343722 0.01192638035367035 1 1 1 1 1 1 1 1 1 0.012121918579269714 1 1 1 1 0.0071515718765687002 1 1 0.0085601473582296653 1 1 1 1 1 1 1 1 1 1 0.01009173225617337 1 1 1 1 1 1 1 1 1 1 1 1 1 1 1 1 1 1 1 1 1 1 1 1 1 1 1 1 1 1 1 1 1 1 1 1 1 1 1 1 1 1 1 1 1 1 1 1 1 1 1 0.0099773145536453875 1 1 1 1 1 1 0.0096737849502392687 1 0.01003335586961732 1 1 1 1 1 1 0.009576029243151327 1 1 1 1 1 1 1 1 1 1 1 1 1 0.01180223470689549 1 1 1 1 1 1 1 1 1 1 1 1 1 1 1 1 1 1 1 1 1 1 1 1 1 1 1 1 1 1 1 1 1 1 1 1 1 1 1 1 1 1 1 1 1 1 1 1 1 0.0084363995363941797 1 0.0095729160912603507 1 1 1 1 1 1 1 1 1 1 0.0070083535418664555 1 1 1 0.0098687687197241813 1 1 1 1 1 1 0.0057089550026089009 1 1 1 1 1 0.013369952593270253 1 1 0.013058682280421331 1 1 1 1 1 1 1 1 1 1 1 1 1 0.0095921910623925841 0.014873154250066769 1 1 1 1 1 1 0.011871168023278098 1 1 0.013000852871567718 1 0.0096130095634051806 1 0.010005184177336385 0.011136278345032094 0.0081257603071772377 1 1 1 1 1 1 1 1 0.012693402674750774 1 1 1 1 1 0.010329528525204993 1 1 0.010115564966695191 1 1 1 1 0.012114136342463276 1 1 1 1 1 1 0.01186534286726855 1 1 1 1 1 1 1 1 1 1 1 1 1 0.013709764155893395 1 1 1 0.0099255046258636265 1 1 1 1 1 0.0047815852096180951 1 0.014035998428216116 1 1 1 0.0095967486480025496 1 0.008812781106635666 1 0.011196552835162075 0.010568803820705507 1 0.010001293908528731 1 1 1 1 1 1 1 1 0.0089912537513136999 0.0099743387187325293 1 1 1 1 1 1 1 1 1 1 1 0.0097343717370627341 1 0.0095023460417839132 1 1 1 1 0.0095877938637167915 1 1 1 0.010927941039023326 1 1 0.0082716749093192671 1 0.010414472921703334 1 0.010462163913555858 1 1 0.0099993949388948612 1 1 1 1 1 1 0.010945915745198083 1 1 1 0.010320155646994107 1 1 1 1 1 1 1 0.0098418683116469619 1 1 1 1 1 1 1 1 1 0.01152884381091316 1 1 1 1 1 1 1 1 1 1 1 1 1 0.0078371538910861262 0.0082709185291615812 1 1 1 0.008409396460496741 0.010753779401198468 1 1 1 1 1 1 0.010590385275168555 0.010087404587098 1 1 1 1 1 1 0.0028900845919245383 1 0.0075931098908172175 1 1 0.0078736462488221831 1 1 1 1 0.0085667965647163672 1 1 1 1 1 1 1 1 1 1 1 1 1 1 1 1 1 1 1 1 1 1 1 1 1 1 1 0.010481929707798284 0.010096091743420535 1 0.0089140743373509728 1 0.011498678027077177 1 1 1 1 1 1 1 1 0.0063927873642663771 1 1 0.0096327168469913863 1 1 0.0066400758359399653 1 1 1 1 1 1 1 1 1 1 1 1 1 1 1 1 1 1 1 1 1 1 1 1 1 1 1 1 1 1 1 1 1 0.01249359571216966 1 1 1 1 0.008448192238480156 1 1 0.01213346352078329 1 1 1 1 1 1 1 1 1 0.010371991984286524 1 1 1 1 0.010118069230942533 1 0.0086563353180463681 1 1 1 1 1 1 1 1 1 1 1 1 1 1 1 1 1 1 0.010144251522447618 1 1 1 1 1 1 1 1 1 0.0021445004667705013 1 1 1 1 1 1 1 0.011268863647215551 1 1 1 1 1 1 1 0.013671022098707528 1 0.0040232099104690819 1 1 1 1 1 1 0.010405927588572863 1 1 1 1 0.0022279923508169109 0.0091747014167257029 1 1 0.0057172877623082041 1 0.0062234126419861337 1 1 0.01000776352718083 0.0099737216013454089 1 1 1 0.0080906125959735713 1 1 1 1 1 1 0.0085431028860228596 0.010618754830604151 1 1 1 1 1 1 0.010002858800190364 1 1 1 1 0.0087307647916198064 1 1 1 1 1 1 1 1 0.0072564614473357714 1 1 1 0.010139696065343947 1 1 1 1 1 1 1 1 1 1 0.0023594568749423098 1 1 1 1 1 1 1 1 1 1 1 1 1 1 1 1 1 1 1 1 1 1 1 1 1 1 1 1 1 1 1 1 1 1 1 1 1 1 1 1 1 1 1 1 1 1 1 1 1 1 1 1 1 1 1 1 0.0097677890601425704 1 1 1 1 1 1 1 1 0.010044145063824183 1 1 1 0.010139094486568368 1 1 1 0.0093426796902713032 1 1 1 0.009299602058012793 1 0.0097927197790472365 1 1 1 1 1 1 1 1 1 1 1 1 1 1 1 1 1 1 1 1 1 1 1 1 1 1 1 1 1 1 1 1 1 1 1 1 1 0.0089027387724854787 1 1 0.0099393349311531418 1 1 1 1 1 1 1 1 1 1 0.010406333596045021 1 1 1 1 1 1 1 0.0081874455867735185 1 0.007504349030995474 1 1 1 1 1 1 1 0.010415846360689736 1 1 0.010122784393320006 1 1 0.010409292462961725 1 1 1 1 1 1 1 1 0.010142654932260646 1 1 1 1 1 0.0091251497257910531 0.0062829669057548367 1 1 0.0087756113606667872 1 1 1 0.0099243999643696124 0.0099980910699048551 0.011038783775454492 1 1 1 1 1 1 1 1 0.0092384744782393197 0.010415580123333393 1 0.010513328752459849 1 1 1 0.011123376555105955 1 1 1 0.0067525229320330241 1 1 1 1 0.0086029551543729023 1 0.009475014592951362 1 1 0.010509184379502851 1 1 1 1 1 0.0098240138186727784 1 0.010144515104347886 1 1 1 1 1 1 1 1 1 1 0.010099872495651065 1 0.010332771828211736 1 1 1 1 1 1 1 1 1 1 1 0.01062643931634182 1 0.0099548909299446188 1 1 1 1 0.0084776058615345928 1 1 1 1 1 0.0095844616123976541 1 1 0.0079725959702238031 0.0059290563480680451 1 1 1 0.0099262991298578462 0.0094810967189775715 1 1 1 1 1 1 0.008706630293107644 0.0098681929417639147 1 1 0.0084227348243574446 1 1 1 0.010229142665660921 0.0093402989289607177 1 1 1 0.010944708325998205 1 0.01055869656447544 1 1 0.0098772105170721793 1 1 0.0092110087573791834 1 1 1 0.0071305611275738184 1 1 1 0.0080354974381797624 1 1 1 1 1 1 1 1 1 1 1 1 1 1 0.0103120755666645 1 1 1 1 0.010782163443705603 1 1 1 0.010082911129753871 1 1 1 1 1 1 0.0098750305377811876 1 1 1 1 1 0.0096127872652281756 1 1 1 1 1 1 0.010286359328141913 0.010042982114894768 1 1 1 1 0.010091476883345924 1 1 1 1 1 1 1 0.0099671903394511416 1 0.0067390084860874683 1 1 1 0.0080854001291656829 1 1 0.010486791233386946 0.008205933166707105 1 1 1 0.0094474157019763805 0.00984117160418891 1 1 0.010125535718335549 1 1 0.0094229509800210845 1 0.0094754369308378827 1 0.010042865993920694 1 1 1 1 1 1 1 1 1 1 1 1 1 1 1 1 1 1 1 1 1 1 1 1 1 1 1 1 0.0079095939895366986 1 1 1 0.008437812016621039 1 1 1 1 1 0.0070824583723977201 0.0074773182518628077 1 1 1 1 0.0099590681392211534 1 1 1 1 0.010181516199006105 0.0098807650506370116 0.0082939447716942442 1 1 0.0098983272196045136 1 1 1 1 0.00999697824505082 0.010010845662089317 1 1 1 1 1 0.0082027999479101776 1 1 1 1 1 0.0085502036844933467 0.0074398976890296467 0.0099708342847950934 1 1 1 1 0.0088913513426230849 1 1 1 0.0083602863476221617 0.0098974506637264734 1 1 1 1 1 1 1 1 1 1 1 1 1 0.0058092187797062784 1 1 1 1 1 1 0.0059593647481529146 1 1 1 0.0096589624309046333 1 1 1 1 1 1 1 0.0090182926605641457 1 1 1 1 1 1 1 1 1 0.010816998017652936 0.0056953901909442724 1 1 1 0.0063331702584711966 0.01074809358433613 1 1 0.010008858354291463 1 1 1 0.010378540325576016 1 1 1 1 0.010257820926487471 1 0.0069223907971339756 1 1 1 0.010890468611366302 1 0.0088716044286120919 0.010237037885268216 0.0079495839230181199 1 1 1 1 1 1 1 1 1 1 1 1 1 0.012530063139006941 1 1 1 1 0.0099045248849425234 1 1 1 0.0099728925473832417 1 0.010194117889807628 1 1 1 1 1 1 1 1 1 1 0.0095378269485637025 1 0.0087852925508592489 1 1 1 1 1 1 1 1 0.0095847923771640014 1 1 1 1 1 1 1 1 1 1 1 1 1 1 1 1 0.0084846030557936668 1 1 1 1 1 1 1 1 0.008616360308383253 1 1 0.01005571609881665 1 0.010687488827764777 1 0.010446491842771353 1 1 1 1 1 1 1 0.01075477950228531 1 1 0.010009657946656359 1 1 1 1 1 0.0090739901275327193 1 1 1 1 0.014671176320413369 1 1 0.012679322516867087 1 1 1 1 1 1 0.0096785836500563778 1 1 1 1 0.012330064229965737 1 1 1 1 1 1 1 1 1 1 1 1 1 1 1 1 1 1 1 1 1 1 1 0.010402840614096825 1 1 1 0.0098083254156153352 0.013962953460022662 1 1 1 1 1 0.014248345744266533 0.010001345011494965 1 1 0.011335036298030459 1 1 1 1 1 1 1 1 1 1 1 1 0.0074009515657845228 1 1 0.010176692465084961 1 1 1 1 1 1 1 0.0063730420278226337 1 1 1 1 1 0.0052668621173130141 1 1 0.011302619068805987 1 1 0.0041392629449628175 1 1 1 1 1 1 1 1 1 1 1 1 0.0099258771879211245 1 1 1 1 1 1 1 1 1 1 1 1 0.010050868479180569 1 1 1 1 1 0.005648365368083213 1 1 0.010063328871628193 1 1 1 1 1 1 0.00992676524408833 1 1 1 0.0083023770806734624 1 1 1 1 1 1 1 1 1 0.010005186619050411 1 0.0058020349950932502 1 1 1 1 1 1 1 1 0.0073513192303351262 1 1 1 1 1 1 1 1 1 1 1 1 1 1 1 1 1 1 1 1 1 1 1 1 1 0.0099259560244351636 1 1 1 1 0.0066635988067054765 1 0.0099825802859099515 1 1 1 0.0062345500127218307 1 1 1 0.0089799188084545047 1 1 1 1 1 1 1 1 1 1 0.0091209881811219733 0.0063739220855516861 0.0090222941574286068 1 1 1 1 1 1 1 1 1 1 1 0.0099513211480815184 1 0.0076639253882674428 1 1 0.010009256268496599 1 1 1 1 0.0094995607092889026 1 0.0090162054899001233 0.0096103436340437259 0.0065038879613578482 1 1 1 1 1 1 1 1 0.0061874300110704578 0.0098480480444233295 0.0068600270246331673 1 0.0097228089305976522 1 0.0099612617432463385 1 1 1 1 1 1 1 1 1 1 1 1 0.006544597830131468 1 1 1 1 1 1 0.0098339923490324693 1 1 1 1 1 0.0060021384737801633 1 0.0062644780774104604 1 1 0.0057995441311419985 1 1 0.010009530802836038 1 1 0.0025495819283965788 1 1 1 0.012355370031887615 0.012129286007299308 0.0081341012470671301 1 1 1 1 1 1 0.0026442377041530343 1 1 1 1 1 1 0.0031405969086339431 1 1 1 0.0042061074303327613 1 1 1 1 1 1 1 1 1 1 0.0093543595107290836 1 1 1 1 1 1 1 1 1 1 1 1 1 1 1 1 1 1 1 1 1 1 1 1 1 0.011884466545604667 1 1 1 0.009995076165751543 1 1 1 0.0097275799374205423 0.010633251366053387 1 1 1 1 0.0093988556209524815 1 1 1 1 0.0065889517774451248 1 0.011898322731524519 1 1 1 1 1 0.011927351973391478 1 1 0.010224741292152055 1 0.010749792391687801 1 1 0.011909321032070347 1 1 1 0.011194141056395632 1 0.0099971330787481105 0.0095706864278747982 1 1 0.0092502790747812976 1 1 0.009967904951832687 1 0.0089213357431486041 1 1 1 1 0.0113251929750513 1 1 1 0.0099990656449200441 0.0083713461323955008 1 1 1 0.0090485664943481883 1 1 1 1 1 0.0093751396254613123 1 1 1 1 0.0069562212354743365 1 1 1 0.005554851966058932 1 1 1 1 1 1 1 1 0.0098710841246578314 1 1 1 1 1 1 1 1 1 0.0096350430443991782 1 1 1 1 1 1 1 1 1 1 1 1 1 1 1 1 1 1 1 1 1 1 1 1 1 0.010733200737122925 1 1 1 1 1 1 1 1 1 1 0.011685612757828827 1 1 1 1 1 1 1 1 1 0.010035124630413644 1 0.0099542975890706733 1 1 1 1 1 1 0.0099191729586570188 1 1 1 0.011428717162251698 1 1 1 1 1 0.010597697435325695 1 1 1 1 1 1 1 1 1 1 1 1 1 1 1 1 1 1 1 1 1 1 1 0.0099335806300959398 1 1 1 1 1 1 1 1 1 0.011658100277717688 1 1 1 0.011491242878178792 1 1 1 1 1 0.0110732515326184 1 1 1 1 1 1 1 1 1 1 0.0094117360791696608 1 1 1 1 0.0098545431684387026 1 1 1 0.0099111674299134818 1 1 1 1 0.011254695414704466 1 0.010467988484649457 1 1 1 1 1 1 1 1 1 1 1 1 1 1 1 1 1 1 1 1 1 1 1 1 1 1 1 1 1 1 1 0.010003524148474484 1 1 1 0.0099549656413466421 1 0.0099584897898211226 1 1 1 1 1 1 1 1 1 1 1 1 0.0083544185621931069 1 1 1 1 1 0.010397019814086122 1 1 1 1 1 1 1 1 1 1 1 1 1 1 1 1 1 1 1 1 1 1 0.010428653287055074 1 1 1 0.010365146322450417 1 1 1 0.010156820384396501 1 1 1 1 1 1 1 1 1 1 1 1 0.010118154022422698 1 1 1 1 1 1 1 1 1 1 0.010291223229163895 1 0.010273384373183762 1 1 1 1 1 1 1 1 1 1 1 0.0094351345125602872 1 1 1 0.0092946942284597885 1 1 1 1 1 1 1 1 1 1 1 1 1 0.0097481758862513063 1 1 1 1 1 1 1 1 0.0096019875821927794 1 1 1 0.010409649198599958 1 1 1 1 1 1 1 1 1 1 1 1 1 1 1 1 1 0.0089437487979854031 1 1 1 0.011048719032099174 1 0.01012209718776627 1 1 1 0.010025375509794831 1 1 1 1 1 1 1 1 1 1 1 1 1 1 1 0.0098678773374978133 1 1 0.0098725655257455806 1 1 1 1 1 0.0099382688183436967 1 1 1 1 1 1 1 0.010208346902330185 1 1 1 1 1 1 1 1 0.0095849809810879209 1 1 1 1 1 1 1 1 1 0.010072354023927357 1 1 1 1 1 1 1 1 1 1 1 1 1 0.011054003183143628 1 1 0.0085928460289251291 1 1 1 1 0.0089337718340546587 1 1 1 1 1 1 1 1 1 1 1 1 1 1 1 1 0.010144352153528935 1 1 1 0.010399145595353309 1 1 1 1 1 1 1 1 1 1 0.0099377125436759372 1 1 1 1 1 0.0098654018931483688 1 1 1 1 1 0.0099277246655765476 1 1 1 1 1 1 1 1 1 1 1 0.0095711167668377541 1 1 1 1 1 1 1 0.008983271384358605 1 1 1 1 1 1 1 1 0.010008062233390208 1 1 1 1 1 0.010190006572511132 1 1 1 1 1 1 1 1 1 1 1 1 1 1 1 1 1 1 0.0099318716313440379 0.0099802033259676348 1 1 1 1 1 1 1 0.010013962402463428 1 1 1 1 0.0099786457676147855 0.0096454275409352946 1 1 1 1 1 1 1 1 0.010250349717477117 1 1 0.01078429466367284 1 1 1 1 1 0.009578477830368191 0.010769841493394182 1 1 1 1 1 1 0.0093931446984478941 1 1 1 1 1 0.0099892852953096644 1 0.010255752233649549 1 1 0.01031084604055732 1 1 0.010153432969583166 0.0088965465218397571 1 1 1 1 0.010095566661681899 1 1 1 1 1 1 1 1 1 0.0085523621300094953 1 1 1 1 1 0.010034902780055206 0.0096418150522111241 1 0.010275187158337289 1 1 1 1 1 0.010120682400149215 1 1 1 1 1 1 0.01002588924915793 1 1 1 1 1 1 1 1 1 0.010025391534454062 1 0.0099937346187443914 1 1 0.011561523546194299 1 0.0094026241833050587 1 1 0.010023348323951416 1 1 1 1 1 1 1 0.009089506003467366 1 1 1 1 1 1 1 1 1 1 1 1 1 1 1 1 1 1 1 0.0099488115291830152 1 1 1 1 1 1 1 1 1 1 1 1 1 1 1 1 0.011810294908379239 1 1 1 0.012041748323025315 1 1 0.0097440920993904362 1 1 1 1 1 0.0097414157239939098 1 0.0099663556215279642 1 1 0.010639932264502609 1 1 0.0085501146797057979 1 0.0099837459197612485 1 1 1 1 1 1 1 1 0.0099900007440767765 1 1 1 0.0099940467235391205 0.010367119177193679 1 1 1 1 0.010701390410004959 0.011002005979273657 1 1 1 1 1 1 1 1 1 1 1 1 0.010217229370039438 0.0091948459977555727 1 1 1 0.010023400116684567 1 1 1 0.01001063455316625 1 1 1 1 1 1 1 0.011227070817046225 1 0.0088097109518084759 1 1 0.0099979905604766477 1 1 1 1 1 0.0085157865587788921 1 1 1 1 0.012167138454382755 0.015031753061650442 1 1 1 1 1 0.0079027639058473348 1 1 1 1 1 0.01105230577882349 1 1 1 1 1 1 1 1 0.0098121502100874652 1 1 1 0.010033926428910645 0.0082151684235839406 1 1 1 1 1 1 1 0.0098374510948384154 1 1 1 1 0.0096471514715687837 1 0.0096767825198285935 1 1 1 1 1 0.010181519775570804 1 1 1 1 1 1 1 1 1 0.010460682569370834 1 1 1 0.010084985752528395 1 1 1 1 1 0.018648311543454022 1 1 1 1 1 1 1 1 1 1 1 1 1 1 0.018008750951233676 1 0.018417165907528267 1 1 1 1 1 1 1 1 0.0089098359078545152 1 1 1 0.0060005347258662023 1 0.01338166781183679 1 0.014889789441977387 1 1 0.014532164588872206 1 1 1 1 1 1 0.0065324444004622971 1 1 1 1 1 1 0.0098582250677313361 1 1 1 1 1 1 1 1 1 1 1 1 1 1 0.0072331097237089345 0.010003329882348569 1 1 1 1 1 1 1 1 0.0099949453502320568 1 1 1 1 0.0099474096733128386 1 1 1 0.010643491416016296 1 1 1 1 1 1 1 1 1 0.010174009002445663 1 1 1 1 0.011670387983401712 1 1 1 1 1 1 1 0.012564270111989632 1 1 1 1 1 0.010807450853338271 1 1 1 0.0099989187295226531 1 1 1 1 1 1 1 1 1 1 1 1 0.010325629485230014 1 1 1 1 1 1 0.0099184850085029669 1 1 1 1 1 1 1 1 1 1 1 1 0.010350793312852385 1 1 0.0097931678560126047 1 1 1 1 1 1 0.0098746828475096381 1 0.010176784310406722 1 1 1 1 1 1 1 0.010041700467931075 1 0.016752113066642829 1 1 1 1 1 1 1 1 1 1 1 1 1 1 0.010017202671548871 1 1 1 1 1 1 1 1 1 1 1 1 0.0098702602510141648 1 1 1 1 1 1 1 1 1 0.009648770244662425 1 1 1 0.015666590574949697 1 1 1 1 1 1 1 1 1 1 0.010008593966829682 1 1 1 1 1 1 0.010016761804516707 1 1 1 1 0.010077360215869363 1 1 1 1 0.0099997549734613164 1 0.0070099258326587121 1 0.0088680230739171442 1 1 0.0085489729770528954 1 1 0.010017307422778093 1 1 0.0085933028693741965 1 0.0090611936642288927 0.010079275539985999 1 1 0.0084890045248017226 1 1 1 1 1 0.010063266385287388 1 1 1 1 1 1 1 1 1 0.0098433139063059463 1 1 1 1 1 1 1 0.0098853168487817184 0.0095412509184263812 1 1 1 1 1 1 1 1 1 1 1 0.0085349146582649749 0.0097888429643872826 1 1 0.0086833362077084753 0.010772652101396822 1 1 0.0078781091426752877 1 1 1 1 1 1 1 1 1 1 1 0.010159443428573917 1 1 0.010489717420699879 1 1 1 1 1 1 1 1 1 1 1 1 1 1 1 1 0.0095969809078009592 1 1 1 1 1 1 1 1 1 0.0098527907953380889 1 1 0.010011150732657674 1 0.013276541474223564 0.0078265222181570625 1 0.0078868643537571177 1 0.010239110205019084 1 1 1 0.0079906430710132391 0.012283454083790921 1 1 1 1 1 1 0.0091455248593793528 0.012779300165572846 1 1 0.0093131785043275277 1 1 1 0.0067764556579655967 1 1 1 1 0.013593421127422232 1 1 1 1 1 1 1 1 1 0.011837380184874974 1 0.01000210427488799 1 1 1 1 0.0067153016181327393 0.0099206168806049589 1 1 1 1 1 1 1 1 1 1 1 1 1 1 1 1 1 1 1 1 1 0.0099890731831862069 1 0.0096924754242715318 1 1 1 1 1 1 1 1 1 1 0.0084928587826418218 0.007107658036316078 1 1 1 1 1 0.013686268122006667 1 0.010367284721980688 1 1 0.009155359404073117 1 0.012411134653951194 1 1 0.010094477839678182 0.010415948383142609 1 1 1 1 0.0061722795671177912 1 1 0.0072179099351628133 1 1 1 1 1 1 0.013110417693877337 1 1 1 1 1 1 1 0.013566863803768396 1 1 1 1 1 1 1 1 1 1 0.0099456197113678129 0.0099773171331582252 1 1 1 1 1 1 1 1 1 1 1 0.010824488468681217 1 1 0.010099543506206034 0.0089545059224583751 0.0098397493615357302 0.0099989535522550851 1 1 1 1 1 1 1 1 1 1 1 1 1 1 1 1 1 1 0.0099820521580270515 1 1 1 1 1 1 1 1 1 1 1 1 1 1 1 1 1 1 1 1 1 1 1 1 1 1 1 1 1 1 1 1 1 1 1 1 1 1 1 1 1 1 0.010175998102832078 1 1 1 1 1 0.010455160896632103 1 1 1 0.010841698476011151 1 1 1 1 1 1 1 1 1 1 1 1 1 1 1 1 0.0096244036802701129 1 1 1 0.0088149517282241786 1 0.018684877014128534 1 1 1 0.0079846961200636668 1 1 1 1 1 0.011822210022490148 1 1 0.012922135865432956 1 1 1 1 0.012136657786725145 1 1 0.010585058249329845 1 1 
</DataArray>
</CellData>
</Piece>
</UnstructuredGrid>
</VTKFile>
